 Entering Gaussian System, Link 0=g16
 Initial command:
 /path/to/gaussian "/path/to/scratch/inp" -scrdir="/path/to/scratch/"
 Entering Link 1 = /path/to/gaussian PID=   1716556.
  
 Copyright (c) 1988-2021, Gaussian, Inc.  All Rights Reserved.
  
 This is part of the Gaussian(R) 16 program.  It is based on
 the Gaussian(R) 09 system (copyright 2009, Gaussian, Inc.),
 the Gaussian(R) 03 system (copyright 2003, Gaussian, Inc.),
 the Gaussian(R) 98 system (copyright 1998, Gaussian, Inc.),
 the Gaussian(R) 94 system (copyright 1995, Gaussian, Inc.),
 the Gaussian 92(TM) system (copyright 1992, Gaussian, Inc.),
 the Gaussian 90(TM) system (copyright 1990, Gaussian, Inc.),
 the Gaussian 88(TM) system (copyright 1988, Gaussian, Inc.),
 the Gaussian 86(TM) system (copyright 1986, Carnegie Mellon
 University), and the Gaussian 82(TM) system (copyright 1983,
 Carnegie Mellon University). Gaussian is a federally registered
 trademark of Gaussian, Inc.
  
 This software contains proprietary and confidential information,
 including trade secrets, belonging to Gaussian, Inc.
  
 This software is provided under written license and may be
 used, copied, transmitted, or stored only in accord with that
 written license.
  
 The following legend is applicable only to US Government
 contracts under FAR:
  
                    RESTRICTED RIGHTS LEGEND
  
 Use, reproduction and disclosure by the US Government is
 subject to restrictions as set forth in subparagraphs (a)
 and (c) of the Commercial Computer Software - Restricted
 Rights clause in FAR 52.227-19.
  
 Gaussian, Inc.
 340 Quinnipiac St., Bldg. 40, Wallingford CT 06492
  
  
 ---------------------------------------------------------------
 Warning -- This program may not be used in any manner that
 competes with the business of Gaussian, Inc. or will provide
 assistance to any competitor of Gaussian, Inc.  The licensee
 of this program is prohibited from giving any competitor of
 Gaussian, Inc. access to this program.  By using this program,
 the user acknowledges that Gaussian, Inc. is engaged in the
 business of creating and licensing software in the field of
 computational chemistry and represents and warrants to the
 licensee that it is not a competitor of Gaussian, Inc. and that
 it will not use this program in any manner prohibited above.
 ---------------------------------------------------------------
  

 Cite this work as:
 Gaussian 16, Revision C.02,
 M. J. Frisch, G. W. Trucks, H. B. Schlegel, G. E. Scuseria, 
 M. A. Robb, J. R. Cheeseman, G. Scalmani, V. Barone, 
 G. A. Petersson, H. Nakatsuji, X. Li, M. Caricato, A. V. Marenich, 
 J. Bloino, B. G. Janesko, R. Gomperts, B. Mennucci, H. P. Hratchian, 
 J. V. Ortiz, A. F. Izmaylov, J. L. Sonnenberg, D. Williams-Young, 
 F. Ding, F. Lipparini, F. Egidi, J. Goings, B. Peng, A. Petrone, 
 T. Henderson, D. Ranasinghe, V. G. Zakrzewski, J. Gao, N. Rega, 
 G. Zheng, W. Liang, M. Hada, M. Ehara, K. Toyota, R. Fukuda, 
 J. Hasegawa, M. Ishida, T. Nakajima, Y. Honda, O. Kitao, H. Nakai, 
 T. Vreven, K. Throssell, J. A. Montgomery, Jr., J. E. Peralta, 
 F. Ogliaro, M. J. Bearpark, J. J. Heyd, E. N. Brothers, K. N. Kudin, 
 V. N. Staroverov, T. A. Keith, R. Kobayashi, J. Normand, 
 K. Raghavachari, A. P. Rendell, J. C. Burant, S. S. Iyengar, 
 J. Tomasi, M. Cossi, J. M. Millam, M. Klene, C. Adamo, R. Cammi, 
 J. W. Ochterski, R. L. Martin, K. Morokuma, O. Farkas, 
 J. B. Foresman, and D. J. Fox, Gaussian, Inc., Wallingford CT, 2019.
 
 ******************************************
 Gaussian 16:  ES64L-G16RevC.02  7-Dec-2021
                 2-Dec-2025 
 ******************************************
 %mem=8000MB
 %nprocshared=8
 Will use up to    8 processors via shared memory.
 --------------------------------------------------------
 # opt=calcfc freq bp86 def2svp empiricaldispersion=GD3BJ
 --------------------------------------------------------
 1/10=4,18=20,19=15,26=3,38=1/1,3;
 2/9=110,12=2,17=6,18=5,40=1/2;
 3/5=43,7=101,11=2,25=1,30=1,71=2,74=404,124=41,140=1/1,2,3;
 4//1;
 5/5=2,38=5/2;
 8/6=4,10=90,11=11/1;
 11/6=1,8=1,9=11,15=111,16=1/1,2,10;
 10/6=1,13=1/2;
 6/7=2,8=2,9=2,10=2,28=1/1;
 7/10=1,25=1/1,2,3,16;
 1/10=4,18=20,19=15,26=3/3(2);
 2/9=110/2;
 99//99;
 2/9=110/2;
 3/5=43,7=101,11=2,25=1,30=1,71=1,74=404,124=41/1,2,3;
 4/5=5,16=3,69=1/1;
 5/5=2,38=5/2;
 7//1,2,3,16;
 1/18=20,19=15,26=3/3(-5);
 2/9=110/2;
 6/7=2,8=2,9=2,10=2,19=2,28=1/1;
 99/9=1/99;
 -------
 example
 -------
 Symbolic Z-matrix:
 Charge =  0 Multiplicity = 1
 C                    -0.73198   1.56696  -2.05449 
 C                    -1.47069   0.75834  -1.02314 
 C                    -2.86661   0.7407   -0.99646 
 C                    -3.55975   0.02796  -0.02377 
 C                    -2.8726   -0.685     0.95061 
 C                    -1.48991  -0.66513   0.91355 
 F                    -0.81384  -1.35738   1.85224 
 C                    -0.75915   0.02814  -0.04921 
 C                     0.72195  -0.01155  -0.03432 
 C                     1.43605  -0.72566  -1.00872 
 O                     0.7902   -1.43162  -1.97778 
 C                     2.82959  -0.74004  -1.01461 
 C                     3.5227   -0.04839  -0.03142 
 C                     2.85035   0.65618   0.96401 
 C                     1.46814   0.64991   0.93545 
 F                     0.79604   1.33457   1.88577 
 H                     0.02234   2.20365  -1.58145 
 H                    -0.20124   0.92681  -2.76857 
 H                    -1.42248   2.20043  -2.61562 
 H                    -3.41662   1.30712  -1.74246 
 H                    -4.64561   0.03188  -0.01892 
 H                    -3.38207  -1.24588   1.72675 
 H                    -0.16118  -1.402    -1.79689 
 H                     3.34621  -1.30387  -1.78363 
 H                     4.60833  -0.06228  -0.0336 
 H                     3.37218   1.19744   1.74481 
 

 GradGradGradGradGradGradGradGradGradGradGradGradGradGradGradGradGradGrad
 Berny optimization.
 Initialization pass.
                           ----------------------------
                           !    Initial Parameters    !
                           ! (Angstroms and Degrees)  !
 --------------------------                            --------------------------
 ! Name  Definition              Value          Derivative Info.                !
 --------------------------------------------------------------------------------
 ! R1    R(1,2)                  1.5044         calculate D2E/DX2 analytically  !
 ! R2    R(1,17)                 1.0946         calculate D2E/DX2 analytically  !
 ! R3    R(1,18)                 1.0961         calculate D2E/DX2 analytically  !
 ! R4    R(1,19)                 1.0922         calculate D2E/DX2 analytically  !
 ! R5    R(2,3)                  1.3963         calculate D2E/DX2 analytically  !
 ! R6    R(2,8)                  1.41           calculate D2E/DX2 analytically  !
 ! R7    R(3,4)                  1.3909         calculate D2E/DX2 analytically  !
 ! R8    R(3,20)                 1.0862         calculate D2E/DX2 analytically  !
 ! R9    R(4,5)                  1.3892         calculate D2E/DX2 analytically  !
 ! R10   R(4,21)                 1.0859         calculate D2E/DX2 analytically  !
 ! R11   R(5,6)                  1.3833         calculate D2E/DX2 analytically  !
 ! R12   R(5,22)                 1.0847         calculate D2E/DX2 analytically  !
 ! R13   R(6,7)                  1.3481         calculate D2E/DX2 analytically  !
 ! R14   R(6,8)                  1.3934         calculate D2E/DX2 analytically  !
 ! R15   R(8,9)                  1.4817         calculate D2E/DX2 analytically  !
 ! R16   R(9,10)                 1.4033         calculate D2E/DX2 analytically  !
 ! R17   R(9,15)                 1.391          calculate D2E/DX2 analytically  !
 ! R18   R(10,11)                1.3618         calculate D2E/DX2 analytically  !
 ! R19   R(10,12)                1.3936         calculate D2E/DX2 analytically  !
 ! R20   R(11,23)                0.9689         calculate D2E/DX2 analytically  !
 ! R21   R(12,13)                1.3876         calculate D2E/DX2 analytically  !
 ! R22   R(12,24)                1.0845         calculate D2E/DX2 analytically  !
 ! R23   R(13,14)                1.3926         calculate D2E/DX2 analytically  !
 ! R24   R(13,25)                1.0857         calculate D2E/DX2 analytically  !
 ! R25   R(14,15)                1.3825         calculate D2E/DX2 analytically  !
 ! R26   R(14,26)                1.0839         calculate D2E/DX2 analytically  !
 ! R27   R(15,16)                1.3504         calculate D2E/DX2 analytically  !
 ! A1    A(2,1,17)             110.7787         calculate D2E/DX2 analytically  !
 ! A2    A(2,1,18)             111.744          calculate D2E/DX2 analytically  !
 ! A3    A(2,1,19)             110.7026         calculate D2E/DX2 analytically  !
 ! A4    A(17,1,18)            106.7122         calculate D2E/DX2 analytically  !
 ! A5    A(17,1,19)            108.6842         calculate D2E/DX2 analytically  !
 ! A6    A(18,1,19)            108.0688         calculate D2E/DX2 analytically  !
 ! A7    A(1,2,3)              120.7166         calculate D2E/DX2 analytically  !
 ! A8    A(1,2,8)              120.2719         calculate D2E/DX2 analytically  !
 ! A9    A(3,2,8)              118.9978         calculate D2E/DX2 analytically  !
 ! A10   A(2,3,4)              121.2016         calculate D2E/DX2 analytically  !
 ! A11   A(2,3,20)             119.1112         calculate D2E/DX2 analytically  !
 ! A12   A(4,3,20)             119.6813         calculate D2E/DX2 analytically  !
 ! A13   A(3,4,5)              120.4642         calculate D2E/DX2 analytically  !
 ! A14   A(3,4,21)             119.9739         calculate D2E/DX2 analytically  !
 ! A15   A(5,4,21)             119.5607         calculate D2E/DX2 analytically  !
 ! A16   A(4,5,6)              117.9202         calculate D2E/DX2 analytically  !
 ! A17   A(4,5,22)             122.3394         calculate D2E/DX2 analytically  !
 ! A18   A(6,5,22)             119.7404         calculate D2E/DX2 analytically  !
 ! A19   A(5,6,7)              118.3746         calculate D2E/DX2 analytically  !
 ! A20   A(5,6,8)              123.3578         calculate D2E/DX2 analytically  !
 ! A21   A(7,6,8)              118.2667         calculate D2E/DX2 analytically  !
 ! A22   A(2,8,6)              118.0515         calculate D2E/DX2 analytically  !
 ! A23   A(2,8,9)              121.6859         calculate D2E/DX2 analytically  !
 ! A24   A(6,8,9)              120.2626         calculate D2E/DX2 analytically  !
 ! A25   A(8,9,10)             121.0174         calculate D2E/DX2 analytically  !
 ! A26   A(8,9,15)             122.0396         calculate D2E/DX2 analytically  !
 ! A27   A(10,9,15)            116.943          calculate D2E/DX2 analytically  !
 ! A28   A(9,10,11)            121.1014         calculate D2E/DX2 analytically  !
 ! A29   A(9,10,12)            121.1316         calculate D2E/DX2 analytically  !
 ! A30   A(11,10,12)           117.7666         calculate D2E/DX2 analytically  !
 ! A31   A(10,11,23)           108.4811         calculate D2E/DX2 analytically  !
 ! A32   A(10,12,13)           119.4286         calculate D2E/DX2 analytically  !
 ! A33   A(10,12,24)           118.992          calculate D2E/DX2 analytically  !
 ! A34   A(13,12,24)           121.5751         calculate D2E/DX2 analytically  !
 ! A35   A(12,13,14)           121.1643         calculate D2E/DX2 analytically  !
 ! A36   A(12,13,25)           119.4503         calculate D2E/DX2 analytically  !
 ! A37   A(14,13,25)           119.384          calculate D2E/DX2 analytically  !
 ! A38   A(13,14,15)           117.7511         calculate D2E/DX2 analytically  !
 ! A39   A(13,14,26)           122.3514         calculate D2E/DX2 analytically  !
 ! A40   A(15,14,26)           119.8975         calculate D2E/DX2 analytically  !
 ! A41   A(9,15,14)            123.5656         calculate D2E/DX2 analytically  !
 ! A42   A(9,15,16)            117.6936         calculate D2E/DX2 analytically  !
 ! A43   A(14,15,16)           118.7349         calculate D2E/DX2 analytically  !
 ! D1    D(17,1,2,3)           129.0915         calculate D2E/DX2 analytically  !
 ! D2    D(17,1,2,8)           -49.5479         calculate D2E/DX2 analytically  !
 ! D3    D(18,1,2,3)          -112.062          calculate D2E/DX2 analytically  !
 ! D4    D(18,1,2,8)            69.2987         calculate D2E/DX2 analytically  !
 ! D5    D(19,1,2,3)             8.4485         calculate D2E/DX2 analytically  !
 ! D6    D(19,1,2,8)          -170.1908         calculate D2E/DX2 analytically  !
 ! D7    D(1,2,3,4)           -178.11           calculate D2E/DX2 analytically  !
 ! D8    D(1,2,3,20)             1.0001         calculate D2E/DX2 analytically  !
 ! D9    D(8,2,3,4)              0.5465         calculate D2E/DX2 analytically  !
 ! D10   D(8,2,3,20)           179.6566         calculate D2E/DX2 analytically  !
 ! D11   D(1,2,8,6)            177.6872         calculate D2E/DX2 analytically  !
 ! D12   D(1,2,8,9)             -2.2856         calculate D2E/DX2 analytically  !
 ! D13   D(3,2,8,6)             -0.9754         calculate D2E/DX2 analytically  !
 ! D14   D(3,2,8,9)            179.0518         calculate D2E/DX2 analytically  !
 ! D15   D(2,3,4,5)              0.1137         calculate D2E/DX2 analytically  !
 ! D16   D(2,3,4,21)           179.7067         calculate D2E/DX2 analytically  !
 ! D17   D(20,3,4,5)          -178.9913         calculate D2E/DX2 analytically  !
 ! D18   D(20,3,4,21)            0.6016         calculate D2E/DX2 analytically  !
 ! D19   D(3,4,5,6)             -0.3139         calculate D2E/DX2 analytically  !
 ! D20   D(3,4,5,22)           179.6061         calculate D2E/DX2 analytically  !
 ! D21   D(21,4,5,6)          -179.9085         calculate D2E/DX2 analytically  !
 ! D22   D(21,4,5,22)            0.0115         calculate D2E/DX2 analytically  !
 ! D23   D(4,5,6,7)           -179.7917         calculate D2E/DX2 analytically  !
 ! D24   D(4,5,6,8)             -0.1561         calculate D2E/DX2 analytically  !
 ! D25   D(22,5,6,7)             0.2861         calculate D2E/DX2 analytically  !
 ! D26   D(22,5,6,8)           179.9217         calculate D2E/DX2 analytically  !
 ! D27   D(5,6,8,2)              0.8046         calculate D2E/DX2 analytically  !
 ! D28   D(5,6,8,9)           -179.2222         calculate D2E/DX2 analytically  !
 ! D29   D(7,6,8,2)           -179.5594         calculate D2E/DX2 analytically  !
 ! D30   D(7,6,8,9)              0.4138         calculate D2E/DX2 analytically  !
 ! D31   D(2,8,9,10)           -71.6196         calculate D2E/DX2 analytically  !
 ! D32   D(2,8,9,15)           108.374          calculate D2E/DX2 analytically  !
 ! D33   D(6,8,9,10)           108.4082         calculate D2E/DX2 analytically  !
 ! D34   D(6,8,9,15)           -71.5982         calculate D2E/DX2 analytically  !
 ! D35   D(8,9,10,11)           -1.6739         calculate D2E/DX2 analytically  !
 ! D36   D(8,9,10,12)          178.5478         calculate D2E/DX2 analytically  !
 ! D37   D(15,9,10,11)         178.3322         calculate D2E/DX2 analytically  !
 ! D38   D(15,9,10,12)          -1.4461         calculate D2E/DX2 analytically  !
 ! D39   D(8,9,15,14)         -178.6641         calculate D2E/DX2 analytically  !
 ! D40   D(8,9,15,16)            0.4356         calculate D2E/DX2 analytically  !
 ! D41   D(10,9,15,14)           1.3297         calculate D2E/DX2 analytically  !
 ! D42   D(10,9,15,16)        -179.5706         calculate D2E/DX2 analytically  !
 ! D43   D(9,10,11,23)          -5.32           calculate D2E/DX2 analytically  !
 ! D44   D(12,10,11,23)        174.4656         calculate D2E/DX2 analytically  !
 ! D45   D(9,10,12,13)           0.7153         calculate D2E/DX2 analytically  !
 ! D46   D(9,10,12,24)         179.9722         calculate D2E/DX2 analytically  !
 ! D47   D(11,10,12,13)       -179.0702         calculate D2E/DX2 analytically  !
 ! D48   D(11,10,12,24)          0.1867         calculate D2E/DX2 analytically  !
 ! D49   D(10,12,13,14)          0.2261         calculate D2E/DX2 analytically  !
 ! D50   D(10,12,13,25)        179.7829         calculate D2E/DX2 analytically  !
 ! D51   D(24,12,13,14)       -179.011          calculate D2E/DX2 analytically  !
 ! D52   D(24,12,13,25)          0.5459         calculate D2E/DX2 analytically  !
 ! D53   D(12,13,14,15)         -0.3659         calculate D2E/DX2 analytically  !
 ! D54   D(12,13,14,26)        179.5858         calculate D2E/DX2 analytically  !
 ! D55   D(25,13,14,15)       -179.9231         calculate D2E/DX2 analytically  !
 ! D56   D(25,13,14,26)          0.0287         calculate D2E/DX2 analytically  !
 ! D57   D(13,14,15,9)          -0.4449         calculate D2E/DX2 analytically  !
 ! D58   D(13,14,15,16)       -179.5358         calculate D2E/DX2 analytically  !
 ! D59   D(26,14,15,9)         179.6021         calculate D2E/DX2 analytically  !
 ! D60   D(26,14,15,16)          0.5112         calculate D2E/DX2 analytically  !
 --------------------------------------------------------------------------------
 Trust Radius=3.00D-01 FncErr=1.00D-07 GrdErr=1.00D-06 EigMax=2.50D+02 EigMin=1.00D-04
 Number of steps in this run=    140 maximum allowed number of steps=    156.
 GradGradGradGradGradGradGradGradGradGradGradGradGradGradGradGradGradGrad

                          Input orientation:                          
 ---------------------------------------------------------------------
 Center     Atomic      Atomic             Coordinates (Angstroms)
 Number     Number       Type             X           Y           Z
 ---------------------------------------------------------------------
      1          6           0       -0.731982    1.566964   -2.054493
      2          6           0       -1.470690    0.758335   -1.023142
      3          6           0       -2.866612    0.740695   -0.996456
      4          6           0       -3.559745    0.027957   -0.023773
      5          6           0       -2.872603   -0.684997    0.950608
      6          6           0       -1.489915   -0.665131    0.913547
      7          9           0       -0.813837   -1.357382    1.852243
      8          6           0       -0.759145    0.028142   -0.049213
      9          6           0        0.721949   -0.011548   -0.034317
     10          6           0        1.436047   -0.725664   -1.008721
     11          8           0        0.790197   -1.431619   -1.977779
     12          6           0        2.829586   -0.740041   -1.014606
     13          6           0        3.522699   -0.048391   -0.031424
     14          6           0        2.850353    0.656178    0.964007
     15          6           0        1.468136    0.649915    0.935448
     16          9           0        0.796035    1.334574    1.885772
     17          1           0        0.022344    2.203645   -1.581449
     18          1           0       -0.201239    0.926806   -2.768566
     19          1           0       -1.422484    2.200425   -2.615624
     20          1           0       -3.416622    1.307120   -1.742462
     21          1           0       -4.645611    0.031882   -0.018923
     22          1           0       -3.382071   -1.245879    1.726753
     23          1           0       -0.161181   -1.402004   -1.796893
     24          1           0        3.346211   -1.303870   -1.783631
     25          1           0        4.608330   -0.062275   -0.033600
     26          1           0        3.372175    1.197444    1.744806
 ---------------------------------------------------------------------
                    Distance matrix (angstroms):
                    1          2          3          4          5
     1  C    0.000000
     2  C    1.504413   0.000000
     3  C    2.521668   1.396288   0.000000
     4  C    3.806391   2.428238   1.390878   0.000000
     5  C    4.322525   2.818555   2.413232   1.389203   0.000000
     6  C    3.790247   2.403620   2.742216   2.375529   1.383327
     7  F    4.880686   3.629814   4.090342   3.602584   2.345967
     8  C    2.527818   1.409970   2.417937   2.800716   2.444363
     9  C    2.947326   2.525502   3.790692   4.281890   3.787402
    10  C    3.324174   3.263676   4.545683   5.147427   4.733401
    11  O    3.363691   3.289201   4.365111   4.987034   4.748578
    12  C    4.369028   4.553854   5.885540   6.511154   6.031588
    13  C    4.980411   5.154439   6.509780   7.082860   6.501502
    14  C    4.772212   4.757164   6.044356   6.516113   5.878022
    15  C    3.823774   3.533345   4.746634   5.156212   4.541391
    16  F    4.232556   3.732543   4.698394   4.932183   4.290933
    17  H    1.094597   2.151693   3.290670   4.471168   4.810019
    18  H    1.096080   2.164809   3.206123   4.429604   4.854518
    19  H    1.092215   2.148941   2.614961   4.000649   4.811082
    20  H    2.715174   2.145981   1.086220   2.147239   3.393687
    21  H    4.670815   3.408271   2.150075   1.085883   2.144169
    22  H    5.406744   3.902841   3.409991   2.172226   1.084688
    23  H    3.034295   2.642077   3.542769   4.091331   3.926152
    24  H    4.994668   5.294674   6.587796   7.250041   6.821489
    25  H    5.937791   6.213460   7.579354   8.168579   7.571050
    26  H    5.604938   5.595328   6.829758   7.248937   6.570508
                    6          7          8          9         10
     6  C    0.000000
     7  F    1.348126   0.000000
     8  C    1.393398   2.353339   0.000000
     9  C    2.493583   2.780111   1.481701   0.000000
    10  C    3.501433   3.694071   2.511523   1.403339   0.000000
    11  O    3.761141   4.153012   2.872409   2.407967   1.361825
    12  C    4.730906   4.677015   3.794876   2.435940   1.393626
    13  C    5.138057   4.905834   4.282564   2.800993   2.401651
    14  C    4.537216   4.274304   3.801252   2.443893   2.793100
    15  C    3.237266   3.174454   2.513352   1.390961   2.381815
    16  F    3.188982   3.136789   2.805266   2.346119   3.610026
    17  H    4.091676   5.017007   2.773318   2.791084   3.302640
    18  H    4.213420   5.190826   2.917831   3.034617   2.916919
    19  H    4.546537   5.743716   3.427142   4.019274   4.394922
    20  H    3.828362   5.176482   3.400744   4.667377   5.312154
    21  H    3.363590   4.484841   3.886585   5.367757   6.208070
    22  H    2.139819   2.573714   3.414224   4.633349   5.564863
    23  H    3.107249   3.707310   2.336078   2.412459   1.905200
    24  H    5.574125   5.525256   4.651495   3.408364   2.140919
    25  H    6.200735   5.885032   5.368259   3.886712   3.384424
    26  H    5.272579   4.905240   4.653341   3.413303   3.876706
                   11         12         13         14         15
    11  O    0.000000
    12  C    2.359045   0.000000
    13  C    3.628800   1.387600   0.000000
    14  C    4.154184   2.421729   1.392605   0.000000
    15  C    3.644074   2.754675   2.375647   1.382526   0.000000
    16  F    4.751725   4.105064   3.608729   2.351615   1.350405
    17  H    3.736552   4.106971   4.441478   4.107510   3.292289
    18  H    2.677771   3.878228   4.723417   4.828825   4.072248
    19  H    4.300529   5.411996   6.015821   5.784081   4.834240
    20  H    5.025275   6.613301   7.274560   6.857381   5.609276
    21  H    5.960449   7.580621   8.168713   7.585866   6.218576
    22  H    5.582640   6.808495   7.225026   6.560694   5.267324
    23  H    0.968874   3.161464   4.303501   4.574715   3.785595
    24  H    2.566558   1.084529   2.162777   3.411331   3.838988
    25  H    4.498119   2.141417   1.085722   2.145199   3.362601
    26  H    5.237960   3.415056   2.174800   1.083935   2.140143
                   16         17         18         19         20
    16  F    0.000000
    17  H    3.657254   0.000000
    18  H    4.777415   1.757713   0.000000
    19  H    5.092552   1.776811   1.771141   0.000000
    20  H    5.559794   3.557551   3.396501   2.353081   0.000000
    21  H    5.910700   5.380321   5.302252   4.672684   2.471282
    22  H    4.913308   5.868003   5.919978   5.879900   4.307488
    23  H    4.686912   3.616739   2.523709   3.903678   4.235588
    24  H    5.189345   4.836489   4.304696   5.976015   7.249474
    25  H    4.490965   5.344296   5.620522   6.939552   8.318371
    26  H    2.583635   4.826778   5.763078   6.558055   7.632878
                   21         22         23         24         25
    21  H    0.000000
    22  H    2.505312   0.000000
    23  H    5.032625   4.776461   0.000000
    24  H    8.292626   7.589198   3.508790   0.000000
    25  H    9.254431   8.267180   5.258546   2.489399   0.000000
    26  H    8.291813   7.182617   5.637851   4.325172   2.505534
                   26
    26  H    0.000000
 Stoichiometry    C13H10F2O
 Framework group  C1[X(C13H10F2O)]
 Deg. of freedom    72
 Full point group                 C1      NOp   1
 Largest Abelian subgroup         C1      NOp   1
 Largest concise Abelian subgroup C1      NOp   1
                         Standard orientation:                         
 ---------------------------------------------------------------------
 Center     Atomic      Atomic             Coordinates (Angstroms)
 Number     Number       Type             X           Y           Z
 ---------------------------------------------------------------------
      1          6           0       -0.751515    2.098592    1.405897
      2          6           0       -1.474272    1.011687    0.657887
      3          6           0       -2.869675    0.976725    0.622556
      4          6           0       -3.548478   -0.044995   -0.033077
      5          6           0       -2.847148   -1.061347   -0.669512
      6          6           0       -1.465052   -1.015953   -0.632840
      7          9           0       -0.775231   -1.995374   -1.251165
      8          6           0       -0.748297   -0.005242    0.004564
      9          6           0        0.733262   -0.015167   -0.013325
     10          6           0        1.453417    0.912936   -0.781025
     11          8           0        0.813680    1.829278   -1.559242
     12          6           0        2.846982    0.924990   -0.776276
     13          6           0        3.534240   -0.006160   -0.010724
     14          6           0        2.856057   -0.955666    0.749443
     15          6           0        1.473964   -0.934676    0.721955
     16          9           0        0.796122   -1.840508    1.459243
     17          1           0       -0.004397    1.673069    2.083308
     18          1           0       -0.214664    2.770957    0.726848
     19          1           0       -1.453341    2.697291    1.990648
     20          1           0       -3.430838    1.756120    1.130014
     21          1           0       -4.634258   -0.055139   -0.044021
     22          1           0       -3.345298   -1.875873   -1.184238
     23          1           0       -0.137259    1.645903   -1.530888
     24          1           0        3.368396    1.657216   -1.383051
     25          1           0        4.619940    0.000649   -0.009541
     26          1           0        3.373347   -1.695826    1.349017
 ---------------------------------------------------------------------
 Rotational constants (GHZ):           0.8897320           0.4438647           0.3854044
 Standard basis: def2SVP (5D, 7F)
 There are   290 symmetry adapted cartesian basis functions of A   symmetry.
 There are   274 symmetry adapted basis functions of A   symmetry.
   274 basis functions,   470 primitive gaussians,   290 cartesian basis functions
    57 alpha electrons       57 beta electrons
       nuclear repulsion energy      1087.6576590677 Hartrees.
 NAtoms=   26 NActive=   26 NUniq=   26 SFac= 1.00D+00 NAtFMM=   60 NAOKFM=F Big=F
 Integral buffers will be    131072 words long.
 Raffenetti 2 integral format.
 Two-electron integral symmetry is turned on.
 Nuclear repulsion after empirical dispersion term =     1087.6041349975 Hartrees.
 One-electron integrals computed using PRISM.
   1 Symmetry operations used in ECPInt.
 ECPInt:  NShTT=    8001 NPrTT=   29641 LenC2=    7682 LenP2D=   20708.
 LDataN:  DoStor=T MaxTD1= 4 Len=   56
 NBasis=   274 RedAO= T EigKep=  2.07D-04  NBF=   274
 NBsUse=   274 1.00D-06 EigRej= -1.00D+00 NBFU=   274
 ExpMin= 1.22D-01 ExpMax= 2.89D+03 ExpMxC= 4.35D+02 IAcc=3 IRadAn=         5 AccDes= 0.00D+00
 Harris functional with IExCor=  404 and IRadAn=       5 diagonalized for initial guess.
 HarFok:  IExCor=  404 AccDes= 0.00D+00 IRadAn=         5 IDoV= 1 UseB2=F ITyADJ=14
 ICtDFT=  3500011 ScaDFX=  1.000000  1.000000  1.000000  1.000000
 FoFCou: FMM=F IPFlag=           0 FMFlag=      100000 FMFlg1=           0
         NFxFlg=           0 DoJE=T BraDBF=F KetDBF=T FulRan=T
         wScrn=  0.000000 ICntrl=       500 IOpCl=  0 I1Cent=   200000004 NGrid=           0
         NMat0=    1 NMatS0=      1 NMatT0=    0 NMatD0=    1 NMtDS0=    0 NMtDT0=    0
 Petite list used in FoFCou.
 Requested convergence on RMS density matrix=1.00D-08 within 128 cycles.
 Requested convergence on MAX density matrix=1.00D-06.
 Requested convergence on             energy=1.00D-06.
 No special actions if energy rises.
 Integral accuracy reduced to 1.0D-05 until final iterations.
 Initial convergence to 1.0D-05 achieved.  Increase integral accuracy.
 SCF Done:  E(RB-P86) =  -775.796052719     A.U. after   16 cycles
            NFock= 16  Conv=0.93D-08     -V/T= 2.0096
 DoSCS=F DFT=T ScalE2(SS,OS)=  1.000000  1.000000
 Range of M.O.s used for correlation:     1   274
 NBasis=   274 NAE=    57 NBE=    57 NFC=     0 NFV=     0
 NROrb=    274 NOA=    57 NOB=    57 NVA=   217 NVB=   217

 **** Warning!!: The largest alpha MO coefficient is  0.12632785D+02

   1 Symmetry operations used in ECPInt.
 ECPInt:  NShTT=    8001 NPrTT=   29641 LenC2=    7682 LenP2D=   20708.
 LDataN:  DoStor=T MaxTD1= 5 Len=  102
 Symmetrizing basis deriv contribution to polar:
 IMax=3 JMax=2 DiffMx= 0.00D+00
 G2DrvN: will do    27 centers at a time, making    1 passes.
 Calling FoFCou, ICntrl=  3507 FMM=F I1Cent=   0 AccDes= 0.00D+00.
 End of G2Drv F.D. properties file   721 does not exist.
 End of G2Drv F.D. properties file   722 does not exist.
 End of G2Drv F.D. properties file   788 does not exist.
          IDoAtm=11111111111111111111111111
          Differentiating once with respect to nuclear coordinates.
 Keep J ints in memory in canonical form, NReq=722056059.
          There are    81 degrees of freedom in the 1st order CPHF.  IDoFFX=6 NUNeed=     0.
     75 vectors produced by pass  0 Test12= 1.53D-14 1.23D-09 XBig12= 1.98D-01 2.10D-01.
 AX will form    75 AO Fock derivatives at one time.
     75 vectors produced by pass  1 Test12= 1.53D-14 1.23D-09 XBig12= 5.85D-02 5.95D-02.
     75 vectors produced by pass  2 Test12= 1.53D-14 1.23D-09 XBig12= 2.76D-04 1.46D-03.
     75 vectors produced by pass  3 Test12= 1.53D-14 1.23D-09 XBig12= 4.71D-07 4.77D-05.
     75 vectors produced by pass  4 Test12= 1.53D-14 1.23D-09 XBig12= 2.96D-10 1.49D-06.
     31 vectors produced by pass  5 Test12= 1.53D-14 1.23D-09 XBig12= 4.98D-14 1.57D-08.
 InvSVY:  IOpt=1 It=  1 EMax= 3.89D-16
 Solved reduced A of dimension   406 with    81 vectors.
 End of Minotr F.D. properties file   721 does not exist.
 End of Minotr F.D. properties file   722 does not exist.
 End of Minotr F.D. properties file   788 does not exist.

 **********************************************************************

            Population analysis using the SCF Density.

 **********************************************************************

 Orbital symmetries:
       Occupied  (A) (A) (A) (A) (A) (A) (A) (A) (A) (A) (A) (A)
                 (A) (A) (A) (A) (A) (A) (A) (A) (A) (A) (A) (A)
                 (A) (A) (A) (A) (A) (A) (A) (A) (A) (A) (A) (A)
                 (A) (A) (A) (A) (A) (A) (A) (A) (A) (A) (A) (A)
                 (A) (A) (A) (A) (A) (A) (A) (A) (A)
       Virtual   (A) (A) (A) (A) (A) (A) (A) (A) (A) (A) (A) (A)
                 (A) (A) (A) (A) (A) (A) (A) (A) (A) (A) (A) (A)
                 (A) (A) (A) (A) (A) (A) (A) (A) (A) (A) (A) (A)
                 (A) (A) (A) (A) (A) (A) (A) (A) (A) (A) (A) (A)
                 (A) (A) (A) (A) (A) (A) (A) (A) (A) (A) (A) (A)
                 (A) (A) (A) (A) (A) (A) (A) (A) (A) (A) (A) (A)
                 (A) (A) (A) (A) (A) (A) (A) (A) (A) (A) (A) (A)
                 (A) (A) (A) (A) (A) (A) (A) (A) (A) (A) (A) (A)
                 (A) (A) (A) (A) (A) (A) (A) (A) (A) (A) (A) (A)
                 (A) (A) (A) (A) (A) (A) (A) (A) (A) (A) (A) (A)
                 (A) (A) (A) (A) (A) (A) (A) (A) (A) (A) (A) (A)
                 (A) (A) (A) (A) (A) (A) (A) (A) (A) (A) (A) (A)
                 (A) (A) (A) (A) (A) (A) (A) (A) (A) (A) (A) (A)
                 (A) (A) (A) (A) (A) (A) (A) (A) (A) (A) (A) (A)
                 (A) (A) (A) (A) (A) (A) (A) (A) (A) (A) (A) (A)
                 (A) (A) (A) (A) (A) (A) (A) (A) (A) (A) (A) (A)
                 (A) (A) (A) (A) (A) (A) (A) (A) (A) (A) (A) (A)
                 (A) (A) (A) (A) (A) (A) (A) (A) (A) (A) (A) (A)
                 (A)
 The electronic state is 1-A.
 Alpha  occ. eigenvalues --  -24.30266 -24.29699 -18.81612 -10.00166  -9.99482
 Alpha  occ. eigenvalues --   -9.98073  -9.94176  -9.93912  -9.93187  -9.92946
 Alpha  occ. eigenvalues --   -9.92684  -9.92464  -9.92350  -9.91954  -9.91407
 Alpha  occ. eigenvalues --   -9.91255  -1.11077  -1.10382  -0.97264  -0.80293
 Alpha  occ. eigenvalues --   -0.78096  -0.72254  -0.70281  -0.67349  -0.66317
 Alpha  occ. eigenvalues --   -0.63214  -0.58518  -0.55784  -0.54824  -0.54707
 Alpha  occ. eigenvalues --   -0.50834  -0.48919  -0.47483  -0.45986  -0.45252
 Alpha  occ. eigenvalues --   -0.43075  -0.42914  -0.41411  -0.40703  -0.39802
 Alpha  occ. eigenvalues --   -0.38768  -0.38507  -0.37422  -0.36599  -0.36254
 Alpha  occ. eigenvalues --   -0.34935  -0.33974  -0.33548  -0.32350  -0.32142
 Alpha  occ. eigenvalues --   -0.31469  -0.30497  -0.29637  -0.24605  -0.23104
 Alpha  occ. eigenvalues --   -0.22278  -0.20532
 Alpha virt. eigenvalues --   -0.06350  -0.04473  -0.03767  -0.02689   0.03411
 Alpha virt. eigenvalues --    0.03822   0.05024   0.06575   0.08182   0.09009
 Alpha virt. eigenvalues --    0.09718   0.10413   0.10728   0.11275   0.11910
 Alpha virt. eigenvalues --    0.13055   0.13121   0.14060   0.18046   0.19520
 Alpha virt. eigenvalues --    0.21997   0.23983   0.24916   0.25232   0.26531
 Alpha virt. eigenvalues --    0.27628   0.28272   0.29467   0.30005   0.30583
 Alpha virt. eigenvalues --    0.33603   0.35250   0.35603   0.37169   0.37773
 Alpha virt. eigenvalues --    0.39535   0.39584   0.40408   0.41297   0.42017
 Alpha virt. eigenvalues --    0.42613   0.43036   0.43886   0.46403   0.46431
 Alpha virt. eigenvalues --    0.46911   0.48438   0.49857   0.51415   0.51937
 Alpha virt. eigenvalues --    0.52129   0.53128   0.53433   0.54254   0.56218
 Alpha virt. eigenvalues --    0.57396   0.58283   0.59382   0.59724   0.60670
 Alpha virt. eigenvalues --    0.61401   0.61869   0.62350   0.63933   0.64876
 Alpha virt. eigenvalues --    0.65452   0.65795   0.66186   0.67536   0.68299
 Alpha virt. eigenvalues --    0.68736   0.69821   0.70987   0.71496   0.71936
 Alpha virt. eigenvalues --    0.74309   0.75056   0.77372   0.77479   0.78043
 Alpha virt. eigenvalues --    0.80617   0.81279   0.84704   0.87408   0.91594
 Alpha virt. eigenvalues --    0.94256   0.97560   0.98800   1.01442   1.03349
 Alpha virt. eigenvalues --    1.06772   1.07701   1.09751   1.11003   1.13031
 Alpha virt. eigenvalues --    1.13081   1.14879   1.17415   1.17689   1.18045
 Alpha virt. eigenvalues --    1.18551   1.20474   1.21082   1.21751   1.24128
 Alpha virt. eigenvalues --    1.26123   1.29495   1.30883   1.38027   1.38554
 Alpha virt. eigenvalues --    1.40841   1.42159   1.42945   1.45414   1.46167
 Alpha virt. eigenvalues --    1.48107   1.49006   1.50674   1.54776   1.56202
 Alpha virt. eigenvalues --    1.60124   1.61142   1.61821   1.62067   1.63546
 Alpha virt. eigenvalues --    1.64602   1.65004   1.65320   1.67185   1.68617
 Alpha virt. eigenvalues --    1.69634   1.69817   1.72086   1.72435   1.72847
 Alpha virt. eigenvalues --    1.74149   1.74514   1.76111   1.77455   1.77818
 Alpha virt. eigenvalues --    1.79480   1.80983   1.84054   1.85026   1.86041
 Alpha virt. eigenvalues --    1.87755   1.89097   1.90475   1.93146   1.96365
 Alpha virt. eigenvalues --    1.96828   1.99769   2.00144   2.01138   2.03159
 Alpha virt. eigenvalues --    2.04745   2.05888   2.07286   2.08166   2.11472
 Alpha virt. eigenvalues --    2.11654   2.13121   2.13666   2.16220   2.16790
 Alpha virt. eigenvalues --    2.19225   2.19859   2.20860   2.23024   2.24307
 Alpha virt. eigenvalues --    2.26380   2.26932   2.29323   2.35785   2.37020
 Alpha virt. eigenvalues --    2.38402   2.40207   2.46763   2.48485   2.50117
 Alpha virt. eigenvalues --    2.52987   2.53728   2.54696   2.56442   2.57338
 Alpha virt. eigenvalues --    2.62871   2.63717   2.65827   2.68340   2.70013
 Alpha virt. eigenvalues --    2.74107   2.80803   2.82457   2.83222   2.84572
 Alpha virt. eigenvalues --    2.86028   2.88359   2.90115   2.92092   2.92987
 Alpha virt. eigenvalues --    2.97130   2.98473   2.99034   3.02138   3.02930
 Alpha virt. eigenvalues --    3.06768   3.15142   3.20644   3.21280   3.31868
 Alpha virt. eigenvalues --    3.39457   3.42475   3.44772   3.47672   3.69971
 Alpha virt. eigenvalues --    3.76295   3.79999
          Condensed to atoms (all electrons):
               1          2          3          4          5          6
     1  C    4.610783   0.452142  -0.103966   0.018816  -0.002369   0.016822
     2  C    0.452142   5.278378   0.235492   0.146980  -0.173802   0.153251
     3  C   -0.103966   0.235492   5.280392   0.168699   0.145435  -0.188624
     4  C    0.018816   0.146980   0.168699   5.251879   0.098047   0.187945
     5  C   -0.002369  -0.173802   0.145435   0.098047   5.434124   0.193862
     6  C    0.016822   0.153251  -0.188624   0.187945   0.193862   5.072807
     7  F   -0.000044   0.005275  -0.000355   0.005766  -0.071022   0.421198
     8  C   -0.095755   0.146711   0.088705  -0.175717   0.036708   0.065828
     9  C   -0.025545  -0.077710   0.027446  -0.004551   0.024822  -0.110931
    10  C    0.002769  -0.013479  -0.000048   0.000182  -0.000457  -0.006194
    11  O   -0.005588   0.002079  -0.000468   0.000043  -0.000050  -0.000531
    12  C   -0.000344   0.000465  -0.000007   0.000003  -0.000009  -0.000233
    13  C    0.000044   0.000075   0.000003  -0.000000   0.000006   0.000096
    14  C   -0.000193  -0.000365  -0.000008   0.000004  -0.000017   0.000728
    15  C   -0.000756  -0.005365  -0.000426   0.000119   0.000758  -0.003673
    16  F    0.000095  -0.002851  -0.000056   0.000004  -0.000174   0.005191
    17  H    0.353996   0.004497   0.005896  -0.000780   0.000177  -0.000484
    18  H    0.348306   0.005548   0.001808  -0.000460   0.000052   0.000176
    19  H    0.366708  -0.008901  -0.016118   0.000646  -0.000000  -0.000364
    20  H   -0.021632  -0.076441   0.446981  -0.083185   0.017357  -0.002399
    21  H   -0.000478   0.017056  -0.072199   0.440762  -0.076824   0.015329
    22  H    0.000038  -0.002637   0.016182  -0.081046   0.434227  -0.073644
    23  H   -0.000990   0.010466   0.000134  -0.000161  -0.000013   0.000584
    24  H    0.000010  -0.000016  -0.000000   0.000000  -0.000000   0.000004
    25  H   -0.000002   0.000000   0.000000  -0.000000   0.000000  -0.000000
    26  H   -0.000002   0.000015  -0.000000   0.000000  -0.000001  -0.000027
               7          8          9         10         11         12
     1  C   -0.000044  -0.095755  -0.025545   0.002769  -0.005588  -0.000344
     2  C    0.005275   0.146711  -0.077710  -0.013479   0.002079   0.000465
     3  C   -0.000355   0.088705   0.027446  -0.000048  -0.000468  -0.000007
     4  C    0.005766  -0.175717  -0.004551   0.000182   0.000043   0.000003
     5  C   -0.071022   0.036708   0.024822  -0.000457  -0.000050  -0.000009
     6  C    0.421198   0.065828  -0.110931  -0.006194  -0.000531  -0.000233
     7  F    8.883734  -0.110997   0.017227  -0.002786  -0.000000  -0.000040
     8  C   -0.110997   6.219288   0.024861  -0.069742  -0.012382   0.019382
     9  C    0.017227   0.024861   6.438189   0.010743  -0.102429   0.026254
    10  C   -0.002786  -0.069742   0.010743   5.170919   0.456453   0.214007
    11  O   -0.000000  -0.012382  -0.102429   0.456453   7.550305  -0.082217
    12  C   -0.000040   0.019382   0.026254   0.214007  -0.082217   5.338176
    13  C    0.000005  -0.003011  -0.174263   0.186358   0.005349   0.151597
    14  C   -0.000189   0.025191   0.040856  -0.193642  -0.000181   0.148868
    15  C    0.004560  -0.074015   0.044840   0.204349   0.004087  -0.171983
    16  F   -0.000484   0.015741  -0.108772   0.004957  -0.000002  -0.000307
    17  H    0.000000  -0.015650   0.015223  -0.000043  -0.000212  -0.000066
    18  H   -0.000000  -0.015056   0.000380  -0.001586   0.018108  -0.001545
    19  H    0.000001   0.012592  -0.000165   0.000152   0.000081   0.000014
    20  H    0.000004   0.021555  -0.000248  -0.000012  -0.000003  -0.000000
    21  H   -0.000077  -0.001669   0.000056  -0.000001   0.000000   0.000000
    22  H    0.001665   0.024532  -0.000392   0.000008   0.000001  -0.000001
    23  H    0.000080   0.015133  -0.035343  -0.006757   0.324847   0.010486
    24  H    0.000001  -0.000376   0.027160  -0.073128   0.000765   0.435801
    25  H    0.000000   0.000012  -0.002380   0.017429  -0.000093  -0.075927
    26  H    0.000002  -0.000340   0.025869  -0.002961   0.000006   0.016687
              13         14         15         16         17         18
     1  C    0.000044  -0.000193  -0.000756   0.000095   0.353996   0.348306
     2  C    0.000075  -0.000365  -0.005365  -0.002851   0.004497   0.005548
     3  C    0.000003  -0.000008  -0.000426  -0.000056   0.005896   0.001808
     4  C   -0.000000   0.000004   0.000119   0.000004  -0.000780  -0.000460
     5  C    0.000006  -0.000017   0.000758  -0.000174   0.000177   0.000052
     6  C    0.000096   0.000728  -0.003673   0.005191  -0.000484   0.000176
     7  F    0.000005  -0.000189   0.004560  -0.000484   0.000000  -0.000000
     8  C   -0.003011   0.025191  -0.074015   0.015741  -0.015650  -0.015056
     9  C   -0.174263   0.040856   0.044840  -0.108772   0.015223   0.000380
    10  C    0.186358  -0.193642   0.204349   0.004957  -0.000043  -0.001586
    11  O    0.005349  -0.000181   0.004087  -0.000002  -0.000212   0.018108
    12  C    0.151597   0.148868  -0.171983  -0.000307  -0.000066  -0.001545
    13  C    5.267546   0.076509   0.197372   0.005713  -0.000029   0.000014
    14  C    0.076509   5.480829   0.175715  -0.070377   0.000105   0.000164
    15  C    0.197372   0.175715   5.043236   0.417812  -0.000136   0.000342
    16  F    0.005713  -0.070377   0.417812   8.893231   0.000189   0.000003
    17  H   -0.000029   0.000105  -0.000136   0.000189   0.624218  -0.017929
    18  H    0.000014   0.000164   0.000342   0.000003  -0.017929   0.643415
    19  H   -0.000001  -0.000001   0.000104   0.000003  -0.020245  -0.018444
    20  H   -0.000000  -0.000000  -0.000010   0.000001   0.000318   0.000645
    21  H   -0.000000   0.000000   0.000000   0.000000   0.000012   0.000011
    22  H    0.000000  -0.000001  -0.000025   0.000002  -0.000001  -0.000002
    23  H   -0.000362  -0.000150   0.000936   0.000003   0.000261  -0.002026
    24  H   -0.088358   0.017165  -0.003252   0.000004  -0.000026   0.000074
    25  H    0.444627  -0.075467   0.015867  -0.000078   0.000001   0.000000
    26  H   -0.083213   0.436718  -0.076388   0.001465   0.000011  -0.000002
              19         20         21         22         23         24
     1  C    0.366708  -0.021632  -0.000478   0.000038  -0.000990   0.000010
     2  C   -0.008901  -0.076441   0.017056  -0.002637   0.010466  -0.000016
     3  C   -0.016118   0.446981  -0.072199   0.016182   0.000134  -0.000000
     4  C    0.000646  -0.083185   0.440762  -0.081046  -0.000161   0.000000
     5  C   -0.000000   0.017357  -0.076824   0.434227  -0.000013  -0.000000
     6  C   -0.000364  -0.002399   0.015329  -0.073644   0.000584   0.000004
     7  F    0.000001   0.000004  -0.000077   0.001665   0.000080   0.000001
     8  C    0.012592   0.021555  -0.001669   0.024532   0.015133  -0.000376
     9  C   -0.000165  -0.000248   0.000056  -0.000392  -0.035343   0.027160
    10  C    0.000152  -0.000012  -0.000001   0.000008  -0.006757  -0.073128
    11  O    0.000081  -0.000003   0.000000   0.000001   0.324847   0.000765
    12  C    0.000014  -0.000000   0.000000  -0.000001   0.010486   0.435801
    13  C   -0.000001  -0.000000  -0.000000   0.000000  -0.000362  -0.088358
    14  C   -0.000001  -0.000000   0.000000  -0.000001  -0.000150   0.017165
    15  C    0.000104  -0.000010   0.000000  -0.000025   0.000936  -0.003252
    16  F    0.000003   0.000001   0.000000   0.000002   0.000003   0.000004
    17  H   -0.020245   0.000318   0.000012  -0.000001   0.000261  -0.000026
    18  H   -0.018444   0.000645   0.000011  -0.000002  -0.002026   0.000074
    19  H    0.651931   0.008696   0.000004  -0.000001  -0.000020  -0.000001
    20  H    0.008696   0.720348  -0.014110  -0.000291  -0.000019   0.000000
    21  H    0.000004  -0.014110   0.702887  -0.014419  -0.000003  -0.000000
    22  H   -0.000001  -0.000291  -0.014419   0.693968  -0.000013   0.000000
    23  H   -0.000020  -0.000019  -0.000003  -0.000013   0.497759  -0.000555
    24  H   -0.000001   0.000000  -0.000000   0.000000  -0.000555   0.712130
    25  H    0.000000  -0.000000  -0.000000  -0.000000   0.000021  -0.014620
    26  H   -0.000000   0.000000  -0.000000   0.000000  -0.000003  -0.000227
              25         26
     1  C   -0.000002  -0.000002
     2  C    0.000000   0.000015
     3  C    0.000000  -0.000000
     4  C   -0.000000   0.000000
     5  C    0.000000  -0.000001
     6  C   -0.000000  -0.000027
     7  F    0.000000   0.000002
     8  C    0.000012  -0.000340
     9  C   -0.002380   0.025869
    10  C    0.017429  -0.002961
    11  O   -0.000093   0.000006
    12  C   -0.075927   0.016687
    13  C    0.444627  -0.083213
    14  C   -0.075467   0.436718
    15  C    0.015867  -0.076388
    16  F   -0.000078   0.001465
    17  H    0.000001   0.000011
    18  H    0.000000  -0.000002
    19  H    0.000000  -0.000000
    20  H   -0.000000   0.000000
    21  H   -0.000000  -0.000000
    22  H   -0.000000   0.000000
    23  H    0.000021  -0.000003
    24  H   -0.014620  -0.000227
    25  H    0.701527  -0.014502
    26  H   -0.014502   0.702953
 Mulliken charges:
               1
     1  C    0.087136
     2  C   -0.096864
     3  C   -0.034896
     4  C    0.026005
     5  C   -0.060835
     6  C    0.253284
     7  F   -0.153525
     8  C   -0.141528
     9  C   -0.081196
    10  C    0.102509
    11  O   -0.157967
    12  C   -0.029060
    13  C    0.013922
    14  C   -0.062261
    15  C    0.225931
    16  F   -0.161313
    17  H    0.050697
    18  H    0.038003
    19  H    0.023328
    20  H   -0.017553
    21  H    0.003661
    22  H    0.001850
    23  H    0.185703
    24  H   -0.012553
    25  H    0.003584
    26  H   -0.006061
 Sum of Mulliken charges =  -0.00000
 Mulliken charges with hydrogens summed into heavy atoms:
               1
     1  C    0.199164
     2  C   -0.096864
     3  C   -0.052449
     4  C    0.029665
     5  C   -0.058986
     6  C    0.253284
     7  F   -0.153525
     8  C   -0.141528
     9  C   -0.081196
    10  C    0.102509
    11  O    0.027736
    12  C   -0.041613
    13  C    0.017506
    14  C   -0.068322
    15  C    0.225931
    16  F   -0.161313
 APT charges:
               1
     1  C   -0.484921
     2  C   -0.509712
     3  C   -0.605125
     4  C   -0.375598
     5  C   -0.519190
     6  C   -0.259710
     7  F    0.097531
     8  C   -0.490930
     9  C   -0.415022
    10  C   -0.383804
    11  O    0.155438
    12  C   -0.626685
    13  C   -0.278961
    14  C   -0.569515
    15  C   -0.261066
    16  F    0.090934
    17  H    0.140064
    18  H    0.210293
    19  H    0.606716
    20  H    0.648923
    21  H    0.856238
    22  H    0.671767
    23  H    0.128219
    24  H    0.654788
    25  H    0.853312
    26  H    0.666015
 Sum of APT charges =  -0.00000
 APT charges with hydrogens summed into heavy atoms:
               1
     1  C    0.472152
     2  C   -0.509712
     3  C    0.043798
     4  C    0.480640
     5  C    0.152577
     6  C   -0.259710
     7  F    0.097531
     8  C   -0.490930
     9  C   -0.415022
    10  C   -0.383804
    11  O    0.283657
    12  C    0.028103
    13  C    0.574351
    14  C    0.096500
    15  C   -0.261066
    16  F    0.090934
 Electronic spatial extent (au):  <R**2>=           3118.5316
 Charge=              0.0000 electrons
 Dipole moment (field-independent basis, Debye):
    X=             -1.2698    Y=              1.3298    Z=              0.3886  Tot=              1.8794
 Quadrupole moment (field-independent basis, Debye-Ang):
   XX=            -77.9019   YY=            -91.9441   ZZ=            -92.5227
   XY=             -1.8624   XZ=              1.8544   YZ=              2.0763
 Traceless Quadrupole moment (field-independent basis, Debye-Ang):
   XX=              9.5543   YY=             -4.4878   ZZ=             -5.0665
   XY=             -1.8624   XZ=              1.8544   YZ=              2.0763
 Octapole moment (field-independent basis, Debye-Ang**2):
  XXX=              1.1140  YYY=            -17.9341  ZZZ=             -2.4075  XYY=             -7.0944
  XXY=            -11.9772  XXZ=             -1.7822  XZZ=             -2.3940  YZZ=             -4.2177
  YYZ=              3.4692  XYZ=             -9.3065
 Hexadecapole moment (field-independent basis, Debye-Ang**3):
 XXXX=          -2345.2286 YYYY=           -933.6207 ZZZZ=           -540.8369 XXXY=             14.0666
 XXXZ=             16.2541 YYYX=             -5.1255 YYYZ=              0.3116 ZZZX=             18.2907
 ZZZY=             -5.6313 XXYY=           -568.2189 XXZZ=           -535.8364 YYZZ=           -245.2362
 XXYZ=             -3.2435 YYXZ=              8.5975 ZZXY=             -6.8815
 N-N= 1.087604134997D+03 E-N=-3.987053218361D+03  KE= 7.683879519819D+02
  Exact polarizability:       0.000       0.000       0.000       0.000       0.000       0.000
 Approx polarizability:     350.548      -1.560     272.020       2.713      -9.503     198.437
   1 Symmetry operations used in ECPInt.
 ECPInt:  NShTT=    8001 NPrTT=   29641 LenC2=    7682 LenP2D=   20708.
 LDataN:  DoStor=T MaxTD1= 6 Len=  172
 Calling FoFJK, ICntrl=    100527 FMM=F ISym2X=0 I1Cent= 0 IOpClX= 0 NMat=1 NMatS=1 NMatT=0.
 ***** Axes restored to original set *****
 -------------------------------------------------------------------
 Center     Atomic                   Forces (Hartrees/Bohr)
 Number     Number              X              Y              Z
 -------------------------------------------------------------------
      1        6          -0.003201240   -0.003108761    0.003980116
      2        6           0.004823741    0.004739506   -0.006705168
      3        6          -0.002054778    0.000993709   -0.001726250
      4        6          -0.003909399    0.000120623   -0.000256976
      5        6          -0.003592229   -0.000513726    0.000799381
      6        6           0.007945720   -0.008372346    0.011399587
      7        9           0.001436171   -0.001339587    0.001772121
      8        6           0.007563248    0.001299980   -0.002510006
      9        6          -0.006719207   -0.000992175   -0.000694894
     10        6          -0.007535024   -0.007965285   -0.010463214
     11        8           0.009314642   -0.001238211   -0.004818007
     12        6           0.003116444   -0.000760956   -0.001169008
     13        6           0.004014103    0.000214666    0.000186771
     14        6           0.003903214    0.000315666    0.000748746
     15        6          -0.008126181    0.008637365    0.011643946
     16        9          -0.001494225    0.001393232    0.002005312
     17        1           0.006728366    0.005455604    0.003674043
     18        1           0.004797871   -0.005783663   -0.005632735
     19        1          -0.005635888    0.005789474   -0.005404906
     20        1          -0.005046374    0.005371693   -0.007108911
     21        1          -0.010488045    0.000119744   -0.000093255
     22        1          -0.004369149   -0.005340605    0.007368687
     23        1          -0.010937172    0.001241514    0.003003173
     24        1           0.004328907   -0.005343446   -0.007387163
     25        1           0.010587334   -0.000156584   -0.000076021
     26        1           0.004549149    0.005222567    0.007464629
 -------------------------------------------------------------------
 Cartesian Forces:  Max     0.011643946 RMS     0.005372097
 FormGI is forming the generalized inverse of G from B-inverse, IUseBI=4.

 GradGradGradGradGradGradGradGradGradGradGradGradGradGradGradGradGradGrad
 Berny optimization.
 Internal  Forces:  Max     0.015803653 RMS     0.005346978
 Search for a local minimum.
 Step number   1 out of a maximum of  140
 All quantities printed in internal units (Hartrees-Bohrs-Radians)
 Mixed Optimization -- RFO/linear search
 Second derivative matrix not updated -- analytic derivatives used.
 ITU=  0
     Eigenvalues ---    0.00123   0.00615   0.01165   0.01285   0.01617
     Eigenvalues ---    0.01651   0.01685   0.01732   0.01748   0.01946
     Eigenvalues ---    0.02090   0.02207   0.02282   0.02320   0.02396
     Eigenvalues ---    0.02585   0.02831   0.02943   0.03367   0.03441
     Eigenvalues ---    0.03747   0.05241   0.05394   0.09958   0.10060
     Eigenvalues ---    0.10388   0.11103   0.11505   0.11552   0.11730
     Eigenvalues ---    0.13786   0.14118   0.16518   0.17236   0.17911
     Eigenvalues ---    0.18017   0.18058   0.18151   0.18498   0.18913
     Eigenvalues ---    0.19200   0.21134   0.21702   0.23347   0.24414
     Eigenvalues ---    0.31699   0.33644   0.34838   0.35085   0.35603
     Eigenvalues ---    0.35923   0.36440   0.37115   0.37260   0.37341
     Eigenvalues ---    0.37380   0.37678   0.37826   0.38382   0.39073
     Eigenvalues ---    0.41019   0.44512   0.45782   0.46224   0.47804
     Eigenvalues ---    0.49186   0.49436   0.49657   0.49998   0.51620
     Eigenvalues ---    0.53848   0.54556
 RFO step:  Lambda=-8.01699000D-03 EMin= 1.22508367D-03
 Linear search not attempted -- first point.
 Iteration  1 RMS(Cart)=  0.03962388 RMS(Int)=  0.00032264
 Iteration  2 RMS(Cart)=  0.00067308 RMS(Int)=  0.00000882
 Iteration  3 RMS(Cart)=  0.00000027 RMS(Int)=  0.00000882
 Variable       Old X    -DE/DX   Delta X   Delta X   Delta X     New X
                                 (Linear)    (Quad)   (Total)
    R1        2.84293   0.00490   0.00000   0.01141   0.01141   2.85434
    R2        2.06849   0.00940   0.00000   0.02607   0.02607   2.09455
    R3        2.07129   0.00937   0.00000   0.02593   0.02593   2.09722
    R4        2.06399   0.00970   0.00000   0.02624   0.02624   2.09023
    R5        2.63860   0.01381   0.00000   0.02558   0.02557   2.66417
    R6        2.66446   0.01315   0.00000   0.02696   0.02696   2.69142
    R7        2.62838   0.01345   0.00000   0.02391   0.02390   2.65228
    R8        2.05266   0.01024   0.00000   0.02665   0.02665   2.07931
    R9        2.62521   0.01431   0.00000   0.02508   0.02508   2.65029
   R10        2.05202   0.01049   0.00000   0.02690   0.02690   2.07892
   R11        2.61411   0.01559   0.00000   0.02848   0.02849   2.64260
   R12        2.04976   0.01009   0.00000   0.02651   0.02651   2.07627
   R13        2.54759   0.00264   0.00000  -0.00133  -0.00133   2.54626
   R14        2.63314   0.01550   0.00000   0.03090   0.03091   2.66405
   R15        2.80001   0.00499   0.00000   0.01164   0.01164   2.81165
   R16        2.65193   0.01381   0.00000   0.02871   0.02872   2.68064
   R17        2.62854   0.01569   0.00000   0.02913   0.02914   2.65767
   R18        2.57348   0.00206   0.00000   0.00054   0.00054   2.57401
   R19        2.63357   0.01463   0.00000   0.02702   0.02702   2.66059
   R20        1.83091   0.01134   0.00000   0.02379   0.02379   1.85470
   R21        2.62218   0.01428   0.00000   0.02528   0.02527   2.64745
   R22        2.04946   0.01008   0.00000   0.02632   0.02632   2.07578
   R23        2.63164   0.01426   0.00000   0.02481   0.02481   2.65645
   R24        2.05172   0.01059   0.00000   0.02711   0.02711   2.07883
   R25        2.61260   0.01580   0.00000   0.02936   0.02937   2.64197
   R26        2.04834   0.01018   0.00000   0.02664   0.02664   2.07498
   R27        2.55190   0.00286   0.00000  -0.00095  -0.00095   2.55095
    A1        1.93345   0.00048   0.00000   0.00320   0.00318   1.93663
    A2        1.95030  -0.00096   0.00000  -0.00538  -0.00538   1.94493
    A3        1.93212   0.00113   0.00000   0.00762   0.00761   1.93973
    A4        1.86248  -0.00027   0.00000  -0.00535  -0.00535   1.85713
    A5        1.89690  -0.00043   0.00000  -0.00051  -0.00054   1.89636
    A6        1.88616  -0.00002   0.00000  -0.00002  -0.00001   1.88615
    A7        2.10690   0.00116   0.00000   0.00365   0.00365   2.11055
    A8        2.09914  -0.00130   0.00000  -0.00270  -0.00270   2.09644
    A9        2.07690   0.00015   0.00000  -0.00081  -0.00082   2.07608
   A10        2.11537   0.00003   0.00000   0.00006   0.00005   2.11542
   A11        2.07888  -0.00018   0.00000  -0.00189  -0.00188   2.07700
   A12        2.08883   0.00015   0.00000   0.00183   0.00184   2.09067
   A13        2.10250  -0.00018   0.00000  -0.00109  -0.00110   2.10140
   A14        2.09394  -0.00007   0.00000   0.00010   0.00010   2.09404
   A15        2.08673   0.00026   0.00000   0.00100   0.00101   2.08773
   A16        2.05810   0.00125   0.00000   0.00727   0.00728   2.06538
   A17        2.13523  -0.00019   0.00000  -0.00031  -0.00031   2.13491
   A18        2.08986  -0.00105   0.00000  -0.00696  -0.00697   2.08290
   A19        2.06603   0.00152   0.00000   0.00651   0.00650   2.07252
   A20        2.15300  -0.00272   0.00000  -0.01095  -0.01093   2.14207
   A21        2.06414   0.00120   0.00000   0.00444   0.00443   2.06857
   A22        2.06039   0.00147   0.00000   0.00552   0.00553   2.06592
   A23        2.12382  -0.00114   0.00000  -0.00129  -0.00130   2.12252
   A24        2.09898  -0.00033   0.00000  -0.00423  -0.00425   2.09473
   A25        2.11215  -0.00260   0.00000  -0.01204  -0.01205   2.10011
   A26        2.12999   0.00008   0.00000   0.00022   0.00021   2.13021
   A27        2.04104   0.00253   0.00000   0.01181   0.01183   2.05287
   A28        2.11362  -0.00151   0.00000  -0.00548  -0.00549   2.10813
   A29        2.11415  -0.00118   0.00000  -0.00675  -0.00675   2.10739
   A30        2.05541   0.00269   0.00000   0.01225   0.01225   2.06766
   A31        1.89335  -0.00229   0.00000  -0.01885  -0.01885   1.87450
   A32        2.08442   0.00049   0.00000   0.00155   0.00153   2.08596
   A33        2.07680  -0.00080   0.00000  -0.00430  -0.00429   2.07251
   A34        2.12189   0.00031   0.00000   0.00278   0.00279   2.12467
   A35        2.11472  -0.00006   0.00000   0.00019   0.00018   2.11489
   A36        2.08480  -0.00003   0.00000  -0.00019  -0.00018   2.08462
   A37        2.08364   0.00009   0.00000   0.00001   0.00001   2.08366
   A38        2.05514   0.00121   0.00000   0.00690   0.00690   2.06204
   A39        2.13543  -0.00019   0.00000  -0.00053  -0.00053   2.13491
   A40        2.09261  -0.00101   0.00000  -0.00637  -0.00637   2.08624
   A41        2.15663  -0.00298   0.00000  -0.01361  -0.01359   2.14303
   A42        2.05414   0.00139   0.00000   0.00610   0.00610   2.06024
   A43        2.07231   0.00160   0.00000   0.00753   0.00752   2.07984
    D1        2.25307   0.00045   0.00000   0.00281   0.00282   2.25589
    D2       -0.86477   0.00009   0.00000  -0.00408  -0.00407  -0.86884
    D3       -1.95585  -0.00019   0.00000  -0.00531  -0.00530  -1.96115
    D4        1.20949  -0.00055   0.00000  -0.01220  -0.01220   1.19730
    D5        0.14745  -0.00008   0.00000  -0.00373  -0.00374   0.14371
    D6       -2.97039  -0.00044   0.00000  -0.01062  -0.01064  -2.98103
    D7       -3.10861  -0.00038   0.00000  -0.00552  -0.00553  -3.11413
    D8        0.01746  -0.00028   0.00000  -0.00526  -0.00527   0.01219
    D9        0.00954  -0.00004   0.00000   0.00126   0.00126   0.01080
   D10        3.13560   0.00006   0.00000   0.00152   0.00152   3.13712
   D11        3.10123   0.00054   0.00000   0.00740   0.00739   3.10862
   D12       -0.03989   0.00027   0.00000   0.00145   0.00143  -0.03846
   D13       -0.01702   0.00017   0.00000   0.00056   0.00057  -0.01645
   D14        3.12504  -0.00011   0.00000  -0.00539  -0.00539   3.11965
   D15        0.00199  -0.00009   0.00000  -0.00168  -0.00168   0.00030
   D16        3.13647   0.00003   0.00000  -0.00026  -0.00027   3.13621
   D17       -3.12399  -0.00019   0.00000  -0.00191  -0.00192  -3.12590
   D18        0.01050  -0.00007   0.00000  -0.00049  -0.00050   0.01000
   D19       -0.00548   0.00006   0.00000   0.00013   0.00012  -0.00535
   D20        3.13472   0.00010   0.00000   0.00194   0.00194   3.13666
   D21       -3.14000  -0.00006   0.00000  -0.00128  -0.00129  -3.14128
   D22        0.00020  -0.00002   0.00000   0.00053   0.00053   0.00073
   D23       -3.13796   0.00004   0.00000   0.00231   0.00231  -3.13565
   D24       -0.00272   0.00011   0.00000   0.00189   0.00189  -0.00084
   D25        0.00499  -0.00000   0.00000   0.00054   0.00054   0.00554
   D26        3.14023   0.00007   0.00000   0.00012   0.00012   3.14034
   D27        0.01404  -0.00022   0.00000  -0.00223  -0.00223   0.01181
   D28       -3.12802   0.00005   0.00000   0.00363   0.00363  -3.12438
   D29       -3.13390  -0.00015   0.00000  -0.00265  -0.00265  -3.13655
   D30        0.00722   0.00012   0.00000   0.00321   0.00321   0.01044
   D31       -1.25000   0.00106   0.00000   0.04410   0.04409  -1.20591
   D32        1.89148   0.00082   0.00000   0.04194   0.04193   1.93342
   D33        1.89208   0.00078   0.00000   0.03802   0.03803   1.93011
   D34       -1.24962   0.00054   0.00000   0.03586   0.03587  -1.21375
   D35       -0.02921   0.00050   0.00000   0.00800   0.00798  -0.02123
   D36        3.11625   0.00004   0.00000   0.00224   0.00226   3.11850
   D37        3.11248   0.00072   0.00000   0.01006   0.01004   3.12253
   D38       -0.02524   0.00026   0.00000   0.00430   0.00432  -0.02092
   D39       -3.11828  -0.00008   0.00000  -0.00252  -0.00251  -3.12079
   D40        0.00760   0.00010   0.00000  -0.00032  -0.00032   0.00729
   D41        0.02321  -0.00031   0.00000  -0.00461  -0.00461   0.01859
   D42       -3.13410  -0.00012   0.00000  -0.00240  -0.00242  -3.13652
   D43       -0.09285  -0.00001   0.00000  -0.00256  -0.00257  -0.09542
   D44        3.04500   0.00042   0.00000   0.00297   0.00299   3.04799
   D45        0.01248  -0.00010   0.00000  -0.00185  -0.00183   0.01065
   D46        3.14111   0.00007   0.00000   0.00094   0.00095  -3.14113
   D47       -3.12536  -0.00053   0.00000  -0.00739  -0.00739  -3.13275
   D48        0.00326  -0.00037   0.00000  -0.00459  -0.00461  -0.00135
   D49        0.00395  -0.00011   0.00000  -0.00095  -0.00095   0.00300
   D50        3.13780   0.00005   0.00000   0.00074   0.00074   3.13854
   D51       -3.12433  -0.00027   0.00000  -0.00376  -0.00376  -3.12809
   D52        0.00953  -0.00011   0.00000  -0.00207  -0.00207   0.00745
   D53       -0.00639   0.00009   0.00000   0.00081   0.00081  -0.00558
   D54        3.13436   0.00013   0.00000   0.00229   0.00229   3.13665
   D55       -3.14025  -0.00007   0.00000  -0.00088  -0.00088  -3.14113
   D56        0.00050  -0.00002   0.00000   0.00060   0.00060   0.00110
   D57       -0.00776   0.00016   0.00000   0.00219   0.00218  -0.00559
   D58       -3.13349  -0.00003   0.00000  -0.00002  -0.00003  -3.13352
   D59        3.13465   0.00011   0.00000   0.00074   0.00074   3.13538
   D60        0.00892  -0.00007   0.00000  -0.00146  -0.00147   0.00745
         Item               Value     Threshold  Converged?
 Maximum Force            0.015804     0.000450     NO 
 RMS     Force            0.005347     0.000300     NO 
 Maximum Displacement     0.145838     0.001800     NO 
 RMS     Displacement     0.039934     0.001200     NO 
 Predicted change in Energy=-4.109065D-03
 GradGradGradGradGradGradGradGradGradGradGradGradGradGradGradGradGradGrad

                          Input orientation:                          
 ---------------------------------------------------------------------
 Center     Atomic      Atomic             Coordinates (Angstroms)
 Number     Number       Type             X           Y           Z
 ---------------------------------------------------------------------
      1          6           0       -0.731076    1.544224   -2.082622
      2          6           0       -1.477791    0.753001   -1.034838
      3          6           0       -2.887235    0.728931   -1.012996
      4          6           0       -3.587171    0.022361   -0.022677
      5          6           0       -2.892643   -0.679354    0.973397
      6          6           0       -1.494625   -0.659762    0.946998
      7          9           0       -0.819007   -1.336895    1.895989
      8          6           0       -0.760442    0.033202   -0.036964
      9          6           0        0.726848   -0.004557   -0.020290
     10          6           0        1.436975   -0.703345   -1.030071
     11          8           0        0.773074   -1.370167   -2.014919
     12          6           0        2.844754   -0.721648   -1.038484
     13          6           0        3.549780   -0.052023   -0.029892
     14          6           0        2.876650    0.636224    0.994459
     15          6           0        1.478695    0.641337    0.977433
     16          9           0        0.811407    1.303861    1.945951
     17          1           0        0.030745    2.200228   -1.615916
     18          1           0       -0.184727    0.877362   -2.781520
     19          1           0       -1.422054    2.171405   -2.676466
     20          1           0       -3.442330    1.288198   -1.780978
     21          1           0       -4.687286    0.021361   -0.021838
     22          1           0       -3.408364   -1.238908    1.765927
     23          1           0       -0.184792   -1.324830   -1.805857
     24          1           0        3.361155   -1.272709   -1.836147
     25          1           0        4.649691   -0.069568   -0.036057
     26          1           0        3.410094    1.163353    1.796488
 ---------------------------------------------------------------------
                    Distance matrix (angstroms):
                    1          2          3          4          5
     1  C    0.000000
     2  C    1.510453   0.000000
     3  C    2.541225   1.409818   0.000000
     4  C    3.836239   2.451080   1.403526   0.000000
     5  C    4.353840   2.843669   2.434965   1.402475   0.000000
     6  C    3.823501   2.433898   2.776582   2.405059   1.398404
     7  F    4.913036   3.659428   4.124003   3.632023   2.362944
     8  C    2.543377   1.424237   2.441295   2.826786   2.464720
     9  C    2.962681   2.542368   3.819039   4.314103   3.813591
    10  C    3.295432   3.258347   4.555271   5.175281   4.770749
    11  O    3.280354   3.245735   4.336810   4.991983   4.779616
    12  C    4.360156   4.567166   5.912742   6.554012   6.080063
    13  C    5.008736   5.189841   6.558318   7.137342   6.550186
    14  C    4.827895   4.805501   6.104165   6.572091   5.917426
    15  C    3.881009   3.578060   4.799044   5.200611   4.566491
    16  F    4.320467   3.798549   4.771359   4.986504   4.312654
    17  H    1.108390   2.169746   3.323076   4.513407   4.852085
    18  H    1.109802   2.176782   3.233150   4.463056   4.884216
    19  H    1.106101   2.170235   2.644734   4.043355   4.859111
    20  H    2.739970   2.168542   1.100321   2.171393   3.429285
    21  H    4.713549   3.444172   2.173300   1.100116   2.168465
    22  H    5.452066   3.941966   3.444761   2.195876   1.098714
    23  H    2.933683   2.565872   3.485650   4.070729   3.933617
    24  H    4.974154   5.306694   6.612602   7.296925   6.881540
    25  H    5.978746   6.262605   7.641810   8.237386   7.633979
    26  H    5.686990   5.663587   6.909289   7.319354   6.617971
                    6          7          8          9         10
     6  C    0.000000
     7  F    1.347425   0.000000
     8  C    1.409754   2.370001   0.000000
     9  C    2.509956   2.799449   1.487863   0.000000
    10  C    3.536238   3.748688   2.521389   1.418535   0.000000
    11  O    3.797379   4.222680   2.869394   2.417762   1.362109
    12  C    4.772439   4.734216   3.817104   2.456922   1.407923
    13  C    5.173943   4.944311   4.311071   2.823348   2.426628
    14  C    4.559592   4.285304   3.828304   2.462106   2.822380
    15  C    3.245676   3.168056   2.532304   1.406380   2.416605
    16  F    3.189279   3.103922   2.831472   2.363305   3.643750
    17  H    4.132170   5.056362   2.795544   2.809209   3.278937
    18  H    4.240334   5.213860   2.928590   3.038608   2.862887
    19  H    4.598942   5.794755   3.460724   4.050662   4.375940
    20  H    3.876849   5.224273   3.436440   4.706727   5.323318
    21  H    3.405240   4.526202   3.926891   5.414196   6.248864
    22  H    2.160660   2.594473   3.446762   4.670564   5.619763
    23  H    3.120287   3.755801   2.303173   2.400512   1.902161
    24  H    5.630293   5.604169   4.682951   3.441674   2.162500
    25  H    6.250387   5.936798   5.411109   3.923414   3.422175
    26  H    5.301099   4.913902   4.693843   3.444490   3.920102
                   11         12         13         14         15
    11  O    0.000000
    12  C    2.380307   0.000000
    13  C    3.658952   1.400970   0.000000
    14  C    4.184135   2.444931   1.405732   0.000000
    15  C    3.673992   2.790657   2.405170   1.398068   0.000000
    16  F    4.779162   4.140536   3.638828   2.369875   1.349904
    17  H    3.668511   4.097491   4.468972   4.166454   3.354424
    18  H    2.560555   3.843535   4.730936   4.867051   4.117330
    19  H    4.218882   5.409103   6.055339   5.857587   4.909830
    20  H    4.989114   6.642154   7.331582   6.932361   5.678358
    21  H    5.976976   7.636574   8.237397   7.656634   6.277120
    22  H    5.638834   6.872682   7.283504   6.603990   5.295318
    23  H    0.981463   3.182898   4.326791   4.589110   3.792058
    24  H    2.596078   1.098456   2.188199   3.448348   3.888889
    25  H    4.542643   2.165148   1.100068   2.168820   3.404080
    26  H    5.281990   3.451073   2.198253   1.098034   2.161864
                   16         17         18         19         20
    16  F    0.000000
    17  H    3.754970   0.000000
    18  H    4.850069   1.776242   0.000000
    19  H    5.206508   1.798951   1.793478   0.000000
    20  H    5.655486   3.594621   3.432470   2.379804   0.000000
    21  H    5.979350   5.435841   5.349917   4.725619   2.499873
    22  H    4.929964   5.923849   5.962357   5.942265   4.355221
    23  H    4.688122   3.536745   2.408644   3.809519   4.176133
    24  H    5.238721   4.816785   4.253212   5.953751   7.269711
    25  H    4.532890   5.383547   5.639666   6.989979   8.388628
    26  H    2.606772   4.913208   5.827752   6.661317   7.731078
                   21         22         23         24         25
    21  H    0.000000
    22  H    2.533777   0.000000
    23  H    5.026669   4.812114   0.000000
    24  H    8.351271   7.668277   3.546460   0.000000
    25  H    9.337430   8.339469   5.299066   2.519563   0.000000
    26  H    8.377233   7.229326   5.664906   4.374110   2.532769
                   26
    26  H    0.000000
 Stoichiometry    C13H10F2O
 Framework group  C1[X(C13H10F2O)]
 Deg. of freedom    72
 Full point group                 C1      NOp   1
 Largest Abelian subgroup         C1      NOp   1
 Largest concise Abelian subgroup C1      NOp   1
                         Standard orientation:                         
 ---------------------------------------------------------------------
 Center     Atomic      Atomic             Coordinates (Angstroms)
 Number     Number       Type             X           Y           Z
 ---------------------------------------------------------------------
      1          6           0       -0.750723    2.129844    1.382140
      2          6           0       -1.481473    1.026673    0.653793
      3          6           0       -2.890374    0.993126    0.615594
      4          6           0       -3.575697   -0.046771   -0.031577
      5          6           0       -2.866696   -1.082035   -0.658061
      6          6           0       -1.469197   -1.044320   -0.624758
      7          9           0       -0.779692   -2.031117   -1.230042
      8          6           0       -0.749433   -0.011418    0.009639
      9          6           0        0.738271   -0.019829   -0.010440
     10          6           0        1.449877    0.946624   -0.766632
     11          8           0        0.787368    1.880407   -1.504515
     12          6           0        2.857690    0.963958   -0.769841
     13          6           0        3.561442    0.006965   -0.027133
     14          6           0        2.887045   -0.974456    0.719918
     15          6           0        1.489044   -0.967209    0.708390
     16          9           0        0.820424   -1.894581    1.426144
     17          1           0        0.006475    1.713045    2.076011
     18          1           0       -0.201241    2.787033    0.676568
     19          1           0       -1.452716    2.758866    1.960928
     20          1           0       -3.456837    1.792389    1.116599
     21          1           0       -4.675699   -0.055605   -0.044718
     22          1           0       -3.370794   -1.913531   -1.169599
     23          1           0       -0.169587    1.667900   -1.456061
     24          1           0        3.375253    1.727136   -1.366743
     25          1           0        4.661419    0.019887   -0.032850
     26          1           0        3.419540   -1.736004    1.304873
 ---------------------------------------------------------------------
 Rotational constants (GHZ):           0.8763211           0.4421673           0.3767562
 Standard basis: def2SVP (5D, 7F)
 There are   290 symmetry adapted cartesian basis functions of A   symmetry.
 There are   274 symmetry adapted basis functions of A   symmetry.
   274 basis functions,   470 primitive gaussians,   290 cartesian basis functions
    57 alpha electrons       57 beta electrons
       nuclear repulsion energy      1080.1980532040 Hartrees.
 NAtoms=   26 NActive=   26 NUniq=   26 SFac= 1.00D+00 NAtFMM=   60 NAOKFM=F Big=F
 Integral buffers will be    131072 words long.
 Raffenetti 2 integral format.
 Two-electron integral symmetry is turned on.
 Nuclear repulsion after empirical dispersion term =     1080.1448090038 Hartrees.
 One-electron integrals computed using PRISM.
   1 Symmetry operations used in ECPInt.
 ECPInt:  NShTT=    8001 NPrTT=   29641 LenC2=    7679 LenP2D=   20647.
 LDataN:  DoStor=T MaxTD1= 4 Len=   56
 NBasis=   274 RedAO= T EigKep=  2.29D-04  NBF=   274
 NBsUse=   274 1.00D-06 EigRej= -1.00D+00 NBFU=   274
 Initial guess from the checkpoint file:  "/scratch/gaussian_tmp/Gau-1716556.chk"
 B after Tr=    -0.000000    0.000000    0.000000
         Rot=    0.999994   -0.002618   -0.001588   -0.001387 Ang=  -0.39 deg.
 ExpMin= 1.22D-01 ExpMax= 2.89D+03 ExpMxC= 4.35D+02 IAcc=3 IRadAn=         5 AccDes= 0.00D+00
 Harris functional with IExCor=  404 and IRadAn=       5 diagonalized for initial guess.
 HarFok:  IExCor=  404 AccDes= 0.00D+00 IRadAn=         5 IDoV= 1 UseB2=F ITyADJ=14
 ICtDFT=  3500011 ScaDFX=  1.000000  1.000000  1.000000  1.000000
 FoFCou: FMM=F IPFlag=           0 FMFlag=      100000 FMFlg1=           0
         NFxFlg=           0 DoJE=T BraDBF=F KetDBF=T FulRan=T
         wScrn=  0.000000 ICntrl=       500 IOpCl=  0 I1Cent=   200000004 NGrid=           0
         NMat0=    1 NMatS0=      1 NMatT0=    0 NMatD0=    1 NMtDS0=    0 NMtDT0=    0
 Petite list used in FoFCou.
 Requested convergence on RMS density matrix=1.00D-08 within 128 cycles.
 Requested convergence on MAX density matrix=1.00D-06.
 Requested convergence on             energy=1.00D-06.
 No special actions if energy rises.
 Integral accuracy reduced to 1.0D-05 until final iterations.
 Initial convergence to 1.0D-05 achieved.  Increase integral accuracy.
 SCF Done:  E(RB-P86) =  -775.800268512     A.U. after   13 cycles
            NFock= 13  Conv=0.79D-08     -V/T= 2.0104
   1 Symmetry operations used in ECPInt.
 ECPInt:  NShTT=    8001 NPrTT=   29641 LenC2=    7679 LenP2D=   20647.
 LDataN:  DoStor=T MaxTD1= 5 Len=  102
 Calling FoFJK, ICntrl=      2527 FMM=F ISym2X=0 I1Cent= 0 IOpClX= 0 NMat=1 NMatS=1 NMatT=0.
 ***** Axes restored to original set *****
 -------------------------------------------------------------------
 Center     Atomic                   Forces (Hartrees/Bohr)
 Number     Number              X              Y              Z
 -------------------------------------------------------------------
      1        6          -0.000370478   -0.000165612    0.000243127
      2        6           0.000272123    0.000245978   -0.000514752
      3        6          -0.000126852   -0.000049691   -0.000009024
      4        6          -0.000101317    0.000023683   -0.000048601
      5        6          -0.000178802    0.000053847   -0.000032102
      6        6           0.000398753   -0.000384668    0.000885858
      7        9           0.000036625   -0.000036961    0.000029685
      8        6           0.000617590    0.000129028   -0.000138917
      9        6          -0.000536447   -0.000109154   -0.000057791
     10        6          -0.000370303   -0.000390079   -0.000801838
     11        8           0.000759462   -0.000075588   -0.000261884
     12        6           0.000185155   -0.000009199    0.000042289
     13        6           0.000104981    0.000026993    0.000002371
     14        6           0.000235605   -0.000091648   -0.000038273
     15        6          -0.000494404    0.000387683    0.000861566
     16        9          -0.000036005    0.000041059    0.000039144
     17        1           0.000395281    0.000330900    0.000212310
     18        1           0.000313172   -0.000271810   -0.000297768
     19        1          -0.000336593    0.000300313   -0.000345445
     20        1          -0.000283932    0.000311037   -0.000417813
     21        1          -0.000607400    0.000002877   -0.000003878
     22        1          -0.000254520   -0.000315463    0.000429692
     23        1          -0.000752262    0.000043998    0.000232092
     24        1           0.000244425   -0.000290484   -0.000441570
     25        1           0.000615289   -0.000014238   -0.000002442
     26        1           0.000270853    0.000307198    0.000433965
 -------------------------------------------------------------------
 Cartesian Forces:  Max     0.000885858 RMS     0.000339770

 GradGradGradGradGradGradGradGradGradGradGradGradGradGradGradGradGradGrad
 Berny optimization.
 Using GEDIIS/GDIIS optimizer.
 FormGI is forming the generalized inverse of G from B-inverse, IUseBI=4.
 Internal  Forces:  Max     0.000947051 RMS     0.000304163
 Search for a local minimum.
 Step number   2 out of a maximum of  140
 All quantities printed in internal units (Hartrees-Bohrs-Radians)
 Mixed Optimization -- En-DIIS/RFO-DIIS
 Update second derivatives using D2CorX and points    1    2
 DE= -4.22D-03 DEPred=-4.11D-03 R= 1.03D+00
 TightC=F SS=  1.41D+00  RLast= 1.58D-01 DXNew= 5.0454D-01 4.7518D-01
 Trust test= 1.03D+00 RLast= 1.58D-01 DXMaxT set to 4.75D-01
 ITU=  1  0
 Use linear search instead of GDIIS.
     Eigenvalues ---    0.00123   0.00617   0.01165   0.01285   0.01617
     Eigenvalues ---    0.01651   0.01686   0.01732   0.01748   0.01946
     Eigenvalues ---    0.02091   0.02207   0.02282   0.02321   0.02396
     Eigenvalues ---    0.02587   0.02831   0.02943   0.03367   0.03442
     Eigenvalues ---    0.03754   0.05242   0.05394   0.09958   0.10060
     Eigenvalues ---    0.10388   0.11103   0.11505   0.11552   0.11730
     Eigenvalues ---    0.13788   0.14120   0.16521   0.17239   0.17907
     Eigenvalues ---    0.18017   0.18062   0.18151   0.18498   0.18913
     Eigenvalues ---    0.19202   0.21133   0.21722   0.23362   0.24414
     Eigenvalues ---    0.31692   0.33616   0.34811   0.35070   0.35507
     Eigenvalues ---    0.35884   0.36449   0.37007   0.37193   0.37316
     Eigenvalues ---    0.37363   0.37643   0.37779   0.38382   0.39067
     Eigenvalues ---    0.40978   0.44475   0.45797   0.46207   0.47765
     Eigenvalues ---    0.49180   0.49437   0.49617   0.49995   0.51480
     Eigenvalues ---    0.52871   0.54242
 RFO step:  Lambda=-1.95569877D-05 EMin= 1.22507556D-03
 Quartic linear search produced a step of  0.06201.
 Iteration  1 RMS(Cart)=  0.01709821 RMS(Int)=  0.00007439
 Iteration  2 RMS(Cart)=  0.00011403 RMS(Int)=  0.00000117
 Iteration  3 RMS(Cart)=  0.00000001 RMS(Int)=  0.00000117
 Variable       Old X    -DE/DX   Delta X   Delta X   Delta X     New X
                                 (Linear)    (Quad)   (Total)
    R1        2.85434   0.00023   0.00071  -0.00009   0.00062   2.85496
    R2        2.09455   0.00056   0.00162   0.00024   0.00186   2.09641
    R3        2.09722   0.00050   0.00161  -0.00028   0.00133   2.09855
    R4        2.09023   0.00057   0.00163  -0.00006   0.00157   2.09179
    R5        2.66417   0.00075   0.00159   0.00003   0.00161   2.66578
    R6        2.69142   0.00093   0.00167   0.00049   0.00216   2.69358
    R7        2.65228   0.00062   0.00148  -0.00050   0.00098   2.65326
    R8        2.07931   0.00059   0.00165  -0.00001   0.00164   2.08095
    R9        2.65029   0.00069   0.00156  -0.00028   0.00127   2.65156
   R10        2.07892   0.00061   0.00167  -0.00003   0.00164   2.08056
   R11        2.64260   0.00080   0.00177  -0.00038   0.00139   2.64399
   R12        2.07627   0.00059   0.00164   0.00000   0.00164   2.07791
   R13        2.54626   0.00006  -0.00008  -0.00024  -0.00032   2.54594
   R14        2.66405   0.00095   0.00192   0.00052   0.00244   2.66649
   R15        2.81165   0.00023   0.00072  -0.00067   0.00006   2.81171
   R16        2.68064   0.00093   0.00178   0.00046   0.00224   2.68288
   R17        2.65767   0.00090   0.00181   0.00050   0.00231   2.65998
   R18        2.57401   0.00003   0.00003   0.00000   0.00004   2.57405
   R19        2.66059   0.00079   0.00168  -0.00016   0.00152   2.66211
   R20        1.85470   0.00079   0.00148   0.00021   0.00169   1.85638
   R21        2.64745   0.00070   0.00157  -0.00039   0.00118   2.64863
   R22        2.07578   0.00058   0.00163  -0.00002   0.00161   2.07739
   R23        2.65645   0.00069   0.00154  -0.00036   0.00118   2.65763
   R24        2.07883   0.00062   0.00168  -0.00002   0.00166   2.08049
   R25        2.64197   0.00086   0.00182  -0.00024   0.00158   2.64355
   R26        2.07498   0.00060   0.00165   0.00000   0.00165   2.07664
   R27        2.55095   0.00007  -0.00006  -0.00036  -0.00042   2.55053
    A1        1.93663   0.00001   0.00020  -0.00092  -0.00072   1.93591
    A2        1.94493   0.00003  -0.00033   0.00206   0.00173   1.94665
    A3        1.93973   0.00004   0.00047  -0.00048  -0.00001   1.93972
    A4        1.85713  -0.00006  -0.00033  -0.00052  -0.00085   1.85628
    A5        1.89636  -0.00001  -0.00003  -0.00022  -0.00025   1.89610
    A6        1.88615  -0.00003  -0.00000   0.00005   0.00005   1.88620
    A7        2.11055  -0.00014   0.00023  -0.00160  -0.00138   2.10917
    A8        2.09644   0.00019  -0.00017   0.00166   0.00149   2.09793
    A9        2.07608  -0.00005  -0.00005  -0.00013  -0.00018   2.07590
   A10        2.11542   0.00007   0.00000   0.00055   0.00056   2.11597
   A11        2.07700  -0.00005  -0.00012  -0.00051  -0.00063   2.07637
   A12        2.09067  -0.00002   0.00011  -0.00006   0.00005   2.09072
   A13        2.10140   0.00001  -0.00007  -0.00031  -0.00038   2.10102
   A14        2.09404  -0.00001   0.00001   0.00016   0.00017   2.09421
   A15        2.08773   0.00000   0.00006   0.00014   0.00021   2.08794
   A16        2.06538   0.00009   0.00045   0.00012   0.00057   2.06594
   A17        2.13491  -0.00002  -0.00002   0.00009   0.00007   2.13498
   A18        2.08290  -0.00007  -0.00043  -0.00020  -0.00063   2.08226
   A19        2.07252   0.00007   0.00040  -0.00040  -0.00000   2.07252
   A20        2.14207  -0.00011  -0.00068   0.00044  -0.00024   2.14183
   A21        2.06857   0.00005   0.00027  -0.00004   0.00023   2.06880
   A22        2.06592  -0.00001   0.00034  -0.00071  -0.00036   2.06556
   A23        2.12252   0.00024  -0.00008   0.00189   0.00181   2.12433
   A24        2.09473  -0.00023  -0.00026  -0.00118  -0.00144   2.09329
   A25        2.10011   0.00008  -0.00075   0.00203   0.00128   2.10139
   A26        2.13021  -0.00015   0.00001  -0.00120  -0.00119   2.12902
   A27        2.05287   0.00007   0.00073  -0.00082  -0.00009   2.05278
   A28        2.10813   0.00003  -0.00034   0.00079   0.00045   2.10858
   A29        2.10739  -0.00009  -0.00042   0.00017  -0.00025   2.10714
   A30        2.06766   0.00007   0.00076  -0.00096  -0.00020   2.06746
   A31        1.87450  -0.00011  -0.00117   0.00048  -0.00069   1.87381
   A32        2.08596   0.00006   0.00010   0.00032   0.00042   2.08637
   A33        2.07251  -0.00007  -0.00027  -0.00038  -0.00064   2.07187
   A34        2.12467   0.00000   0.00017   0.00005   0.00022   2.12489
   A35        2.11489   0.00002   0.00001  -0.00023  -0.00023   2.11467
   A36        2.08462  -0.00001  -0.00001   0.00012   0.00011   2.08473
   A37        2.08366  -0.00001   0.00000   0.00011   0.00011   2.08377
   A38        2.06204   0.00009   0.00043   0.00015   0.00058   2.06262
   A39        2.13491  -0.00002  -0.00003   0.00004   0.00001   2.13491
   A40        2.08624  -0.00007  -0.00039  -0.00019  -0.00058   2.08565
   A41        2.14303  -0.00015  -0.00084   0.00037  -0.00047   2.14257
   A42        2.06024   0.00007   0.00038   0.00005   0.00042   2.06066
   A43        2.07984   0.00008   0.00047  -0.00044   0.00003   2.07987
    D1        2.25589  -0.00001   0.00018  -0.01542  -0.01525   2.24065
    D2       -0.86884  -0.00001  -0.00025  -0.01068  -0.01093  -0.87977
    D3       -1.96115  -0.00005  -0.00033  -0.01533  -0.01566  -1.97681
    D4        1.19730  -0.00005  -0.00076  -0.01059  -0.01135   1.18595
    D5        0.14371  -0.00003  -0.00023  -0.01419  -0.01443   0.12928
    D6       -2.98103  -0.00003  -0.00066  -0.00945  -0.01011  -2.99114
    D7       -3.11413   0.00002  -0.00034   0.00654   0.00620  -3.10794
    D8        0.01219   0.00001  -0.00033   0.00499   0.00466   0.01685
    D9        0.01080   0.00003   0.00008   0.00187   0.00195   0.01275
   D10        3.13712   0.00001   0.00009   0.00032   0.00041   3.13754
   D11        3.10862  -0.00004   0.00046  -0.00742  -0.00697   3.10165
   D12       -0.03846  -0.00005   0.00009  -0.00620  -0.00611  -0.04457
   D13       -0.01645  -0.00004   0.00004  -0.00276  -0.00272  -0.01917
   D14        3.11965  -0.00005  -0.00033  -0.00153  -0.00186   3.11779
   D15        0.00030  -0.00000  -0.00010   0.00017   0.00007   0.00037
   D16        3.13621  -0.00001  -0.00002  -0.00038  -0.00040   3.13581
   D17       -3.12590   0.00002  -0.00012   0.00174   0.00162  -3.12428
   D18        0.01000   0.00001  -0.00003   0.00119   0.00116   0.01116
   D19       -0.00535  -0.00001   0.00001  -0.00124  -0.00124  -0.00659
   D20        3.13666   0.00000   0.00012   0.00001   0.00013   3.13679
   D21       -3.14128  -0.00001  -0.00008  -0.00069  -0.00077   3.14113
   D22        0.00073   0.00001   0.00003   0.00056   0.00059   0.00132
   D23       -3.13565   0.00003   0.00014   0.00193   0.00207  -3.13357
   D24       -0.00084   0.00000   0.00012   0.00026   0.00038  -0.00046
   D25        0.00554   0.00001   0.00003   0.00072   0.00075   0.00629
   D26        3.14034  -0.00001   0.00001  -0.00095  -0.00094   3.13941
   D27        0.01181   0.00002  -0.00014   0.00175   0.00161   0.01342
   D28       -3.12438   0.00003   0.00023   0.00053   0.00075  -3.12363
   D29       -3.13655  -0.00000  -0.00016   0.00008  -0.00008  -3.13663
   D30        0.01044   0.00001   0.00020  -0.00114  -0.00094   0.00950
   D31       -1.20591   0.00014   0.00273   0.01910   0.02183  -1.18408
   D32        1.93342   0.00016   0.00260   0.02315   0.02575   1.95917
   D33        1.93011   0.00013   0.00236   0.02035   0.02271   1.95282
   D34       -1.21375   0.00015   0.00222   0.02440   0.02663  -1.18712
   D35       -0.02123   0.00000   0.00050  -0.00088  -0.00038  -0.02161
   D36        3.11850   0.00001   0.00014   0.00152   0.00166   3.12016
   D37        3.12253  -0.00002   0.00062  -0.00475  -0.00413   3.11840
   D38       -0.02092  -0.00001   0.00027  -0.00236  -0.00209  -0.02301
   D39       -3.12079  -0.00002  -0.00016  -0.00224  -0.00239  -3.12318
   D40        0.00729  -0.00002  -0.00002  -0.00359  -0.00361   0.00367
   D41        0.01859   0.00000  -0.00029   0.00171   0.00142   0.02002
   D42       -3.13652  -0.00000  -0.00015   0.00035   0.00020  -3.13631
   D43       -0.09542  -0.00002  -0.00016  -0.00431  -0.00447  -0.09989
   D44        3.04799  -0.00003   0.00019  -0.00665  -0.00646   3.04152
   D45        0.01065   0.00000  -0.00011   0.00138   0.00126   0.01192
   D46       -3.14113   0.00001   0.00006   0.00035   0.00041  -3.14072
   D47       -3.13275   0.00001  -0.00046   0.00372   0.00326  -3.12949
   D48       -0.00135   0.00002  -0.00029   0.00269   0.00241   0.00106
   D49        0.00300   0.00001  -0.00006   0.00037   0.00031   0.00331
   D50        3.13854   0.00000   0.00005  -0.00030  -0.00026   3.13829
   D51       -3.12809   0.00000  -0.00023   0.00143   0.00120  -3.12690
   D52        0.00745  -0.00000  -0.00013   0.00076   0.00063   0.00808
   D53       -0.00558  -0.00001   0.00005  -0.00102  -0.00098  -0.00656
   D54        3.13665   0.00001   0.00014   0.00021   0.00036   3.13701
   D55       -3.14113  -0.00000  -0.00005  -0.00035  -0.00041  -3.14154
   D56        0.00110   0.00001   0.00004   0.00089   0.00092   0.00202
   D57       -0.00559   0.00000   0.00014  -0.00005   0.00008  -0.00551
   D58       -3.13352   0.00001  -0.00000   0.00131   0.00131  -3.13221
   D59        3.13538  -0.00001   0.00005  -0.00126  -0.00121   3.13417
   D60        0.00745  -0.00001  -0.00009   0.00011   0.00002   0.00747
         Item               Value     Threshold  Converged?
 Maximum Force            0.000947     0.000450     NO 
 RMS     Force            0.000304     0.000300     NO 
 Maximum Displacement     0.054082     0.001800     NO 
 RMS     Displacement     0.017118     0.001200     NO 
 Predicted change in Energy=-2.255711D-05
 GradGradGradGradGradGradGradGradGradGradGradGradGradGradGradGradGradGrad

                          Input orientation:                          
 ---------------------------------------------------------------------
 Center     Atomic      Atomic             Coordinates (Angstroms)
 Number     Number       Type             X           Y           Z
 ---------------------------------------------------------------------
      1          6           0       -0.737000    1.534996   -2.094733
      2          6           0       -1.479547    0.746593   -1.041401
      3          6           0       -2.889778    0.720605   -1.017565
      4          6           0       -3.588373    0.023504   -0.018887
      5          6           0       -2.891453   -0.666866    0.984365
      6          6           0       -1.492738   -0.647207    0.956073
      7          9           0       -0.815904   -1.315350    1.910312
      8          6           0       -0.759526    0.035903   -0.037308
      9          6           0        0.727765   -0.003128   -0.021095
     10          6           0        1.439564   -0.690190   -1.039376
     11          8           0        0.777240   -1.345540   -2.032973
     12          6           0        2.848140   -0.709909   -1.045100
     13          6           0        3.552557   -0.055348   -0.025390
     14          6           0        2.877925    0.619029    1.008014
     15          6           0        1.479178    0.627182    0.988574
     16          9           0        0.811543    1.277735    1.964628
     17          1           0        0.014169    2.206612   -1.630636
     18          1           0       -0.176903    0.868073   -2.783734
     19          1           0       -1.433057    2.147196   -2.699720
     20          1           0       -3.446505    1.272679   -1.790798
     21          1           0       -4.689352    0.021398   -0.016823
     22          1           0       -3.405877   -1.219243    1.783948
     23          1           0       -0.181327   -1.306378   -1.821694
     24          1           0        3.365414   -1.251400   -1.849894
     25          1           0        4.653333   -0.074400   -0.029651
     26          1           0        3.410836    1.134734    1.818974
 ---------------------------------------------------------------------
                    Distance matrix (angstroms):
                    1          2          3          4          5
     1  C    0.000000
     2  C    1.510782   0.000000
     3  C    2.541255   1.410672   0.000000
     4  C    3.837195   2.452660   1.404045   0.000000
     5  C    4.355537   2.845184   2.435734   1.403147   0.000000
     6  C    3.826299   2.435725   2.778107   2.406675   1.399139
     7  F    4.916410   3.661236   4.125353   3.633308   2.363433
     8  C    2.545739   1.425382   2.442887   2.828934   2.466335
     9  C    2.968390   2.544668   3.821435   4.316221   3.814478
    10  C    3.286741   3.253546   4.553463   5.179856   4.780563
    11  O    3.254877   3.233160   4.329784   4.998940   4.798357
    12  C    4.358275   4.566212   5.913615   6.558941   6.087981
    13  C    5.021123   5.195908   6.564313   7.141368   6.551246
    14  C    4.851156   4.817046   6.113893   6.574358   5.910990
    15  C    3.904146   3.590141   4.808441   5.201873   4.558179
    16  F    4.352307   3.816729   4.785776   4.986651   4.295878
    17  H    1.109373   2.170262   3.319184   4.510211   4.851571
    18  H    1.110503   2.178844   3.240493   4.471667   4.891154
    19  H    1.106929   2.171145   2.643264   4.042563   4.859870
    20  H    2.739088   2.169628   1.101190   2.172609   3.430953
    21  H    4.714846   3.446522   2.174590   1.100983   2.169913
    22  H    5.454621   3.944345   3.446425   2.197257   1.099584
    23  H    2.908045   2.551258   3.477210   4.077580   3.953192
    24  H    4.965255   5.302762   6.611279   7.302953   6.893699
    25  H    5.992530   6.269759   7.648956   8.242294   7.635643
    26  H    5.716805   5.678754   6.922081   7.321304   6.607661
                    6          7          8          9         10
     6  C    0.000000
     7  F    1.347254   0.000000
     8  C    1.411043   2.371136   0.000000
     9  C    2.510046   2.799138   1.487892   0.000000
    10  C    3.547120   3.765451   2.523361   1.419721   0.000000
    11  O    3.817704   4.253060   2.872754   2.419126   1.362128
    12  C    4.780361   4.746182   3.819311   2.458478   1.408726
    13  C    5.173835   4.941457   4.313065   2.825278   2.428154
    14  C    4.550686   4.266184   3.829332   2.463601   2.823959
    15  C    3.233792   3.144906   2.532557   1.407603   2.418600
    16  F    3.167380   3.061964   2.831634   2.364472   3.645707
    17  H    4.135953   5.062761   2.801656   2.825384   3.282195
    18  H    4.244249   5.216294   2.928278   3.034730   2.843226
    19  H    4.601855   5.798491   3.464050   4.058088   4.365713
    20  H    3.879235   5.226488   3.438633   4.709997   5.318944
    21  H    3.407624   4.528173   3.929906   5.417175   6.254245
    22  H    2.161643   2.594834   3.448990   4.671628   5.632881
    23  H    3.141702   3.785583   2.306527   2.401471   1.902366
    24  H    5.642707   5.623758   4.685910   3.443817   2.163514
    25  H    6.250915   5.934304   5.413988   3.926224   3.424478
    26  H    5.288190   4.886367   4.695225   3.446659   3.922554
                   11         12         13         14         15
    11  O    0.000000
    12  C    2.380872   0.000000
    13  C    3.660242   1.401593   0.000000
    14  C    4.185692   2.445862   1.406356   0.000000
    15  C    3.676153   2.792437   2.406839   1.398905   0.000000
    16  F    4.781586   4.142092   3.640116   2.370430   1.349680
    17  H    3.655398   4.108569   4.495939   4.205234   3.391329
    18  H    2.524701   3.829329   4.729698   4.875587   4.126856
    19  H    4.186784   5.406428   6.071210   5.887881   4.939136
    20  H    4.975313   6.641482   7.339428   6.946871   5.692445
    21  H    5.984731   7.642379   8.242271   7.659708   6.279217
    22  H    5.664212   6.882998   7.283416   6.592987   5.282581
    23  H    0.982356   3.183794   4.328242   4.590584   3.793882
    24  H    2.596349   1.099308   2.189607   3.450187   3.891511
    25  H    4.544579   2.166501   1.100949   2.170177   3.406502
    26  H    5.284419   3.452862   2.199559   1.098910   2.162978
                   16         17         18         19         20
    16  F    0.000000
    17  H    3.797965   0.000000
    18  H    4.867421   1.777028   0.000000
    19  H    5.248841   1.800259   1.794752   0.000000
    20  H    5.677519   3.588056   3.440920   2.375899   0.000000
    21  H    5.980332   5.431635   5.360490   4.724448   2.501471
    22  H    4.904505   5.923898   5.970501   5.943753   4.357767
    23  H    4.690380   3.523609   2.377767   3.776893   4.160995
    24  H    5.241122   4.820453   4.232284   5.941210   7.264758
    25  H    4.534839   5.411840   5.639539   7.007774   8.397835
    26  H    2.607296   4.958435   5.841909   6.701266   7.750653
                   21         22         23         24         25
    21  H    0.000000
    22  H    2.535601   0.000000
    23  H    5.034167   4.837971   0.000000
    24  H    8.358195   7.684804   3.547279   0.000000
    25  H    9.343185   8.339704   5.301238   2.521379   0.000000
    26  H    8.379900   7.211797   5.667198   4.376790   2.534406
                   26
    26  H    0.000000
 Stoichiometry    C13H10F2O
 Framework group  C1[X(C13H10F2O)]
 Deg. of freedom    72
 Full point group                 C1      NOp   1
 Largest Abelian subgroup         C1      NOp   1
 Largest concise Abelian subgroup C1      NOp   1
                         Standard orientation:                         
 ---------------------------------------------------------------------
 Center     Atomic      Atomic             Coordinates (Angstroms)
 Number     Number       Type             X           Y           Z
 ---------------------------------------------------------------------
      1          6           0       -0.761168    2.141493    1.371043
      2          6           0       -1.485703    1.032973    0.643931
      3          6           0       -2.895261    0.996320    0.601498
      4          6           0       -3.577450   -0.051342   -0.037537
      5          6           0       -2.864340   -1.092076   -0.651677
      6          6           0       -1.466245   -1.051482   -0.615999
      7          9           0       -0.773860   -2.042015   -1.211433
      8          6           0       -0.749219   -0.009748    0.009865
      9          6           0        0.738538   -0.016701   -0.008963
     10          6           0        1.452202    0.960034   -0.752118
     11          8           0        0.791652    1.903333   -1.479616
     12          6           0        2.860841    0.975610   -0.754123
     13          6           0        3.563673    0.006537   -0.025162
     14          6           0        2.887446   -0.985825    0.706803
     15          6           0        1.488613   -0.976970    0.695746
     16          9           0        0.819294   -1.913610    1.400271
     17          1           0       -0.015739    1.728311    2.081202
     18          1           0       -0.197129    2.789782    0.667623
     19          1           0       -1.469561    2.779720    1.933305
     20          1           0       -3.464730    1.799594    1.094524
     21          1           0       -4.678261   -0.062259   -0.053606
     22          1           0       -3.365710   -1.930146   -1.157001
     23          1           0       -0.165835    1.687485   -1.438971
     24          1           0        3.379574    1.747310   -1.340531
     25          1           0        4.664547    0.018259   -0.030349
     26          1           0        3.419166   -1.757047    1.281340
 ---------------------------------------------------------------------
 Rotational constants (GHZ):           0.8752715           0.4439566           0.3746546
 Standard basis: def2SVP (5D, 7F)
 There are   290 symmetry adapted cartesian basis functions of A   symmetry.
 There are   274 symmetry adapted basis functions of A   symmetry.
   274 basis functions,   470 primitive gaussians,   290 cartesian basis functions
    57 alpha electrons       57 beta electrons
       nuclear repulsion energy      1079.9167964941 Hartrees.
 NAtoms=   26 NActive=   26 NUniq=   26 SFac= 1.00D+00 NAtFMM=   60 NAOKFM=F Big=F
 Integral buffers will be    131072 words long.
 Raffenetti 2 integral format.
 Two-electron integral symmetry is turned on.
 Nuclear repulsion after empirical dispersion term =     1079.8635779772 Hartrees.
 One-electron integrals computed using PRISM.
   1 Symmetry operations used in ECPInt.
 ECPInt:  NShTT=    8001 NPrTT=   29641 LenC2=    7679 LenP2D=   20637.
 LDataN:  DoStor=T MaxTD1= 4 Len=   56
 NBasis=   274 RedAO= T EigKep=  2.31D-04  NBF=   274
 NBsUse=   274 1.00D-06 EigRej= -1.00D+00 NBFU=   274
 Initial guess from the checkpoint file:  "/scratch/gaussian_tmp/Gau-1716556.chk"
 B after Tr=     0.000000   -0.000000    0.000000
         Rot=    0.999999   -0.001237    0.000640   -0.000405 Ang=  -0.17 deg.
 ExpMin= 1.22D-01 ExpMax= 2.89D+03 ExpMxC= 4.35D+02 IAcc=3 IRadAn=         5 AccDes= 0.00D+00
 Harris functional with IExCor=  404 and IRadAn=       5 diagonalized for initial guess.
 HarFok:  IExCor=  404 AccDes= 0.00D+00 IRadAn=         5 IDoV= 1 UseB2=F ITyADJ=14
 ICtDFT=  3500011 ScaDFX=  1.000000  1.000000  1.000000  1.000000
 FoFCou: FMM=F IPFlag=           0 FMFlag=      100000 FMFlg1=           0
         NFxFlg=           0 DoJE=T BraDBF=F KetDBF=T FulRan=T
         wScrn=  0.000000 ICntrl=       500 IOpCl=  0 I1Cent=   200000004 NGrid=           0
         NMat0=    1 NMatS0=      1 NMatT0=    0 NMatD0=    1 NMtDS0=    0 NMtDT0=    0
 Petite list used in FoFCou.
 Requested convergence on RMS density matrix=1.00D-08 within 128 cycles.
 Requested convergence on MAX density matrix=1.00D-06.
 Requested convergence on             energy=1.00D-06.
 No special actions if energy rises.
 Integral accuracy reduced to 1.0D-05 until final iterations.
 Initial convergence to 1.0D-05 achieved.  Increase integral accuracy.
 SCF Done:  E(RB-P86) =  -775.800289038     A.U. after   12 cycles
            NFock= 12  Conv=0.26D-08     -V/T= 2.0105
   1 Symmetry operations used in ECPInt.
 ECPInt:  NShTT=    8001 NPrTT=   29641 LenC2=    7679 LenP2D=   20637.
 LDataN:  DoStor=T MaxTD1= 5 Len=  102
 Calling FoFJK, ICntrl=      2527 FMM=F ISym2X=0 I1Cent= 0 IOpClX= 0 NMat=1 NMatS=1 NMatT=0.
 ***** Axes restored to original set *****
 -------------------------------------------------------------------
 Center     Atomic                   Forces (Hartrees/Bohr)
 Number     Number              X              Y              Z
 -------------------------------------------------------------------
      1        6          -0.000038399    0.000028400   -0.000004617
      2        6           0.000010165    0.000032129   -0.000038494
      3        6          -0.000020032   -0.000010228    0.000009891
      4        6          -0.000004049    0.000009776   -0.000015897
      5        6           0.000008057    0.000002000    0.000004400
      6        6          -0.000026143   -0.000043954    0.000041395
      7        9          -0.000002145   -0.000018265    0.000004767
      8        6           0.000119043    0.000029836   -0.000010303
      9        6          -0.000124552   -0.000020240   -0.000026735
     10        6           0.000013114   -0.000047480   -0.000029315
     11        8           0.000094673   -0.000081859    0.000027862
     12        6           0.000007526    0.000000129   -0.000001270
     13        6           0.000004371   -0.000000594   -0.000005758
     14        6           0.000000079   -0.000002340    0.000000279
     15        6           0.000020879    0.000036176    0.000049729
     16        9           0.000003227    0.000013569   -0.000003725
     17        1           0.000016233    0.000024189    0.000010187
     18        1          -0.000015620    0.000039113   -0.000015021
     19        1          -0.000019931    0.000024110   -0.000003357
     20        1          -0.000012554    0.000013692   -0.000019162
     21        1          -0.000027322    0.000001132    0.000000561
     22        1          -0.000012566   -0.000013363    0.000019651
     23        1          -0.000047473   -0.000013524    0.000004569
     24        1           0.000012049   -0.000013252   -0.000019121
     25        1           0.000027755   -0.000001319   -0.000000454
     26        1           0.000013616    0.000012168    0.000019936
 -------------------------------------------------------------------
 Cartesian Forces:  Max     0.000124552 RMS     0.000031524

 GradGradGradGradGradGradGradGradGradGradGradGradGradGradGradGradGradGrad
 Berny optimization.
 Using GEDIIS/GDIIS optimizer.
 FormGI is forming the generalized inverse of G from B-inverse, IUseBI=4.
 Internal  Forces:  Max     0.000185206 RMS     0.000052549
 Search for a local minimum.
 Step number   3 out of a maximum of  140
 All quantities printed in internal units (Hartrees-Bohrs-Radians)
 Mixed Optimization -- En-DIIS/RFO-DIIS
 Swapping is turned off.
 Update second derivatives using D2CorX and points    1    2    3
 DE= -2.05D-05 DEPred=-2.26D-05 R= 9.10D-01
 TightC=F SS=  1.41D+00  RLast= 6.16D-02 DXNew= 7.9916D-01 1.8481D-01
 Trust test= 9.10D-01 RLast= 6.16D-02 DXMaxT set to 4.75D-01
 ITU=  1  1  0
     Eigenvalues ---    0.00121   0.00795   0.01164   0.01278   0.01617
     Eigenvalues ---    0.01655   0.01691   0.01732   0.01748   0.01951
     Eigenvalues ---    0.02099   0.02208   0.02282   0.02324   0.02395
     Eigenvalues ---    0.02600   0.02832   0.02948   0.03371   0.03446
     Eigenvalues ---    0.03807   0.05248   0.05396   0.09958   0.10059
     Eigenvalues ---    0.10386   0.11095   0.11494   0.11552   0.11730
     Eigenvalues ---    0.13786   0.14122   0.16511   0.17241   0.17833
     Eigenvalues ---    0.18019   0.18072   0.18157   0.18505   0.18908
     Eigenvalues ---    0.19203   0.21127   0.21502   0.23353   0.24440
     Eigenvalues ---    0.31468   0.32859   0.34257   0.34917   0.35272
     Eigenvalues ---    0.35793   0.36402   0.36567   0.37169   0.37305
     Eigenvalues ---    0.37361   0.37600   0.37753   0.38386   0.39061
     Eigenvalues ---    0.40744   0.43975   0.45869   0.46216   0.47506
     Eigenvalues ---    0.48661   0.49248   0.49445   0.50006   0.50656
     Eigenvalues ---    0.51939   0.54195
 En-DIIS/RFO-DIIS/Sim-DIIS IScMMF=       -3 using points:     3    2
 RFO step:  Lambda=-6.30240428D-06.
 DidBck=T Rises=F RFO-DIIS coefs:    0.78584    0.21416
 Iteration  1 RMS(Cart)=  0.00825922 RMS(Int)=  0.00001462
 Iteration  2 RMS(Cart)=  0.00002501 RMS(Int)=  0.00000019
 Iteration  3 RMS(Cart)=  0.00000000 RMS(Int)=  0.00000019
 Variable       Old X    -DE/DX   Delta X   Delta X   Delta X     New X
                                 (Linear)    (Quad)   (Total)
    R1        2.85496   0.00004  -0.00013   0.00012  -0.00001   2.85496
    R2        2.09641   0.00003  -0.00040   0.00069   0.00029   2.09670
    R3        2.09855  -0.00002  -0.00028   0.00046   0.00018   2.09873
    R4        2.09179   0.00003  -0.00034   0.00061   0.00027   2.09206
    R5        2.66578   0.00005  -0.00035   0.00056   0.00022   2.66600
    R6        2.69358   0.00018  -0.00046   0.00062   0.00016   2.69374
    R7        2.65326   0.00000  -0.00021   0.00042   0.00021   2.65347
    R8        2.08095   0.00003  -0.00035   0.00061   0.00026   2.08121
    R9        2.65156   0.00001  -0.00027   0.00046   0.00018   2.65175
   R10        2.08056   0.00003  -0.00035   0.00062   0.00027   2.08082
   R11        2.64399   0.00002  -0.00030   0.00061   0.00031   2.64430
   R12        2.07791   0.00003  -0.00035   0.00062   0.00027   2.07818
   R13        2.54594   0.00001   0.00007  -0.00006   0.00001   2.54595
   R14        2.66649   0.00010  -0.00052   0.00084   0.00032   2.66680
   R15        2.81171   0.00003  -0.00001   0.00023   0.00021   2.81192
   R16        2.68288   0.00013  -0.00048   0.00072   0.00024   2.68312
   R17        2.65998   0.00009  -0.00050   0.00071   0.00021   2.66020
   R18        2.57405  -0.00000  -0.00001  -0.00019  -0.00019   2.57385
   R19        2.66211   0.00004  -0.00032   0.00064   0.00031   2.66242
   R20        1.85638   0.00005  -0.00036   0.00064   0.00028   1.85666
   R21        2.64863   0.00002  -0.00025   0.00046   0.00020   2.64883
   R22        2.07739   0.00003  -0.00034   0.00061   0.00026   2.07765
   R23        2.65763   0.00002  -0.00025   0.00047   0.00022   2.65785
   R24        2.08049   0.00003  -0.00036   0.00063   0.00027   2.08076
   R25        2.64355   0.00003  -0.00034   0.00063   0.00029   2.64384
   R26        2.07664   0.00003  -0.00035   0.00062   0.00027   2.07690
   R27        2.55053   0.00000   0.00009  -0.00003   0.00006   2.55059
    A1        1.93591  -0.00000   0.00015  -0.00016  -0.00000   1.93591
    A2        1.94665   0.00006  -0.00037   0.00039   0.00002   1.94667
    A3        1.93972  -0.00002   0.00000   0.00007   0.00008   1.93979
    A4        1.85628  -0.00001   0.00018  -0.00014   0.00004   1.85632
    A5        1.89610  -0.00001   0.00005  -0.00020  -0.00014   1.89596
    A6        1.88620  -0.00002  -0.00001   0.00001   0.00000   1.88620
    A7        2.10917  -0.00014   0.00030  -0.00018   0.00011   2.10928
    A8        2.09793   0.00017  -0.00032   0.00021  -0.00011   2.09782
    A9        2.07590  -0.00003   0.00004  -0.00004  -0.00000   2.07590
   A10        2.11597   0.00004  -0.00012   0.00013   0.00001   2.11598
   A11        2.07637  -0.00002   0.00013  -0.00015  -0.00002   2.07635
   A12        2.09072  -0.00002  -0.00001   0.00002   0.00001   2.09073
   A13        2.10102   0.00000   0.00008  -0.00006   0.00002   2.10104
   A14        2.09421  -0.00000  -0.00004   0.00003  -0.00001   2.09420
   A15        2.08794  -0.00000  -0.00004   0.00003  -0.00001   2.08793
   A16        2.06594   0.00001  -0.00012   0.00013   0.00000   2.06595
   A17        2.13498  -0.00001  -0.00001   0.00003   0.00002   2.13500
   A18        2.08226  -0.00001   0.00014  -0.00016  -0.00002   2.08224
   A19        2.07252  -0.00003   0.00000   0.00008   0.00008   2.07260
   A20        2.14183   0.00003   0.00005  -0.00012  -0.00007   2.14176
   A21        2.06880  -0.00000  -0.00005   0.00004  -0.00001   2.06880
   A22        2.06556  -0.00006   0.00008  -0.00004   0.00004   2.06560
   A23        2.12433   0.00019  -0.00039   0.00070   0.00032   2.12464
   A24        2.09329  -0.00013   0.00031  -0.00066  -0.00035   2.09294
   A25        2.10139   0.00015  -0.00027   0.00022  -0.00005   2.10133
   A26        2.12902  -0.00009   0.00025  -0.00040  -0.00014   2.12888
   A27        2.05278  -0.00006   0.00002   0.00017   0.00019   2.05297
   A28        2.10858   0.00008  -0.00010   0.00002  -0.00008   2.10850
   A29        2.10714  -0.00000   0.00005  -0.00022  -0.00017   2.10698
   A30        2.06746  -0.00008   0.00004   0.00021   0.00025   2.06771
   A31        1.87381   0.00002   0.00015  -0.00029  -0.00014   1.87367
   A32        2.08637   0.00002  -0.00009   0.00013   0.00004   2.08641
   A33        2.07187  -0.00001   0.00014  -0.00018  -0.00004   2.07183
   A34        2.12489  -0.00001  -0.00005   0.00005   0.00000   2.12489
   A35        2.11467  -0.00000   0.00005   0.00001   0.00006   2.11473
   A36        2.08473   0.00000  -0.00002  -0.00001  -0.00003   2.08470
   A37        2.08377   0.00000  -0.00002  -0.00000  -0.00003   2.08374
   A38        2.06262   0.00001  -0.00012   0.00011  -0.00002   2.06260
   A39        2.13491  -0.00000  -0.00000   0.00001   0.00001   2.13492
   A40        2.08565  -0.00000   0.00012  -0.00012   0.00001   2.08566
   A41        2.14257   0.00003   0.00010  -0.00020  -0.00010   2.14246
   A42        2.06066  -0.00001  -0.00009   0.00003  -0.00006   2.06060
   A43        2.07987  -0.00002  -0.00001   0.00017   0.00017   2.08003
    D1        2.24065  -0.00003   0.00327  -0.00719  -0.00392   2.23673
    D2       -0.87977   0.00001   0.00234  -0.00610  -0.00376  -0.88353
    D3       -1.97681  -0.00000   0.00335  -0.00721  -0.00386  -1.98067
    D4        1.18595   0.00004   0.00243  -0.00613  -0.00370   1.18225
    D5        0.12928  -0.00000   0.00309  -0.00688  -0.00379   0.12549
    D6       -2.99114   0.00004   0.00216  -0.00580  -0.00363  -2.99477
    D7       -3.10794   0.00005  -0.00133   0.00142   0.00010  -3.10784
    D8        0.01685   0.00004  -0.00100   0.00125   0.00025   0.01710
    D9        0.01275   0.00001  -0.00042   0.00035  -0.00006   0.01268
   D10        3.13754  -0.00000  -0.00009   0.00018   0.00009   3.13763
   D11        3.10165  -0.00007   0.00149  -0.00165  -0.00016   3.10149
   D12       -0.04457  -0.00005   0.00131  -0.00160  -0.00029  -0.04486
   D13       -0.01917  -0.00003   0.00058  -0.00059  -0.00000  -0.01918
   D14        3.11779  -0.00000   0.00040  -0.00053  -0.00013   3.11766
   D15        0.00037   0.00001  -0.00001   0.00008   0.00006   0.00043
   D16        3.13581  -0.00000   0.00009  -0.00000   0.00008   3.13589
   D17       -3.12428   0.00002  -0.00035   0.00025  -0.00009  -3.12438
   D18        0.01116   0.00001  -0.00025   0.00017  -0.00007   0.01108
   D19       -0.00659  -0.00001   0.00026  -0.00026   0.00001  -0.00659
   D20        3.13679  -0.00001  -0.00003  -0.00007  -0.00010   3.13669
   D21        3.14113   0.00000   0.00017  -0.00018  -0.00001   3.14112
   D22        0.00132   0.00000  -0.00013   0.00001  -0.00011   0.00121
   D23       -3.13357   0.00001  -0.00044   0.00027  -0.00017  -3.13375
   D24       -0.00046  -0.00001  -0.00008   0.00001  -0.00007  -0.00053
   D25        0.00629   0.00001  -0.00016   0.00008  -0.00008   0.00622
   D26        3.13941  -0.00001   0.00020  -0.00018   0.00002   3.13943
   D27        0.01342   0.00003  -0.00034   0.00042   0.00007   0.01349
   D28       -3.12363   0.00000  -0.00016   0.00036   0.00020  -3.12343
   D29       -3.13663   0.00001   0.00002   0.00016   0.00017  -3.13646
   D30        0.00950  -0.00002   0.00020   0.00010   0.00030   0.00980
   D31       -1.18408  -0.00017  -0.00468  -0.00688  -0.01156  -1.19564
   D32        1.95917  -0.00014  -0.00551  -0.00543  -0.01094   1.94823
   D33        1.95282  -0.00014  -0.00486  -0.00683  -0.01169   1.94113
   D34       -1.18712  -0.00011  -0.00570  -0.00537  -0.01107  -1.19820
   D35       -0.02161  -0.00004   0.00008   0.00080   0.00088  -0.02073
   D36        3.12016   0.00000  -0.00036   0.00117   0.00081   3.12097
   D37        3.11840  -0.00007   0.00088  -0.00060   0.00029   3.11869
   D38       -0.02301  -0.00003   0.00045  -0.00023   0.00022  -0.02279
   D39       -3.12318   0.00000   0.00051  -0.00122  -0.00071  -3.12389
   D40        0.00367  -0.00002   0.00077  -0.00127  -0.00050   0.00317
   D41        0.02002   0.00003  -0.00031   0.00020  -0.00011   0.01991
   D42       -3.13631   0.00001  -0.00004   0.00015   0.00010  -3.13621
   D43       -0.09989   0.00001   0.00096   0.00135   0.00231  -0.09758
   D44        3.04152  -0.00003   0.00138   0.00100   0.00238   3.04390
   D45        0.01192   0.00001  -0.00027   0.00008  -0.00019   0.01172
   D46       -3.14072  -0.00000  -0.00009   0.00014   0.00006  -3.14066
   D47       -3.12949   0.00005  -0.00070   0.00043  -0.00026  -3.12976
   D48        0.00106   0.00004  -0.00052   0.00050  -0.00001   0.00104
   D49        0.00331   0.00001  -0.00007   0.00012   0.00005   0.00336
   D50        3.13829  -0.00000   0.00005   0.00003   0.00008   3.13837
   D51       -3.12690   0.00002  -0.00026   0.00005  -0.00021  -3.12710
   D52        0.00808   0.00001  -0.00013  -0.00004  -0.00018   0.00791
   D53       -0.00656  -0.00001   0.00021  -0.00015   0.00006  -0.00650
   D54        3.13701  -0.00001  -0.00008   0.00005  -0.00003   3.13698
   D55       -3.14154   0.00000   0.00009  -0.00006   0.00003  -3.14151
   D56        0.00202   0.00000  -0.00020   0.00014  -0.00006   0.00197
   D57       -0.00551  -0.00001  -0.00002  -0.00001  -0.00003  -0.00553
   D58       -3.13221   0.00001  -0.00028   0.00005  -0.00024  -3.13244
   D59        3.13417  -0.00001   0.00026  -0.00021   0.00005   3.13423
   D60        0.00747   0.00001  -0.00000  -0.00015  -0.00016   0.00732
         Item               Value     Threshold  Converged?
 Maximum Force            0.000185     0.000450     YES
 RMS     Force            0.000053     0.000300     YES
 Maximum Displacement     0.027431     0.001800     NO 
 RMS     Displacement     0.008259     0.001200     NO 
 Predicted change in Energy=-3.151822D-06
 GradGradGradGradGradGradGradGradGradGradGradGradGradGradGradGradGradGrad

                          Input orientation:                          
 ---------------------------------------------------------------------
 Center     Atomic      Atomic             Coordinates (Angstroms)
 Number     Number       Type             X           Y           Z
 ---------------------------------------------------------------------
      1          6           0       -0.737521    1.543549   -2.089803
      2          6           0       -1.479833    0.750335   -1.039930
      3          6           0       -2.890168    0.723701   -1.016104
      4          6           0       -3.588489    0.022032   -0.020281
      5          6           0       -2.891222   -0.672334    0.980105
      6          6           0       -1.492351   -0.651973    0.951884
      7          9           0       -0.815142   -1.323670    1.903363
      8          6           0       -0.759427    0.035674   -0.038815
      9          6           0        0.727980   -0.003263   -0.022574
     10          6           0        1.439585   -0.697966   -1.035968
     11          8           0        0.776974   -1.359718   -2.024980
     12          6           0        2.848317   -0.718474   -1.041112
     13          6           0        3.552870   -0.056904   -0.025881
     14          6           0        2.878344    0.625315    1.002591
     15          6           0        1.479453    0.634020    0.982823
     16          9           0        0.811743    1.291660    1.954109
     17          1           0        0.010740    2.216409   -1.622457
     18          1           0       -0.173966    0.879969   -2.779366
     19          1           0       -1.434201    2.155306   -2.694783
     20          1           0       -3.447216    1.278802   -1.787133
     21          1           0       -4.689610    0.019442   -0.018208
     22          1           0       -3.405455   -1.228301    1.777513
     23          1           0       -0.181873   -1.316465   -1.815091
     24          1           0        3.365578   -1.265916   -1.842068
     25          1           0        4.653781   -0.076548   -0.029772
     26          1           0        3.411435    1.146600    1.810048
 ---------------------------------------------------------------------
                    Distance matrix (angstroms):
                    1          2          3          4          5
     1  C    0.000000
     2  C    1.510777   0.000000
     3  C    2.541431   1.410788   0.000000
     4  C    3.837442   2.452864   1.404157   0.000000
     5  C    4.355789   2.845443   2.435932   1.403245   0.000000
     6  C    3.826479   2.435970   2.778371   2.406903   1.399304
     7  F    4.916538   3.661460   4.125621   3.633563   2.363632
     8  C    2.545726   1.425468   2.443058   2.829156   2.466581
     9  C    2.968797   2.545066   3.821855   4.316544   3.814661
    10  C    3.297688   3.258925   4.557224   5.179918   4.777143
    11  O    3.275188   3.242811   4.336634   4.998532   4.791523
    12  C    4.367463   4.570589   5.916984   6.559186   6.085208
    13  C    5.022815   5.196925   6.565259   7.141798   6.551113
    14  C    4.845671   4.814689   6.112327   6.574964   5.913737
    15  C    3.896568   3.586424   4.805969   5.202383   4.561729
    16  F    4.337844   3.809019   4.780052   4.987206   4.303244
    17  H    1.109525   2.170373   3.318300   4.509625   4.851757
    18  H    1.110599   2.178929   3.242109   4.472983   4.891497
    19  H    1.107073   2.171305   2.643350   4.042868   4.860376
    20  H    2.739370   2.169835   1.101329   2.172832   3.431277
    21  H    4.715232   3.446852   2.174802   1.101125   2.170111
    22  H    5.455011   3.944744   3.446755   2.197474   1.099724
    23  H    2.926412   2.560710   3.483607   4.076512   3.945706
    24  H    4.978944   5.309115   6.616280   7.303203   6.889452
    25  H    5.994545   6.270994   7.650125   8.242865   7.635566
    26  H    5.707910   5.674849   6.919262   7.322138   6.612171
                    6          7          8          9         10
     6  C    0.000000
     7  F    1.347257   0.000000
     8  C    1.411212   2.371281   0.000000
     9  C    2.510032   2.798916   1.488005   0.000000
    10  C    3.542586   3.756989   2.523529   1.419846   0.000000
    11  O    3.809521   4.238868   2.872716   2.419091   1.362025
    12  C    4.776804   4.738895   3.819575   2.458613   1.408890
    13  C    5.173431   4.940264   4.313310   2.825401   2.428417
    14  C    4.553791   4.272209   3.829567   2.463765   2.824327
    15  C    3.238265   3.153587   2.532656   1.407715   2.418945
    16  F    3.176637   3.080468   2.831576   2.364554   3.646006
    17  H    4.136923   5.064154   2.802978   2.828604   3.298356
    18  H    4.243491   5.214891   2.926811   3.032080   2.851817
    19  H    4.602432   5.799091   3.464438   4.058959   4.376240
    20  H    3.879639   5.226895   3.438923   4.710586   5.324724
    21  H    3.407981   4.528564   3.930270   5.417639   6.254401
    22  H    2.161893   2.595122   3.449368   4.671864   5.627729
    23  H    3.132898   3.772000   2.305863   2.401136   1.902288
    24  H    5.637603   5.613377   4.686313   3.444093   2.163750
    25  H    6.250576   5.933080   5.414378   3.926491   3.424857
    26  H    5.293244   4.896416   4.695587   3.446972   3.923063
                   11         12         13         14         15
    11  O    0.000000
    12  C    2.381102   0.000000
    13  C    3.660508   1.401701   0.000000
    14  C    4.185964   2.446098   1.406471   0.000000
    15  C    3.676322   2.792730   2.407055   1.399058   0.000000
    16  F    4.781648   4.142417   3.640434   2.370705   1.349713
    17  H    3.679378   4.123511   4.501521   4.200668   3.383572
    18  H    2.547466   3.835458   4.727442   4.866687   4.116837
    19  H    4.206343   5.416013   6.073531   5.882983   4.932390
    20  H    4.986195   6.646758   7.340798   6.944229   5.688626
    21  H    5.984375   7.642721   8.242836   7.660485   6.279897
    22  H    5.654107   6.878534   7.283041   6.597160   5.287920
    23  H    0.982503   3.184130   4.328519   4.590727   3.793774
    24  H    2.596753   1.099446   2.189823   3.450541   3.891944
    25  H    4.544998   2.166698   1.101093   2.170382   3.406847
    26  H    5.284832   3.453219   2.199787   1.099050   2.163237
                   16         17         18         19         20
    16  F    0.000000
    17  H    3.780025   0.000000
    18  H    4.852514   1.777252   0.000000
    19  H    5.234725   1.800408   1.794946   0.000000
    20  H    5.668844   3.586598   3.443510   2.375777   0.000000
    21  H    5.981092   5.430798   5.362419   4.724792   2.501724
    22  H    4.915908   5.924205   5.970969   5.944415   4.358211
    23  H    4.690038   3.543361   2.398793   3.794124   4.171169
    24  H    5.241586   4.840429   4.244022   5.955650   7.272742
    25  H    4.535309   5.417760   5.637582   7.010490   8.399490
    26  H    2.607718   4.948870   5.830001   6.692621   7.745856
                   21         22         23         24         25
    21  H    0.000000
    22  H    2.535848   0.000000
    23  H    5.033202   4.827634   0.000000
    24  H    8.358508   7.677869   3.547914   0.000000
    25  H    9.343890   8.339310   5.301727   2.521602   0.000000
    26  H    8.380927   7.218809   5.667467   4.377246   2.534650
                   26
    26  H    0.000000
 Stoichiometry    C13H10F2O
 Framework group  C1[X(C13H10F2O)]
 Deg. of freedom    72
 Full point group                 C1      NOp   1
 Largest Abelian subgroup         C1      NOp   1
 Largest concise Abelian subgroup C1      NOp   1
                         Standard orientation:                         
 ---------------------------------------------------------------------
 Center     Atomic      Atomic             Coordinates (Angstroms)
 Number     Number       Type             X           Y           Z
 ---------------------------------------------------------------------
      1          6           0       -0.762398    2.136151    1.380015
      2          6           0       -1.486378    1.030423    0.648122
      3          6           0       -2.896021    0.993376    0.605037
      4          6           0       -3.577630   -0.052050   -0.038507
      5          6           0       -2.863876   -1.090145   -0.656576
      6          6           0       -1.465644   -1.049219   -0.620187
      7          9           0       -0.772605   -2.037191   -1.219112
      8          6           0       -0.749212   -0.009545    0.010148
      9          6           0        0.738661   -0.016154   -0.008567
     10          6           0        1.452034    0.955211   -0.759242
     11          8           0        0.791088    1.893182   -1.493050
     12          6           0        2.860838    0.970508   -0.761985
     13          6           0        3.563915    0.006705   -0.026096
     14          6           0        2.887894   -0.980221    0.713588
     15          6           0        1.488904   -0.971355    0.703043
     16          9           0        0.819608   -1.902779    1.414531
     17          1           0       -0.019774    1.720132    2.091692
     18          1           0       -0.195105    2.785229    0.679795
     19          1           0       -1.471573    2.774287    1.941676
     20          1           0       -3.466039    1.794618    1.101038
     21          1           0       -4.678573   -0.063285   -0.055069
     22          1           0       -3.364810   -1.926518   -1.165436
     23          1           0       -0.166690    1.678759   -1.448380
     24          1           0        3.379481    1.737982   -1.354248
     25          1           0        4.664932    0.018292   -0.031841
     26          1           0        3.419879   -1.747319    1.293644
 ---------------------------------------------------------------------
 Rotational constants (GHZ):           0.8751938           0.4427401           0.3754562
 Standard basis: def2SVP (5D, 7F)
 There are   290 symmetry adapted cartesian basis functions of A   symmetry.
 There are   274 symmetry adapted basis functions of A   symmetry.
   274 basis functions,   470 primitive gaussians,   290 cartesian basis functions
    57 alpha electrons       57 beta electrons
       nuclear repulsion energy      1079.6867038695 Hartrees.
 NAtoms=   26 NActive=   26 NUniq=   26 SFac= 1.00D+00 NAtFMM=   60 NAOKFM=F Big=F
 Integral buffers will be    131072 words long.
 Raffenetti 2 integral format.
 Two-electron integral symmetry is turned on.
 Nuclear repulsion after empirical dispersion term =     1079.6335057943 Hartrees.
 One-electron integrals computed using PRISM.
   1 Symmetry operations used in ECPInt.
 ECPInt:  NShTT=    8001 NPrTT=   29641 LenC2=    7678 LenP2D=   20635.
 LDataN:  DoStor=T MaxTD1= 4 Len=   56
 NBasis=   274 RedAO= T EigKep=  2.31D-04  NBF=   274
 NBsUse=   274 1.00D-06 EigRej= -1.00D+00 NBFU=   274
 Initial guess from the checkpoint file:  "/scratch/gaussian_tmp/Gau-1716556.chk"
 B after Tr=     0.000000    0.000000   -0.000000
         Rot=    1.000000    0.000695    0.000048   -0.000119 Ang=   0.08 deg.
 ExpMin= 1.22D-01 ExpMax= 2.89D+03 ExpMxC= 4.35D+02 IAcc=3 IRadAn=         5 AccDes= 0.00D+00
 Harris functional with IExCor=  404 and IRadAn=       5 diagonalized for initial guess.
 HarFok:  IExCor=  404 AccDes= 0.00D+00 IRadAn=         5 IDoV= 1 UseB2=F ITyADJ=14
 ICtDFT=  3500011 ScaDFX=  1.000000  1.000000  1.000000  1.000000
 FoFCou: FMM=F IPFlag=           0 FMFlag=      100000 FMFlg1=           0
         NFxFlg=           0 DoJE=T BraDBF=F KetDBF=T FulRan=T
         wScrn=  0.000000 ICntrl=       500 IOpCl=  0 I1Cent=   200000004 NGrid=           0
         NMat0=    1 NMatS0=      1 NMatT0=    0 NMatD0=    1 NMtDS0=    0 NMtDT0=    0
 Petite list used in FoFCou.
 Requested convergence on RMS density matrix=1.00D-08 within 128 cycles.
 Requested convergence on MAX density matrix=1.00D-06.
 Requested convergence on             energy=1.00D-06.
 No special actions if energy rises.
 Integral accuracy reduced to 1.0D-05 until final iterations.
 Initial convergence to 1.0D-05 achieved.  Increase integral accuracy.
 SCF Done:  E(RB-P86) =  -775.800290612     A.U. after   11 cycles
            NFock= 11  Conv=0.74D-08     -V/T= 2.0105
   1 Symmetry operations used in ECPInt.
 ECPInt:  NShTT=    8001 NPrTT=   29641 LenC2=    7678 LenP2D=   20635.
 LDataN:  DoStor=T MaxTD1= 5 Len=  102
 Calling FoFJK, ICntrl=      2527 FMM=F ISym2X=0 I1Cent= 0 IOpClX= 0 NMat=1 NMatS=1 NMatT=0.
 ***** Axes restored to original set *****
 -------------------------------------------------------------------
 Center     Atomic                   Forces (Hartrees/Bohr)
 Number     Number              X              Y              Z
 -------------------------------------------------------------------
      1        6           0.000061604   -0.000014725   -0.000015931
      2        6          -0.000030099   -0.000037382    0.000057284
      3        6           0.000017699    0.000006148    0.000002243
      4        6           0.000018899   -0.000003487    0.000008311
      5        6           0.000013108   -0.000002976   -0.000000266
      6        6          -0.000041949    0.000044569   -0.000090858
      7        9          -0.000004287    0.000010854   -0.000004975
      8        6          -0.000075201   -0.000017329    0.000012808
      9        6           0.000076317    0.000020603    0.000021630
     10        6           0.000035796    0.000050439    0.000082172
     11        8          -0.000104710    0.000060149    0.000007966
     12        6          -0.000019168    0.000000552   -0.000001290
     13        6          -0.000019267   -0.000001554    0.000001470
     14        6          -0.000017847    0.000006846    0.000000704
     15        6           0.000045552   -0.000047700   -0.000095678
     16        9           0.000003105   -0.000009844   -0.000002296
     17        1          -0.000041443   -0.000034095   -0.000023486
     18        1          -0.000028601    0.000002312    0.000034536
     19        1           0.000039351   -0.000036970    0.000031974
     20        1           0.000030218   -0.000032391    0.000045300
     21        1           0.000065706    0.000000629    0.000000709
     22        1           0.000026402    0.000034517   -0.000046761
     23        1           0.000069865    0.000003460   -0.000026376
     24        1          -0.000026459    0.000030500    0.000048032
     25        1          -0.000066300    0.000000525    0.000000147
     26        1          -0.000028292   -0.000033650   -0.000047369
 -------------------------------------------------------------------
 Cartesian Forces:  Max     0.000104710 RMS     0.000038509

 GradGradGradGradGradGradGradGradGradGradGradGradGradGradGradGradGradGrad
 Berny optimization.
 Using GEDIIS/GDIIS optimizer.
 FormGI is forming the generalized inverse of G from B-inverse, IUseBI=4.
 Internal  Forces:  Max     0.000171528 RMS     0.000045842
 Search for a local minimum.
 Step number   4 out of a maximum of  140
 All quantities printed in internal units (Hartrees-Bohrs-Radians)
 Mixed Optimization -- En-DIIS/RFO-DIIS
 Swapping is turned off.
 Update second derivatives using D2CorX and points    1    2    3    4
 DE= -1.57D-06 DEPred=-3.15D-06 R= 4.99D-01
 Trust test= 4.99D-01 RLast= 2.48D-02 DXMaxT set to 4.75D-01
 ITU=  0  1  1  0
     Eigenvalues ---    0.00124   0.00863   0.01166   0.01291   0.01617
     Eigenvalues ---    0.01661   0.01697   0.01732   0.01748   0.01965
     Eigenvalues ---    0.02104   0.02217   0.02283   0.02325   0.02395
     Eigenvalues ---    0.02650   0.02832   0.02972   0.03387   0.03454
     Eigenvalues ---    0.04196   0.05265   0.05396   0.09958   0.10060
     Eigenvalues ---    0.10393   0.11104   0.11513   0.11552   0.11731
     Eigenvalues ---    0.13814   0.14142   0.16529   0.17282   0.17938
     Eigenvalues ---    0.18021   0.18090   0.18154   0.18513   0.18916
     Eigenvalues ---    0.19233   0.21130   0.22135   0.23747   0.24498
     Eigenvalues ---    0.31643   0.33501   0.34764   0.35047   0.35243
     Eigenvalues ---    0.35871   0.36492   0.36825   0.37163   0.37323
     Eigenvalues ---    0.37381   0.37618   0.37764   0.38390   0.39058
     Eigenvalues ---    0.41054   0.44673   0.45969   0.46197   0.47705
     Eigenvalues ---    0.49191   0.49413   0.49826   0.50034   0.50850
     Eigenvalues ---    0.52138   0.54194
 En-DIIS/RFO-DIIS/Sim-DIIS IScMMF=       -3 using points:     4    3    2
 RFO step:  Lambda=-1.34437408D-06.
 DidBck=T Rises=F RFO-DIIS coefs:    0.57651    0.35575    0.06774
 Iteration  1 RMS(Cart)=  0.00254032 RMS(Int)=  0.00000151
 Iteration  2 RMS(Cart)=  0.00000240 RMS(Int)=  0.00000006
 Iteration  3 RMS(Cart)=  0.00000000 RMS(Int)=  0.00000006
 Variable       Old X    -DE/DX   Delta X   Delta X   Delta X     New X
                                 (Linear)    (Quad)   (Total)
    R1        2.85496  -0.00005  -0.00004   0.00000  -0.00003   2.85492
    R2        2.09670  -0.00006  -0.00025   0.00004  -0.00020   2.09650
    R3        2.09873  -0.00004  -0.00017   0.00002  -0.00015   2.09858
    R4        2.09206  -0.00006  -0.00022   0.00004  -0.00018   2.09188
    R5        2.66600  -0.00009  -0.00020   0.00004  -0.00016   2.66584
    R6        2.69374  -0.00017  -0.00021   0.00005  -0.00016   2.69358
    R7        2.65347  -0.00006  -0.00016   0.00001  -0.00015   2.65332
    R8        2.08121  -0.00006  -0.00022   0.00004  -0.00018   2.08103
    R9        2.65175  -0.00007  -0.00016   0.00003  -0.00014   2.65161
   R10        2.08082  -0.00007  -0.00022   0.00004  -0.00019   2.08064
   R11        2.64430  -0.00008  -0.00023   0.00002  -0.00020   2.64410
   R12        2.07818  -0.00006  -0.00022   0.00004  -0.00018   2.07799
   R13        2.54595  -0.00001   0.00002  -0.00000   0.00002   2.54596
   R14        2.66680  -0.00011  -0.00030   0.00009  -0.00021   2.66659
   R15        2.81192  -0.00005  -0.00009  -0.00004  -0.00013   2.81179
   R16        2.68312  -0.00015  -0.00025   0.00006  -0.00019   2.68293
   R17        2.66020  -0.00011  -0.00025   0.00007  -0.00018   2.66002
   R18        2.57385  -0.00000   0.00008  -0.00001   0.00007   2.57392
   R19        2.66242  -0.00009  -0.00023   0.00003  -0.00020   2.66222
   R20        1.85666  -0.00007  -0.00023   0.00006  -0.00017   1.85649
   R21        2.64883  -0.00007  -0.00017   0.00002  -0.00015   2.64869
   R22        2.07765  -0.00006  -0.00022   0.00004  -0.00018   2.07747
   R23        2.65785  -0.00007  -0.00017   0.00002  -0.00015   2.65769
   R24        2.08076  -0.00007  -0.00023   0.00004  -0.00019   2.08058
   R25        2.64384  -0.00009  -0.00023   0.00004  -0.00019   2.64364
   R26        2.07690  -0.00006  -0.00022   0.00004  -0.00019   2.07672
   R27        2.55059  -0.00001   0.00000  -0.00001  -0.00000   2.55058
    A1        1.93591   0.00001   0.00005   0.00004   0.00009   1.93600
    A2        1.94667  -0.00004  -0.00013   0.00001  -0.00011   1.94656
    A3        1.93979   0.00001  -0.00003  -0.00003  -0.00006   1.93974
    A4        1.85632   0.00001   0.00004   0.00004   0.00008   1.85640
    A5        1.89596   0.00000   0.00008  -0.00003   0.00005   1.89601
    A6        1.88620   0.00001  -0.00000  -0.00003  -0.00004   1.88616
    A7        2.10928   0.00009   0.00005  -0.00005  -0.00000   2.10928
    A8        2.09782  -0.00011  -0.00005   0.00004  -0.00001   2.09780
    A9        2.07590   0.00002   0.00001   0.00001   0.00002   2.07592
   A10        2.11598  -0.00003  -0.00004   0.00002  -0.00003   2.11596
   A11        2.07635   0.00001   0.00005  -0.00002   0.00004   2.07639
   A12        2.09073   0.00001  -0.00001  -0.00000  -0.00001   2.09072
   A13        2.10104   0.00000   0.00002  -0.00001   0.00001   2.10105
   A14        2.09420   0.00000  -0.00001   0.00001  -0.00000   2.09420
   A15        2.08793  -0.00000  -0.00001   0.00000  -0.00001   2.08792
   A16        2.06595  -0.00001  -0.00004   0.00001  -0.00003   2.06592
   A17        2.13500   0.00000  -0.00001  -0.00000  -0.00002   2.13498
   A18        2.08224   0.00001   0.00005  -0.00001   0.00004   2.08228
   A19        2.07260   0.00001  -0.00003  -0.00001  -0.00004   2.07256
   A20        2.14176  -0.00001   0.00005   0.00001   0.00005   2.14182
   A21        2.06880   0.00000  -0.00001  -0.00000  -0.00001   2.06878
   A22        2.06560   0.00002   0.00001  -0.00003  -0.00003   2.06557
   A23        2.12464  -0.00012  -0.00026   0.00004  -0.00022   2.12442
   A24        2.09294   0.00010   0.00025  -0.00000   0.00024   2.09318
   A25        2.10133  -0.00010  -0.00006  -0.00001  -0.00008   2.10125
   A26        2.12888   0.00008   0.00014   0.00003   0.00017   2.12905
   A27        2.05297   0.00002  -0.00008  -0.00002  -0.00009   2.05288
   A28        2.10850  -0.00005   0.00000   0.00000   0.00000   2.10851
   A29        2.10698   0.00001   0.00009   0.00000   0.00009   2.10706
   A30        2.06771   0.00004  -0.00009  -0.00000  -0.00009   2.06761
   A31        1.87367   0.00001   0.00011   0.00003   0.00014   1.87381
   A32        2.08641  -0.00002  -0.00004   0.00001  -0.00004   2.08637
   A33        2.07183   0.00001   0.00006  -0.00000   0.00006   2.07188
   A34        2.12489   0.00000  -0.00002  -0.00000  -0.00002   2.12488
   A35        2.11473   0.00000  -0.00001   0.00000  -0.00001   2.11472
   A36        2.08470  -0.00000   0.00001  -0.00000   0.00000   2.08470
   A37        2.08374  -0.00000   0.00000  -0.00000   0.00000   2.08374
   A38        2.06260  -0.00001  -0.00003   0.00001  -0.00002   2.06258
   A39        2.13492   0.00000  -0.00000  -0.00000  -0.00001   2.13491
   A40        2.08566   0.00001   0.00004  -0.00001   0.00003   2.08569
   A41        2.14246  -0.00000   0.00007  -0.00000   0.00007   2.14254
   A42        2.06060  -0.00000  -0.00000  -0.00000  -0.00000   2.06060
   A43        2.08003   0.00000  -0.00007   0.00000  -0.00007   2.07996
    D1        2.23673   0.00002   0.00269  -0.00001   0.00268   2.23941
    D2       -0.88353  -0.00001   0.00233   0.00001   0.00234  -0.88119
    D3       -1.98067   0.00001   0.00270   0.00007   0.00276  -1.97791
    D4        1.18225  -0.00001   0.00233   0.00009   0.00243   1.18468
    D5        0.12549   0.00000   0.00258   0.00002   0.00260   0.12810
    D6       -2.99477  -0.00002   0.00222   0.00004   0.00226  -2.99250
    D7       -3.10784  -0.00003  -0.00046   0.00003  -0.00043  -3.10827
    D8        0.01710  -0.00002  -0.00042   0.00003  -0.00040   0.01671
    D9        0.01268  -0.00001  -0.00010   0.00001  -0.00009   0.01259
   D10        3.13763   0.00000  -0.00007   0.00000  -0.00006   3.13756
   D11        3.10149   0.00005   0.00054  -0.00001   0.00053   3.10202
   D12       -0.04486   0.00003   0.00054  -0.00013   0.00040  -0.04446
   D13       -0.01918   0.00002   0.00019   0.00001   0.00020  -0.01898
   D14        3.11766   0.00001   0.00018  -0.00011   0.00007   3.11773
   D15        0.00043  -0.00001  -0.00003  -0.00001  -0.00004   0.00039
   D16        3.13589   0.00000  -0.00001  -0.00001  -0.00002   3.13587
   D17       -3.12438  -0.00002  -0.00007  -0.00000  -0.00007  -3.12445
   D18        0.01108  -0.00001  -0.00005  -0.00000  -0.00005   0.01103
   D19       -0.00659   0.00001   0.00008  -0.00002   0.00007  -0.00652
   D20        3.13669   0.00000   0.00003   0.00002   0.00005   3.13674
   D21        3.14112  -0.00000   0.00006  -0.00001   0.00004   3.14116
   D22        0.00121  -0.00000   0.00001   0.00002   0.00003   0.00124
   D23       -3.13375  -0.00001  -0.00007   0.00006  -0.00001  -3.13375
   D24       -0.00053   0.00001   0.00001   0.00004   0.00005  -0.00049
   D25        0.00622  -0.00000  -0.00002   0.00003   0.00001   0.00623
   D26        3.13943   0.00001   0.00005   0.00001   0.00006   3.13949
   D27        0.01349  -0.00002  -0.00014  -0.00004  -0.00018   0.01331
   D28       -3.12343  -0.00000  -0.00013   0.00008  -0.00005  -3.12348
   D29       -3.13646  -0.00001  -0.00007  -0.00006  -0.00013  -3.13659
   D30        0.00980   0.00001  -0.00006   0.00006   0.00000   0.00980
   D31       -1.19564   0.00008   0.00342   0.00005   0.00346  -1.19217
   D32        1.94823   0.00006   0.00289   0.00008   0.00297   1.95120
   D33        1.94113   0.00007   0.00341  -0.00008   0.00333   1.94446
   D34       -1.19820   0.00005   0.00288  -0.00005   0.00284  -1.19536
   D35       -0.02073   0.00003  -0.00035   0.00007  -0.00027  -0.02101
   D36        3.12097  -0.00000  -0.00046   0.00006  -0.00039   3.12058
   D37        3.11869   0.00005   0.00016   0.00004   0.00020   3.11888
   D38       -0.02279   0.00002   0.00005   0.00003   0.00008  -0.02271
   D39       -3.12389   0.00000   0.00046  -0.00005   0.00041  -3.12348
   D40        0.00317   0.00001   0.00046  -0.00008   0.00038   0.00355
   D41        0.01991  -0.00002  -0.00005  -0.00002  -0.00007   0.01984
   D42       -3.13621  -0.00001  -0.00006  -0.00004  -0.00010  -3.13631
   D43       -0.09758  -0.00000  -0.00068   0.00006  -0.00062  -0.09819
   D44        3.04390   0.00002  -0.00057   0.00007  -0.00050   3.04340
   D45        0.01172  -0.00001  -0.00000  -0.00002  -0.00003   0.01169
   D46       -3.14066   0.00000  -0.00005  -0.00000  -0.00006  -3.14072
   D47       -3.12976  -0.00003  -0.00011  -0.00004  -0.00015  -3.12990
   D48        0.00104  -0.00003  -0.00016  -0.00002  -0.00017   0.00087
   D49        0.00336  -0.00001  -0.00004   0.00001  -0.00003   0.00333
   D50        3.13837   0.00000  -0.00002   0.00001  -0.00001   3.13836
   D51       -3.12710  -0.00001   0.00001  -0.00001  -0.00000  -3.12711
   D52        0.00791  -0.00001   0.00003  -0.00001   0.00002   0.00793
   D53       -0.00650   0.00001   0.00004  -0.00000   0.00004  -0.00646
   D54        3.13698   0.00000  -0.00001   0.00002   0.00001   3.13699
   D55       -3.14151  -0.00000   0.00002   0.00000   0.00002  -3.14150
   D56        0.00197  -0.00000  -0.00004   0.00002  -0.00002   0.00195
   D57       -0.00553   0.00001   0.00001   0.00001   0.00001  -0.00552
   D58       -3.13244  -0.00001   0.00001   0.00003   0.00004  -3.13240
   D59        3.13423   0.00001   0.00006  -0.00001   0.00005   3.13427
   D60        0.00732  -0.00000   0.00006   0.00001   0.00007   0.00739
         Item               Value     Threshold  Converged?
 Maximum Force            0.000172     0.000450     YES
 RMS     Force            0.000046     0.000300     YES
 Maximum Displacement     0.008568     0.001800     NO 
 RMS     Displacement     0.002540     0.001200     NO 
 Predicted change in Energy=-6.721568D-07
 GradGradGradGradGradGradGradGradGradGradGradGradGradGradGradGradGradGrad

                          Input orientation:                          
 ---------------------------------------------------------------------
 Center     Atomic      Atomic             Coordinates (Angstroms)
 Number     Number       Type             X           Y           Z
 ---------------------------------------------------------------------
      1          6           0       -0.736996    1.540657   -2.091101
      2          6           0       -1.479599    0.749212   -1.040126
      3          6           0       -2.889858    0.722873   -1.016470
      4          6           0       -3.588382    0.022482   -0.020002
      5          6           0       -2.891405   -0.670893    0.981170
      6          6           0       -1.492634   -0.650769    0.953092
      7          9           0       -0.815673   -1.321563    1.905396
      8          6           0       -0.759489    0.035683   -0.038113
      9          6           0        0.727849   -0.003235   -0.021854
     10          6           0        1.439407   -0.695574   -1.036759
     11          8           0        0.776783   -1.355341   -2.027137
     12          6           0        2.848036   -0.715752   -1.042309
     13          6           0        3.552617   -0.056140   -0.025930
     14          6           0        2.878188    0.623780    1.004017
     15          6           0        1.479393    0.632148    0.984557
     16          9           0        0.811790    1.287701    1.957324
     17          1           0        0.013182    2.212056   -1.624985
     18          1           0       -0.175816    0.875710   -2.781159
     19          1           0       -1.433180    2.153564   -2.695312
     20          1           0       -3.446676    1.277131   -1.788133
     21          1           0       -4.689405    0.020103   -0.018051
     22          1           0       -3.405810   -1.225859    1.779029
     23          1           0       -0.181940   -1.313292   -1.816871
     24          1           0        3.365223   -1.261382   -1.844416
     25          1           0        4.653433   -0.075507   -0.030100
     26          1           0        3.411287    1.143487    1.812353
 ---------------------------------------------------------------------
                    Distance matrix (angstroms):
                    1          2          3          4          5
     1  C    0.000000
     2  C    1.510759   0.000000
     3  C    2.541341   1.410703   0.000000
     4  C    3.837279   2.452704   1.404077   0.000000
     5  C    4.355603   2.845264   2.435806   1.403172   0.000000
     6  C    3.826284   2.435782   2.778184   2.406728   1.399197
     7  F    4.916348   3.661285   4.125441   3.633391   2.363520
     8  C    2.545626   1.425382   2.442926   2.828982   2.466425
     9  C    2.968359   2.544776   3.821557   4.316308   3.814554
    10  C    3.293797   3.256995   4.555759   5.179582   4.777926
    11  O    3.268398   3.239537   4.334130   4.998166   4.793119
    12  C    4.363920   4.568868   5.915551   6.558779   6.085858
    13  C    5.021501   5.196190   6.564566   7.141435   6.551152
    14  C    4.846646   4.815036   6.112491   6.574702   5.913113
    15  C    3.898389   3.587295   4.806527   5.202228   4.560900
    16  F    4.341943   3.811187   4.781703   4.987195   4.301467
    17  H    1.109418   2.170338   3.318975   4.510151   4.851810
    18  H    1.110521   2.178772   3.240911   4.471867   4.890963
    19  H    1.106977   2.171175   2.643349   4.042733   4.860092
    20  H    2.739270   2.169701   1.101232   2.172674   3.431059
    21  H    4.714993   3.446605   2.174648   1.101027   2.169958
    22  H    5.454730   3.944468   3.446532   2.197317   1.099627
    23  H    2.920327   2.557572   3.481297   4.076381   3.947519
    24  H    4.973979   5.306757   6.614287   7.302699   6.890428
    25  H    5.993032   6.270119   7.649286   8.242403   7.635557
    26  H    5.709899   5.675637   6.919797   7.321854   6.611110
                    6          7          8          9         10
     6  C    0.000000
     7  F    1.347265   0.000000
     8  C    1.411101   2.371181   0.000000
     9  C    2.510053   2.799061   1.487936   0.000000
    10  C    3.543781   3.759458   2.523326   1.419747   0.000000
    11  O    3.811620   4.242862   2.872508   2.419039   1.362061
    12  C    4.777789   4.741175   3.819333   2.458496   1.408785
    13  C    5.173648   4.940979   4.313101   2.825267   2.428232
    14  C    4.553148   4.271001   3.829437   2.463639   2.824103
    15  C    3.237254   3.151549   2.532631   1.407620   2.418712
    16  F    3.174354   3.075645   2.831649   2.364468   3.645795
    17  H    4.136391   5.063304   2.802103   2.826357   3.291572
    18  H    4.243675   5.215479   2.927563   3.033631   2.849704
    19  H    4.602029   5.798649   3.464100   4.058227   4.372659
    20  H    3.879355   5.226619   3.438712   4.710174   5.322587
    21  H    3.407716   4.528301   3.929998   5.417305   6.253982
    22  H    2.161745   2.594983   3.449131   4.671736   5.629031
    23  H    3.135211   3.775839   2.305922   2.401260   1.902344
    24  H    5.638942   5.616458   4.685974   3.443894   2.163611
    25  H    6.250738   5.933795   5.414069   3.926258   3.424589
    26  H    5.292082   4.894111   4.695405   3.446756   3.922741
                   11         12         13         14         15
    11  O    0.000000
    12  C    2.380977   0.000000
    13  C    3.660329   1.401624   0.000000
    14  C    4.185776   2.445957   1.406391   0.000000
    15  C    3.676150   2.792527   2.406882   1.398955   0.000000
    16  F    4.781510   4.142213   3.640239   2.370567   1.349711
    17  H    3.670305   4.116791   4.497699   4.200302   3.384611
    18  H    2.540390   3.834062   4.728726   4.870110   4.120638
    19  H    4.200335   5.412412   6.071785   5.883296   4.933480
    20  H    4.982433   6.644640   7.339828   6.944557   5.689461
    21  H    5.983936   7.642225   8.242378   7.660125   6.279641
    22  H    5.656656   6.879735   7.283256   6.596244   5.286642
    23  H    0.982411   3.183984   4.328374   4.590647   3.793779
    24  H    2.596581   1.099349   2.189661   3.450306   3.891644
    25  H    4.544727   2.166550   1.100993   2.170229   3.406586
    26  H    5.284547   3.452986   2.199628   1.098952   2.163083
                   16         17         18         19         20
    16  F    0.000000
    17  H    3.784857   0.000000
    18  H    4.857811   1.777156   0.000000
    19  H    5.237999   1.800273   1.794783   0.000000
    20  H    5.671252   3.587661   3.441767   2.375978   0.000000
    21  H    5.980974   5.431502   5.360906   4.724657   2.501537
    22  H    4.913035   5.924194   5.970324   5.944030   4.357898
    23  H    4.690118   3.535954   2.391990   3.788977   4.167687
    24  H    5.241285   4.832091   4.240708   5.950676   7.269744
    25  H    4.535020   5.413735   5.638686   7.008492   8.398337
    26  H    2.607528   4.950177   5.834327   6.693890   7.746807
                   21         22         23         24         25
    21  H    0.000000
    22  H    2.535652   0.000000
    23  H    5.032984   4.830267   0.000000
    24  H    8.357920   7.679681   3.547649   0.000000
    25  H    9.343334   8.339523   5.301461   2.521414   0.000000
    26  H    8.380547   7.217182   5.667301   4.376925   2.534463
                   26
    26  H    0.000000
 Stoichiometry    C13H10F2O
 Framework group  C1[X(C13H10F2O)]
 Deg. of freedom    72
 Full point group                 C1      NOp   1
 Largest Abelian subgroup         C1      NOp   1
 Largest concise Abelian subgroup C1      NOp   1
                         Standard orientation:                         
 ---------------------------------------------------------------------
 Center     Atomic      Atomic             Coordinates (Angstroms)
 Number     Number       Type             X           Y           Z
 ---------------------------------------------------------------------
      1          6           0       -0.761373    2.137619    1.377092
      2          6           0       -1.485873    1.031036    0.647047
      3          6           0       -2.895454    0.994341    0.604415
      4          6           0       -3.577474   -0.051527   -0.037803
      5          6           0       -2.864209   -1.090382   -0.654993
      6          6           0       -1.466064   -1.049775   -0.618999
      7          9           0       -0.773463   -2.038550   -1.217122
      8          6           0       -0.749205   -0.009796    0.010097
      9          6           0        0.738595   -0.016588   -0.008781
     10          6           0        1.451897    0.956410   -0.757217
     11          8           0        0.790919    1.895999   -1.488991
     12          6           0        2.860593    0.971974   -0.759829
     13          6           0        3.563713    0.006769   -0.025969
     14          6           0        2.887809   -0.981754    0.711536
     15          6           0        1.488921   -0.973057    0.700846
     16          9           0        0.819751   -1.906069    1.410368
     17          1           0       -0.016783    1.722614    2.087137
     18          1           0       -0.196453    2.787066    0.675421
     19          1           0       -1.469922    2.775109    1.940086
     20          1           0       -3.465085    1.796192    1.099659
     21          1           0       -4.678326   -0.062501   -0.054028
     22          1           0       -3.365481   -1.927051   -1.162822
     23          1           0       -0.166735    1.681226   -1.445393
     24          1           0        3.379142    1.740697   -1.350371
     25          1           0        4.664630    0.018529   -0.031589
     26          1           0        3.419813   -1.749930    1.289958
 ---------------------------------------------------------------------
 Rotational constants (GHZ):           0.8752714           0.4431185           0.3752469
 Standard basis: def2SVP (5D, 7F)
 There are   290 symmetry adapted cartesian basis functions of A   symmetry.
 There are   274 symmetry adapted basis functions of A   symmetry.
   274 basis functions,   470 primitive gaussians,   290 cartesian basis functions
    57 alpha electrons       57 beta electrons
       nuclear repulsion energy      1079.7870750875 Hartrees.
 NAtoms=   26 NActive=   26 NUniq=   26 SFac= 1.00D+00 NAtFMM=   60 NAOKFM=F Big=F
 Integral buffers will be    131072 words long.
 Raffenetti 2 integral format.
 Two-electron integral symmetry is turned on.
 Nuclear repulsion after empirical dispersion term =     1079.7338677058 Hartrees.
 One-electron integrals computed using PRISM.
   1 Symmetry operations used in ECPInt.
 ECPInt:  NShTT=    8001 NPrTT=   29641 LenC2=    7679 LenP2D=   20637.
 LDataN:  DoStor=T MaxTD1= 4 Len=   56
 NBasis=   274 RedAO= T EigKep=  2.31D-04  NBF=   274
 NBsUse=   274 1.00D-06 EigRej= -1.00D+00 NBFU=   274
 Initial guess from the checkpoint file:  "/scratch/gaussian_tmp/Gau-1716556.chk"
 B after Tr=    -0.000000    0.000000    0.000000
         Rot=    1.000000   -0.000213   -0.000066    0.000057 Ang=  -0.03 deg.
 Requested convergence on RMS density matrix=1.00D-08 within 128 cycles.
 Requested convergence on MAX density matrix=1.00D-06.
 Requested convergence on             energy=1.00D-06.
 No special actions if energy rises.
 SCF Done:  E(RB-P86) =  -775.800291266     A.U. after    9 cycles
            NFock=  9  Conv=0.29D-08     -V/T= 2.0105
   1 Symmetry operations used in ECPInt.
 ECPInt:  NShTT=    8001 NPrTT=   29641 LenC2=    7679 LenP2D=   20637.
 LDataN:  DoStor=T MaxTD1= 5 Len=  102
 Calling FoFJK, ICntrl=      2527 FMM=F ISym2X=0 I1Cent= 0 IOpClX= 0 NMat=1 NMatS=1 NMatT=0.
 ***** Axes restored to original set *****
 -------------------------------------------------------------------
 Center     Atomic                   Forces (Hartrees/Bohr)
 Number     Number              X              Y              Z
 -------------------------------------------------------------------
      1        6           0.000001160   -0.000000570    0.000000174
      2        6          -0.000000274   -0.000000008    0.000000358
      3        6          -0.000000125    0.000000300    0.000000652
      4        6           0.000000600    0.000000767    0.000000017
      5        6           0.000000299    0.000000644   -0.000000085
      6        6          -0.000001367    0.000000323    0.000000061
      7        9           0.000000086    0.000000436    0.000000052
      8        6          -0.000000069    0.000000081   -0.000000251
      9        6           0.000000045    0.000000513   -0.000000021
     10        6           0.000000013    0.000000183   -0.000000467
     11        8          -0.000000742    0.000001697   -0.000000740
     12        6          -0.000000292   -0.000000430    0.000000115
     13        6          -0.000000670   -0.000000784   -0.000000196
     14        6           0.000000103   -0.000000803   -0.000000355
     15        6           0.000000724   -0.000000915   -0.000000441
     16        9           0.000000109   -0.000000622    0.000000142
     17        1           0.000000119   -0.000000382    0.000000030
     18        1           0.000000310   -0.000000541    0.000000529
     19        1           0.000000635   -0.000000092    0.000000360
     20        1           0.000000439    0.000000471    0.000000638
     21        1           0.000000618    0.000000876    0.000000216
     22        1           0.000000067    0.000000790   -0.000000372
     23        1          -0.000000560    0.000000322    0.000000114
     24        1          -0.000000636   -0.000000241    0.000000234
     25        1          -0.000000637   -0.000000925   -0.000000229
     26        1           0.000000046   -0.000001090   -0.000000534
 -------------------------------------------------------------------
 Cartesian Forces:  Max     0.000001697 RMS     0.000000539

 GradGradGradGradGradGradGradGradGradGradGradGradGradGradGradGradGradGrad
 Berny optimization.
 Using GEDIIS/GDIIS optimizer.
 FormGI is forming the generalized inverse of G from B-inverse, IUseBI=4.
 Internal  Forces:  Max     0.000004015 RMS     0.000001064
 Search for a local minimum.
 Step number   5 out of a maximum of  140
 All quantities printed in internal units (Hartrees-Bohrs-Radians)
 Mixed Optimization -- En-DIIS/RFO-DIIS
 Swapping is turned off.
 Update second derivatives using D2CorX and points    1    2    3    4    5
 DE= -6.54D-07 DEPred=-6.72D-07 R= 9.73D-01
 Trust test= 9.73D-01 RLast= 9.02D-03 DXMaxT set to 4.75D-01
 ITU=  0  0  1  1  0
     Eigenvalues ---    0.00124   0.00855   0.01166   0.01289   0.01617
     Eigenvalues ---    0.01660   0.01697   0.01732   0.01748   0.01964
     Eigenvalues ---    0.02103   0.02217   0.02283   0.02325   0.02395
     Eigenvalues ---    0.02648   0.02832   0.02971   0.03387   0.03454
     Eigenvalues ---    0.04181   0.05264   0.05397   0.09958   0.10060
     Eigenvalues ---    0.10393   0.11103   0.11512   0.11552   0.11731
     Eigenvalues ---    0.13818   0.14140   0.16532   0.17290   0.17937
     Eigenvalues ---    0.18021   0.18096   0.18160   0.18514   0.18916
     Eigenvalues ---    0.19239   0.21129   0.22118   0.23718   0.24509
     Eigenvalues ---    0.31641   0.33545   0.34814   0.35086   0.35420
     Eigenvalues ---    0.35876   0.36549   0.36903   0.37175   0.37323
     Eigenvalues ---    0.37381   0.37631   0.37771   0.38392   0.39060
     Eigenvalues ---    0.41053   0.44643   0.45963   0.46207   0.47748
     Eigenvalues ---    0.49190   0.49441   0.49837   0.50042   0.51238
     Eigenvalues ---    0.52508   0.54213
 En-DIIS/RFO-DIIS/Sim-DIIS IScMMF=       -3 using points:     5    4    3    2
 RFO step:  Lambda=-6.98285513D-10.
 DIIS inversion failure, remove point   4.
 RFO-DIIS uses    3 points instead of    4
 DidBck=F Rises=F RFO-DIIS coefs:    0.97595    0.00205    0.02200    0.00000
 Iteration  1 RMS(Cart)=  0.00012066 RMS(Int)=  0.00000000
 Iteration  2 RMS(Cart)=  0.00000001 RMS(Int)=  0.00000000
 Variable       Old X    -DE/DX   Delta X   Delta X   Delta X     New X
                                 (Linear)    (Quad)   (Total)
    R1        2.85492  -0.00000   0.00000  -0.00000   0.00000   2.85492
    R2        2.09650  -0.00000  -0.00000   0.00000  -0.00000   2.09649
    R3        2.09858   0.00000  -0.00000  -0.00000  -0.00000   2.09858
    R4        2.09188  -0.00000  -0.00000  -0.00000  -0.00000   2.09188
    R5        2.66584  -0.00000  -0.00000   0.00000  -0.00000   2.66584
    R6        2.69358  -0.00000   0.00000   0.00000   0.00000   2.69358
    R7        2.65332  -0.00000  -0.00000  -0.00000  -0.00000   2.65332
    R8        2.08103  -0.00000  -0.00000  -0.00000  -0.00000   2.08102
    R9        2.65161  -0.00000  -0.00000  -0.00000  -0.00000   2.65161
   R10        2.08064  -0.00000  -0.00000  -0.00000  -0.00000   2.08064
   R11        2.64410  -0.00000  -0.00000  -0.00000  -0.00000   2.64410
   R12        2.07799  -0.00000  -0.00000  -0.00000  -0.00000   2.07799
   R13        2.54596  -0.00000  -0.00000   0.00000   0.00000   2.54596
   R14        2.66659  -0.00000  -0.00000   0.00000   0.00000   2.66660
   R15        2.81179  -0.00000  -0.00000  -0.00001  -0.00001   2.81178
   R16        2.68293  -0.00000  -0.00000   0.00000   0.00000   2.68293
   R17        2.66002  -0.00000  -0.00000   0.00000   0.00000   2.66002
   R18        2.57392  -0.00000   0.00000  -0.00000   0.00000   2.57392
   R19        2.66222  -0.00000  -0.00000  -0.00000  -0.00000   2.66221
   R20        1.85649   0.00000  -0.00000   0.00000   0.00000   1.85649
   R21        2.64869  -0.00000  -0.00000  -0.00000  -0.00000   2.64868
   R22        2.07747  -0.00000  -0.00000  -0.00000  -0.00000   2.07747
   R23        2.65769  -0.00000  -0.00000  -0.00000  -0.00000   2.65769
   R24        2.08058  -0.00000  -0.00000  -0.00000  -0.00000   2.08057
   R25        2.64364  -0.00000  -0.00000  -0.00000  -0.00000   2.64364
   R26        2.07672  -0.00000  -0.00000  -0.00000  -0.00000   2.07672
   R27        2.55058   0.00000  -0.00000   0.00000  -0.00000   2.55058
    A1        1.93600  -0.00000  -0.00000  -0.00000  -0.00000   1.93599
    A2        1.94656  -0.00000   0.00000   0.00000   0.00000   1.94656
    A3        1.93974   0.00000  -0.00000  -0.00000  -0.00000   1.93974
    A4        1.85640   0.00000  -0.00000   0.00000  -0.00000   1.85640
    A5        1.89601   0.00000   0.00000   0.00000   0.00000   1.89601
    A6        1.88616   0.00000   0.00000   0.00000   0.00000   1.88617
    A7        2.10928   0.00000  -0.00000   0.00000  -0.00000   2.10928
    A8        2.09780  -0.00000   0.00000  -0.00000   0.00000   2.09780
    A9        2.07592   0.00000  -0.00000   0.00000  -0.00000   2.07592
   A10        2.11596  -0.00000   0.00000   0.00000   0.00000   2.11596
   A11        2.07639   0.00000  -0.00000  -0.00000  -0.00000   2.07639
   A12        2.09072   0.00000  -0.00000   0.00000   0.00000   2.09072
   A13        2.10105   0.00000  -0.00000   0.00000   0.00000   2.10105
   A14        2.09420  -0.00000   0.00000  -0.00000   0.00000   2.09420
   A15        2.08792  -0.00000   0.00000  -0.00000  -0.00000   2.08792
   A16        2.06592  -0.00000   0.00000   0.00000   0.00000   2.06592
   A17        2.13498   0.00000  -0.00000  -0.00000  -0.00000   2.13498
   A18        2.08228   0.00000  -0.00000   0.00000   0.00000   2.08228
   A19        2.07256   0.00000  -0.00000   0.00000   0.00000   2.07256
   A20        2.14182  -0.00000   0.00000  -0.00000   0.00000   2.14182
   A21        2.06878   0.00000   0.00000  -0.00000  -0.00000   2.06878
   A22        2.06557   0.00000  -0.00000  -0.00000  -0.00000   2.06557
   A23        2.12442  -0.00000  -0.00000  -0.00000  -0.00000   2.12442
   A24        2.09318   0.00000   0.00000   0.00000   0.00000   2.09318
   A25        2.10125  -0.00000   0.00000   0.00000   0.00001   2.10126
   A26        2.12905   0.00000  -0.00000  -0.00000  -0.00000   2.12905
   A27        2.05288   0.00000  -0.00000  -0.00000  -0.00000   2.05288
   A28        2.10851  -0.00000   0.00000   0.00000   0.00000   2.10851
   A29        2.10706  -0.00000   0.00000  -0.00000   0.00000   2.10707
   A30        2.06761   0.00000  -0.00000  -0.00000  -0.00000   2.06761
   A31        1.87381  -0.00000  -0.00000   0.00000   0.00000   1.87381
   A32        2.08637  -0.00000   0.00000   0.00000   0.00000   2.08637
   A33        2.07188   0.00000  -0.00000  -0.00000  -0.00000   2.07188
   A34        2.12488   0.00000   0.00000  -0.00000  -0.00000   2.12488
   A35        2.11472   0.00000  -0.00000   0.00000  -0.00000   2.11472
   A36        2.08470  -0.00000   0.00000  -0.00000   0.00000   2.08470
   A37        2.08374  -0.00000   0.00000  -0.00000   0.00000   2.08374
   A38        2.06258  -0.00000   0.00000  -0.00000   0.00000   2.06258
   A39        2.13491   0.00000  -0.00000  -0.00000  -0.00000   2.13491
   A40        2.08569   0.00000  -0.00000   0.00000  -0.00000   2.08569
   A41        2.14254  -0.00000   0.00000   0.00000   0.00000   2.14254
   A42        2.06060  -0.00000   0.00000  -0.00000  -0.00000   2.06060
   A43        2.07996   0.00000  -0.00000   0.00000  -0.00000   2.07996
    D1        2.23941   0.00000   0.00002  -0.00000   0.00002   2.23943
    D2       -0.88119  -0.00000   0.00003   0.00000   0.00003  -0.88116
    D3       -1.97791   0.00000   0.00002  -0.00000   0.00002  -1.97789
    D4        1.18468  -0.00000   0.00002   0.00000   0.00003   1.18470
    D5        0.12810   0.00000   0.00002   0.00000   0.00002   0.12812
    D6       -2.99250  -0.00000   0.00003   0.00000   0.00003  -2.99247
    D7       -3.10827  -0.00000   0.00001   0.00000   0.00001  -3.10825
    D8        0.01671  -0.00000   0.00000   0.00000   0.00001   0.01671
    D9        0.01259  -0.00000   0.00000   0.00000   0.00000   0.01260
   D10        3.13756   0.00000  -0.00000   0.00000  -0.00000   3.13756
   D11        3.10202   0.00000  -0.00001  -0.00000  -0.00001   3.10201
   D12       -0.04446   0.00000  -0.00000  -0.00000  -0.00001  -0.04446
   D13       -0.01898   0.00000  -0.00000  -0.00000  -0.00001  -0.01898
   D14        3.11773   0.00000   0.00000  -0.00000  -0.00000   3.11773
   D15        0.00039  -0.00000  -0.00000   0.00000   0.00000   0.00039
   D16        3.13587   0.00000  -0.00000  -0.00000  -0.00000   3.13587
   D17       -3.12445  -0.00000   0.00000   0.00000   0.00001  -3.12444
   D18        0.01103  -0.00000   0.00000   0.00000   0.00000   0.01104
   D19       -0.00652   0.00000  -0.00000  -0.00000  -0.00000  -0.00652
   D20        3.13674   0.00000   0.00000  -0.00000   0.00000   3.13674
   D21        3.14116  -0.00000  -0.00000  -0.00000  -0.00000   3.14116
   D22        0.00124  -0.00000   0.00000   0.00000   0.00000   0.00124
   D23       -3.13375  -0.00000   0.00000  -0.00000   0.00000  -3.13375
   D24       -0.00049   0.00000   0.00000   0.00000   0.00000  -0.00048
   D25        0.00623  -0.00000   0.00000  -0.00000  -0.00000   0.00622
   D26        3.13949   0.00000  -0.00000  -0.00000  -0.00000   3.13949
   D27        0.01331  -0.00000   0.00000   0.00000   0.00000   0.01332
   D28       -3.12348  -0.00000  -0.00000   0.00000  -0.00000  -3.12349
   D29       -3.13659  -0.00000  -0.00000   0.00000   0.00000  -3.13659
   D30        0.00980   0.00000  -0.00001   0.00000  -0.00000   0.00979
   D31       -1.19217   0.00000   0.00017  -0.00000   0.00017  -1.19201
   D32        1.95120   0.00000   0.00017   0.00000   0.00017   1.95137
   D33        1.94446   0.00000   0.00018  -0.00000   0.00017   1.94463
   D34       -1.19536   0.00000   0.00018   0.00000   0.00018  -1.19518
   D35       -0.02101   0.00000  -0.00001  -0.00000  -0.00001  -0.02102
   D36        3.12058  -0.00000  -0.00001   0.00000  -0.00001   3.12057
   D37        3.11888   0.00000  -0.00001  -0.00000  -0.00001   3.11887
   D38       -0.02271   0.00000  -0.00001  -0.00000  -0.00001  -0.02272
   D39       -3.12348  -0.00000   0.00001  -0.00000   0.00001  -3.12347
   D40        0.00355   0.00000   0.00000  -0.00000   0.00000   0.00356
   D41        0.01984  -0.00000   0.00000   0.00000   0.00001   0.01985
   D42       -3.13631  -0.00000   0.00000   0.00000   0.00000  -3.13631
   D43       -0.09819  -0.00000  -0.00004  -0.00000  -0.00004  -0.09823
   D44        3.04340   0.00000  -0.00004  -0.00000  -0.00004   3.04336
   D45        0.01169  -0.00000   0.00000   0.00000   0.00001   0.01170
   D46       -3.14072   0.00000   0.00000   0.00000   0.00000  -3.14072
   D47       -3.12990  -0.00000   0.00001   0.00000   0.00001  -3.12989
   D48        0.00087  -0.00000   0.00000   0.00000   0.00001   0.00088
   D49        0.00333  -0.00000  -0.00000   0.00000   0.00000   0.00333
   D50        3.13836   0.00000  -0.00000   0.00000  -0.00000   3.13836
   D51       -3.12711  -0.00000   0.00000   0.00000   0.00001  -3.12710
   D52        0.00793  -0.00000   0.00000   0.00000   0.00000   0.00793
   D53       -0.00646   0.00000  -0.00000  -0.00000  -0.00000  -0.00646
   D54        3.13699   0.00000   0.00000  -0.00000  -0.00000   3.13699
   D55       -3.14150  -0.00000  -0.00000  -0.00000  -0.00000  -3.14150
   D56        0.00195  -0.00000   0.00000  -0.00000   0.00000   0.00195
   D57       -0.00552   0.00000   0.00000  -0.00000  -0.00000  -0.00552
   D58       -3.13240  -0.00000   0.00000  -0.00000   0.00000  -3.13240
   D59        3.13427   0.00000  -0.00000  -0.00000  -0.00000   3.13427
   D60        0.00739  -0.00000   0.00000  -0.00000   0.00000   0.00739
         Item               Value     Threshold  Converged?
 Maximum Force            0.000004     0.000450     YES
 RMS     Force            0.000001     0.000300     YES
 Maximum Displacement     0.000398     0.001800     YES
 RMS     Displacement     0.000121     0.001200     YES
 Predicted change in Energy=-9.560575D-10
 Optimization completed.
    -- Stationary point found.
                           ----------------------------
                           !   Optimized Parameters   !
                           ! (Angstroms and Degrees)  !
 --------------------------                            --------------------------
 ! Name  Definition              Value          Derivative Info.                !
 --------------------------------------------------------------------------------
 ! R1    R(1,2)                  1.5108         -DE/DX =    0.0                 !
 ! R2    R(1,17)                 1.1094         -DE/DX =    0.0                 !
 ! R3    R(1,18)                 1.1105         -DE/DX =    0.0                 !
 ! R4    R(1,19)                 1.107          -DE/DX =    0.0                 !
 ! R5    R(2,3)                  1.4107         -DE/DX =    0.0                 !
 ! R6    R(2,8)                  1.4254         -DE/DX =    0.0                 !
 ! R7    R(3,4)                  1.4041         -DE/DX =    0.0                 !
 ! R8    R(3,20)                 1.1012         -DE/DX =    0.0                 !
 ! R9    R(4,5)                  1.4032         -DE/DX =    0.0                 !
 ! R10   R(4,21)                 1.101          -DE/DX =    0.0                 !
 ! R11   R(5,6)                  1.3992         -DE/DX =    0.0                 !
 ! R12   R(5,22)                 1.0996         -DE/DX =    0.0                 !
 ! R13   R(6,7)                  1.3473         -DE/DX =    0.0                 !
 ! R14   R(6,8)                  1.4111         -DE/DX =    0.0                 !
 ! R15   R(8,9)                  1.4879         -DE/DX =    0.0                 !
 ! R16   R(9,10)                 1.4197         -DE/DX =    0.0                 !
 ! R17   R(9,15)                 1.4076         -DE/DX =    0.0                 !
 ! R18   R(10,11)                1.3621         -DE/DX =    0.0                 !
 ! R19   R(10,12)                1.4088         -DE/DX =    0.0                 !
 ! R20   R(11,23)                0.9824         -DE/DX =    0.0                 !
 ! R21   R(12,13)                1.4016         -DE/DX =    0.0                 !
 ! R22   R(12,24)                1.0993         -DE/DX =    0.0                 !
 ! R23   R(13,14)                1.4064         -DE/DX =    0.0                 !
 ! R24   R(13,25)                1.101          -DE/DX =    0.0                 !
 ! R25   R(14,15)                1.399          -DE/DX =    0.0                 !
 ! R26   R(14,26)                1.099          -DE/DX =    0.0                 !
 ! R27   R(15,16)                1.3497         -DE/DX =    0.0                 !
 ! A1    A(2,1,17)             110.9245         -DE/DX =    0.0                 !
 ! A2    A(2,1,18)             111.5297         -DE/DX =    0.0                 !
 ! A3    A(2,1,19)             111.1387         -DE/DX =    0.0                 !
 ! A4    A(17,1,18)            106.3639         -DE/DX =    0.0                 !
 ! A5    A(17,1,19)            108.6332         -DE/DX =    0.0                 !
 ! A6    A(18,1,19)            108.0693         -DE/DX =    0.0                 !
 ! A7    A(1,2,3)              120.8528         -DE/DX =    0.0                 !
 ! A8    A(1,2,8)              120.1952         -DE/DX =    0.0                 !
 ! A9    A(3,2,8)              118.9412         -DE/DX =    0.0                 !
 ! A10   A(2,3,4)              121.2353         -DE/DX =    0.0                 !
 ! A11   A(2,3,20)             118.9683         -DE/DX =    0.0                 !
 ! A12   A(4,3,20)             119.7896         -DE/DX =    0.0                 !
 ! A13   A(3,4,5)              120.3813         -DE/DX =    0.0                 !
 ! A14   A(3,4,21)             119.9888         -DE/DX =    0.0                 !
 ! A15   A(5,4,21)             119.629          -DE/DX =    0.0                 !
 ! A16   A(4,5,6)              118.3684         -DE/DX =    0.0                 !
 ! A17   A(4,5,22)             122.3254         -DE/DX =    0.0                 !
 ! A18   A(6,5,22)             119.3061         -DE/DX =    0.0                 !
 ! A19   A(5,6,7)              118.7489         -DE/DX =    0.0                 !
 ! A20   A(5,6,8)              122.717          -DE/DX =    0.0                 !
 ! A21   A(7,6,8)              118.5324         -DE/DX =    0.0                 !
 ! A22   A(2,8,6)              118.3485         -DE/DX =    0.0                 !
 ! A23   A(2,8,9)              121.7206         -DE/DX =    0.0                 !
 ! A24   A(6,8,9)              119.9304         -DE/DX =    0.0                 !
 ! A25   A(8,9,10)             120.393          -DE/DX =    0.0                 !
 ! A26   A(8,9,15)             121.9854         -DE/DX =    0.0                 !
 ! A27   A(10,9,15)            117.6215         -DE/DX =    0.0                 !
 ! A28   A(9,10,11)            120.8086         -DE/DX =    0.0                 !
 ! A29   A(9,10,12)            120.7259         -DE/DX =    0.0                 !
 ! A30   A(11,10,12)           118.4655         -DE/DX =    0.0                 !
 ! A31   A(10,11,23)           107.3613         -DE/DX =    0.0                 !
 ! A32   A(10,12,13)           119.5404         -DE/DX =    0.0                 !
 ! A33   A(10,12,24)           118.7101         -DE/DX =    0.0                 !
 ! A34   A(13,12,24)           121.7465         -DE/DX =    0.0                 !
 ! A35   A(12,13,14)           121.1646         -DE/DX =    0.0                 !
 ! A36   A(12,13,25)           119.4447         -DE/DX =    0.0                 !
 ! A37   A(14,13,25)           119.3896         -DE/DX =    0.0                 !
 ! A38   A(13,14,15)           118.1769         -DE/DX =    0.0                 !
 ! A39   A(13,14,26)           122.3216         -DE/DX =    0.0                 !
 ! A40   A(15,14,26)           119.5014         -DE/DX =    0.0                 !
 ! A41   A(9,15,14)            122.7583         -DE/DX =    0.0                 !
 ! A42   A(9,15,16)            118.0635         -DE/DX =    0.0                 !
 ! A43   A(14,15,16)           119.1731         -DE/DX =    0.0                 !
 ! D1    D(17,1,2,3)           128.3087         -DE/DX =    0.0                 !
 ! D2    D(17,1,2,8)           -50.4884         -DE/DX =    0.0                 !
 ! D3    D(18,1,2,3)          -113.3259         -DE/DX =    0.0                 !
 ! D4    D(18,1,2,8)            67.877          -DE/DX =    0.0                 !
 ! D5    D(19,1,2,3)             7.3393         -DE/DX =    0.0                 !
 ! D6    D(19,1,2,8)          -171.4578         -DE/DX =    0.0                 !
 ! D7    D(1,2,3,4)           -178.0906         -DE/DX =    0.0                 !
 ! D8    D(1,2,3,20)             0.9572         -DE/DX =    0.0                 !
 ! D9    D(8,2,3,4)              0.7215         -DE/DX =    0.0                 !
 ! D10   D(8,2,3,20)           179.7692         -DE/DX =    0.0                 !
 ! D11   D(1,2,8,6)            177.7327         -DE/DX =    0.0                 !
 ! D12   D(1,2,8,9)             -2.5471         -DE/DX =    0.0                 !
 ! D13   D(3,2,8,6)             -1.0873         -DE/DX =    0.0                 !
 ! D14   D(3,2,8,9)            178.6329         -DE/DX =    0.0                 !
 ! D15   D(2,3,4,5)              0.0223         -DE/DX =    0.0                 !
 ! D16   D(2,3,4,21)           179.6721         -DE/DX =    0.0                 !
 ! D17   D(20,3,4,5)          -179.0178         -DE/DX =    0.0                 !
 ! D18   D(20,3,4,21)            0.6321         -DE/DX =    0.0                 !
 ! D19   D(3,4,5,6)             -0.3735         -DE/DX =    0.0                 !
 ! D20   D(3,4,5,22)           179.722          -DE/DX =    0.0                 !
 ! D21   D(21,4,5,6)           179.9753         -DE/DX =    0.0                 !
 ! D22   D(21,4,5,22)            0.0709         -DE/DX =    0.0                 !
 ! D23   D(4,5,6,7)           -179.5507         -DE/DX =    0.0                 !
 ! D24   D(4,5,6,8)             -0.0278         -DE/DX =    0.0                 !
 ! D25   D(22,5,6,7)             0.3567         -DE/DX =    0.0                 !
 ! D26   D(22,5,6,8)           179.8796         -DE/DX =    0.0                 !
 ! D27   D(5,6,8,2)              0.7628         -DE/DX =    0.0                 !
 ! D28   D(5,6,8,9)           -178.9625         -DE/DX =    0.0                 !
 ! D29   D(7,6,8,2)           -179.7133         -DE/DX =    0.0                 !
 ! D30   D(7,6,8,9)              0.5614         -DE/DX =    0.0                 !
 ! D31   D(2,8,9,10)           -68.3065         -DE/DX =    0.0                 !
 ! D32   D(2,8,9,15)           111.7953         -DE/DX =    0.0                 !
 ! D33   D(6,8,9,10)           111.4093         -DE/DX =    0.0                 !
 ! D34   D(6,8,9,15)           -68.4889         -DE/DX =    0.0                 !
 ! D35   D(8,9,10,11)           -1.2036         -DE/DX =    0.0                 !
 ! D36   D(8,9,10,12)          178.7961         -DE/DX =    0.0                 !
 ! D37   D(15,9,10,11)         178.6989         -DE/DX =    0.0                 !
 ! D38   D(15,9,10,12)          -1.3013         -DE/DX =    0.0                 !
 ! D39   D(8,9,15,14)         -178.9622         -DE/DX =    0.0                 !
 ! D40   D(8,9,15,16)            0.2037         -DE/DX =    0.0                 !
 ! D41   D(10,9,15,14)           1.1369         -DE/DX =    0.0                 !
 ! D42   D(10,9,15,16)        -179.6972         -DE/DX =    0.0                 !
 ! D43   D(9,10,11,23)          -5.6261         -DE/DX =    0.0                 !
 ! D44   D(12,10,11,23)        174.3741         -DE/DX =    0.0                 !
 ! D45   D(9,10,12,13)           0.67           -DE/DX =    0.0                 !
 ! D46   D(9,10,12,24)        -179.9499         -DE/DX =    0.0                 !
 ! D47   D(11,10,12,13)       -179.3303         -DE/DX =    0.0                 !
 ! D48   D(11,10,12,24)          0.0498         -DE/DX =    0.0                 !
 ! D49   D(10,12,13,14)          0.1906         -DE/DX =    0.0                 !
 ! D50   D(10,12,13,25)        179.8148         -DE/DX =    0.0                 !
 ! D51   D(24,12,13,14)       -179.17           -DE/DX =    0.0                 !
 ! D52   D(24,12,13,25)          0.4542         -DE/DX =    0.0                 !
 ! D53   D(12,13,14,15)         -0.3701         -DE/DX =    0.0                 !
 ! D54   D(12,13,14,26)        179.7361         -DE/DX =    0.0                 !
 ! D55   D(25,13,14,15)       -179.9945         -DE/DX =    0.0                 !
 ! D56   D(25,13,14,26)          0.1116         -DE/DX =    0.0                 !
 ! D57   D(13,14,15,9)          -0.3164         -DE/DX =    0.0                 !
 ! D58   D(13,14,15,16)       -179.4734         -DE/DX =    0.0                 !
 ! D59   D(26,14,15,9)         179.5805         -DE/DX =    0.0                 !
 ! D60   D(26,14,15,16)          0.4235         -DE/DX =    0.0                 !
 --------------------------------------------------------------------------------
 GradGradGradGradGradGradGradGradGradGradGradGradGradGradGradGradGradGrad

                          Input orientation:                          
 ---------------------------------------------------------------------
 Center     Atomic      Atomic             Coordinates (Angstroms)
 Number     Number       Type             X           Y           Z
 ---------------------------------------------------------------------
      1          6           0       -0.736996    1.540657   -2.091101
      2          6           0       -1.479599    0.749212   -1.040126
      3          6           0       -2.889858    0.722873   -1.016470
      4          6           0       -3.588382    0.022482   -0.020002
      5          6           0       -2.891405   -0.670893    0.981170
      6          6           0       -1.492634   -0.650769    0.953092
      7          9           0       -0.815673   -1.321563    1.905396
      8          6           0       -0.759489    0.035683   -0.038113
      9          6           0        0.727849   -0.003235   -0.021854
     10          6           0        1.439407   -0.695574   -1.036759
     11          8           0        0.776783   -1.355341   -2.027137
     12          6           0        2.848036   -0.715752   -1.042309
     13          6           0        3.552617   -0.056140   -0.025930
     14          6           0        2.878188    0.623780    1.004017
     15          6           0        1.479393    0.632148    0.984557
     16          9           0        0.811790    1.287701    1.957324
     17          1           0        0.013182    2.212056   -1.624985
     18          1           0       -0.175816    0.875710   -2.781159
     19          1           0       -1.433180    2.153564   -2.695312
     20          1           0       -3.446676    1.277131   -1.788133
     21          1           0       -4.689405    0.020103   -0.018051
     22          1           0       -3.405810   -1.225859    1.779029
     23          1           0       -0.181940   -1.313292   -1.816871
     24          1           0        3.365223   -1.261382   -1.844416
     25          1           0        4.653433   -0.075507   -0.030100
     26          1           0        3.411287    1.143487    1.812353
 ---------------------------------------------------------------------
                    Distance matrix (angstroms):
                    1          2          3          4          5
     1  C    0.000000
     2  C    1.510759   0.000000
     3  C    2.541341   1.410703   0.000000
     4  C    3.837279   2.452704   1.404077   0.000000
     5  C    4.355603   2.845264   2.435806   1.403172   0.000000
     6  C    3.826284   2.435782   2.778184   2.406728   1.399197
     7  F    4.916348   3.661285   4.125441   3.633391   2.363520
     8  C    2.545626   1.425382   2.442926   2.828982   2.466425
     9  C    2.968359   2.544776   3.821557   4.316308   3.814554
    10  C    3.293797   3.256995   4.555759   5.179582   4.777926
    11  O    3.268398   3.239537   4.334130   4.998166   4.793119
    12  C    4.363920   4.568868   5.915551   6.558779   6.085858
    13  C    5.021501   5.196190   6.564566   7.141435   6.551152
    14  C    4.846646   4.815036   6.112491   6.574702   5.913113
    15  C    3.898389   3.587295   4.806527   5.202228   4.560900
    16  F    4.341943   3.811187   4.781703   4.987195   4.301467
    17  H    1.109418   2.170338   3.318975   4.510151   4.851810
    18  H    1.110521   2.178772   3.240911   4.471867   4.890963
    19  H    1.106977   2.171175   2.643349   4.042733   4.860092
    20  H    2.739270   2.169701   1.101232   2.172674   3.431059
    21  H    4.714993   3.446605   2.174648   1.101027   2.169958
    22  H    5.454730   3.944468   3.446532   2.197317   1.099627
    23  H    2.920327   2.557572   3.481297   4.076381   3.947519
    24  H    4.973979   5.306757   6.614287   7.302699   6.890428
    25  H    5.993032   6.270119   7.649286   8.242403   7.635557
    26  H    5.709899   5.675637   6.919797   7.321854   6.611110
                    6          7          8          9         10
     6  C    0.000000
     7  F    1.347265   0.000000
     8  C    1.411101   2.371181   0.000000
     9  C    2.510053   2.799061   1.487936   0.000000
    10  C    3.543781   3.759458   2.523326   1.419747   0.000000
    11  O    3.811620   4.242862   2.872508   2.419039   1.362061
    12  C    4.777789   4.741175   3.819333   2.458496   1.408785
    13  C    5.173648   4.940979   4.313101   2.825267   2.428232
    14  C    4.553148   4.271001   3.829437   2.463639   2.824103
    15  C    3.237254   3.151549   2.532631   1.407620   2.418712
    16  F    3.174354   3.075645   2.831649   2.364468   3.645795
    17  H    4.136391   5.063304   2.802103   2.826357   3.291572
    18  H    4.243675   5.215479   2.927563   3.033631   2.849704
    19  H    4.602029   5.798649   3.464100   4.058227   4.372659
    20  H    3.879355   5.226619   3.438712   4.710174   5.322587
    21  H    3.407716   4.528301   3.929998   5.417305   6.253982
    22  H    2.161745   2.594983   3.449131   4.671736   5.629031
    23  H    3.135211   3.775839   2.305922   2.401260   1.902344
    24  H    5.638942   5.616458   4.685974   3.443894   2.163611
    25  H    6.250738   5.933795   5.414069   3.926258   3.424589
    26  H    5.292082   4.894111   4.695405   3.446756   3.922741
                   11         12         13         14         15
    11  O    0.000000
    12  C    2.380977   0.000000
    13  C    3.660329   1.401624   0.000000
    14  C    4.185776   2.445957   1.406391   0.000000
    15  C    3.676150   2.792527   2.406882   1.398955   0.000000
    16  F    4.781510   4.142213   3.640239   2.370567   1.349711
    17  H    3.670305   4.116791   4.497699   4.200302   3.384611
    18  H    2.540390   3.834062   4.728726   4.870110   4.120638
    19  H    4.200335   5.412412   6.071785   5.883296   4.933480
    20  H    4.982433   6.644640   7.339828   6.944557   5.689461
    21  H    5.983936   7.642225   8.242378   7.660125   6.279641
    22  H    5.656656   6.879735   7.283256   6.596244   5.286642
    23  H    0.982411   3.183984   4.328374   4.590647   3.793779
    24  H    2.596581   1.099349   2.189661   3.450306   3.891644
    25  H    4.544727   2.166550   1.100993   2.170229   3.406586
    26  H    5.284547   3.452986   2.199628   1.098952   2.163083
                   16         17         18         19         20
    16  F    0.000000
    17  H    3.784857   0.000000
    18  H    4.857811   1.777156   0.000000
    19  H    5.237999   1.800273   1.794783   0.000000
    20  H    5.671252   3.587661   3.441767   2.375978   0.000000
    21  H    5.980974   5.431502   5.360906   4.724657   2.501537
    22  H    4.913035   5.924194   5.970324   5.944030   4.357898
    23  H    4.690118   3.535954   2.391990   3.788977   4.167687
    24  H    5.241285   4.832091   4.240708   5.950676   7.269744
    25  H    4.535020   5.413735   5.638686   7.008492   8.398337
    26  H    2.607528   4.950177   5.834327   6.693890   7.746807
                   21         22         23         24         25
    21  H    0.000000
    22  H    2.535652   0.000000
    23  H    5.032984   4.830267   0.000000
    24  H    8.357920   7.679681   3.547649   0.000000
    25  H    9.343334   8.339523   5.301461   2.521414   0.000000
    26  H    8.380547   7.217182   5.667301   4.376925   2.534463
                   26
    26  H    0.000000
 Stoichiometry    C13H10F2O
 Framework group  C1[X(C13H10F2O)]
 Deg. of freedom    72
 Full point group                 C1      NOp   1
 Largest Abelian subgroup         C1      NOp   1
 Largest concise Abelian subgroup C1      NOp   1
                         Standard orientation:                         
 ---------------------------------------------------------------------
 Center     Atomic      Atomic             Coordinates (Angstroms)
 Number     Number       Type             X           Y           Z
 ---------------------------------------------------------------------
      1          6           0       -0.761373    2.137619    1.377092
      2          6           0       -1.485873    1.031036    0.647047
      3          6           0       -2.895454    0.994341    0.604415
      4          6           0       -3.577474   -0.051527   -0.037803
      5          6           0       -2.864209   -1.090382   -0.654993
      6          6           0       -1.466064   -1.049775   -0.618999
      7          9           0       -0.773463   -2.038550   -1.217122
      8          6           0       -0.749205   -0.009796    0.010097
      9          6           0        0.738595   -0.016588   -0.008781
     10          6           0        1.451897    0.956410   -0.757217
     11          8           0        0.790919    1.895999   -1.488991
     12          6           0        2.860593    0.971974   -0.759829
     13          6           0        3.563713    0.006769   -0.025969
     14          6           0        2.887809   -0.981754    0.711536
     15          6           0        1.488921   -0.973057    0.700846
     16          9           0        0.819751   -1.906069    1.410368
     17          1           0       -0.016783    1.722614    2.087137
     18          1           0       -0.196453    2.787066    0.675421
     19          1           0       -1.469922    2.775109    1.940086
     20          1           0       -3.465085    1.796192    1.099659
     21          1           0       -4.678326   -0.062501   -0.054028
     22          1           0       -3.365481   -1.927051   -1.162822
     23          1           0       -0.166735    1.681226   -1.445393
     24          1           0        3.379142    1.740697   -1.350371
     25          1           0        4.664630    0.018529   -0.031589
     26          1           0        3.419813   -1.749930    1.289958
 ---------------------------------------------------------------------
 Rotational constants (GHZ):           0.8752714           0.4431185           0.3752469

 **********************************************************************

            Population analysis using the SCF Density.

 **********************************************************************

 Orbital symmetries:
       Occupied  (A) (A) (A) (A) (A) (A) (A) (A) (A) (A) (A) (A)
                 (A) (A) (A) (A) (A) (A) (A) (A) (A) (A) (A) (A)
                 (A) (A) (A) (A) (A) (A) (A) (A) (A) (A) (A) (A)
                 (A) (A) (A) (A) (A) (A) (A) (A) (A) (A) (A) (A)
                 (A) (A) (A) (A) (A) (A) (A) (A) (A)
       Virtual   (A) (A) (A) (A) (A) (A) (A) (A) (A) (A) (A) (A)
                 (A) (A) (A) (A) (A) (A) (A) (A) (A) (A) (A) (A)
                 (A) (A) (A) (A) (A) (A) (A) (A) (A) (A) (A) (A)
                 (A) (A) (A) (A) (A) (A) (A) (A) (A) (A) (A) (A)
                 (A) (A) (A) (A) (A) (A) (A) (A) (A) (A) (A) (A)
                 (A) (A) (A) (A) (A) (A) (A) (A) (A) (A) (A) (A)
                 (A) (A) (A) (A) (A) (A) (A) (A) (A) (A) (A) (A)
                 (A) (A) (A) (A) (A) (A) (A) (A) (A) (A) (A) (A)
                 (A) (A) (A) (A) (A) (A) (A) (A) (A) (A) (A) (A)
                 (A) (A) (A) (A) (A) (A) (A) (A) (A) (A) (A) (A)
                 (A) (A) (A) (A) (A) (A) (A) (A) (A) (A) (A) (A)
                 (A) (A) (A) (A) (A) (A) (A) (A) (A) (A) (A) (A)
                 (A) (A) (A) (A) (A) (A) (A) (A) (A) (A) (A) (A)
                 (A) (A) (A) (A) (A) (A) (A) (A) (A) (A) (A) (A)
                 (A) (A) (A) (A) (A) (A) (A) (A) (A) (A) (A) (A)
                 (A) (A) (A) (A) (A) (A) (A) (A) (A) (A) (A) (A)
                 (A) (A) (A) (A) (A) (A) (A) (A) (A) (A) (A) (A)
                 (A) (A) (A) (A) (A) (A) (A) (A) (A) (A) (A) (A)
                 (A)
 The electronic state is 1-A.
 Alpha  occ. eigenvalues --  -24.30567 -24.29993 -18.81919 -10.00642  -9.99951
 Alpha  occ. eigenvalues --   -9.98475  -9.94664  -9.94393  -9.93718  -9.93385
 Alpha  occ. eigenvalues --   -9.93226  -9.92995  -9.92910  -9.92438  -9.91949
 Alpha  occ. eigenvalues --   -9.91813  -1.11314  -1.10597  -0.97235  -0.79668
 Alpha  occ. eigenvalues --   -0.77404  -0.71837  -0.69953  -0.67001  -0.65959
 Alpha  occ. eigenvalues --   -0.62849  -0.58270  -0.55581  -0.54654  -0.54416
 Alpha  occ. eigenvalues --   -0.50531  -0.48802  -0.47402  -0.45772  -0.45155
 Alpha  occ. eigenvalues --   -0.42911  -0.42679  -0.41458  -0.40693  -0.39642
 Alpha  occ. eigenvalues --   -0.38645  -0.38308  -0.37426  -0.36773  -0.36139
 Alpha  occ. eigenvalues --   -0.34843  -0.33947  -0.33511  -0.32316  -0.31989
 Alpha  occ. eigenvalues --   -0.31493  -0.30465  -0.29474  -0.24634  -0.23038
 Alpha  occ. eigenvalues --   -0.22083  -0.20482
 Alpha virt. eigenvalues --   -0.06773  -0.04865  -0.03970  -0.03058   0.03219
 Alpha virt. eigenvalues --    0.03606   0.04726   0.06251   0.07697   0.08659
 Alpha virt. eigenvalues --    0.09239   0.10029   0.10343   0.10840   0.11444
 Alpha virt. eigenvalues --    0.12533   0.12747   0.13557   0.17634   0.19089
 Alpha virt. eigenvalues --    0.21095   0.23256   0.24110   0.24754   0.25962
 Alpha virt. eigenvalues --    0.26997   0.27746   0.29133   0.29548   0.30062
 Alpha virt. eigenvalues --    0.32798   0.34658   0.35364   0.36962   0.37461
 Alpha virt. eigenvalues --    0.39089   0.39407   0.40075   0.40886   0.41853
 Alpha virt. eigenvalues --    0.42242   0.42792   0.43555   0.46001   0.46107
 Alpha virt. eigenvalues --    0.46835   0.47950   0.49468   0.50498   0.50972
 Alpha virt. eigenvalues --    0.51789   0.52491   0.52827   0.53824   0.55465
 Alpha virt. eigenvalues --    0.56806   0.57346   0.58901   0.59266   0.59714
 Alpha virt. eigenvalues --    0.60500   0.61448   0.61543   0.63229   0.64115
 Alpha virt. eigenvalues --    0.64812   0.64999   0.65298   0.66737   0.67605
 Alpha virt. eigenvalues --    0.68010   0.68964   0.69908   0.70731   0.71161
 Alpha virt. eigenvalues --    0.73206   0.73925   0.76680   0.76824   0.78110
 Alpha virt. eigenvalues --    0.80164   0.80474   0.83766   0.86339   0.90986
 Alpha virt. eigenvalues --    0.93670   0.96846   0.99280   1.00814   1.02628
 Alpha virt. eigenvalues --    1.06082   1.07630   1.09066   1.10776   1.12552
 Alpha virt. eigenvalues --    1.13053   1.14424   1.17160   1.17448   1.17704
 Alpha virt. eigenvalues --    1.18241   1.20081   1.20734   1.21553   1.23797
 Alpha virt. eigenvalues --    1.25652   1.29124   1.30471   1.37385   1.37789
 Alpha virt. eigenvalues --    1.40117   1.42107   1.42556   1.44922   1.45333
 Alpha virt. eigenvalues --    1.47495   1.48771   1.51248   1.54115   1.55447
 Alpha virt. eigenvalues --    1.59540   1.60420   1.60816   1.61487   1.62631
 Alpha virt. eigenvalues --    1.62809   1.64022   1.64154   1.66151   1.67242
 Alpha virt. eigenvalues --    1.68432   1.68711   1.70719   1.71061   1.71396
 Alpha virt. eigenvalues --    1.73115   1.73606   1.75134   1.76058   1.76540
 Alpha virt. eigenvalues --    1.78041   1.79940   1.82756   1.84140   1.84508
 Alpha virt. eigenvalues --    1.85874   1.87861   1.89176   1.92180   1.94711
 Alpha virt. eigenvalues --    1.95499   1.97918   1.98725   1.99374   2.02369
 Alpha virt. eigenvalues --    2.03294   2.04392   2.05899   2.07302   2.09893
 Alpha virt. eigenvalues --    2.10576   2.10771   2.12535   2.14507   2.14819
 Alpha virt. eigenvalues --    2.17477   2.18271   2.18771   2.20987   2.22494
 Alpha virt. eigenvalues --    2.24597   2.25046   2.27539   2.33454   2.34683
 Alpha virt. eigenvalues --    2.36223   2.38053   2.44780   2.46245   2.47670
 Alpha virt. eigenvalues --    2.50520   2.51022   2.52132   2.53663   2.54474
 Alpha virt. eigenvalues --    2.60135   2.61141   2.62964   2.65369   2.67500
 Alpha virt. eigenvalues --    2.71524   2.78174   2.80500   2.81652   2.82165
 Alpha virt. eigenvalues --    2.83653   2.85159   2.88022   2.89318   2.90009
 Alpha virt. eigenvalues --    2.93554   2.98203   2.98686   3.01044   3.01948
 Alpha virt. eigenvalues --    3.03548   3.14327   3.20324   3.20895   3.28693
 Alpha virt. eigenvalues --    3.35437   3.39043   3.42467   3.45443   3.68185
 Alpha virt. eigenvalues --    3.74759   3.78008
          Condensed to atoms (all electrons):
               1          2          3          4          5          6
     1  C    4.629786   0.449601  -0.096296   0.016697  -0.001990   0.014577
     2  C    0.449601   5.241521   0.273061   0.117511  -0.149838   0.121345
     3  C   -0.096296   0.273061   5.225262   0.213959   0.117850  -0.160145
     4  C    0.016697   0.117511   0.213959   5.197773   0.149415   0.152980
     5  C   -0.001990  -0.149838   0.117850   0.149415   5.372880   0.236753
     6  C    0.014577   0.121345  -0.160145   0.152980   0.236753   5.005595
     7  F   -0.000036   0.004722  -0.000328   0.005192  -0.067908   0.415819
     8  C   -0.090966   0.183302   0.067096  -0.149547   0.020269   0.120524
     9  C   -0.021817  -0.072615   0.023824  -0.003626   0.021943  -0.100437
    10  C    0.004029  -0.013886   0.000053   0.000127  -0.000410  -0.005420
    11  O   -0.007545   0.001468  -0.000467   0.000039  -0.000034  -0.000601
    12  C   -0.000263   0.000510  -0.000008   0.000003  -0.000007  -0.000206
    13  C    0.000016   0.000054   0.000003  -0.000000   0.000004   0.000062
    14  C   -0.000132  -0.000349  -0.000007   0.000003  -0.000014   0.000766
    15  C   -0.000693  -0.003654  -0.000340   0.000067   0.000794  -0.004295
    16  F    0.000076  -0.002387  -0.000031  -0.000000  -0.000159   0.005391
    17  H    0.355513   0.001616   0.005397  -0.000680   0.000155  -0.000383
    18  H    0.348696   0.002299   0.001767  -0.000375   0.000036   0.000191
    19  H    0.366521  -0.010440  -0.015352   0.000569   0.000004  -0.000305
    20  H   -0.019697  -0.069130   0.436519  -0.075964   0.015217  -0.001881
    21  H   -0.000412   0.015218  -0.066632   0.432836  -0.070735   0.013532
    22  H    0.000032  -0.002137   0.014197  -0.073406   0.423604  -0.066089
    23  H   -0.001068   0.012429   0.000251  -0.000206   0.000002  -0.000078
    24  H    0.000008  -0.000017  -0.000000   0.000000  -0.000000   0.000005
    25  H   -0.000001  -0.000000   0.000000  -0.000000   0.000000   0.000000
    26  H   -0.000001   0.000013  -0.000000   0.000000  -0.000001  -0.000027
               7          8          9         10         11         12
     1  C   -0.000036  -0.090966  -0.021817   0.004029  -0.007545  -0.000263
     2  C    0.004722   0.183302  -0.072615  -0.013886   0.001468   0.000510
     3  C   -0.000328   0.067096   0.023824   0.000053  -0.000467  -0.000008
     4  C    0.005192  -0.149547  -0.003626   0.000127   0.000039   0.000003
     5  C   -0.067908   0.020269   0.021943  -0.000410  -0.000034  -0.000007
     6  C    0.415819   0.120524  -0.100437  -0.005420  -0.000601  -0.000206
     7  F    8.877938  -0.104750   0.015205  -0.002375   0.000001  -0.000025
     8  C   -0.104750   6.099486   0.055722  -0.060831  -0.013720   0.017636
     9  C    0.015205   0.055722   6.282780   0.072757  -0.096099   0.014076
    10  C   -0.002375  -0.060831   0.072757   5.109968   0.444723   0.255799
    11  O    0.000001  -0.013720  -0.096099   0.444723   7.559297  -0.077231
    12  C   -0.000025   0.017636   0.014076   0.255799  -0.077231   5.273326
    13  C    0.000002  -0.002344  -0.147449   0.150603   0.004728   0.202517
    14  C   -0.000195   0.022378   0.022883  -0.164890  -0.000158   0.119078
    15  C    0.005002  -0.068630   0.100973   0.165219   0.003673  -0.145535
    16  F   -0.000571   0.013734  -0.102604   0.004408  -0.000002  -0.000287
    17  H    0.000000  -0.014451   0.013586   0.000320  -0.000289  -0.000073
    18  H   -0.000000  -0.015828   0.000114  -0.002913   0.023468  -0.001822
    19  H    0.000001   0.011789  -0.000113   0.000117   0.000120   0.000013
    20  H    0.000003   0.018868  -0.000237  -0.000010  -0.000003  -0.000000
    21  H   -0.000065  -0.001505   0.000045  -0.000001   0.000000   0.000000
    22  H    0.001743   0.021587  -0.000374   0.000008   0.000001  -0.000000
    23  H    0.000065   0.017520  -0.034503  -0.008568   0.320620   0.009858
    24  H    0.000001  -0.000347   0.023776  -0.066569   0.000785   0.426854
    25  H    0.000000   0.000008  -0.002178   0.015580  -0.000081  -0.070404
    26  H    0.000002  -0.000328   0.022738  -0.002365   0.000005   0.014603
              13         14         15         16         17         18
     1  C    0.000016  -0.000132  -0.000693   0.000076   0.355513   0.348696
     2  C    0.000054  -0.000349  -0.003654  -0.002387   0.001616   0.002299
     3  C    0.000003  -0.000007  -0.000340  -0.000031   0.005397   0.001767
     4  C   -0.000000   0.000003   0.000067  -0.000000  -0.000680  -0.000375
     5  C    0.000004  -0.000014   0.000794  -0.000159   0.000155   0.000036
     6  C    0.000062   0.000766  -0.004295   0.005391  -0.000383   0.000191
     7  F    0.000002  -0.000195   0.005002  -0.000571   0.000000  -0.000000
     8  C   -0.002344   0.022378  -0.068630   0.013734  -0.014451  -0.015828
     9  C   -0.147449   0.022883   0.100973  -0.102604   0.013586   0.000114
    10  C    0.150603  -0.164890   0.165219   0.004408   0.000320  -0.002913
    11  O    0.004728  -0.000158   0.003673  -0.000002  -0.000289   0.023468
    12  C    0.202517   0.119078  -0.145535  -0.000287  -0.000073  -0.001822
    13  C    5.207393   0.133275   0.159911   0.005126  -0.000015   0.000033
    14  C    0.133275   5.414589   0.220282  -0.067195   0.000075   0.000148
    15  C    0.159911   0.220282   4.983009   0.413188   0.000044   0.000311
    16  F    0.005126  -0.067195   0.413188   8.887068   0.000081   0.000003
    17  H   -0.000015   0.000075   0.000044   0.000081   0.620912  -0.019138
    18  H    0.000033   0.000148   0.000311   0.000003  -0.019138   0.639995
    19  H   -0.000001  -0.000001   0.000082   0.000002  -0.020702  -0.018310
    20  H   -0.000000  -0.000000  -0.000006   0.000000   0.000253   0.000541
    21  H   -0.000000   0.000000   0.000000   0.000000   0.000010   0.000010
    22  H    0.000000  -0.000001  -0.000025   0.000003  -0.000001  -0.000002
    23  H   -0.000329  -0.000145   0.000878   0.000003   0.000341  -0.003445
    24  H   -0.080706   0.015043  -0.002629   0.000003  -0.000025   0.000091
    25  H    0.436899  -0.069807   0.014130  -0.000066   0.000001   0.000000
    26  H   -0.075332   0.426068  -0.068670   0.001555   0.000006  -0.000002
              19         20         21         22         23         24
     1  C    0.366521  -0.019697  -0.000412   0.000032  -0.001068   0.000008
     2  C   -0.010440  -0.069130   0.015218  -0.002137   0.012429  -0.000017
     3  C   -0.015352   0.436519  -0.066632   0.014197   0.000251  -0.000000
     4  C    0.000569  -0.075964   0.432836  -0.073406  -0.000206   0.000000
     5  C    0.000004   0.015217  -0.070735   0.423604   0.000002  -0.000000
     6  C   -0.000305  -0.001881   0.013532  -0.066089  -0.000078   0.000005
     7  F    0.000001   0.000003  -0.000065   0.001743   0.000065   0.000001
     8  C    0.011789   0.018868  -0.001505   0.021587   0.017520  -0.000347
     9  C   -0.000113  -0.000237   0.000045  -0.000374  -0.034503   0.023776
    10  C    0.000117  -0.000010  -0.000001   0.000008  -0.008568  -0.066569
    11  O    0.000120  -0.000003   0.000000   0.000001   0.320620   0.000785
    12  C    0.000013  -0.000000   0.000000  -0.000000   0.009858   0.426854
    13  C   -0.000001  -0.000000  -0.000000   0.000000  -0.000329  -0.080706
    14  C   -0.000001  -0.000000   0.000000  -0.000001  -0.000145   0.015043
    15  C    0.000082  -0.000006   0.000000  -0.000025   0.000878  -0.002629
    16  F    0.000002   0.000000   0.000000   0.000003   0.000003   0.000003
    17  H   -0.020702   0.000253   0.000010  -0.000001   0.000341  -0.000025
    18  H   -0.018310   0.000541   0.000010  -0.000002  -0.003445   0.000091
    19  H    0.648014   0.008471   0.000001  -0.000001  -0.000021  -0.000001
    20  H    0.008471   0.706666  -0.012802  -0.000263  -0.000020   0.000000
    21  H    0.000001  -0.012802   0.689946  -0.013148  -0.000003  -0.000000
    22  H   -0.000001  -0.000263  -0.013148   0.681819  -0.000011   0.000000
    23  H   -0.000021  -0.000020  -0.000003  -0.000011   0.492992  -0.000546
    24  H   -0.000001   0.000000  -0.000000   0.000000  -0.000546   0.699699
    25  H    0.000000  -0.000000  -0.000000  -0.000000   0.000020  -0.013268
    26  H   -0.000000   0.000000  -0.000000   0.000000  -0.000002  -0.000206
              25         26
     1  C   -0.000001  -0.000001
     2  C   -0.000000   0.000013
     3  C    0.000000  -0.000000
     4  C   -0.000000   0.000000
     5  C    0.000000  -0.000001
     6  C    0.000000  -0.000027
     7  F    0.000000   0.000002
     8  C    0.000008  -0.000328
     9  C   -0.002178   0.022738
    10  C    0.015580  -0.002365
    11  O   -0.000081   0.000005
    12  C   -0.070404   0.014603
    13  C    0.436899  -0.075332
    14  C   -0.069807   0.426068
    15  C    0.014130  -0.068670
    16  F   -0.000066   0.001555
    17  H    0.000001   0.000006
    18  H    0.000000  -0.000002
    19  H    0.000000  -0.000000
    20  H   -0.000000   0.000000
    21  H   -0.000000  -0.000000
    22  H   -0.000000   0.000000
    23  H    0.000020  -0.000002
    24  H   -0.013268  -0.000206
    25  H    0.688911  -0.013277
    26  H   -0.013277   0.690556
 Mulliken charges:
               1
     1  C    0.055367
     2  C   -0.100217
     3  C   -0.039631
     4  C    0.016634
     5  C   -0.067831
     6  C    0.252327
     7  F   -0.149443
     8  C   -0.146672
     9  C   -0.088369
    10  C    0.104529
    11  O   -0.162697
    12  C   -0.038411
    13  C    0.005550
    14  C   -0.071693
    15  C    0.226913
    16  F   -0.157339
    17  H    0.057448
    18  H    0.044133
    19  H    0.029543
    20  H   -0.006526
    21  H    0.013704
    22  H    0.012465
    23  H    0.193968
    24  H   -0.001950
    25  H    0.013535
    26  H    0.004664
 Sum of Mulliken charges =  -0.00000
 Mulliken charges with hydrogens summed into heavy atoms:
               1
     1  C    0.186490
     2  C   -0.100217
     3  C   -0.046157
     4  C    0.030338
     5  C   -0.055366
     6  C    0.252327
     7  F   -0.149443
     8  C   -0.146672
     9  C   -0.088369
    10  C    0.104529
    11  O    0.031271
    12  C   -0.040360
    13  C    0.019085
    14  C   -0.067030
    15  C    0.226913
    16  F   -0.157339
 Electronic spatial extent (au):  <R**2>=           3164.5992
 Charge=             -0.0000 electrons
 Dipole moment (field-independent basis, Debye):
    X=             -1.2679    Y=              1.2818    Z=              0.3830  Tot=              1.8432
 Quadrupole moment (field-independent basis, Debye-Ang):
   XX=            -77.8672   YY=            -92.0942   ZZ=            -92.9885
   XY=             -1.8137   XZ=              1.7223   YZ=              2.1165
 Traceless Quadrupole moment (field-independent basis, Debye-Ang):
   XX=              9.7827   YY=             -4.4442   ZZ=             -5.3385
   XY=             -1.8137   XZ=              1.7223   YZ=              2.1165
 Octapole moment (field-independent basis, Debye-Ang**2):
  XXX=              0.9720  YYY=            -19.0396  ZZZ=             -2.2676  XYY=             -7.1942
  XXY=            -11.9386  XXZ=             -2.0843  XZZ=             -2.0234  YZZ=             -4.7272
  YYZ=              3.6305  XYZ=            -10.0034
 Hexadecapole moment (field-independent basis, Debye-Ang**3):
 XXXX=          -2378.1277 YYYY=           -984.8042 ZZZZ=           -516.5451 XXXY=             13.4043
 XXXZ=             16.0547 YYYX=             -6.0274 YYYZ=              1.4354 ZZZX=             17.8076
 ZZZY=             -5.8750 XXYY=           -580.2598 XXZZ=           -543.2499 YYZZ=           -249.0374
 XXYZ=             -3.6197 YYXZ=              8.0715 ZZXY=             -5.9651
 N-N= 1.079733867706D+03 E-N=-3.970759575503D+03  KE= 7.677462291449D+02
 Unable to Open any file for archive entry.
 1\1\GINC-SEMLSCPN068\FOpt\RBP86\def2SVP\C13H10F2O1\KTVF206\02-Dec-2025
 \0\\# opt=calcfc freq bp86 def2svp empiricaldispersion=GD3BJ\\example\
 \0,1\C,-0.736995847,1.5406569508,-2.0911007465\C,-1.4795994438,0.74921
 22809,-1.0401259208\C,-2.8898579943,0.7228734482,-1.0164704082\C,-3.58
 83822371,0.0224823014,-0.0200018414\C,-2.8914050264,-0.6708929623,0.98
 1169533\C,-1.4926343037,-0.6507692308,0.9530918107\F,-0.8156731763,-1.
 321562636,1.9053963491\C,-0.7594889838,0.0356828507,-0.0381126737\C,0.
 7278488274,-0.0032347909,-0.0218538187\C,1.4394070146,-0.6955744028,-1
 .0367591784\O,0.7767834723,-1.3553411384,-2.0271374814\C,2.8480363064,
 -0.7157518059,-1.0423093393\C,3.5526173598,-0.0561402053,-0.0259298087
 \C,2.8781881888,0.623779556,1.0040174842\C,1.4793933701,0.6321481415,0
 .9845570552\F,0.8117898925,1.2877011579,1.9573243467\H,0.01318154,2.21
 20562792,-1.6249845668\H,-0.1758163302,0.8757097413,-2.7811591216\H,-1
 .4331799651,2.1535640338,-2.6953117912\H,-3.4466757004,1.2771313128,-1
 .7881333353\H,-4.6894045282,0.0201029772,-0.0180507353\H,-3.405809669,
 -1.2258585241,1.7790291982\H,-0.1819399782,-1.3132916945,-1.8168706134
 \H,3.3652225946,-1.2613819766,-1.8444157836\H,4.653432551,-0.075506708
 9,-0.0301001778\H,3.4112872564,1.1434866871,1.8123526262\\Version=ES64
 L-G16RevC.02\State=1-A\HF=-775.8002913\RMSD=2.856e-09\RMSF=5.392e-07\D
 ipole=-0.4927843,0.1900146,-0.4969065\Quadrupole=7.2818319,-3.7896169,
 -3.4922149,1.0549248,1.4860592,-1.6147428\PG=C01 [X(C13H10F2O1)]\\@
 The archive entry for this job was punched.


 I SUPPOSE A BABY LLAMA HAS A MMAMA AND A PPOPA.
     -- RICHARD AMOUR
 Job cpu time:       0 days  0 hours 37 minutes 13.9 seconds.
 Elapsed time:       0 days  0 hours  4 minutes 46.9 seconds.
 File lengths (MBytes):  RWF=    233 Int=      0 D2E=      0 Chk=      8 Scr=      1
 Normal termination of Gaussian 16 at Tue Dec  2 14:15:03 2025.
 Link1:  Proceeding to internal job step number  2.
 ------------------------------------------------------------------
 #N Geom=AllCheck Guess=TCheck SCRF=Check GenChk RBP86/def2SVP Freq
 ------------------------------------------------------------------
 1/10=4,29=7,30=1,38=1,40=1/1,3;
 2/12=2,40=1/2;
 3/5=43,7=101,11=2,14=-4,25=1,30=1,70=2,71=2,74=404,116=1,124=41,140=1/1,2,3;
 4/5=101/1;
 5/5=2,38=6,98=1/2;
 8/6=4,10=90,11=11/1;
 11/6=1,8=1,9=11,15=111,16=1/1,2,10;
 10/6=1/2;
 6/7=2,8=2,9=2,10=2,28=1/1;
 7/8=1,10=1,25=1/1,2,3,16;
 1/10=4,30=1/3;
 99//99;
 Structure from the checkpoint file:  "/scratch/gaussian_tmp/Gau-1716556.chk"
 -------
 example
 -------
 Charge =  0 Multiplicity = 1
 Redundant internal coordinates found in file.  (old form).
 C,0,-0.736995847,1.5406569508,-2.0911007465
 C,0,-1.4795994438,0.7492122809,-1.0401259208
 C,0,-2.8898579943,0.7228734482,-1.0164704082
 C,0,-3.5883822371,0.0224823014,-0.0200018414
 C,0,-2.8914050264,-0.6708929623,0.981169533
 C,0,-1.4926343037,-0.6507692308,0.9530918107
 F,0,-0.8156731763,-1.321562636,1.9053963491
 C,0,-0.7594889838,0.0356828507,-0.0381126737
 C,0,0.7278488274,-0.0032347909,-0.0218538187
 C,0,1.4394070146,-0.6955744028,-1.0367591784
 O,0,0.7767834723,-1.3553411384,-2.0271374814
 C,0,2.8480363064,-0.7157518059,-1.0423093393
 C,0,3.5526173598,-0.0561402053,-0.0259298087
 C,0,2.8781881888,0.623779556,1.0040174842
 C,0,1.4793933701,0.6321481415,0.9845570552
 F,0,0.8117898925,1.2877011579,1.9573243467
 H,0,0.01318154,2.2120562792,-1.6249845668
 H,0,-0.1758163302,0.8757097413,-2.7811591216
 H,0,-1.4331799651,2.1535640338,-2.6953117912
 H,0,-3.4466757004,1.2771313128,-1.7881333353
 H,0,-4.6894045282,0.0201029772,-0.0180507353
 H,0,-3.405809669,-1.2258585241,1.7790291982
 H,0,-0.1819399782,-1.3132916945,-1.8168706134
 H,0,3.3652225946,-1.2613819766,-1.8444157836
 H,0,4.653432551,-0.0755067089,-0.0301001778
 H,0,3.4112872564,1.1434866871,1.8123526262
 Recover connectivity data from disk.

 GradGradGradGradGradGradGradGradGradGradGradGradGradGradGradGradGradGrad
 Berny optimization.
 Initialization pass.
                           ----------------------------
                           !    Initial Parameters    !
                           ! (Angstroms and Degrees)  !
 --------------------------                            --------------------------
 ! Name  Definition              Value          Derivative Info.                !
 --------------------------------------------------------------------------------
 ! R1    R(1,2)                  1.5108         calculate D2E/DX2 analytically  !
 ! R2    R(1,17)                 1.1094         calculate D2E/DX2 analytically  !
 ! R3    R(1,18)                 1.1105         calculate D2E/DX2 analytically  !
 ! R4    R(1,19)                 1.107          calculate D2E/DX2 analytically  !
 ! R5    R(2,3)                  1.4107         calculate D2E/DX2 analytically  !
 ! R6    R(2,8)                  1.4254         calculate D2E/DX2 analytically  !
 ! R7    R(3,4)                  1.4041         calculate D2E/DX2 analytically  !
 ! R8    R(3,20)                 1.1012         calculate D2E/DX2 analytically  !
 ! R9    R(4,5)                  1.4032         calculate D2E/DX2 analytically  !
 ! R10   R(4,21)                 1.101          calculate D2E/DX2 analytically  !
 ! R11   R(5,6)                  1.3992         calculate D2E/DX2 analytically  !
 ! R12   R(5,22)                 1.0996         calculate D2E/DX2 analytically  !
 ! R13   R(6,7)                  1.3473         calculate D2E/DX2 analytically  !
 ! R14   R(6,8)                  1.4111         calculate D2E/DX2 analytically  !
 ! R15   R(8,9)                  1.4879         calculate D2E/DX2 analytically  !
 ! R16   R(9,10)                 1.4197         calculate D2E/DX2 analytically  !
 ! R17   R(9,15)                 1.4076         calculate D2E/DX2 analytically  !
 ! R18   R(10,11)                1.3621         calculate D2E/DX2 analytically  !
 ! R19   R(10,12)                1.4088         calculate D2E/DX2 analytically  !
 ! R20   R(11,23)                0.9824         calculate D2E/DX2 analytically  !
 ! R21   R(12,13)                1.4016         calculate D2E/DX2 analytically  !
 ! R22   R(12,24)                1.0993         calculate D2E/DX2 analytically  !
 ! R23   R(13,14)                1.4064         calculate D2E/DX2 analytically  !
 ! R24   R(13,25)                1.101          calculate D2E/DX2 analytically  !
 ! R25   R(14,15)                1.399          calculate D2E/DX2 analytically  !
 ! R26   R(14,26)                1.099          calculate D2E/DX2 analytically  !
 ! R27   R(15,16)                1.3497         calculate D2E/DX2 analytically  !
 ! A1    A(2,1,17)             110.9245         calculate D2E/DX2 analytically  !
 ! A2    A(2,1,18)             111.5297         calculate D2E/DX2 analytically  !
 ! A3    A(2,1,19)             111.1387         calculate D2E/DX2 analytically  !
 ! A4    A(17,1,18)            106.3639         calculate D2E/DX2 analytically  !
 ! A5    A(17,1,19)            108.6332         calculate D2E/DX2 analytically  !
 ! A6    A(18,1,19)            108.0693         calculate D2E/DX2 analytically  !
 ! A7    A(1,2,3)              120.8528         calculate D2E/DX2 analytically  !
 ! A8    A(1,2,8)              120.1952         calculate D2E/DX2 analytically  !
 ! A9    A(3,2,8)              118.9412         calculate D2E/DX2 analytically  !
 ! A10   A(2,3,4)              121.2353         calculate D2E/DX2 analytically  !
 ! A11   A(2,3,20)             118.9683         calculate D2E/DX2 analytically  !
 ! A12   A(4,3,20)             119.7896         calculate D2E/DX2 analytically  !
 ! A13   A(3,4,5)              120.3813         calculate D2E/DX2 analytically  !
 ! A14   A(3,4,21)             119.9888         calculate D2E/DX2 analytically  !
 ! A15   A(5,4,21)             119.629          calculate D2E/DX2 analytically  !
 ! A16   A(4,5,6)              118.3684         calculate D2E/DX2 analytically  !
 ! A17   A(4,5,22)             122.3254         calculate D2E/DX2 analytically  !
 ! A18   A(6,5,22)             119.3061         calculate D2E/DX2 analytically  !
 ! A19   A(5,6,7)              118.7489         calculate D2E/DX2 analytically  !
 ! A20   A(5,6,8)              122.717          calculate D2E/DX2 analytically  !
 ! A21   A(7,6,8)              118.5324         calculate D2E/DX2 analytically  !
 ! A22   A(2,8,6)              118.3485         calculate D2E/DX2 analytically  !
 ! A23   A(2,8,9)              121.7206         calculate D2E/DX2 analytically  !
 ! A24   A(6,8,9)              119.9304         calculate D2E/DX2 analytically  !
 ! A25   A(8,9,10)             120.393          calculate D2E/DX2 analytically  !
 ! A26   A(8,9,15)             121.9854         calculate D2E/DX2 analytically  !
 ! A27   A(10,9,15)            117.6215         calculate D2E/DX2 analytically  !
 ! A28   A(9,10,11)            120.8086         calculate D2E/DX2 analytically  !
 ! A29   A(9,10,12)            120.7259         calculate D2E/DX2 analytically  !
 ! A30   A(11,10,12)           118.4655         calculate D2E/DX2 analytically  !
 ! A31   A(10,11,23)           107.3613         calculate D2E/DX2 analytically  !
 ! A32   A(10,12,13)           119.5404         calculate D2E/DX2 analytically  !
 ! A33   A(10,12,24)           118.7101         calculate D2E/DX2 analytically  !
 ! A34   A(13,12,24)           121.7465         calculate D2E/DX2 analytically  !
 ! A35   A(12,13,14)           121.1646         calculate D2E/DX2 analytically  !
 ! A36   A(12,13,25)           119.4447         calculate D2E/DX2 analytically  !
 ! A37   A(14,13,25)           119.3896         calculate D2E/DX2 analytically  !
 ! A38   A(13,14,15)           118.1769         calculate D2E/DX2 analytically  !
 ! A39   A(13,14,26)           122.3216         calculate D2E/DX2 analytically  !
 ! A40   A(15,14,26)           119.5014         calculate D2E/DX2 analytically  !
 ! A41   A(9,15,14)            122.7583         calculate D2E/DX2 analytically  !
 ! A42   A(9,15,16)            118.0635         calculate D2E/DX2 analytically  !
 ! A43   A(14,15,16)           119.1731         calculate D2E/DX2 analytically  !
 ! D1    D(17,1,2,3)           128.3087         calculate D2E/DX2 analytically  !
 ! D2    D(17,1,2,8)           -50.4884         calculate D2E/DX2 analytically  !
 ! D3    D(18,1,2,3)          -113.3259         calculate D2E/DX2 analytically  !
 ! D4    D(18,1,2,8)            67.877          calculate D2E/DX2 analytically  !
 ! D5    D(19,1,2,3)             7.3393         calculate D2E/DX2 analytically  !
 ! D6    D(19,1,2,8)          -171.4578         calculate D2E/DX2 analytically  !
 ! D7    D(1,2,3,4)           -178.0906         calculate D2E/DX2 analytically  !
 ! D8    D(1,2,3,20)             0.9572         calculate D2E/DX2 analytically  !
 ! D9    D(8,2,3,4)              0.7215         calculate D2E/DX2 analytically  !
 ! D10   D(8,2,3,20)           179.7692         calculate D2E/DX2 analytically  !
 ! D11   D(1,2,8,6)            177.7327         calculate D2E/DX2 analytically  !
 ! D12   D(1,2,8,9)             -2.5471         calculate D2E/DX2 analytically  !
 ! D13   D(3,2,8,6)             -1.0873         calculate D2E/DX2 analytically  !
 ! D14   D(3,2,8,9)            178.6329         calculate D2E/DX2 analytically  !
 ! D15   D(2,3,4,5)              0.0223         calculate D2E/DX2 analytically  !
 ! D16   D(2,3,4,21)           179.6721         calculate D2E/DX2 analytically  !
 ! D17   D(20,3,4,5)          -179.0178         calculate D2E/DX2 analytically  !
 ! D18   D(20,3,4,21)            0.6321         calculate D2E/DX2 analytically  !
 ! D19   D(3,4,5,6)             -0.3735         calculate D2E/DX2 analytically  !
 ! D20   D(3,4,5,22)           179.722          calculate D2E/DX2 analytically  !
 ! D21   D(21,4,5,6)           179.9753         calculate D2E/DX2 analytically  !
 ! D22   D(21,4,5,22)            0.0709         calculate D2E/DX2 analytically  !
 ! D23   D(4,5,6,7)           -179.5507         calculate D2E/DX2 analytically  !
 ! D24   D(4,5,6,8)             -0.0278         calculate D2E/DX2 analytically  !
 ! D25   D(22,5,6,7)             0.3567         calculate D2E/DX2 analytically  !
 ! D26   D(22,5,6,8)           179.8796         calculate D2E/DX2 analytically  !
 ! D27   D(5,6,8,2)              0.7628         calculate D2E/DX2 analytically  !
 ! D28   D(5,6,8,9)           -178.9625         calculate D2E/DX2 analytically  !
 ! D29   D(7,6,8,2)           -179.7133         calculate D2E/DX2 analytically  !
 ! D30   D(7,6,8,9)              0.5614         calculate D2E/DX2 analytically  !
 ! D31   D(2,8,9,10)           -68.3065         calculate D2E/DX2 analytically  !
 ! D32   D(2,8,9,15)           111.7953         calculate D2E/DX2 analytically  !
 ! D33   D(6,8,9,10)           111.4093         calculate D2E/DX2 analytically  !
 ! D34   D(6,8,9,15)           -68.4889         calculate D2E/DX2 analytically  !
 ! D35   D(8,9,10,11)           -1.2036         calculate D2E/DX2 analytically  !
 ! D36   D(8,9,10,12)          178.7961         calculate D2E/DX2 analytically  !
 ! D37   D(15,9,10,11)         178.6989         calculate D2E/DX2 analytically  !
 ! D38   D(15,9,10,12)          -1.3013         calculate D2E/DX2 analytically  !
 ! D39   D(8,9,15,14)         -178.9622         calculate D2E/DX2 analytically  !
 ! D40   D(8,9,15,16)            0.2037         calculate D2E/DX2 analytically  !
 ! D41   D(10,9,15,14)           1.1369         calculate D2E/DX2 analytically  !
 ! D42   D(10,9,15,16)        -179.6972         calculate D2E/DX2 analytically  !
 ! D43   D(9,10,11,23)          -5.6261         calculate D2E/DX2 analytically  !
 ! D44   D(12,10,11,23)        174.3741         calculate D2E/DX2 analytically  !
 ! D45   D(9,10,12,13)           0.67           calculate D2E/DX2 analytically  !
 ! D46   D(9,10,12,24)        -179.9499         calculate D2E/DX2 analytically  !
 ! D47   D(11,10,12,13)       -179.3303         calculate D2E/DX2 analytically  !
 ! D48   D(11,10,12,24)          0.0498         calculate D2E/DX2 analytically  !
 ! D49   D(10,12,13,14)          0.1906         calculate D2E/DX2 analytically  !
 ! D50   D(10,12,13,25)        179.8148         calculate D2E/DX2 analytically  !
 ! D51   D(24,12,13,14)       -179.17           calculate D2E/DX2 analytically  !
 ! D52   D(24,12,13,25)          0.4542         calculate D2E/DX2 analytically  !
 ! D53   D(12,13,14,15)         -0.3701         calculate D2E/DX2 analytically  !
 ! D54   D(12,13,14,26)        179.7361         calculate D2E/DX2 analytically  !
 ! D55   D(25,13,14,15)       -179.9945         calculate D2E/DX2 analytically  !
 ! D56   D(25,13,14,26)          0.1116         calculate D2E/DX2 analytically  !
 ! D57   D(13,14,15,9)          -0.3164         calculate D2E/DX2 analytically  !
 ! D58   D(13,14,15,16)       -179.4734         calculate D2E/DX2 analytically  !
 ! D59   D(26,14,15,9)         179.5805         calculate D2E/DX2 analytically  !
 ! D60   D(26,14,15,16)          0.4235         calculate D2E/DX2 analytically  !
 --------------------------------------------------------------------------------
 Trust Radius=3.00D-01 FncErr=1.00D-07 GrdErr=1.00D-07 EigMax=2.50D+02 EigMin=1.00D-04
 Number of steps in this run=      2 maximum allowed number of steps=      2.
 GradGradGradGradGradGradGradGradGradGradGradGradGradGradGradGradGradGrad

                          Input orientation:                          
 ---------------------------------------------------------------------
 Center     Atomic      Atomic             Coordinates (Angstroms)
 Number     Number       Type             X           Y           Z
 ---------------------------------------------------------------------
      1          6           0       -0.736996    1.540657   -2.091101
      2          6           0       -1.479599    0.749212   -1.040126
      3          6           0       -2.889858    0.722873   -1.016470
      4          6           0       -3.588382    0.022482   -0.020002
      5          6           0       -2.891405   -0.670893    0.981170
      6          6           0       -1.492634   -0.650769    0.953092
      7          9           0       -0.815673   -1.321563    1.905396
      8          6           0       -0.759489    0.035683   -0.038113
      9          6           0        0.727849   -0.003235   -0.021854
     10          6           0        1.439407   -0.695574   -1.036759
     11          8           0        0.776783   -1.355341   -2.027137
     12          6           0        2.848036   -0.715752   -1.042309
     13          6           0        3.552617   -0.056140   -0.025930
     14          6           0        2.878188    0.623780    1.004017
     15          6           0        1.479393    0.632148    0.984557
     16          9           0        0.811790    1.287701    1.957324
     17          1           0        0.013182    2.212056   -1.624985
     18          1           0       -0.175816    0.875710   -2.781159
     19          1           0       -1.433180    2.153564   -2.695312
     20          1           0       -3.446676    1.277131   -1.788133
     21          1           0       -4.689405    0.020103   -0.018051
     22          1           0       -3.405810   -1.225859    1.779029
     23          1           0       -0.181940   -1.313292   -1.816871
     24          1           0        3.365223   -1.261382   -1.844416
     25          1           0        4.653433   -0.075507   -0.030100
     26          1           0        3.411287    1.143487    1.812353
 ---------------------------------------------------------------------
                    Distance matrix (angstroms):
                    1          2          3          4          5
     1  C    0.000000
     2  C    1.510759   0.000000
     3  C    2.541341   1.410703   0.000000
     4  C    3.837279   2.452704   1.404077   0.000000
     5  C    4.355603   2.845264   2.435806   1.403172   0.000000
     6  C    3.826284   2.435782   2.778184   2.406728   1.399197
     7  F    4.916348   3.661285   4.125441   3.633391   2.363520
     8  C    2.545626   1.425382   2.442926   2.828982   2.466425
     9  C    2.968359   2.544776   3.821557   4.316308   3.814554
    10  C    3.293797   3.256995   4.555759   5.179582   4.777926
    11  O    3.268398   3.239537   4.334130   4.998166   4.793119
    12  C    4.363920   4.568868   5.915551   6.558779   6.085858
    13  C    5.021501   5.196190   6.564566   7.141435   6.551152
    14  C    4.846646   4.815036   6.112491   6.574702   5.913113
    15  C    3.898389   3.587295   4.806527   5.202228   4.560900
    16  F    4.341943   3.811187   4.781703   4.987195   4.301467
    17  H    1.109418   2.170338   3.318975   4.510151   4.851810
    18  H    1.110521   2.178772   3.240911   4.471867   4.890963
    19  H    1.106977   2.171175   2.643349   4.042733   4.860092
    20  H    2.739270   2.169701   1.101232   2.172674   3.431059
    21  H    4.714993   3.446605   2.174648   1.101027   2.169958
    22  H    5.454730   3.944468   3.446532   2.197317   1.099627
    23  H    2.920327   2.557572   3.481297   4.076381   3.947519
    24  H    4.973979   5.306757   6.614287   7.302699   6.890428
    25  H    5.993032   6.270119   7.649286   8.242403   7.635557
    26  H    5.709899   5.675637   6.919797   7.321854   6.611110
                    6          7          8          9         10
     6  C    0.000000
     7  F    1.347265   0.000000
     8  C    1.411101   2.371181   0.000000
     9  C    2.510053   2.799061   1.487936   0.000000
    10  C    3.543781   3.759458   2.523326   1.419747   0.000000
    11  O    3.811620   4.242862   2.872508   2.419039   1.362061
    12  C    4.777789   4.741175   3.819333   2.458496   1.408785
    13  C    5.173648   4.940979   4.313101   2.825267   2.428232
    14  C    4.553148   4.271001   3.829437   2.463639   2.824103
    15  C    3.237254   3.151549   2.532631   1.407620   2.418712
    16  F    3.174354   3.075645   2.831649   2.364468   3.645795
    17  H    4.136391   5.063304   2.802103   2.826357   3.291572
    18  H    4.243675   5.215479   2.927563   3.033631   2.849704
    19  H    4.602029   5.798649   3.464100   4.058227   4.372659
    20  H    3.879355   5.226619   3.438712   4.710174   5.322587
    21  H    3.407716   4.528301   3.929998   5.417305   6.253982
    22  H    2.161745   2.594983   3.449131   4.671736   5.629031
    23  H    3.135211   3.775839   2.305922   2.401260   1.902344
    24  H    5.638942   5.616458   4.685974   3.443894   2.163611
    25  H    6.250738   5.933795   5.414069   3.926258   3.424589
    26  H    5.292082   4.894111   4.695405   3.446756   3.922741
                   11         12         13         14         15
    11  O    0.000000
    12  C    2.380977   0.000000
    13  C    3.660329   1.401624   0.000000
    14  C    4.185776   2.445957   1.406391   0.000000
    15  C    3.676150   2.792527   2.406882   1.398955   0.000000
    16  F    4.781510   4.142213   3.640239   2.370567   1.349711
    17  H    3.670305   4.116791   4.497699   4.200302   3.384611
    18  H    2.540390   3.834062   4.728726   4.870110   4.120638
    19  H    4.200335   5.412412   6.071785   5.883296   4.933480
    20  H    4.982433   6.644640   7.339828   6.944557   5.689461
    21  H    5.983936   7.642225   8.242378   7.660125   6.279641
    22  H    5.656656   6.879735   7.283256   6.596244   5.286642
    23  H    0.982411   3.183984   4.328374   4.590647   3.793779
    24  H    2.596581   1.099349   2.189661   3.450306   3.891644
    25  H    4.544727   2.166550   1.100993   2.170229   3.406586
    26  H    5.284547   3.452986   2.199628   1.098952   2.163083
                   16         17         18         19         20
    16  F    0.000000
    17  H    3.784857   0.000000
    18  H    4.857811   1.777156   0.000000
    19  H    5.237999   1.800273   1.794783   0.000000
    20  H    5.671252   3.587661   3.441767   2.375978   0.000000
    21  H    5.980974   5.431502   5.360906   4.724657   2.501537
    22  H    4.913035   5.924194   5.970324   5.944030   4.357898
    23  H    4.690118   3.535954   2.391990   3.788977   4.167687
    24  H    5.241285   4.832091   4.240708   5.950676   7.269744
    25  H    4.535020   5.413735   5.638686   7.008492   8.398337
    26  H    2.607528   4.950177   5.834327   6.693890   7.746807
                   21         22         23         24         25
    21  H    0.000000
    22  H    2.535652   0.000000
    23  H    5.032984   4.830267   0.000000
    24  H    8.357920   7.679681   3.547649   0.000000
    25  H    9.343334   8.339523   5.301461   2.521414   0.000000
    26  H    8.380547   7.217182   5.667301   4.376925   2.534463
                   26
    26  H    0.000000
 Stoichiometry    C13H10F2O
 Framework group  C1[X(C13H10F2O)]
 Deg. of freedom    72
 Full point group                 C1      NOp   1
 Largest Abelian subgroup         C1      NOp   1
 Largest concise Abelian subgroup C1      NOp   1
                         Standard orientation:                         
 ---------------------------------------------------------------------
 Center     Atomic      Atomic             Coordinates (Angstroms)
 Number     Number       Type             X           Y           Z
 ---------------------------------------------------------------------
      1          6           0       -0.761373    2.137619    1.377092
      2          6           0       -1.485873    1.031036    0.647047
      3          6           0       -2.895454    0.994341    0.604415
      4          6           0       -3.577474   -0.051527   -0.037803
      5          6           0       -2.864209   -1.090382   -0.654993
      6          6           0       -1.466064   -1.049775   -0.618999
      7          9           0       -0.773463   -2.038550   -1.217122
      8          6           0       -0.749205   -0.009796    0.010097
      9          6           0        0.738595   -0.016588   -0.008781
     10          6           0        1.451897    0.956410   -0.757217
     11          8           0        0.790919    1.895999   -1.488991
     12          6           0        2.860593    0.971974   -0.759829
     13          6           0        3.563713    0.006769   -0.025969
     14          6           0        2.887809   -0.981754    0.711536
     15          6           0        1.488921   -0.973057    0.700846
     16          9           0        0.819751   -1.906069    1.410368
     17          1           0       -0.016783    1.722614    2.087137
     18          1           0       -0.196453    2.787066    0.675421
     19          1           0       -1.469922    2.775109    1.940086
     20          1           0       -3.465085    1.796192    1.099659
     21          1           0       -4.678326   -0.062501   -0.054028
     22          1           0       -3.365481   -1.927051   -1.162822
     23          1           0       -0.166735    1.681226   -1.445393
     24          1           0        3.379142    1.740697   -1.350371
     25          1           0        4.664630    0.018529   -0.031589
     26          1           0        3.419813   -1.749930    1.289958
 ---------------------------------------------------------------------
 Rotational constants (GHZ):           0.8752714           0.4431185           0.3752469
 Standard basis: def2SVP (5D, 7F)
 There are   290 symmetry adapted cartesian basis functions of A   symmetry.
 There are   274 symmetry adapted basis functions of A   symmetry.
   274 basis functions,   470 primitive gaussians,   290 cartesian basis functions
    57 alpha electrons       57 beta electrons
       nuclear repulsion energy      1079.7870750875 Hartrees.
 NAtoms=   26 NActive=   26 NUniq=   26 SFac= 1.00D+00 NAtFMM=   60 NAOKFM=F Big=F
 Integral buffers will be    131072 words long.
 Raffenetti 2 integral format.
 Two-electron integral symmetry is turned on.
 Nuclear repulsion after empirical dispersion term =     1079.7338677058 Hartrees.
 One-electron integrals computed using PRISM.
   1 Symmetry operations used in ECPInt.
 ECPInt:  NShTT=    8001 NPrTT=   29641 LenC2=    7679 LenP2D=   20637.
 LDataN:  DoStor=T MaxTD1= 4 Len=   56
 NBasis=   274 RedAO= T EigKep=  2.31D-04  NBF=   274
 NBsUse=   274 1.00D-06 EigRej= -1.00D+00 NBFU=   274
 Initial guess from the checkpoint file:  "/scratch/gaussian_tmp/Gau-1716556.chk"
 B after Tr=    -0.000000    0.000000   -0.000000
         Rot=    1.000000   -0.000000   -0.000000    0.000000 Ang=   0.00 deg.
 Requested convergence on RMS density matrix=1.00D-08 within 128 cycles.
 Requested convergence on MAX density matrix=1.00D-06.
 Requested convergence on             energy=1.00D-06.
 No special actions if energy rises.
 SCF Done:  E(RB-P86) =  -775.800291266     A.U. after    1 cycles
            NFock=  1  Conv=0.29D-08     -V/T= 2.0105
 DoSCS=F DFT=T ScalE2(SS,OS)=  1.000000  1.000000
 Range of M.O.s used for correlation:     1   274
 NBasis=   274 NAE=    57 NBE=    57 NFC=     0 NFV=     0
 NROrb=    274 NOA=    57 NOB=    57 NVA=   217 NVB=   217

 **** Warning!!: The largest alpha MO coefficient is  0.12477486D+02

   1 Symmetry operations used in ECPInt.
 ECPInt:  NShTT=    8001 NPrTT=   29641 LenC2=    7679 LenP2D=   20637.
 LDataN:  DoStor=T MaxTD1= 5 Len=  102
 Symmetrizing basis deriv contribution to polar:
 IMax=3 JMax=2 DiffMx= 0.00D+00
 G2DrvN: will do    27 centers at a time, making    1 passes.
 Calling FoFCou, ICntrl=  3507 FMM=F I1Cent=   0 AccDes= 0.00D+00.
 End of G2Drv F.D. properties file   721 does not exist.
 End of G2Drv F.D. properties file   722 does not exist.
 End of G2Drv F.D. properties file   788 does not exist.
          IDoAtm=11111111111111111111111111
          Differentiating once with respect to electric field.
                with respect to dipole field.
          Differentiating once with respect to nuclear coordinates.
 Keep J ints in memory in canonical form, NReq=722056059.
          There are    81 degrees of freedom in the 1st order CPHF.  IDoFFX=6 NUNeed=     3.
     78 vectors produced by pass  0 Test12= 1.53D-14 1.23D-09 XBig12= 3.87D+02 9.79D+00.
 AX will form    78 AO Fock derivatives at one time.
     78 vectors produced by pass  1 Test12= 1.53D-14 1.23D-09 XBig12= 1.04D+02 1.71D+00.
     78 vectors produced by pass  2 Test12= 1.53D-14 1.23D-09 XBig12= 7.20D-01 9.33D-02.
     78 vectors produced by pass  3 Test12= 1.53D-14 1.23D-09 XBig12= 2.51D-03 4.42D-03.
     76 vectors produced by pass  4 Test12= 1.53D-14 1.23D-09 XBig12= 1.42D-06 9.26D-05.
     27 vectors produced by pass  5 Test12= 1.53D-14 1.23D-09 XBig12= 2.45D-10 1.36D-06.
      3 vectors produced by pass  6 Test12= 1.53D-14 1.23D-09 XBig12= 4.14D-14 1.49D-08.
 InvSVY:  IOpt=1 It=  1 EMax= 7.11D-15
 Solved reduced A of dimension   418 with    81 vectors.
 Isotropic polarizability for W=    0.000000      144.55 Bohr**3.
 End of Minotr F.D. properties file   721 does not exist.
 End of Minotr F.D. properties file   722 does not exist.
 End of Minotr F.D. properties file   788 does not exist.

 **********************************************************************

            Population analysis using the SCF Density.

 **********************************************************************

 Orbital symmetries:
       Occupied  (A) (A) (A) (A) (A) (A) (A) (A) (A) (A) (A) (A)
                 (A) (A) (A) (A) (A) (A) (A) (A) (A) (A) (A) (A)
                 (A) (A) (A) (A) (A) (A) (A) (A) (A) (A) (A) (A)
                 (A) (A) (A) (A) (A) (A) (A) (A) (A) (A) (A) (A)
                 (A) (A) (A) (A) (A) (A) (A) (A) (A)
       Virtual   (A) (A) (A) (A) (A) (A) (A) (A) (A) (A) (A) (A)
                 (A) (A) (A) (A) (A) (A) (A) (A) (A) (A) (A) (A)
                 (A) (A) (A) (A) (A) (A) (A) (A) (A) (A) (A) (A)
                 (A) (A) (A) (A) (A) (A) (A) (A) (A) (A) (A) (A)
                 (A) (A) (A) (A) (A) (A) (A) (A) (A) (A) (A) (A)
                 (A) (A) (A) (A) (A) (A) (A) (A) (A) (A) (A) (A)
                 (A) (A) (A) (A) (A) (A) (A) (A) (A) (A) (A) (A)
                 (A) (A) (A) (A) (A) (A) (A) (A) (A) (A) (A) (A)
                 (A) (A) (A) (A) (A) (A) (A) (A) (A) (A) (A) (A)
                 (A) (A) (A) (A) (A) (A) (A) (A) (A) (A) (A) (A)
                 (A) (A) (A) (A) (A) (A) (A) (A) (A) (A) (A) (A)
                 (A) (A) (A) (A) (A) (A) (A) (A) (A) (A) (A) (A)
                 (A) (A) (A) (A) (A) (A) (A) (A) (A) (A) (A) (A)
                 (A) (A) (A) (A) (A) (A) (A) (A) (A) (A) (A) (A)
                 (A) (A) (A) (A) (A) (A) (A) (A) (A) (A) (A) (A)
                 (A) (A) (A) (A) (A) (A) (A) (A) (A) (A) (A) (A)
                 (A) (A) (A) (A) (A) (A) (A) (A) (A) (A) (A) (A)
                 (A) (A) (A) (A) (A) (A) (A) (A) (A) (A) (A) (A)
                 (A)
 The electronic state is 1-A.
 Alpha  occ. eigenvalues --  -24.30567 -24.29993 -18.81919 -10.00642  -9.99951
 Alpha  occ. eigenvalues --   -9.98475  -9.94664  -9.94393  -9.93718  -9.93385
 Alpha  occ. eigenvalues --   -9.93226  -9.92995  -9.92910  -9.92438  -9.91949
 Alpha  occ. eigenvalues --   -9.91813  -1.11314  -1.10597  -0.97235  -0.79668
 Alpha  occ. eigenvalues --   -0.77404  -0.71837  -0.69953  -0.67001  -0.65959
 Alpha  occ. eigenvalues --   -0.62849  -0.58270  -0.55581  -0.54654  -0.54416
 Alpha  occ. eigenvalues --   -0.50531  -0.48802  -0.47402  -0.45772  -0.45155
 Alpha  occ. eigenvalues --   -0.42911  -0.42679  -0.41458  -0.40693  -0.39642
 Alpha  occ. eigenvalues --   -0.38645  -0.38308  -0.37426  -0.36773  -0.36139
 Alpha  occ. eigenvalues --   -0.34843  -0.33947  -0.33511  -0.32316  -0.31989
 Alpha  occ. eigenvalues --   -0.31493  -0.30465  -0.29474  -0.24634  -0.23038
 Alpha  occ. eigenvalues --   -0.22083  -0.20482
 Alpha virt. eigenvalues --   -0.06773  -0.04865  -0.03970  -0.03058   0.03219
 Alpha virt. eigenvalues --    0.03606   0.04726   0.06251   0.07697   0.08659
 Alpha virt. eigenvalues --    0.09239   0.10029   0.10343   0.10840   0.11444
 Alpha virt. eigenvalues --    0.12533   0.12747   0.13557   0.17634   0.19089
 Alpha virt. eigenvalues --    0.21095   0.23256   0.24110   0.24754   0.25962
 Alpha virt. eigenvalues --    0.26997   0.27746   0.29133   0.29548   0.30062
 Alpha virt. eigenvalues --    0.32798   0.34658   0.35364   0.36962   0.37461
 Alpha virt. eigenvalues --    0.39089   0.39407   0.40075   0.40886   0.41853
 Alpha virt. eigenvalues --    0.42242   0.42792   0.43555   0.46001   0.46107
 Alpha virt. eigenvalues --    0.46835   0.47950   0.49468   0.50498   0.50972
 Alpha virt. eigenvalues --    0.51789   0.52491   0.52827   0.53824   0.55465
 Alpha virt. eigenvalues --    0.56806   0.57346   0.58901   0.59266   0.59714
 Alpha virt. eigenvalues --    0.60500   0.61448   0.61543   0.63229   0.64115
 Alpha virt. eigenvalues --    0.64812   0.64999   0.65298   0.66737   0.67605
 Alpha virt. eigenvalues --    0.68010   0.68964   0.69908   0.70731   0.71161
 Alpha virt. eigenvalues --    0.73206   0.73925   0.76680   0.76824   0.78110
 Alpha virt. eigenvalues --    0.80164   0.80474   0.83766   0.86339   0.90986
 Alpha virt. eigenvalues --    0.93670   0.96846   0.99280   1.00814   1.02628
 Alpha virt. eigenvalues --    1.06082   1.07630   1.09066   1.10776   1.12552
 Alpha virt. eigenvalues --    1.13053   1.14424   1.17160   1.17448   1.17704
 Alpha virt. eigenvalues --    1.18241   1.20081   1.20734   1.21553   1.23797
 Alpha virt. eigenvalues --    1.25652   1.29124   1.30471   1.37385   1.37789
 Alpha virt. eigenvalues --    1.40117   1.42107   1.42556   1.44922   1.45333
 Alpha virt. eigenvalues --    1.47495   1.48771   1.51248   1.54115   1.55447
 Alpha virt. eigenvalues --    1.59540   1.60420   1.60816   1.61487   1.62631
 Alpha virt. eigenvalues --    1.62809   1.64022   1.64154   1.66151   1.67242
 Alpha virt. eigenvalues --    1.68432   1.68711   1.70719   1.71061   1.71396
 Alpha virt. eigenvalues --    1.73115   1.73606   1.75134   1.76058   1.76540
 Alpha virt. eigenvalues --    1.78041   1.79940   1.82756   1.84140   1.84508
 Alpha virt. eigenvalues --    1.85874   1.87861   1.89176   1.92180   1.94711
 Alpha virt. eigenvalues --    1.95499   1.97918   1.98725   1.99374   2.02369
 Alpha virt. eigenvalues --    2.03294   2.04392   2.05899   2.07302   2.09893
 Alpha virt. eigenvalues --    2.10576   2.10771   2.12535   2.14507   2.14819
 Alpha virt. eigenvalues --    2.17477   2.18271   2.18771   2.20987   2.22494
 Alpha virt. eigenvalues --    2.24597   2.25046   2.27539   2.33454   2.34683
 Alpha virt. eigenvalues --    2.36223   2.38053   2.44780   2.46245   2.47670
 Alpha virt. eigenvalues --    2.50520   2.51022   2.52132   2.53663   2.54474
 Alpha virt. eigenvalues --    2.60135   2.61141   2.62964   2.65369   2.67500
 Alpha virt. eigenvalues --    2.71524   2.78174   2.80500   2.81652   2.82165
 Alpha virt. eigenvalues --    2.83653   2.85159   2.88022   2.89318   2.90009
 Alpha virt. eigenvalues --    2.93554   2.98203   2.98686   3.01044   3.01948
 Alpha virt. eigenvalues --    3.03548   3.14327   3.20324   3.20895   3.28693
 Alpha virt. eigenvalues --    3.35437   3.39043   3.42467   3.45443   3.68185
 Alpha virt. eigenvalues --    3.74759   3.78008
          Condensed to atoms (all electrons):
               1          2          3          4          5          6
     1  C    4.629786   0.449601  -0.096296   0.016697  -0.001990   0.014577
     2  C    0.449601   5.241521   0.273061   0.117511  -0.149838   0.121345
     3  C   -0.096296   0.273061   5.225261   0.213960   0.117850  -0.160145
     4  C    0.016697   0.117511   0.213960   5.197773   0.149415   0.152980
     5  C   -0.001990  -0.149838   0.117850   0.149415   5.372881   0.236753
     6  C    0.014577   0.121345  -0.160145   0.152980   0.236753   5.005595
     7  F   -0.000036   0.004722  -0.000328   0.005192  -0.067908   0.415819
     8  C   -0.090966   0.183302   0.067096  -0.149547   0.020269   0.120524
     9  C   -0.021817  -0.072615   0.023824  -0.003626   0.021943  -0.100437
    10  C    0.004029  -0.013886   0.000053   0.000127  -0.000410  -0.005420
    11  O   -0.007545   0.001468  -0.000467   0.000039  -0.000034  -0.000601
    12  C   -0.000263   0.000510  -0.000008   0.000003  -0.000007  -0.000206
    13  C    0.000016   0.000054   0.000003  -0.000000   0.000004   0.000062
    14  C   -0.000132  -0.000349  -0.000007   0.000003  -0.000014   0.000766
    15  C   -0.000693  -0.003654  -0.000340   0.000067   0.000794  -0.004295
    16  F    0.000076  -0.002387  -0.000031  -0.000000  -0.000159   0.005391
    17  H    0.355513   0.001616   0.005397  -0.000680   0.000155  -0.000383
    18  H    0.348696   0.002299   0.001767  -0.000375   0.000036   0.000191
    19  H    0.366521  -0.010440  -0.015352   0.000569   0.000004  -0.000305
    20  H   -0.019697  -0.069130   0.436519  -0.075964   0.015217  -0.001881
    21  H   -0.000412   0.015218  -0.066632   0.432836  -0.070735   0.013532
    22  H    0.000032  -0.002137   0.014197  -0.073406   0.423604  -0.066089
    23  H   -0.001068   0.012429   0.000251  -0.000206   0.000002  -0.000078
    24  H    0.000008  -0.000017  -0.000000   0.000000  -0.000000   0.000005
    25  H   -0.000001  -0.000000   0.000000  -0.000000   0.000000   0.000000
    26  H   -0.000001   0.000013  -0.000000   0.000000  -0.000001  -0.000027
               7          8          9         10         11         12
     1  C   -0.000036  -0.090966  -0.021817   0.004029  -0.007545  -0.000263
     2  C    0.004722   0.183302  -0.072615  -0.013886   0.001468   0.000510
     3  C   -0.000328   0.067096   0.023824   0.000053  -0.000467  -0.000008
     4  C    0.005192  -0.149547  -0.003626   0.000127   0.000039   0.000003
     5  C   -0.067908   0.020269   0.021943  -0.000410  -0.000034  -0.000007
     6  C    0.415819   0.120524  -0.100437  -0.005420  -0.000601  -0.000206
     7  F    8.877938  -0.104750   0.015205  -0.002375   0.000001  -0.000025
     8  C   -0.104750   6.099486   0.055722  -0.060831  -0.013720   0.017636
     9  C    0.015205   0.055722   6.282780   0.072757  -0.096099   0.014076
    10  C   -0.002375  -0.060831   0.072757   5.109968   0.444723   0.255799
    11  O    0.000001  -0.013720  -0.096099   0.444723   7.559297  -0.077231
    12  C   -0.000025   0.017636   0.014076   0.255799  -0.077231   5.273327
    13  C    0.000002  -0.002344  -0.147449   0.150603   0.004728   0.202517
    14  C   -0.000195   0.022378   0.022883  -0.164890  -0.000158   0.119078
    15  C    0.005002  -0.068630   0.100972   0.165219   0.003673  -0.145535
    16  F   -0.000571   0.013734  -0.102604   0.004408  -0.000002  -0.000287
    17  H    0.000000  -0.014451   0.013586   0.000320  -0.000289  -0.000073
    18  H   -0.000000  -0.015828   0.000114  -0.002913   0.023468  -0.001822
    19  H    0.000001   0.011789  -0.000113   0.000117   0.000120   0.000013
    20  H    0.000003   0.018868  -0.000237  -0.000010  -0.000003  -0.000000
    21  H   -0.000065  -0.001505   0.000045  -0.000001   0.000000   0.000000
    22  H    0.001743   0.021587  -0.000374   0.000008   0.000001  -0.000000
    23  H    0.000065   0.017520  -0.034503  -0.008568   0.320620   0.009858
    24  H    0.000001  -0.000347   0.023776  -0.066569   0.000785   0.426854
    25  H    0.000000   0.000008  -0.002178   0.015580  -0.000081  -0.070404
    26  H    0.000002  -0.000328   0.022738  -0.002365   0.000005   0.014603
              13         14         15         16         17         18
     1  C    0.000016  -0.000132  -0.000693   0.000076   0.355513   0.348696
     2  C    0.000054  -0.000349  -0.003654  -0.002387   0.001616   0.002299
     3  C    0.000003  -0.000007  -0.000340  -0.000031   0.005397   0.001767
     4  C   -0.000000   0.000003   0.000067  -0.000000  -0.000680  -0.000375
     5  C    0.000004  -0.000014   0.000794  -0.000159   0.000155   0.000036
     6  C    0.000062   0.000766  -0.004295   0.005391  -0.000383   0.000191
     7  F    0.000002  -0.000195   0.005002  -0.000571   0.000000  -0.000000
     8  C   -0.002344   0.022378  -0.068630   0.013734  -0.014451  -0.015828
     9  C   -0.147449   0.022883   0.100972  -0.102604   0.013586   0.000114
    10  C    0.150603  -0.164890   0.165219   0.004408   0.000320  -0.002913
    11  O    0.004728  -0.000158   0.003673  -0.000002  -0.000289   0.023468
    12  C    0.202517   0.119078  -0.145535  -0.000287  -0.000073  -0.001822
    13  C    5.207394   0.133275   0.159911   0.005126  -0.000015   0.000033
    14  C    0.133275   5.414589   0.220283  -0.067195   0.000075   0.000148
    15  C    0.159911   0.220283   4.983008   0.413188   0.000044   0.000311
    16  F    0.005126  -0.067195   0.413188   8.887068   0.000081   0.000003
    17  H   -0.000015   0.000075   0.000044   0.000081   0.620912  -0.019138
    18  H    0.000033   0.000148   0.000311   0.000003  -0.019138   0.639995
    19  H   -0.000001  -0.000001   0.000082   0.000002  -0.020702  -0.018310
    20  H   -0.000000  -0.000000  -0.000006   0.000000   0.000253   0.000541
    21  H   -0.000000   0.000000   0.000000   0.000000   0.000010   0.000010
    22  H    0.000000  -0.000001  -0.000025   0.000003  -0.000001  -0.000002
    23  H   -0.000329  -0.000145   0.000878   0.000003   0.000341  -0.003445
    24  H   -0.080706   0.015043  -0.002629   0.000003  -0.000025   0.000091
    25  H    0.436899  -0.069807   0.014130  -0.000066   0.000001   0.000000
    26  H   -0.075332   0.426068  -0.068670   0.001555   0.000006  -0.000002
              19         20         21         22         23         24
     1  C    0.366521  -0.019697  -0.000412   0.000032  -0.001068   0.000008
     2  C   -0.010440  -0.069130   0.015218  -0.002137   0.012429  -0.000017
     3  C   -0.015352   0.436519  -0.066632   0.014197   0.000251  -0.000000
     4  C    0.000569  -0.075964   0.432836  -0.073406  -0.000206   0.000000
     5  C    0.000004   0.015217  -0.070735   0.423604   0.000002  -0.000000
     6  C   -0.000305  -0.001881   0.013532  -0.066089  -0.000078   0.000005
     7  F    0.000001   0.000003  -0.000065   0.001743   0.000065   0.000001
     8  C    0.011789   0.018868  -0.001505   0.021587   0.017520  -0.000347
     9  C   -0.000113  -0.000237   0.000045  -0.000374  -0.034503   0.023776
    10  C    0.000117  -0.000010  -0.000001   0.000008  -0.008568  -0.066569
    11  O    0.000120  -0.000003   0.000000   0.000001   0.320620   0.000785
    12  C    0.000013  -0.000000   0.000000  -0.000000   0.009858   0.426854
    13  C   -0.000001  -0.000000  -0.000000   0.000000  -0.000329  -0.080706
    14  C   -0.000001  -0.000000   0.000000  -0.000001  -0.000145   0.015043
    15  C    0.000082  -0.000006   0.000000  -0.000025   0.000878  -0.002629
    16  F    0.000002   0.000000   0.000000   0.000003   0.000003   0.000003
    17  H   -0.020702   0.000253   0.000010  -0.000001   0.000341  -0.000025
    18  H   -0.018310   0.000541   0.000010  -0.000002  -0.003445   0.000091
    19  H    0.648014   0.008471   0.000001  -0.000001  -0.000021  -0.000001
    20  H    0.008471   0.706667  -0.012802  -0.000263  -0.000020   0.000000
    21  H    0.000001  -0.012802   0.689946  -0.013148  -0.000003  -0.000000
    22  H   -0.000001  -0.000263  -0.013148   0.681819  -0.000011   0.000000
    23  H   -0.000021  -0.000020  -0.000003  -0.000011   0.492992  -0.000546
    24  H   -0.000001   0.000000  -0.000000   0.000000  -0.000546   0.699699
    25  H    0.000000  -0.000000  -0.000000  -0.000000   0.000020  -0.013268
    26  H   -0.000000   0.000000  -0.000000   0.000000  -0.000002  -0.000206
              25         26
     1  C   -0.000001  -0.000001
     2  C   -0.000000   0.000013
     3  C    0.000000  -0.000000
     4  C   -0.000000   0.000000
     5  C    0.000000  -0.000001
     6  C    0.000000  -0.000027
     7  F    0.000000   0.000002
     8  C    0.000008  -0.000328
     9  C   -0.002178   0.022738
    10  C    0.015580  -0.002365
    11  O   -0.000081   0.000005
    12  C   -0.070404   0.014603
    13  C    0.436899  -0.075332
    14  C   -0.069807   0.426068
    15  C    0.014130  -0.068670
    16  F   -0.000066   0.001555
    17  H    0.000001   0.000006
    18  H    0.000000  -0.000002
    19  H    0.000000  -0.000000
    20  H   -0.000000   0.000000
    21  H   -0.000000  -0.000000
    22  H   -0.000000   0.000000
    23  H    0.000020  -0.000002
    24  H   -0.013268  -0.000206
    25  H    0.688911  -0.013277
    26  H   -0.013277   0.690556
 Mulliken charges:
               1
     1  C    0.055367
     2  C   -0.100217
     3  C   -0.039631
     4  C    0.016634
     5  C   -0.067831
     6  C    0.252327
     7  F   -0.149443
     8  C   -0.146671
     9  C   -0.088369
    10  C    0.104529
    11  O   -0.162697
    12  C   -0.038411
    13  C    0.005550
    14  C   -0.071693
    15  C    0.226914
    16  F   -0.157338
    17  H    0.057448
    18  H    0.044132
    19  H    0.029543
    20  H   -0.006526
    21  H    0.013704
    22  H    0.012465
    23  H    0.193968
    24  H   -0.001950
    25  H    0.013535
    26  H    0.004664
 Sum of Mulliken charges =  -0.00000
 Mulliken charges with hydrogens summed into heavy atoms:
               1
     1  C    0.186490
     2  C   -0.100217
     3  C   -0.046157
     4  C    0.030338
     5  C   -0.055367
     6  C    0.252327
     7  F   -0.149443
     8  C   -0.146671
     9  C   -0.088369
    10  C    0.104529
    11  O    0.031271
    12  C   -0.040361
    13  C    0.019085
    14  C   -0.067030
    15  C    0.226914
    16  F   -0.157338
 APT charges:
               1
     1  C   -0.018185
     2  C    0.111001
     3  C   -0.125492
     4  C    0.041969
     5  C   -0.130879
     6  C    0.507326
     7  F   -0.468670
     8  C   -0.035543
     9  C   -0.132467
    10  C    0.501960
    11  O   -0.659248
    12  C   -0.174069
    13  C    0.091912
    14  C   -0.227813
    15  C    0.594579
    16  F   -0.467202
    17  H    0.015450
    18  H    0.025617
    19  H    0.001031
    20  H    0.022004
    21  H    0.032595
    22  H    0.052867
    23  H    0.309659
    24  H    0.044885
    25  H    0.034979
    26  H    0.051731
 Sum of APT charges =  -0.00000
 APT charges with hydrogens summed into heavy atoms:
               1
     1  C    0.023913
     2  C    0.111001
     3  C   -0.103488
     4  C    0.074564
     5  C   -0.078012
     6  C    0.507326
     7  F   -0.468670
     8  C   -0.035543
     9  C   -0.132467
    10  C    0.501960
    11  O   -0.349588
    12  C   -0.129184
    13  C    0.126891
    14  C   -0.176081
    15  C    0.594579
    16  F   -0.467202
 Electronic spatial extent (au):  <R**2>=           3164.5992
 Charge=              0.0000 electrons
 Dipole moment (field-independent basis, Debye):
    X=             -1.2679    Y=              1.2818    Z=              0.3830  Tot=              1.8432
 Quadrupole moment (field-independent basis, Debye-Ang):
   XX=            -77.8673   YY=            -92.0942   ZZ=            -92.9885
   XY=             -1.8137   XZ=              1.7223   YZ=              2.1165
 Traceless Quadrupole moment (field-independent basis, Debye-Ang):
   XX=              9.7827   YY=             -4.4442   ZZ=             -5.3385
   XY=             -1.8137   XZ=              1.7223   YZ=              2.1165
 Octapole moment (field-independent basis, Debye-Ang**2):
  XXX=              0.9719  YYY=            -19.0396  ZZZ=             -2.2676  XYY=             -7.1942
  XXY=            -11.9386  XXZ=             -2.0842  XZZ=             -2.0234  YZZ=             -4.7272
  YYZ=              3.6305  XYZ=            -10.0034
 Hexadecapole moment (field-independent basis, Debye-Ang**3):
 XXXX=          -2378.1282 YYYY=           -984.8042 ZZZZ=           -516.5451 XXXY=             13.4042
 XXXZ=             16.0547 YYYX=             -6.0274 YYYZ=              1.4353 ZZZX=             17.8076
 ZZZY=             -5.8750 XXYY=           -580.2598 XXZZ=           -543.2500 YYZZ=           -249.0374
 XXYZ=             -3.6198 YYXZ=              8.0715 ZZXY=             -5.9652
 N-N= 1.079733867706D+03 E-N=-3.970759568262D+03  KE= 7.677462274220D+02
  Exact polarizability:     203.244       0.134     132.722       1.512       1.304      97.681
 Approx polarizability:     367.939      -1.901     288.365       2.240      -9.932     197.189
   1 Symmetry operations used in ECPInt.
 ECPInt:  NShTT=    8001 NPrTT=   29641 LenC2=    7679 LenP2D=   20637.
 LDataN:  DoStor=T MaxTD1= 6 Len=  172
 Calling FoFJK, ICntrl=    100527 FMM=F ISym2X=0 I1Cent= 0 IOpClX= 0 NMat=1 NMatS=1 NMatT=0.
 Full mass-weighted force constant matrix:
 Low frequencies ---   -5.3275   -2.0498   -0.0006    0.0006    0.0007    2.5940
 Low frequencies ---   47.7726   63.9467   74.4590
 Diagonal vibrational polarizability:
        8.5171737      13.4599675      19.1326900
 Harmonic frequencies (cm**-1), IR intensities (KM/Mole), Raman scattering
 activities (A**4/AMU), depolarization ratios for plane and unpolarized
 incident light, reduced masses (AMU), force constants (mDyne/A),
 and normal coordinates:
                      1                      2                      3
                      A                      A                      A
 Frequencies --     47.7669                63.9461                74.4586
 Red. masses --      7.1658                 4.9762                 5.4721
 Frc consts  --      0.0096                 0.0120                 0.0179
 IR Inten    --      0.2098                 0.4134                 0.3688
  Atom  AN      X      Y      Z        X      Y      Z        X      Y      Z
     1   6     0.05  -0.16   0.19     0.09   0.02  -0.13     0.14  -0.09   0.01
     2   6     0.01  -0.08   0.11     0.04  -0.01  -0.03     0.07  -0.03  -0.01
     3   6     0.01  -0.06   0.12     0.04  -0.06   0.14     0.07   0.11  -0.07
     4   6     0.00   0.01  -0.00    -0.00  -0.09   0.23    -0.00   0.18  -0.10
     5   6    -0.01   0.08  -0.13    -0.04  -0.06   0.13    -0.08   0.10  -0.06
     6   6    -0.01   0.06  -0.12    -0.04  -0.01  -0.04    -0.07  -0.04   0.00
     7   9    -0.01   0.13  -0.24    -0.07   0.02  -0.13    -0.15  -0.12   0.05
     8   6    -0.00  -0.02   0.00     0.00   0.01  -0.11     0.00  -0.09   0.01
     9   6     0.00  -0.02   0.01     0.00  -0.01  -0.11     0.00  -0.10  -0.02
    10   6    -0.02  -0.09  -0.10     0.05   0.00  -0.04    -0.06  -0.03   0.00
    11   8    -0.05  -0.16  -0.16     0.10  -0.02  -0.12    -0.12  -0.10  -0.02
    12   6    -0.02  -0.08  -0.12     0.05   0.05   0.12    -0.06   0.12   0.07
    13   6    -0.01   0.01  -0.02     0.00   0.09   0.21     0.00   0.20   0.11
    14   6     0.01   0.09   0.11    -0.05   0.06   0.13     0.07   0.12   0.06
    15   6     0.01   0.07   0.12    -0.04   0.01  -0.03     0.07  -0.03  -0.01
    16   9     0.02   0.16   0.24    -0.09  -0.01  -0.10     0.14  -0.11  -0.04
    17   1    -0.03  -0.23   0.23     0.18   0.05  -0.21     0.21  -0.15  -0.09
    18   1     0.15  -0.20   0.23    -0.01   0.03  -0.20     0.07  -0.03   0.01
    19   1     0.06  -0.11   0.15     0.13   0.00  -0.05     0.20  -0.14   0.13
    20   1     0.02  -0.11   0.20     0.07  -0.08   0.21     0.13   0.16  -0.09
    21   1     0.00   0.03  -0.01    -0.00  -0.14   0.37    -0.00   0.29  -0.16
    22   1    -0.02   0.15  -0.23    -0.07  -0.07   0.19    -0.14   0.15  -0.07
    23   1    -0.05  -0.15  -0.08     0.10  -0.05  -0.21    -0.11  -0.17  -0.02
    24   1    -0.03  -0.14  -0.21     0.09   0.07   0.17    -0.12   0.18   0.10
    25   1    -0.01   0.02  -0.03     0.00   0.13   0.34     0.00   0.33   0.18
    26   1     0.03   0.17   0.20    -0.08   0.08   0.19     0.12   0.17   0.08
                      4                      5                      6
                      A                      A                      A
 Frequencies --    134.5670               149.0398               164.5526
 Red. masses --      1.5167                 2.6606                 5.1194
 Frc consts  --      0.0162                 0.0348                 0.0817
 IR Inten    --      0.5016                 0.2068                 0.1929
  Atom  AN      X      Y      Z        X      Y      Z        X      Y      Z
     1   6     0.02  -0.08   0.09     0.07  -0.12   0.05     0.03   0.04  -0.19
     2   6     0.00  -0.01  -0.02     0.02  -0.05  -0.02     0.02  -0.01  -0.10
     3   6     0.01   0.01  -0.02     0.02  -0.02  -0.00     0.02   0.01  -0.05
     4   6    -0.00   0.00  -0.00     0.00   0.01  -0.03    -0.03  -0.02   0.06
     5   6    -0.01  -0.02   0.02    -0.02  -0.01  -0.02    -0.06  -0.04   0.05
     6   6    -0.01  -0.02   0.01    -0.01  -0.04  -0.02    -0.06  -0.04  -0.05
     7   9    -0.02  -0.06   0.05    -0.05  -0.11   0.05    -0.14  -0.02  -0.19
     8   6    -0.00   0.00  -0.04     0.00  -0.02  -0.07    -0.00  -0.07  -0.04
     9   6     0.00   0.02  -0.04     0.00   0.01  -0.08     0.01  -0.07  -0.00
    10   6     0.02   0.02  -0.03     0.02   0.04  -0.02    -0.00   0.01   0.08
    11   8     0.04   0.04  -0.02     0.05   0.13   0.06    -0.01   0.12   0.23
    12   6     0.02   0.01  -0.01     0.02   0.00  -0.01    -0.00   0.01   0.03
    13   6     0.00   0.01   0.01    -0.00  -0.03  -0.03     0.03  -0.02  -0.06
    14   6    -0.01   0.02   0.01    -0.02   0.00  -0.01     0.05  -0.02  -0.04
    15   6    -0.01   0.02  -0.02    -0.02   0.04  -0.02     0.05  -0.02   0.03
    16   9    -0.04   0.04  -0.03    -0.07   0.13   0.06     0.12   0.05   0.19
    17   1    -0.40  -0.19   0.46     0.39  -0.18  -0.34    -0.22   0.07   0.10
    18   1     0.49  -0.35   0.22    -0.30   0.20   0.04     0.32  -0.22  -0.20
    19   1    -0.03   0.20  -0.29     0.14  -0.41   0.47     0.01   0.28  -0.51
    20   1     0.01   0.01  -0.01     0.04  -0.03   0.03     0.06   0.07  -0.09
    21   1    -0.00   0.01  -0.00     0.00   0.03  -0.02    -0.03  -0.02   0.13
    22   1    -0.01  -0.03   0.05    -0.03  -0.02   0.01    -0.09  -0.04   0.08
    23   1     0.03   0.08  -0.02     0.05   0.16   0.03    -0.01   0.11   0.18
    24   1     0.03   0.01   0.00     0.04   0.01   0.01    -0.04   0.06   0.06
    25   1     0.00   0.01   0.03    -0.00  -0.05  -0.03     0.03  -0.04  -0.12
    26   1    -0.03   0.02   0.02    -0.04   0.01   0.02     0.07  -0.01  -0.04
                      7                      8                      9
                      A                      A                      A
 Frequencies --    211.4798               229.3740               238.9297
 Red. masses --      6.4175                 3.3912                 4.3599
 Frc consts  --      0.1691                 0.1051                 0.1466
 IR Inten    --      0.9504                 1.5007                 0.1312
  Atom  AN      X      Y      Z        X      Y      Z        X      Y      Z
     1   6    -0.27   0.04   0.06    -0.04  -0.06   0.13     0.03   0.04  -0.08
     2   6    -0.12  -0.04   0.04    -0.02   0.06  -0.08     0.02  -0.02   0.03
     3   6    -0.13  -0.07   0.07    -0.02   0.13  -0.21     0.01  -0.05   0.09
     4   6    -0.15   0.00  -0.02    -0.02  -0.01   0.01     0.01   0.00  -0.00
     5   6    -0.11   0.07  -0.06    -0.01  -0.12   0.21     0.01   0.05  -0.09
     6   6    -0.10   0.04   0.00    -0.01  -0.01   0.04     0.01  -0.00  -0.02
     7   9    -0.20  -0.05   0.04    -0.01   0.07  -0.10     0.01  -0.03   0.04
     8   6    -0.03   0.02  -0.00    -0.00   0.02  -0.01     0.00  -0.02   0.01
     9   6     0.03   0.03  -0.00     0.00   0.00   0.01    -0.00  -0.01  -0.00
    10   6     0.12  -0.02  -0.01     0.01  -0.02  -0.01    -0.01  -0.03  -0.04
    11   8     0.25   0.01  -0.09     0.01   0.01   0.02    -0.02   0.12   0.15
    12   6     0.13  -0.04  -0.01     0.01  -0.07  -0.09    -0.01  -0.18  -0.24
    13   6     0.15  -0.01   0.01     0.01  -0.00   0.00    -0.01  -0.00  -0.00
    14   6     0.10   0.04   0.01     0.01   0.07   0.09    -0.01   0.18   0.24
    15   6     0.10   0.04  -0.01     0.01   0.01   0.03    -0.01   0.04   0.06
    16   9     0.20  -0.03  -0.02     0.03  -0.05  -0.04    -0.02  -0.09  -0.11
    17   1    -0.18   0.14   0.03     0.02  -0.21  -0.03     0.03   0.12  -0.03
    18   1    -0.38   0.15   0.07    -0.12   0.16   0.27     0.04  -0.04  -0.15
    19   1    -0.35  -0.09   0.10    -0.05  -0.26   0.34     0.03   0.11  -0.15
    20   1    -0.11  -0.10   0.14    -0.02   0.22  -0.36     0.02  -0.09   0.15
    21   1    -0.15   0.00  -0.03    -0.02  -0.03   0.04     0.01   0.01  -0.01
    22   1    -0.06   0.08  -0.12    -0.00  -0.23   0.38     0.00   0.10  -0.17
    23   1     0.23   0.10  -0.15     0.00   0.06   0.08    -0.03   0.16   0.18
    24   1     0.11  -0.06  -0.05     0.01  -0.13  -0.16    -0.01  -0.31  -0.41
    25   1     0.15  -0.02   0.02     0.01  -0.00  -0.00    -0.01  -0.01  -0.02
    26   1     0.06   0.02   0.03     0.01   0.11   0.15    -0.00   0.30   0.40
                     10                     11                     12
                      A                      A                      A
 Frequencies --    315.7252               325.1629               338.6171
 Red. masses --      6.2853                 3.7395                 5.8897
 Frc consts  --      0.3691                 0.2330                 0.3979
 IR Inten    --      4.4257                 4.7168                 1.8373
  Atom  AN      X      Y      Z        X      Y      Z        X      Y      Z
     1   6    -0.03   0.05  -0.04     0.19  -0.14  -0.11     0.06  -0.07  -0.02
     2   6     0.03  -0.16   0.21    -0.10  -0.04   0.05    -0.02   0.05  -0.13
     3   6     0.04  -0.00  -0.03    -0.11   0.00  -0.00    -0.01   0.00  -0.00
     4   6     0.03   0.08  -0.13    -0.08  -0.01  -0.05     0.01  -0.06   0.08
     5   6     0.04  -0.05   0.09    -0.06  -0.04   0.00     0.04   0.04  -0.04
     6   6     0.04  -0.15   0.19    -0.05  -0.02   0.06     0.05   0.04  -0.12
     7   9    -0.12  -0.05  -0.17     0.08   0.10   0.02    -0.11  -0.13  -0.02
     8   6     0.05  -0.18   0.26    -0.10  -0.03   0.08     0.03   0.06  -0.10
     9   6     0.05   0.09   0.09    -0.08   0.06   0.07     0.03   0.20   0.27
    10   6     0.01   0.07   0.03    -0.03   0.03   0.04     0.02   0.14   0.19
    11   8     0.03   0.02  -0.07     0.14   0.07  -0.08    -0.06  -0.12  -0.05
    12   6     0.01   0.02   0.00    -0.04  -0.01   0.02     0.03   0.05   0.03
    13   6     0.02  -0.01  -0.03    -0.02  -0.01  -0.02     0.02  -0.09  -0.12
    14   6     0.05  -0.00   0.01    -0.03   0.02  -0.01     0.01   0.03   0.03
    15   6     0.05   0.08   0.03    -0.03   0.05   0.03     0.01   0.15   0.21
    16   9    -0.16   0.11  -0.13     0.09  -0.06   0.01    -0.03  -0.05  -0.10
    17   1     0.04   0.32   0.05     0.24  -0.27  -0.24     0.03  -0.23  -0.08
    18   1    -0.13  -0.07  -0.22     0.22  -0.32  -0.26     0.12  -0.03   0.06
    19   1    -0.08   0.12  -0.19     0.45   0.07  -0.02     0.12  -0.08   0.06
    20   1     0.05   0.13  -0.23    -0.13   0.03  -0.06    -0.01  -0.06   0.09
    21   1     0.04   0.25  -0.42    -0.08   0.01  -0.13     0.01  -0.19   0.23
    22   1     0.04   0.03  -0.04    -0.05  -0.02  -0.04     0.06  -0.00   0.02
    23   1     0.03   0.04  -0.07     0.12   0.19  -0.23    -0.05  -0.19   0.06
    24   1     0.02  -0.03  -0.05    -0.06  -0.03  -0.03     0.03  -0.10  -0.15
    25   1     0.02  -0.04  -0.11    -0.02  -0.05  -0.08     0.02  -0.31  -0.41
    26   1     0.06  -0.04  -0.05    -0.06  -0.02  -0.05     0.02  -0.12  -0.17
                     13                     14                     15
                      A                      A                      A
 Frequencies --    391.8840               471.5780               479.2133
 Red. masses --      5.9277                 3.9197                 3.6502
 Frc consts  --      0.5364                 0.5136                 0.4939
 IR Inten    --      5.4923                 3.8659                 4.4831
  Atom  AN      X      Y      Z        X      Y      Z        X      Y      Z
     1   6     0.05  -0.12  -0.09    -0.10  -0.03  -0.02    -0.03  -0.02  -0.01
     2   6    -0.10  -0.03  -0.02     0.07  -0.11  -0.02     0.02   0.03  -0.12
     3   6    -0.13  -0.03  -0.02     0.09   0.02   0.04     0.02   0.06  -0.07
     4   6    -0.15  -0.03  -0.02    -0.03   0.13   0.03    -0.02  -0.06   0.17
     5   6    -0.08   0.01   0.01    -0.14   0.00   0.04    -0.04   0.09  -0.12
     6   6    -0.06   0.07   0.04    -0.10  -0.07  -0.04    -0.03  -0.02  -0.02
     7   9     0.01   0.13   0.08     0.16   0.06   0.03     0.05   0.01   0.02
     8   6    -0.00   0.03   0.01    -0.03  -0.09  -0.11    -0.01  -0.13   0.14
     9   6     0.07  -0.02  -0.03    -0.02  -0.08  -0.09    -0.01  -0.06   0.09
    10   6     0.12  -0.07   0.01    -0.00   0.04   0.09    -0.08  -0.07   0.03
    11   8    -0.14  -0.16   0.18     0.01  -0.03  -0.01     0.12   0.00  -0.03
    12   6     0.14  -0.02  -0.01    -0.00   0.07   0.10    -0.10  -0.02  -0.01
    13   6     0.18   0.01   0.03     0.02  -0.10  -0.15     0.01   0.09  -0.02
    14   6     0.14  -0.01  -0.01     0.01   0.08   0.09     0.11  -0.01  -0.03
    15   6     0.11   0.02  -0.07     0.01   0.07   0.07     0.09  -0.05   0.02
    16   9    -0.10   0.18  -0.12    -0.01   0.00  -0.04    -0.11   0.05  -0.03
    17   1     0.07  -0.25  -0.18    -0.11   0.14   0.09    -0.08  -0.11  -0.01
    18   1     0.09  -0.24  -0.17    -0.16   0.04   0.00     0.01   0.11   0.15
    19   1     0.23   0.01  -0.02    -0.28  -0.13  -0.13    -0.09  -0.13   0.04
    20   1    -0.10  -0.01  -0.02     0.21   0.08   0.08     0.06   0.09  -0.07
    21   1    -0.15  -0.05  -0.04    -0.03   0.27   0.03    -0.02  -0.17   0.42
    22   1     0.00  -0.03  -0.00    -0.29   0.05   0.11    -0.08   0.16  -0.20
    23   1    -0.08  -0.45   0.24     0.03  -0.16  -0.19     0.04   0.45   0.19
    24   1     0.12   0.01   0.01    -0.03   0.05   0.05    -0.22   0.05  -0.03
    25   1     0.18   0.05   0.08     0.02  -0.29  -0.42     0.01   0.24  -0.03
    26   1     0.11   0.00   0.04     0.01   0.05   0.06     0.22   0.04  -0.06
                     16                     17                     18
                      A                      A                      A
 Frequencies --    504.2389               509.7581               520.5717
 Red. masses --      6.0156                 4.9590                 7.6744
 Frc consts  --      0.9012                 0.7592                 1.2253
 IR Inten    --      9.7138                 4.0081                12.2802
  Atom  AN      X      Y      Z        X      Y      Z        X      Y      Z
     1   6    -0.06  -0.05  -0.04    -0.13  -0.16  -0.10    -0.09  -0.18  -0.12
     2   6    -0.05  -0.02  -0.05    -0.10  -0.11  -0.03     0.05  -0.14  -0.12
     3   6    -0.04   0.11   0.04    -0.08   0.13   0.10     0.05  -0.11  -0.08
     4   6     0.00   0.07   0.10    -0.03   0.17   0.06    -0.11  -0.03   0.01
     5   6     0.01   0.10   0.00     0.08   0.15   0.14     0.03   0.10   0.03
     6   6     0.03  -0.09  -0.03     0.11  -0.04  -0.04     0.02   0.15   0.12
     7   9     0.10  -0.08  -0.05     0.11  -0.09  -0.05    -0.10   0.17   0.10
     8   6    -0.04  -0.07   0.03     0.03  -0.00  -0.06     0.21  -0.02   0.03
     9   6    -0.04   0.11  -0.01     0.03   0.05   0.10     0.21   0.01  -0.04
    10   6    -0.08   0.07  -0.07     0.06  -0.02  -0.01    -0.01   0.18  -0.13
    11   8    -0.16   0.06  -0.07     0.04   0.00   0.06    -0.13   0.18  -0.15
    12   6    -0.04  -0.20   0.10     0.05   0.02  -0.15    -0.01   0.05  -0.00
    13   6     0.01  -0.15   0.19    -0.01   0.14   0.04    -0.12  -0.07   0.01
    14   6     0.01  -0.17   0.06    -0.03   0.00  -0.11     0.06  -0.13   0.13
    15   6     0.05   0.13  -0.10    -0.05  -0.08   0.01     0.07  -0.10   0.09
    16   9     0.20   0.13  -0.09    -0.07  -0.07   0.07    -0.03  -0.11   0.07
    17   1    -0.08  -0.07  -0.03    -0.11  -0.11  -0.10    -0.10  -0.16  -0.09
    18   1    -0.04  -0.00   0.02    -0.16  -0.20  -0.16    -0.08  -0.13  -0.07
    19   1    -0.08  -0.08  -0.03    -0.13  -0.14  -0.12    -0.14  -0.23  -0.14
    20   1     0.02   0.15   0.05     0.05   0.19   0.15     0.20  -0.03  -0.03
    21   1     0.00  -0.00   0.13    -0.02   0.08  -0.05    -0.11  -0.03   0.04
    22   1    -0.12   0.19  -0.02    -0.03   0.17   0.21     0.24   0.04  -0.07
    23   1    -0.18   0.20   0.31     0.08  -0.27  -0.32    -0.12   0.16  -0.03
    24   1     0.14  -0.26   0.16     0.01   0.01  -0.20     0.23  -0.03   0.09
    25   1     0.01  -0.02   0.24    -0.01   0.20   0.24    -0.12  -0.06  -0.06
    26   1    -0.23  -0.28   0.14     0.06   0.04  -0.15     0.19  -0.08   0.08
                     19                     20                     21
                      A                      A                      A
 Frequencies --    522.3916               554.8172               566.4845
 Red. masses --      1.2233                 3.6719                 4.2337
 Frc consts  --      0.1967                 0.6659                 0.8005
 IR Inten    --     64.8274                 0.5508                 2.5523
  Atom  AN      X      Y      Z        X      Y      Z        X      Y      Z
     1   6    -0.00  -0.01  -0.02    -0.01  -0.00  -0.00     0.00   0.01  -0.00
     2   6    -0.01  -0.02  -0.01    -0.04   0.16  -0.21     0.13   0.01  -0.13
     3   6    -0.01  -0.01   0.04    -0.05  -0.02   0.10     0.16  -0.13   0.03
     4   6    -0.01   0.03  -0.03     0.00   0.00   0.00     0.00   0.03  -0.07
     5   6    -0.00  -0.01   0.03     0.05   0.06  -0.04    -0.15  -0.10  -0.02
     6   6     0.00  -0.02   0.01     0.04  -0.17   0.29    -0.12  -0.07   0.08
     7   9     0.01   0.00  -0.01    -0.00   0.01  -0.07     0.01   0.09   0.02
     8   6     0.00   0.01  -0.03    -0.00  -0.01   0.05    -0.00  -0.03  -0.07
     9   6     0.00   0.01  -0.00    -0.01  -0.03  -0.07    -0.01   0.12   0.14
    10   6     0.03  -0.01  -0.01     0.03   0.00   0.00     0.01   0.03   0.04
    11   8     0.01  -0.05  -0.03    -0.01  -0.02   0.02    -0.00  -0.00   0.02
    12   6     0.03   0.03  -0.00     0.04   0.05   0.03     0.02  -0.09  -0.13
    13   6     0.00   0.01  -0.01     0.01  -0.04  -0.06     0.00   0.11   0.16
    14   6    -0.02   0.02  -0.02    -0.04   0.06   0.03    -0.03  -0.08  -0.14
    15   6    -0.02   0.01   0.02    -0.03  -0.01  -0.03    -0.02   0.06   0.04
    16   9    -0.01  -0.02   0.01     0.00  -0.01   0.01     0.02   0.01   0.00
    17   1     0.00   0.00  -0.02    -0.13  -0.32  -0.05    -0.05   0.02   0.06
    18   1     0.01   0.02   0.01     0.14   0.14   0.25     0.01   0.16   0.15
    19   1    -0.00  -0.01  -0.03     0.01  -0.11   0.14    -0.16  -0.15  -0.02
    20   1     0.00  -0.02   0.06    -0.06  -0.13   0.25     0.20  -0.19   0.17
    21   1    -0.01   0.07  -0.10     0.01   0.02  -0.15    -0.00   0.27  -0.06
    22   1    -0.01   0.00   0.03     0.06   0.30  -0.44    -0.18  -0.03  -0.10
    23   1    -0.08   0.52   0.82     0.02  -0.18  -0.14     0.01  -0.10  -0.07
    24   1     0.03   0.08   0.06     0.04   0.06   0.03     0.02  -0.20  -0.27
    25   1     0.00  -0.00   0.03     0.01  -0.13  -0.09     0.00   0.20   0.32
    26   1    -0.01   0.02  -0.02    -0.06   0.09   0.09    -0.06  -0.20  -0.27
                     22                     23                     24
                      A                      A                      A
 Frequencies --    576.2732               602.2899               618.4729
 Red. masses --      4.1923                 4.5248                 6.2401
 Frc consts  --      0.8203                 0.9671                 1.4063
 IR Inten    --      0.0340                 0.6976                 1.2852
  Atom  AN      X      Y      Z        X      Y      Z        X      Y      Z
     1   6    -0.00  -0.01   0.01     0.00   0.02   0.02     0.10   0.16   0.11
     2   6     0.04  -0.07   0.08    -0.01   0.02   0.01    -0.05   0.11   0.04
     3   6     0.05   0.07  -0.16    -0.02   0.03  -0.01    -0.12   0.04   0.04
     4   6    -0.01  -0.09   0.16    -0.01  -0.01   0.02    -0.12   0.01  -0.01
     5   6    -0.06   0.04  -0.14    -0.01   0.00  -0.03    -0.18  -0.08  -0.04
     6   6    -0.05  -0.03   0.01    -0.01  -0.03   0.01    -0.09  -0.13  -0.07
     7   9     0.02   0.01   0.02     0.02  -0.02  -0.01     0.13  -0.10  -0.07
     8   6    -0.01  -0.10   0.13    -0.02  -0.00   0.01    -0.07  -0.02  -0.01
     9   6    -0.00   0.07  -0.03     0.02  -0.02  -0.04     0.11   0.01   0.01
    10   6     0.14   0.07  -0.02     0.02  -0.19  -0.29     0.06   0.18  -0.03
    11   8    -0.04  -0.03   0.02    -0.02   0.07   0.07    -0.12   0.12  -0.12
    12   6     0.19   0.08  -0.07     0.03   0.04   0.02     0.12   0.05  -0.07
    13   6     0.00  -0.02   0.01     0.01   0.01   0.01     0.07   0.01   0.02
    14   6    -0.18   0.08  -0.05     0.01  -0.05  -0.05     0.17  -0.09   0.06
    15   6    -0.14   0.02  -0.06     0.00   0.22   0.32     0.09  -0.15   0.04
    16   9     0.04  -0.05   0.04    -0.01  -0.06  -0.04    -0.11  -0.09   0.09
    17   1     0.03   0.10   0.04     0.02   0.01  -0.00     0.09   0.06   0.06
    18   1    -0.05  -0.02  -0.04    -0.00   0.01   0.00     0.14   0.12   0.10
    19   1    -0.04  -0.01  -0.04     0.03   0.02   0.05     0.20   0.23   0.16
    20   1     0.07   0.21  -0.36    -0.04   0.03  -0.04    -0.20   0.00   0.03
    21   1    -0.01  -0.12   0.35    -0.01  -0.02   0.03    -0.12   0.06  -0.00
    22   1    -0.09   0.13  -0.24    -0.04   0.04  -0.06    -0.33  -0.01  -0.01
    23   1    -0.00  -0.19   0.18    -0.00  -0.06  -0.12    -0.08  -0.04  -0.01
    24   1     0.28   0.02  -0.07     0.06   0.32   0.40     0.28  -0.09  -0.12
    25   1     0.01  -0.21   0.16     0.02  -0.01   0.01     0.08   0.03   0.00
    26   1    -0.26   0.07   0.01     0.03  -0.37  -0.50     0.32   0.02   0.07
                     25                     26                     27
                      A                      A                      A
 Frequencies --    707.6818               731.2632               734.1701
 Red. masses --      2.5056                 4.2848                 2.5060
 Frc consts  --      0.7393                 1.3500                 0.7959
 IR Inten    --      8.0891                 1.6400                11.0737
  Atom  AN      X      Y      Z        X      Y      Z        X      Y      Z
     1   6    -0.00  -0.00  -0.01    -0.07  -0.09  -0.04    -0.03  -0.03  -0.04
     2   6     0.02   0.03  -0.07    -0.03  -0.03   0.07    -0.02   0.05  -0.06
     3   6     0.04  -0.04   0.03     0.05   0.09   0.01     0.00   0.02   0.05
     4   6     0.00   0.04  -0.06     0.25  -0.04   0.08     0.12   0.05  -0.08
     5   6    -0.04  -0.04   0.02     0.03  -0.07  -0.06     0.04  -0.03  -0.00
     6   6    -0.02   0.03  -0.08    -0.04  -0.05   0.07    -0.01   0.05  -0.08
     7   9     0.01  -0.01   0.00    -0.06   0.06   0.03    -0.03   0.02   0.02
     8   6    -0.00  -0.06   0.11    -0.10   0.09  -0.14    -0.05  -0.09   0.16
     9   6    -0.00   0.12   0.16    -0.08   0.05   0.05    -0.05  -0.06  -0.07
    10   6     0.01  -0.08  -0.13    -0.04   0.00  -0.01    -0.00   0.03   0.01
    11   8    -0.01   0.02   0.01    -0.07   0.07  -0.06    -0.04   0.04  -0.03
    12   6     0.03   0.03   0.03     0.02  -0.07   0.04     0.05  -0.01   0.02
    13   6     0.01  -0.08  -0.10     0.23  -0.03  -0.04     0.12   0.03   0.06
    14   6    -0.02   0.04   0.02     0.09   0.02  -0.04    -0.00   0.05  -0.01
    15   6    -0.01  -0.05  -0.08    -0.00  -0.02  -0.00    -0.03   0.01   0.00
    16   9     0.00   0.00   0.00    -0.07  -0.07   0.05    -0.03  -0.03   0.03
    17   1    -0.04  -0.06  -0.01    -0.03  -0.02  -0.05    -0.07  -0.13  -0.05
    18   1     0.02   0.05   0.06    -0.12  -0.16  -0.14     0.01   0.00   0.04
    19   1    -0.04  -0.06   0.00    -0.06  -0.06  -0.08    -0.03  -0.06  -0.01
    20   1     0.05  -0.13   0.19    -0.05   0.17  -0.23    -0.05  -0.19   0.32
    21   1    -0.00   0.02   0.11     0.26   0.12  -0.15     0.12  -0.17   0.22
    22   1    -0.07  -0.16   0.24    -0.08   0.17  -0.35    -0.01  -0.25   0.40
    23   1     0.00  -0.06  -0.10    -0.07   0.07   0.01    -0.04   0.03   0.02
    24   1     0.04   0.35   0.45    -0.06   0.13   0.23     0.04  -0.21  -0.27
    25   1     0.01   0.13   0.26     0.23   0.20   0.15     0.13  -0.23  -0.20
    26   1    -0.04   0.31   0.41     0.03   0.19   0.25    -0.07  -0.22  -0.32
                     28                     29                     30
                      A                      A                      A
 Frequencies --    766.2917               773.9007               776.4906
 Red. masses --      1.6426                 2.5551                 4.8083
 Frc consts  --      0.5683                 0.9016                 1.7081
 IR Inten    --     50.1890                14.9177                 0.1865
  Atom  AN      X      Y      Z        X      Y      Z        X      Y      Z
     1   6     0.00  -0.00   0.01    -0.02  -0.03   0.01     0.07   0.05   0.05
     2   6    -0.01  -0.02   0.03    -0.02  -0.02   0.06     0.07  -0.06   0.02
     3   6    -0.01   0.04  -0.06     0.01   0.07  -0.05     0.03  -0.09  -0.12
     4   6    -0.00   0.03  -0.05     0.07   0.02  -0.02    -0.25   0.00  -0.01
     5   6     0.01   0.04  -0.05    -0.03  -0.01  -0.09     0.03   0.15   0.03
     6   6     0.01  -0.04   0.08    -0.03  -0.08   0.11     0.06  -0.02   0.09
     7   9    -0.00   0.01  -0.01    -0.01   0.02  -0.01     0.04  -0.04  -0.04
     8   6     0.00   0.01  -0.02    -0.02   0.06  -0.09     0.06   0.04  -0.08
     9   6     0.00  -0.04  -0.06     0.03   0.07   0.09    -0.07   0.05   0.06
    10   6    -0.00   0.06   0.08     0.02  -0.07  -0.10    -0.08  -0.07  -0.04
    11   8     0.00  -0.01  -0.01     0.02  -0.01   0.03    -0.06   0.06  -0.03
    12   6    -0.00  -0.04  -0.05    -0.01   0.08   0.03    -0.04  -0.10   0.13
    13   6    -0.01  -0.02  -0.03    -0.09   0.02   0.02     0.28   0.01   0.01
    14   6     0.00  -0.05  -0.06     0.02   0.01   0.11    -0.02   0.15  -0.04
    15   6     0.00   0.06   0.07     0.03  -0.08  -0.09    -0.07  -0.02  -0.07
    16   9    -0.00  -0.01  -0.01     0.01   0.03   0.00    -0.05  -0.05   0.05
    17   1     0.05   0.08   0.02     0.06   0.09  -0.01     0.11   0.23   0.12
    18   1    -0.04  -0.05  -0.07    -0.09  -0.13  -0.14    -0.02   0.06  -0.01
    19   1     0.01   0.05  -0.04     0.00   0.06  -0.06    -0.02   0.03  -0.04
    20   1    -0.02  -0.23   0.37    -0.04  -0.20   0.34     0.19  -0.15   0.15
    21   1    -0.01  -0.28   0.42     0.07  -0.19   0.41    -0.25  -0.13   0.22
    22   1     0.02  -0.19   0.32    -0.11  -0.13   0.19     0.21  -0.02   0.13
    23   1     0.00  -0.02  -0.01     0.01   0.03   0.08    -0.07   0.12  -0.06
    24   1    -0.01   0.15   0.20     0.04  -0.14  -0.20    -0.22  -0.12  -0.06
    25   1    -0.01   0.22   0.28    -0.10  -0.20  -0.32     0.28  -0.10  -0.18
    26   1     0.01   0.23   0.31     0.10  -0.24  -0.29    -0.21  -0.11  -0.20
                     31                     32                     33
                      A                      A                      A
 Frequencies --    851.6643               871.5428               936.1672
 Red. masses --      1.4601                 1.3745                 1.9933
 Frc consts  --      0.6240                 0.6152                 1.0293
 IR Inten    --      0.1008                 0.8053                16.1974
  Atom  AN      X      Y      Z        X      Y      Z        X      Y      Z
     1   6     0.00  -0.00  -0.00     0.00   0.01  -0.02     0.14   0.01   0.01
     2   6    -0.00   0.00   0.00     0.00  -0.00  -0.00     0.02  -0.08  -0.05
     3   6    -0.00   0.00  -0.00    -0.00  -0.06   0.09    -0.12   0.08   0.05
     4   6     0.00  -0.00  -0.00     0.00  -0.00   0.01     0.00  -0.02  -0.01
     5   6     0.00  -0.00   0.00     0.00   0.07  -0.11     0.07   0.00   0.00
     6   6    -0.00   0.00   0.00    -0.00  -0.03   0.05    -0.01  -0.04  -0.03
     7   9     0.00  -0.00  -0.00    -0.00   0.01  -0.01    -0.04   0.06   0.04
     8   6     0.00   0.00  -0.00    -0.00   0.01  -0.02    -0.03  -0.09  -0.06
     9   6    -0.00  -0.00  -0.01     0.00   0.01   0.00    -0.01   0.01   0.03
    10   6    -0.00   0.05   0.06    -0.00  -0.00  -0.00     0.00  -0.00  -0.01
    11   8     0.00  -0.01  -0.01     0.00  -0.00   0.00    -0.00   0.00   0.00
    12   6    -0.00  -0.08  -0.10    -0.00  -0.00   0.00     0.02   0.02  -0.00
    13   6    -0.00  -0.01  -0.01    -0.00   0.00  -0.00    -0.01  -0.01  -0.01
    14   6    -0.00   0.07   0.10     0.00  -0.00   0.00     0.00  -0.00   0.01
    15   6     0.00  -0.03  -0.04     0.00  -0.00  -0.00     0.00  -0.00  -0.01
    16   9     0.00   0.01   0.01    -0.00  -0.00   0.00     0.00   0.00  -0.00
    17   1    -0.00  -0.00   0.00    -0.07  -0.10  -0.01     0.04   0.41   0.35
    18   1    -0.00  -0.00  -0.00     0.07   0.07   0.09    -0.05   0.38   0.19
    19   1     0.00   0.00  -0.00    -0.01  -0.06   0.05    -0.34  -0.30  -0.22
    20   1    -0.00  -0.00   0.00     0.00   0.35  -0.56    -0.14   0.08   0.05
    21   1     0.00  -0.00   0.00     0.00   0.01  -0.02     0.01  -0.31  -0.19
    22   1     0.00   0.00  -0.00    -0.01  -0.36   0.61     0.10  -0.01  -0.01
    23   1     0.01  -0.03  -0.02     0.00  -0.00  -0.00     0.00  -0.03  -0.05
    24   1    -0.00   0.43   0.56    -0.01   0.00   0.00     0.04  -0.02  -0.05
    25   1    -0.00   0.07   0.09    -0.00   0.01  -0.01    -0.00   0.03   0.09
    26   1     0.01  -0.40  -0.53     0.01  -0.00  -0.00     0.01  -0.03  -0.03
                     34                     35                     36
                      A                      A                      A
 Frequencies --    946.4249               957.9555               995.6041
 Red. masses --      1.2841                 1.3066                 6.8838
 Frc consts  --      0.6777                 0.7065                 4.0202
 IR Inten    --      0.0309                 0.3168                 4.6830
  Atom  AN      X      Y      Z        X      Y      Z        X      Y      Z
     1   6    -0.01   0.00  -0.00     0.00   0.01  -0.01    -0.01   0.02  -0.01
     2   6    -0.00   0.01   0.00    -0.00  -0.01   0.01    -0.01  -0.04  -0.01
     3   6     0.01  -0.01  -0.00    -0.00  -0.04   0.06    -0.15   0.19   0.11
     4   6     0.00   0.00   0.00     0.00   0.07  -0.11     0.03  -0.00   0.00
     5   6    -0.00   0.00   0.00     0.00  -0.03   0.06    -0.14  -0.19  -0.12
     6   6     0.00   0.00   0.00    -0.00  -0.00  -0.00    -0.01   0.02   0.01
     7   9     0.00  -0.00  -0.00    -0.00  -0.00   0.00    -0.00   0.00   0.00
     8   6     0.00   0.00   0.00    -0.00   0.01  -0.01     0.31  -0.02   0.01
     9   6     0.00  -0.01  -0.01     0.00   0.01  -0.00     0.31   0.06  -0.05
    10   6     0.00   0.00   0.00     0.00   0.00  -0.00     0.02   0.05  -0.04
    11   8     0.00   0.00   0.00     0.00  -0.00   0.00     0.02  -0.02   0.02
    12   6    -0.00   0.04   0.06    -0.00  -0.00   0.00    -0.19  -0.21   0.16
    13   6     0.00  -0.08  -0.10    -0.00   0.00  -0.00     0.01   0.01  -0.01
    14   6    -0.00   0.03   0.04     0.00  -0.00   0.00    -0.13   0.18  -0.14
    15   6    -0.00   0.00   0.01    -0.00   0.00  -0.00    -0.01  -0.00   0.00
    16   9    -0.00   0.00   0.00    -0.00  -0.00   0.00    -0.01  -0.02   0.02
    17   1    -0.00  -0.04  -0.03    -0.04  -0.05  -0.00    -0.04  -0.06  -0.02
    18   1     0.01  -0.03  -0.01     0.04   0.03   0.04     0.06   0.03   0.06
    19   1     0.03   0.03   0.02    -0.00  -0.03   0.03     0.07   0.04   0.07
    20   1     0.01  -0.01  -0.00     0.00   0.24  -0.38    -0.16   0.17   0.15
    21   1     0.00   0.02   0.01    -0.00  -0.40   0.66     0.02  -0.02  -0.02
    22   1    -0.01   0.00  -0.00     0.00   0.21  -0.35    -0.22  -0.18  -0.10
    23   1    -0.00   0.00   0.01     0.00  -0.01   0.00     0.05  -0.17   0.11
    24   1    -0.01  -0.27  -0.36    -0.01  -0.00   0.00    -0.21  -0.22   0.16
    25   1    -0.00   0.48   0.64    -0.00   0.01  -0.01    -0.00   0.15  -0.11
    26   1     0.00  -0.21  -0.28     0.01  -0.00   0.00    -0.15   0.18  -0.13
                     37                     38                     39
                      A                      A                      A
 Frequencies --   1006.1452              1012.6532              1024.8166
 Red. masses --      2.1681                 1.9246                 2.7248
 Frc consts  --      1.2932                 1.1628                 1.6861
 IR Inten    --     17.6524                15.6048                23.6799
  Atom  AN      X      Y      Z        X      Y      Z        X      Y      Z
     1   6    -0.04  -0.01   0.13    -0.04   0.15  -0.05    -0.03   0.04   0.11
     2   6    -0.01   0.03  -0.11    -0.02  -0.11   0.06    -0.02  -0.02  -0.10
     3   6    -0.02  -0.01   0.04    -0.01   0.00  -0.04     0.00  -0.06  -0.01
     4   6     0.02  -0.00  -0.01     0.04  -0.01  -0.00     0.04  -0.01  -0.00
     5   6     0.01   0.01   0.01     0.03   0.05   0.04     0.04   0.08   0.05
     6   6    -0.00  -0.03  -0.00    -0.00  -0.05  -0.03    -0.00  -0.06  -0.05
     7   9    -0.01   0.03   0.01    -0.02   0.05   0.03    -0.02   0.05   0.03
     8   6     0.04  -0.06  -0.05     0.01  -0.09  -0.09    -0.02  -0.12  -0.01
     9   6     0.04  -0.10   0.09     0.01  -0.02   0.05    -0.02   0.14  -0.08
    10   6    -0.02  -0.05   0.04    -0.01  -0.02   0.01     0.04   0.06  -0.06
    11   8    -0.03   0.05  -0.04    -0.01   0.02  -0.01     0.05  -0.06   0.05
    12   6     0.05   0.02  -0.02     0.02   0.01  -0.01    -0.07  -0.05   0.03
    13   6     0.01  -0.02   0.02     0.00  -0.01   0.01    -0.02   0.02  -0.02
    14   6    -0.07   0.05  -0.04    -0.03   0.02  -0.01     0.07  -0.03   0.02
    15   6     0.01  -0.06   0.04     0.00  -0.02   0.01    -0.01   0.08  -0.07
    16   9     0.03   0.06  -0.04     0.01   0.02  -0.01    -0.03  -0.07   0.05
    17   1     0.30   0.26  -0.06    -0.24  -0.48  -0.19     0.21   0.13  -0.08
    18   1    -0.20  -0.37  -0.34     0.37   0.13   0.28    -0.08  -0.25  -0.20
    19   1     0.22   0.41  -0.02     0.26   0.09   0.40     0.25   0.39   0.06
    20   1    -0.01   0.11  -0.15     0.01  -0.10   0.13    -0.00  -0.02  -0.09
    21   1     0.03  -0.11  -0.04     0.04  -0.16  -0.10     0.05  -0.16  -0.12
    22   1    -0.06   0.04   0.04    -0.12   0.14   0.06    -0.18   0.18   0.13
    23   1    -0.06   0.16  -0.08    -0.02   0.03  -0.06     0.08  -0.22   0.15
    24   1     0.01   0.04  -0.03     0.01   0.02   0.00     0.02  -0.09   0.07
    25   1     0.01  -0.29   0.21     0.01  -0.11   0.07    -0.03   0.38  -0.29
    26   1    -0.05   0.06  -0.05    -0.02   0.02  -0.02     0.03  -0.05   0.04
                     40                     41                     42
                      A                      A                      A
 Frequencies --   1049.6362              1070.5294              1127.1686
 Red. masses --      1.5723                 1.4484                 1.1278
 Frc consts  --      1.0206                 0.9780                 0.8442
 IR Inten    --      5.9055                 6.4222                 7.7046
  Atom  AN      X      Y      Z        X      Y      Z        X      Y      Z
     1   6     0.02  -0.01  -0.01    -0.04   0.03   0.02     0.00  -0.00  -0.00
     2   6    -0.00   0.02   0.01     0.02  -0.02  -0.01     0.00   0.00   0.00
     3   6     0.02  -0.04  -0.03     0.03   0.09   0.05    -0.00  -0.00   0.00
     4   6     0.01  -0.00  -0.00    -0.08   0.01   0.00     0.00   0.00   0.00
     5   6     0.01   0.04   0.03     0.04  -0.07  -0.05    -0.00   0.00   0.00
     6   6    -0.00  -0.00  -0.00     0.00  -0.01  -0.01    -0.00   0.01   0.01
     7   9     0.00  -0.00  -0.00    -0.01   0.01   0.01     0.00  -0.00  -0.00
     8   6    -0.05   0.02   0.01    -0.03  -0.04  -0.02     0.01   0.01  -0.01
     9   6    -0.02  -0.02   0.01    -0.05   0.01   0.00     0.00  -0.05   0.04
    10   6     0.02   0.01  -0.00     0.00   0.00  -0.00    -0.02  -0.01   0.01
    11   8    -0.01   0.01  -0.01     0.00  -0.00   0.00    -0.00  -0.00  -0.00
    12   6     0.02  -0.09   0.07     0.02  -0.01   0.00     0.03  -0.00   0.00
    13   6    -0.08  -0.01   0.01    -0.02   0.00   0.00    -0.00   0.04  -0.03
    14   6     0.02   0.10  -0.08     0.03   0.00  -0.00    -0.02   0.01  -0.01
    15   6     0.01  -0.02   0.02    -0.00   0.01  -0.01     0.02  -0.02   0.01
    16   9    -0.00   0.01  -0.01    -0.00  -0.01   0.01    -0.00   0.01  -0.01
    17   1    -0.01   0.02   0.04     0.01  -0.08  -0.09    -0.00  -0.00   0.00
    18   1    -0.02   0.04   0.01     0.04  -0.09  -0.03     0.00   0.00   0.00
    19   1    -0.06  -0.07  -0.05     0.12   0.14   0.10    -0.00  -0.01  -0.00
    20   1    -0.06  -0.09  -0.05     0.41   0.28   0.18    -0.04  -0.02  -0.01
    21   1     0.01   0.01   0.00    -0.09   0.04   0.02     0.00   0.02   0.01
    22   1    -0.07   0.08   0.05     0.61  -0.34  -0.19     0.00  -0.00  -0.00
    23   1     0.01  -0.08   0.06     0.00  -0.01   0.01    -0.03   0.12  -0.09
    24   1     0.46  -0.30   0.22     0.17  -0.07   0.06     0.57  -0.24   0.18
    25   1    -0.10  -0.07   0.05    -0.02   0.03  -0.02    -0.01   0.43  -0.32
    26   1     0.57   0.36  -0.27     0.16   0.06  -0.05    -0.45  -0.19   0.13
                     43                     44                     45
                      A                      A                      A
 Frequencies --   1138.8525              1177.0262              1220.7857
 Red. masses --      1.1603                 1.7280                 1.7082
 Frc consts  --      0.8867                 1.4104                 1.5000
 IR Inten    --      0.3805               158.4492                11.9062
  Atom  AN      X      Y      Z        X      Y      Z        X      Y      Z
     1   6     0.01   0.02   0.01     0.00   0.01   0.01     0.05   0.03   0.02
     2   6    -0.03  -0.03  -0.02    -0.01  -0.03  -0.02    -0.13  -0.08  -0.06
     3   6    -0.03  -0.03  -0.02    -0.03   0.01   0.00    -0.03  -0.04  -0.02
     4   6     0.03   0.05   0.03     0.01   0.00   0.00     0.01   0.00   0.00
     5   6     0.02   0.01   0.01    -0.02  -0.02  -0.01     0.02  -0.06  -0.04
     6   6    -0.00  -0.02  -0.01     0.03   0.02   0.01     0.11  -0.00  -0.00
     7   9    -0.00   0.01   0.01    -0.00  -0.00  -0.00    -0.03   0.02   0.01
     8   6    -0.00  -0.05  -0.03     0.07   0.00   0.00     0.01   0.05   0.03
     9   6     0.01   0.00   0.00    -0.02   0.06  -0.05    -0.03  -0.02  -0.00
    10   6     0.01   0.00  -0.01    -0.12   0.01  -0.00     0.02  -0.02   0.01
    11   8     0.00   0.00  -0.00     0.00  -0.09   0.07    -0.01   0.02  -0.01
    12   6    -0.01  -0.00   0.00     0.04   0.03  -0.03     0.01  -0.00   0.00
    13   6     0.00  -0.00   0.00     0.01  -0.01   0.01     0.00   0.00  -0.00
    14   6    -0.00   0.00  -0.00     0.03  -0.00   0.00    -0.00  -0.02   0.01
    15   6     0.00  -0.00   0.00     0.03   0.06  -0.05    -0.03  -0.02   0.01
    16   9     0.00   0.00   0.00    -0.02  -0.04   0.03     0.01   0.01  -0.01
    17   1     0.01   0.03   0.02     0.03   0.04   0.00     0.01   0.15   0.13
    18   1     0.01   0.03   0.02     0.02   0.01   0.03    -0.01   0.15   0.08
    19   1     0.02   0.03   0.01     0.05   0.05   0.02     0.07   0.05   0.04
    20   1    -0.46  -0.25  -0.15    -0.07  -0.01  -0.01     0.50   0.23   0.15
    21   1     0.02   0.60   0.36     0.01   0.09   0.06     0.00   0.48   0.29
    22   1     0.40  -0.16  -0.09    -0.13   0.03   0.01    -0.40   0.12   0.07
    23   1     0.01  -0.04   0.02    -0.15   0.62  -0.47     0.01  -0.07   0.03
    24   1    -0.05   0.01  -0.01     0.31  -0.08   0.06    -0.02   0.01  -0.01
    25   1     0.00  -0.01   0.01     0.02  -0.31   0.23     0.00   0.12  -0.09
    26   1    -0.02  -0.00   0.00     0.13   0.05  -0.03     0.09   0.02  -0.02
                     46                     47                     48
                      A                      A                      A
 Frequencies --   1236.6795              1270.2752              1277.5005
 Red. masses --      1.9480                 3.5049                 3.6413
 Frc consts  --      1.7553                 3.3321                 3.5013
 IR Inten    --      5.1828                37.9533                18.0854
  Atom  AN      X      Y      Z        X      Y      Z        X      Y      Z
     1   6     0.02  -0.01  -0.01    -0.05  -0.02  -0.02     0.01  -0.03  -0.01
     2   6    -0.05   0.04   0.02     0.15   0.12   0.08    -0.02   0.13   0.08
     3   6     0.02  -0.03  -0.02    -0.00   0.08   0.05     0.06  -0.02  -0.01
     4   6    -0.02  -0.00  -0.00    -0.16  -0.02  -0.01    -0.06  -0.01  -0.00
     5   6     0.04   0.00   0.00     0.05  -0.09  -0.05     0.08   0.02   0.01
     6   6     0.02  -0.05  -0.03     0.21  -0.14  -0.09     0.04  -0.16  -0.10
     7   9    -0.01   0.02   0.01    -0.07   0.08   0.05    -0.04   0.06   0.04
     8   6    -0.09   0.01  -0.00     0.09  -0.04  -0.02    -0.17  -0.02   0.00
     9   6     0.07  -0.03   0.02    -0.10  -0.03   0.02     0.22   0.08  -0.06
    10   6    -0.03   0.04  -0.03     0.01  -0.04   0.03    -0.02   0.06  -0.04
    11   8     0.03  -0.00   0.01    -0.00   0.03  -0.03    -0.01  -0.08   0.05
    12   6    -0.07   0.00  -0.00     0.02   0.02  -0.01     0.01  -0.04   0.03
    13   6    -0.05   0.00  -0.00    -0.02  -0.01   0.00     0.06   0.01  -0.01
    14   6     0.03   0.08  -0.06     0.04  -0.01   0.01    -0.12  -0.01   0.01
    15   6     0.17   0.04  -0.03    -0.01   0.06  -0.05    -0.03  -0.13   0.09
    16   9    -0.04  -0.04   0.03    -0.01  -0.02   0.01     0.04   0.04  -0.03
    17   1    -0.03  -0.00   0.04    -0.02  -0.20  -0.15    -0.05  -0.09  -0.00
    18   1    -0.06   0.04  -0.01     0.00  -0.19  -0.13    -0.10  -0.02  -0.08
    19   1    -0.03  -0.03  -0.04    -0.14  -0.12  -0.06    -0.12  -0.10  -0.10
    20   1     0.25   0.09   0.05    -0.43  -0.12  -0.08     0.20   0.05   0.03
    21   1    -0.02   0.10   0.06    -0.19   0.24   0.14    -0.07   0.10   0.06
    22   1     0.00   0.02   0.01    -0.50   0.14   0.08     0.06   0.02   0.01
    23   1     0.07  -0.20   0.14     0.03  -0.13   0.11    -0.14   0.54  -0.40
    24   1     0.10  -0.07   0.05     0.07  -0.01   0.01    -0.21   0.05  -0.04
    25   1    -0.05  -0.49   0.37    -0.02  -0.00   0.00     0.06   0.24  -0.18
    26   1    -0.55  -0.17   0.13     0.05  -0.00  -0.00     0.13   0.09  -0.07
                     49                     50                     51
                      A                      A                      A
 Frequencies --   1318.3376              1345.3640              1353.1765
 Red. masses --      3.3260                 2.2220                 2.2672
 Frc consts  --      3.4059                 2.3696                 2.4459
 IR Inten    --     34.1448                 4.0126                 4.5409
  Atom  AN      X      Y      Z        X      Y      Z        X      Y      Z
     1   6    -0.02  -0.03  -0.01    -0.10  -0.08  -0.05    -0.06  -0.12  -0.08
     2   6     0.02   0.00   0.01     0.13  -0.05  -0.03    -0.09   0.09   0.06
     3   6    -0.00   0.01   0.00    -0.08  -0.04  -0.02     0.11   0.05   0.03
     4   6    -0.01   0.00   0.00    -0.02   0.09   0.05    -0.01  -0.09  -0.06
     5   6     0.01  -0.01  -0.01     0.10  -0.04  -0.03    -0.09   0.04   0.03
     6   6     0.01  -0.00   0.00    -0.07  -0.07  -0.05     0.09   0.05   0.03
     7   9    -0.00   0.00   0.00    -0.01   0.01   0.00     0.00   0.00   0.00
     8   6     0.02   0.00   0.00    -0.03   0.13   0.07    -0.00  -0.12  -0.07
     9   6    -0.04  -0.04   0.03     0.01   0.01  -0.01     0.00  -0.01   0.02
    10   6    -0.14   0.17  -0.14     0.01  -0.01   0.01     0.02   0.01  -0.01
    11   8     0.10  -0.06   0.05    -0.01   0.01  -0.00    -0.01   0.00   0.00
    12   6    -0.15   0.08  -0.06     0.02  -0.02   0.01     0.01  -0.00   0.00
    13   6     0.16   0.01  -0.00    -0.02   0.01  -0.01    -0.01  -0.02   0.01
    14   6     0.00  -0.04   0.03    -0.01   0.01  -0.00     0.01   0.01  -0.01
    15   6    -0.14  -0.12   0.09     0.03  -0.01   0.01    -0.00   0.02  -0.02
    16   9     0.04   0.05  -0.04    -0.00  -0.00   0.00    -0.00  -0.00   0.00
    17   1     0.08   0.06  -0.06     0.27   0.49  -0.08     0.12   0.52   0.13
    18   1     0.05   0.07   0.13     0.37   0.11   0.47     0.13   0.33   0.47
    19   1     0.07   0.12  -0.05     0.33   0.23   0.14     0.38   0.25   0.09
    20   1    -0.05  -0.02  -0.01    -0.05  -0.02  -0.01    -0.06  -0.04  -0.03
    21   1    -0.02   0.01   0.00    -0.02  -0.06  -0.04    -0.01   0.02   0.01
    22   1    -0.05   0.02   0.01    -0.06   0.02   0.01     0.04  -0.02  -0.01
    23   1     0.17  -0.44   0.30    -0.01   0.01  -0.04    -0.01   0.03  -0.04
    24   1     0.47  -0.17   0.13    -0.06   0.02  -0.01    -0.06   0.03  -0.02
    25   1     0.18  -0.27   0.20    -0.02   0.01  -0.01    -0.01   0.06  -0.04
    26   1     0.12  -0.01   0.01    -0.05  -0.01   0.01     0.00   0.01  -0.01
                     52                     53                     54
                      A                      A                      A
 Frequencies --   1378.8286              1402.2456              1410.6110
 Red. masses --      5.6125                 1.0710                 1.2282
 Frc consts  --      6.2868                 1.2407                 1.4399
 IR Inten    --     20.7610                20.0076                 3.3816
  Atom  AN      X      Y      Z        X      Y      Z        X      Y      Z
     1   6     0.00  -0.01   0.00     0.00   0.01  -0.05    -0.03   0.05   0.01
     2   6    -0.02  -0.00  -0.00     0.00   0.02  -0.01     0.00  -0.01  -0.01
     3   6     0.04   0.02   0.01     0.01  -0.00  -0.00     0.00   0.02   0.01
     4   6    -0.01  -0.02  -0.01    -0.00   0.01   0.01    -0.00  -0.05  -0.03
     5   6    -0.04   0.01   0.00    -0.00  -0.00  -0.00     0.00   0.01   0.00
     6   6     0.04   0.02   0.01    -0.00  -0.02  -0.01     0.02   0.06   0.04
     7   9    -0.00   0.00   0.00    -0.00   0.01   0.00     0.01  -0.01  -0.01
     8   6     0.02  -0.04  -0.00     0.01   0.01   0.01    -0.05  -0.03  -0.02
     9   6    -0.05   0.24  -0.17     0.01   0.01  -0.01     0.00   0.01  -0.01
    10   6    -0.21  -0.14   0.09    -0.01  -0.01   0.01     0.01   0.02  -0.01
    11   8     0.02   0.05  -0.03     0.00   0.00  -0.00     0.00  -0.01   0.01
    12   6     0.17  -0.08   0.07    -0.01   0.01  -0.01    -0.00  -0.01   0.01
    13   6     0.01   0.23  -0.17     0.01   0.01  -0.01    -0.01   0.01  -0.00
    14   6    -0.19  -0.11   0.08    -0.00  -0.01   0.01     0.00   0.01  -0.01
    15   6     0.20  -0.13   0.10    -0.01  -0.00  -0.00     0.01  -0.03   0.02
    16   9     0.01   0.01  -0.01     0.00   0.00  -0.00     0.00   0.00  -0.00
    17   1     0.01  -0.01  -0.01    -0.31   0.29   0.45     0.32   0.25  -0.21
    18   1    -0.04   0.08   0.05    -0.03  -0.24  -0.28     0.54  -0.43   0.02
    19   1     0.04   0.08  -0.05     0.23  -0.28   0.57    -0.31  -0.39   0.13
    20   1    -0.10  -0.05  -0.03    -0.03  -0.03  -0.01     0.00   0.03   0.02
    21   1    -0.01  -0.04  -0.02    -0.00  -0.04  -0.03    -0.01   0.11   0.07
    22   1     0.01  -0.02  -0.01     0.03  -0.02  -0.01    -0.09   0.05   0.03
    23   1     0.13  -0.53   0.38     0.01  -0.01   0.03    -0.00   0.01  -0.00
    24   1     0.07  -0.05   0.03     0.06  -0.02   0.02    -0.03   0.00  -0.00
    25   1     0.02  -0.24   0.18     0.01  -0.03   0.02    -0.01  -0.02   0.02
    26   1     0.06  -0.00   0.00     0.02  -0.00   0.00    -0.05  -0.02   0.01
                     55                     56                     57
                      A                      A                      A
 Frequencies --   1447.6695              1458.7269              1471.9018
 Red. masses --      3.1365                 3.0272                 3.5249
 Frc consts  --      3.8729                 3.7952                 4.4994
 IR Inten    --     13.9806               101.5241                55.4231
  Atom  AN      X      Y      Z        X      Y      Z        X      Y      Z
     1   6    -0.01  -0.03  -0.02    -0.02  -0.03  -0.03     0.01   0.02   0.00
     2   6    -0.04   0.16   0.10     0.16   0.06   0.04    -0.08  -0.00  -0.00
     3   6    -0.13  -0.08  -0.05    -0.14   0.02   0.01     0.03  -0.03  -0.02
     4   6     0.09  -0.03  -0.02    -0.00  -0.13  -0.08     0.01   0.08   0.05
     5   6    -0.02   0.08   0.05     0.14   0.02   0.01    -0.07  -0.01  -0.00
     6   6    -0.12  -0.11  -0.07    -0.15   0.11   0.07     0.05  -0.06  -0.03
     7   9     0.01   0.02   0.01     0.03  -0.03  -0.02    -0.01   0.01   0.01
     8   6     0.15  -0.03  -0.02    -0.01  -0.09  -0.06     0.06   0.05   0.01
     9   6     0.05  -0.00   0.01    -0.04  -0.01   0.03    -0.06  -0.10   0.07
    10   6    -0.04  -0.10   0.08    -0.06   0.07  -0.06    -0.18   0.13  -0.10
    11   8     0.00   0.04  -0.03     0.02  -0.02   0.02     0.05  -0.03   0.03
    12   6    -0.04   0.05  -0.04     0.07  -0.02   0.01     0.14   0.02  -0.01
    13   6     0.05   0.01  -0.01    -0.01  -0.03   0.02     0.00  -0.13   0.10
    14   6    -0.04  -0.06   0.04    -0.06   0.01  -0.01    -0.15   0.03  -0.02
    15   6    -0.05   0.10  -0.08     0.08  -0.00   0.00     0.18   0.06  -0.04
    16   9    -0.00  -0.02   0.02    -0.01  -0.00   0.00    -0.02  -0.02   0.02
    17   1     0.20   0.13  -0.14    -0.22  -0.09   0.15     0.08   0.08  -0.03
    18   1     0.24  -0.11   0.10    -0.23   0.05  -0.11     0.14  -0.12  -0.01
    19   1    -0.21  -0.19  -0.09     0.19   0.10   0.10    -0.11  -0.15   0.03
    20   1     0.48   0.22   0.14     0.19   0.21   0.13    -0.00  -0.06  -0.04
    21   1     0.10   0.13   0.08    -0.01   0.47   0.28     0.02  -0.21  -0.13
    22   1     0.26  -0.04  -0.02    -0.25   0.22   0.13     0.14  -0.11  -0.07
    23   1     0.02  -0.11   0.09     0.02  -0.05   0.04     0.07  -0.21   0.14
    24   1     0.25  -0.08   0.06    -0.17   0.10  -0.07    -0.25   0.21  -0.16
    25   1     0.06  -0.02   0.02    -0.02   0.15  -0.11    -0.00   0.43  -0.32
    26   1     0.23   0.06  -0.05     0.02   0.06  -0.04     0.18   0.20  -0.15
                     58                     59                     60
                      A                      A                      A
 Frequencies --   1494.9841              1582.8966              1594.6989
 Red. masses --      4.7869                 7.1748                 7.2077
 Frc consts  --      6.3035                10.5917                10.7995
 IR Inten    --      8.7897                52.9067                82.1696
  Atom  AN      X      Y      Z        X      Y      Z        X      Y      Z
     1   6    -0.01   0.02   0.01     0.01  -0.02  -0.01    -0.00   0.01   0.00
     2   6     0.03  -0.10  -0.06    -0.14   0.16   0.10     0.06  -0.06  -0.03
     3   6     0.08   0.06   0.04     0.01  -0.15  -0.09    -0.02   0.04   0.02
     4   6    -0.06  -0.02  -0.01    -0.07   0.34   0.20     0.03  -0.10  -0.06
     5   6     0.07  -0.04  -0.02     0.22  -0.23  -0.13    -0.09   0.07   0.04
     6   6     0.02   0.10   0.06    -0.05   0.20   0.12     0.05  -0.06  -0.03
     7   9     0.00  -0.02  -0.01     0.01  -0.02  -0.02    -0.00   0.01   0.00
     8   6    -0.22   0.01  -0.00     0.03  -0.24  -0.15    -0.03   0.10   0.04
     9   6     0.26  -0.05   0.03    -0.00  -0.06   0.06    -0.02  -0.25   0.18
    10   6    -0.07  -0.12   0.09     0.05   0.05  -0.04     0.15   0.19  -0.14
    11   8     0.01   0.05  -0.03    -0.01  -0.01   0.01    -0.02  -0.03   0.02
    12   6    -0.11   0.10  -0.08     0.02  -0.06   0.05     0.03  -0.17   0.13
    13   6     0.11  -0.05   0.04     0.00   0.12  -0.09     0.02   0.32  -0.24
    14   6    -0.17  -0.08   0.06    -0.03  -0.07   0.05    -0.15  -0.19   0.14
    15   6     0.02   0.18  -0.14    -0.02   0.06  -0.05     0.00   0.17  -0.13
    16   9    -0.02  -0.04   0.03    -0.00  -0.01   0.01    -0.00  -0.02   0.01
    17   1    -0.01  -0.04  -0.02     0.04   0.08   0.01    -0.02  -0.03  -0.00
    18   1    -0.03   0.04   0.02     0.06  -0.01   0.03    -0.02  -0.02  -0.03
    19   1     0.06   0.10   0.00    -0.08  -0.10  -0.03     0.02   0.02   0.02
    20   1    -0.24  -0.10  -0.06     0.09  -0.12  -0.07    -0.02   0.04   0.02
    21   1    -0.07   0.03   0.02    -0.07  -0.36  -0.22     0.03   0.09   0.05
    22   1    -0.21   0.09   0.05    -0.37   0.02   0.01     0.13  -0.03  -0.02
    23   1     0.07  -0.21   0.16    -0.03   0.08  -0.06    -0.07   0.22  -0.18
    24   1     0.36  -0.08   0.06    -0.06  -0.04   0.03    -0.19  -0.10   0.07
    25   1     0.13   0.13  -0.10     0.01  -0.14   0.11     0.04  -0.35   0.26
    26   1     0.43   0.20  -0.15     0.08  -0.02   0.01     0.27  -0.01   0.01
                     61                     62                     63
                      A                      A                      A
 Frequencies --   1616.0283              1635.3800              2963.8981
 Red. masses --      7.6222                 7.8505                 1.0380
 Frc consts  --     11.7281                12.3705                 5.3724
 IR Inten    --     23.4803                65.9861                12.2473
  Atom  AN      X      Y      Z        X      Y      Z        X      Y      Z
     1   6    -0.03  -0.02  -0.01     0.00  -0.00  -0.00     0.03   0.04   0.01
     2   6     0.29   0.04   0.03    -0.03   0.01   0.01    -0.00  -0.00  -0.00
     3   6    -0.33  -0.16  -0.10     0.02   0.01   0.01    -0.00  -0.00  -0.00
     4   6     0.15   0.13   0.08    -0.01  -0.00  -0.00     0.00   0.00   0.00
     5   6    -0.30   0.01   0.00     0.03  -0.01  -0.00    -0.00   0.00  -0.00
     6   6     0.37   0.11   0.07    -0.05  -0.01  -0.01     0.00   0.00   0.00
     7   9    -0.02   0.00   0.00     0.00  -0.00   0.00    -0.00   0.00   0.00
     8   6    -0.21  -0.11  -0.06     0.09  -0.00   0.00     0.00  -0.00  -0.00
     9   6     0.02   0.03  -0.01    -0.27   0.07  -0.05    -0.00   0.00  -0.00
    10   6     0.04  -0.01   0.01     0.38  -0.00   0.00     0.00  -0.00   0.00
    11   8    -0.00  -0.00   0.00    -0.05  -0.01   0.00     0.00  -0.00  -0.00
    12   6    -0.05   0.02  -0.02    -0.33   0.10  -0.08    -0.00   0.00  -0.00
    13   6     0.02  -0.02   0.02     0.14  -0.06   0.05    -0.00   0.00  -0.00
    14   6    -0.04   0.00  -0.00    -0.28  -0.03   0.02    -0.00   0.00   0.00
    15   6     0.04  -0.03   0.02     0.37  -0.09   0.07     0.00  -0.00  -0.00
    16   9    -0.00   0.00  -0.00    -0.02  -0.00   0.00    -0.00   0.00   0.00
    17   1    -0.10  -0.09   0.02     0.01   0.01   0.00    -0.37   0.22  -0.36
    18   1    -0.11   0.00  -0.06    -0.00   0.03   0.02    -0.34  -0.39   0.44
    19   1     0.12   0.09   0.05    -0.01   0.00  -0.02     0.31  -0.27  -0.24
    20   1     0.34   0.18   0.12    -0.02  -0.01  -0.01    -0.00   0.01   0.00
    21   1     0.18  -0.16  -0.10    -0.01   0.01   0.01     0.00   0.00   0.00
    22   1     0.19  -0.23  -0.14    -0.02   0.02   0.01    -0.00  -0.00  -0.00
    23   1     0.00   0.01  -0.00    -0.09   0.31  -0.22    -0.00  -0.00  -0.00
    24   1     0.05  -0.02   0.02     0.26  -0.16   0.13    -0.00  -0.00   0.00
    25   1     0.02   0.02  -0.02     0.15   0.07  -0.05     0.00  -0.00  -0.00
    26   1     0.01   0.03  -0.02     0.15   0.18  -0.14    -0.00   0.00  -0.00
                     64                     65                     66
                      A                      A                      A
 Frequencies --   3038.1534              3070.8847              3103.7313
 Red. masses --      1.1002                 1.1038                 1.0875
 Frc consts  --      5.9835                 6.1329                 6.1724
 IR Inten    --      2.9026                10.4711                 3.9460
  Atom  AN      X      Y      Z        X      Y      Z        X      Y      Z
     1   6    -0.00   0.05  -0.08    -0.08   0.04   0.02     0.00  -0.00  -0.00
     2   6     0.00   0.00  -0.00    -0.00  -0.00  -0.00    -0.00  -0.00  -0.00
     3   6    -0.00   0.00  -0.00     0.00  -0.00  -0.00     0.04  -0.05  -0.03
     4   6    -0.00   0.00   0.00    -0.00   0.00  -0.00    -0.05   0.00   0.00
     5   6     0.00  -0.00  -0.00     0.00  -0.00  -0.00     0.01   0.01   0.00
     6   6     0.00   0.00  -0.00    -0.00  -0.00  -0.00    -0.00   0.00   0.00
     7   9     0.00  -0.00  -0.00     0.00   0.00   0.00    -0.00  -0.00  -0.00
     8   6    -0.00  -0.00   0.00    -0.00  -0.00   0.00    -0.00   0.00   0.00
     9   6     0.00   0.00   0.00     0.00   0.00   0.00     0.00  -0.00  -0.00
    10   6     0.00  -0.00  -0.00     0.00   0.00  -0.00    -0.00  -0.00   0.00
    11   8     0.00  -0.00  -0.00    -0.00  -0.00   0.00    -0.00   0.00  -0.00
    12   6     0.00   0.00   0.00    -0.00  -0.00   0.00     0.00   0.00  -0.00
    13   6    -0.00   0.00  -0.00    -0.00   0.00  -0.00     0.00  -0.00   0.00
    14   6    -0.00  -0.00   0.00    -0.00   0.00  -0.00     0.00  -0.00   0.00
    15   6     0.00   0.00  -0.00     0.00  -0.00   0.00     0.00   0.00  -0.00
    16   9    -0.00  -0.00   0.00     0.00   0.00  -0.00    -0.00  -0.00   0.00
    17   1     0.47  -0.26   0.43     0.29  -0.17   0.29    -0.00   0.00  -0.00
    18   1    -0.36  -0.40   0.44     0.10   0.14  -0.15    -0.00  -0.00   0.00
    19   1    -0.11   0.11   0.08     0.56  -0.49  -0.44    -0.02   0.02   0.02
    20   1     0.00  -0.00  -0.00    -0.01   0.02   0.02    -0.43   0.60   0.37
    21   1     0.00  -0.00   0.00     0.01   0.00   0.00     0.54   0.00   0.01
    22   1    -0.00  -0.00  -0.00     0.00   0.00   0.00    -0.06  -0.09  -0.05
    23   1     0.00   0.00   0.00     0.00   0.00  -0.00     0.00  -0.00   0.00
    24   1    -0.00  -0.00   0.00     0.00   0.00  -0.00    -0.00  -0.00   0.00
    25   1     0.00  -0.00  -0.00     0.00   0.00   0.00    -0.00  -0.00   0.00
    26   1    -0.00   0.00  -0.00     0.00  -0.00   0.00    -0.00   0.00  -0.00
                     67                     68                     69
                      A                      A                      A
 Frequencies --   3113.4432              3119.0933              3135.7720
 Red. masses --      1.0880                 1.0937                 1.0935
 Frc consts  --      6.2138                 6.2689                 6.3351
 IR Inten    --      5.9053                11.8211                 3.7039
  Atom  AN      X      Y      Z        X      Y      Z        X      Y      Z
     1   6    -0.00  -0.00   0.00    -0.00   0.00   0.00     0.00  -0.00  -0.00
     2   6     0.00   0.00   0.00     0.00   0.00   0.00     0.00  -0.00  -0.00
     3   6     0.00   0.00   0.00    -0.02   0.04   0.02    -0.00   0.00   0.00
     4   6    -0.00  -0.00  -0.00    -0.07  -0.00  -0.00    -0.00   0.00   0.00
     5   6     0.00   0.00   0.00     0.01   0.02   0.01    -0.00  -0.00  -0.00
     6   6     0.00  -0.00   0.00    -0.00   0.00   0.00     0.00   0.00   0.00
     7   9    -0.00   0.00   0.00     0.00  -0.00  -0.00    -0.00   0.00   0.00
     8   6    -0.00  -0.00   0.00     0.00  -0.00  -0.00     0.00  -0.00   0.00
     9   6     0.00   0.00  -0.00    -0.00   0.00   0.00     0.00   0.00  -0.00
    10   6    -0.00   0.00  -0.00     0.00   0.00  -0.00     0.00  -0.00   0.00
    11   8     0.00   0.00  -0.00     0.00   0.00   0.00    -0.00   0.00  -0.00
    12   6     0.01   0.02  -0.01    -0.00  -0.00   0.00    -0.04  -0.06   0.04
    13   6    -0.08  -0.00   0.00     0.00   0.00  -0.00    -0.02   0.00  -0.00
    14   6     0.01  -0.01   0.01    -0.00   0.00  -0.00     0.02  -0.02   0.01
    15   6    -0.00  -0.00   0.00     0.00  -0.00   0.00    -0.00  -0.00   0.00
    16   9    -0.00   0.00  -0.00    -0.00   0.00  -0.00     0.00   0.00  -0.00
    17   1    -0.00   0.00  -0.00     0.00  -0.00   0.00    -0.00   0.00  -0.00
    18   1     0.00   0.00  -0.00     0.00   0.00  -0.00    -0.00  -0.00   0.00
    19   1    -0.00  -0.00   0.00     0.01  -0.01  -0.01    -0.00   0.00   0.00
    20   1     0.00  -0.00  -0.00     0.28  -0.40  -0.25    -0.00  -0.00  -0.00
    21   1     0.00   0.00   0.00     0.77   0.01   0.01     0.00   0.00   0.00
    22   1    -0.00  -0.00  -0.00    -0.15  -0.25  -0.15     0.00   0.01   0.00
    23   1    -0.00  -0.00   0.00    -0.00  -0.00  -0.00    -0.00   0.00  -0.00
    24   1    -0.15  -0.22   0.17     0.00   0.00  -0.00     0.44   0.64  -0.49
    25   1     0.92   0.01  -0.00    -0.00  -0.00   0.00     0.22  -0.00   0.00
    26   1    -0.11   0.16  -0.12     0.00  -0.00   0.00    -0.16   0.23  -0.17
                     70                     71                     72
                      A                      A                      A
 Frequencies --   3137.6284              3142.9410              3581.3670
 Red. masses --      1.0961                 1.0961                 1.0649
 Frc consts  --      6.3575                 6.3792                 8.0477
 IR Inten    --      2.2422                 1.4153               134.1533
  Atom  AN      X      Y      Z        X      Y      Z        X      Y      Z
     1   6     0.00   0.00   0.00    -0.00   0.00   0.00     0.00   0.00   0.00
     2   6     0.00   0.00   0.00     0.00   0.00   0.00    -0.00   0.00   0.00
     3   6    -0.00   0.01   0.00    -0.00   0.00   0.00    -0.00   0.00  -0.00
     4   6    -0.03   0.00   0.00    -0.00   0.00   0.00    -0.00   0.00   0.00
     5   6    -0.04  -0.06  -0.04    -0.00  -0.00  -0.00     0.00  -0.00  -0.00
     6   6     0.00  -0.00  -0.00     0.00  -0.00  -0.00    -0.00  -0.00  -0.00
     7   9    -0.00   0.00   0.00    -0.00   0.00   0.00    -0.00   0.00   0.00
     8   6     0.00   0.00   0.00     0.00  -0.00   0.00     0.00   0.00  -0.00
     9   6    -0.00  -0.00  -0.00    -0.00   0.00  -0.00     0.00  -0.00   0.00
    10   6    -0.00   0.00  -0.00    -0.00   0.00  -0.00    -0.00   0.00  -0.00
    11   8     0.00  -0.00   0.00     0.00   0.00  -0.00    -0.06  -0.01   0.00
    12   6     0.00   0.00  -0.00     0.01   0.02  -0.01     0.00  -0.00   0.00
    13   6     0.00  -0.00   0.00     0.03   0.00  -0.00    -0.00   0.00  -0.00
    14   6    -0.00   0.00  -0.00     0.04  -0.06   0.04     0.00  -0.00   0.00
    15   6     0.00  -0.00   0.00    -0.00  -0.00   0.00    -0.00   0.00  -0.00
    16   9     0.00   0.00  -0.00     0.00   0.00  -0.00    -0.00  -0.00   0.00
    17   1    -0.00   0.00  -0.00     0.00  -0.00   0.00    -0.00  -0.00  -0.00
    18   1    -0.00  -0.00   0.00     0.00   0.00  -0.00     0.00  -0.00  -0.00
    19   1     0.00  -0.00  -0.00     0.00  -0.00  -0.00    -0.00  -0.00   0.00
    20   1     0.04  -0.06  -0.04     0.00  -0.00  -0.00     0.00  -0.00  -0.00
    21   1     0.33   0.00   0.00     0.00   0.00   0.00     0.00   0.00   0.00
    22   1     0.43   0.71   0.43     0.00   0.00   0.00     0.00   0.00   0.00
    23   1    -0.00   0.00  -0.00    -0.00  -0.00   0.00     0.98   0.19  -0.02
    24   1    -0.00  -0.01   0.00    -0.12  -0.18   0.14    -0.00  -0.00   0.00
    25   1    -0.00   0.00  -0.00    -0.31  -0.00   0.00     0.00   0.00  -0.00
    26   1     0.00  -0.01   0.01    -0.45   0.64  -0.48    -0.00   0.00  -0.00

 -------------------
 - Thermochemistry -
 -------------------
 Temperature   298.150 Kelvin.  Pressure   1.00000 Atm.
 Atom     1 has atomic number  6 and mass  12.00000
 Atom     2 has atomic number  6 and mass  12.00000
 Atom     3 has atomic number  6 and mass  12.00000
 Atom     4 has atomic number  6 and mass  12.00000
 Atom     5 has atomic number  6 and mass  12.00000
 Atom     6 has atomic number  6 and mass  12.00000
 Atom     7 has atomic number  9 and mass  18.99840
 Atom     8 has atomic number  6 and mass  12.00000
 Atom     9 has atomic number  6 and mass  12.00000
 Atom    10 has atomic number  6 and mass  12.00000
 Atom    11 has atomic number  8 and mass  15.99491
 Atom    12 has atomic number  6 and mass  12.00000
 Atom    13 has atomic number  6 and mass  12.00000
 Atom    14 has atomic number  6 and mass  12.00000
 Atom    15 has atomic number  6 and mass  12.00000
 Atom    16 has atomic number  9 and mass  18.99840
 Atom    17 has atomic number  1 and mass   1.00783
 Atom    18 has atomic number  1 and mass   1.00783
 Atom    19 has atomic number  1 and mass   1.00783
 Atom    20 has atomic number  1 and mass   1.00783
 Atom    21 has atomic number  1 and mass   1.00783
 Atom    22 has atomic number  1 and mass   1.00783
 Atom    23 has atomic number  1 and mass   1.00783
 Atom    24 has atomic number  1 and mass   1.00783
 Atom    25 has atomic number  1 and mass   1.00783
 Atom    26 has atomic number  1 and mass   1.00783
 Molecular mass:   220.06997 amu.
 Principal axes and moments of inertia in atomic units:
                           1         2         3
     Eigenvalues --  2061.921784072.818184809.47607
           X            0.99995  -0.00760  -0.00650
           Y            0.00786   0.99915   0.04057
           Z            0.00619  -0.04062   0.99916
 This molecule is an asymmetric top.
 Rotational symmetry number  1.
 Warning -- assumption of classical behavior for rotation
           may cause significant error
 Rotational temperatures (Kelvin)      0.04201     0.02127     0.01801
 Rotational constants (GHZ):           0.87527     0.44312     0.37525
 Zero-point vibrational energy     503571.5 (Joules/Mol)
                                  120.35648 (Kcal/Mol)
 Warning -- explicit consideration of  24 degrees of freedom as
           vibrations may cause significant error
 Vibrational temperatures:     68.73    92.00   107.13   193.61   214.44
          (Kelvin)            236.75   304.27   330.02   343.77   454.26
                              467.84   487.19   563.83   678.50   689.48
                              725.49   733.43   748.99   751.60   798.26
                              815.04   829.13   866.56   889.84  1018.20
                             1052.12  1056.31  1102.52  1113.47  1117.20
                             1225.36  1253.96  1346.94  1361.69  1378.28
                             1432.45  1447.62  1456.98  1474.48  1510.19
                             1540.25  1621.74  1638.55  1693.48  1756.44
                             1779.31  1827.64  1838.04  1896.79  1935.68
                             1946.92  1983.83  2017.52  2029.55  2082.87
                             2098.78  2117.74  2150.95  2277.44  2294.42
                             2325.10  2352.95  4264.39  4371.23  4418.32
                             4465.58  4479.55  4487.68  4511.68  4514.35
                             4521.99  5152.79
 
 Zero-point correction=                           0.191800 (Hartree/Particle)
 Thermal correction to Energy=                    0.205464
 Thermal correction to Enthalpy=                  0.206409
 Thermal correction to Gibbs Free Energy=         0.151496
 Sum of electronic and zero-point Energies=           -775.608491
 Sum of electronic and thermal Energies=              -775.594827
 Sum of electronic and thermal Enthalpies=            -775.593883
 Sum of electronic and thermal Free Energies=         -775.648795
 
                     E (Thermal)             CV                S
                      KCal/Mol        Cal/Mol-Kelvin    Cal/Mol-Kelvin
 Total                  128.931             53.805            115.573
 Electronic               0.000              0.000              0.000
 Translational            0.889              2.981             42.069
 Rotational               0.889              2.981             32.068
 Vibrational            127.153             47.843             41.435
 Vibration     1          0.595              1.978              4.908
 Vibration     2          0.597              1.972              4.332
 Vibration     3          0.599              1.966              4.032
 Vibration     4          0.613              1.919              2.880
 Vibration     5          0.618              1.904              2.684
 Vibration     6          0.623              1.886              2.497
 Vibration     7          0.643              1.823              2.031
 Vibration     8          0.652              1.796              1.884
 Vibration     9          0.657              1.781              1.811
 Vibration    10          0.703              1.644              1.332
 Vibration    11          0.709              1.625              1.284
 Vibration    12          0.719              1.598              1.219
 Vibration    13          0.759              1.488              0.993
 Vibration    14          0.829              1.313              0.733
 Vibration    15          0.836              1.296              0.712
 Vibration    16          0.860              1.241              0.648
 Vibration    17          0.865              1.228              0.634
 Vibration    18          0.876              1.204              0.609
 Vibration    19          0.877              1.200              0.604
 Vibration    20          0.910              1.129              0.534
 Vibration    21          0.922              1.104              0.511
 Vibration    22          0.933              1.083              0.492
 Vibration    23          0.961              1.027              0.446
 Vibration    24          0.978              0.993              0.419
                       Q            Log10(Q)             Ln(Q)
 Total Bot       0.207310D-69        -69.683380       -160.451911
 Total V=0       0.345569D+19         18.538535         42.686554
 Vib (Bot)       0.710145D-84        -84.148653       -193.759434
 Vib (Bot)    1  0.432866D+01          0.636354          1.465258
 Vib (Bot)    2  0.322779D+01          0.508906          1.171799
 Vib (Bot)    3  0.276817D+01          0.442193          1.018187
 Vib (Bot)    4  0.151321D+01          0.179899          0.414232
 Vib (Bot)    5  0.136088D+01          0.133819          0.308129
 Vib (Bot)    6  0.122683D+01          0.088786          0.204436
 Vib (Bot)    7  0.938614D+00         -0.027513         -0.063351
 Vib (Bot)    8  0.858912D+00         -0.066052         -0.152089
 Vib (Bot)    9  0.821062D+00         -0.085624         -0.197157
 Vib (Bot)   10  0.596912D+00         -0.224090         -0.515986
 Vib (Bot)   11  0.576323D+00         -0.239334         -0.551087
 Vib (Bot)   12  0.548841D+00         -0.260554         -0.599947
 Vib (Bot)   13  0.457504D+00         -0.339605         -0.781970
 Vib (Bot)   14  0.357204D+00         -0.447084         -1.029448
 Vib (Bot)   15  0.349237D+00         -0.456880         -1.052004
 Vib (Bot)   16  0.324714D+00         -0.488499         -1.124810
 Vib (Bot)   17  0.319611D+00         -0.495379         -1.140652
 Vib (Bot)   18  0.309907D+00         -0.508768         -1.171482
 Vib (Bot)   19  0.308311D+00         -0.511010         -1.176645
 Vib (Bot)   20  0.281544D+00         -0.550453         -1.267465
 Vib (Bot)   21  0.272627D+00         -0.564431         -1.299649
 Vib (Bot)   22  0.265413D+00         -0.576078         -1.326469
 Vib (Bot)   23  0.247336D+00         -0.606714         -1.397009
 Vib (Bot)   24  0.236835D+00         -0.625554         -1.440392
 Vib (V=0)       0.118375D+05          4.073262          9.379032
 Vib (V=0)    1  0.485744D+01          0.686408          1.580512
 Vib (V=0)    2  0.376629D+01          0.575914          1.326090
 Vib (V=0)    3  0.331296D+01          0.520217          1.197843
 Vib (V=0)    4  0.209368D+01          0.320909          0.738921
 Vib (V=0)    5  0.194982D+01          0.289995          0.667738
 Vib (V=0)    6  0.182481D+01          0.261217          0.601475
 Vib (V=0)    7  0.156348D+01          0.194093          0.446916
 Vib (V=0)    8  0.149385D+01          0.174306          0.401354
 Vib (V=0)    9  0.146132D+01          0.164746          0.379342
 Vib (V=0)   10  0.127866D+01          0.106753          0.245809
 Vib (V=0)   11  0.126299D+01          0.101399          0.233479
 Vib (V=0)   12  0.124245D+01          0.094278          0.217082
 Vib (V=0)   13  0.117772D+01          0.071044          0.163584
 Vib (V=0)   14  0.111449D+01          0.047075          0.108395
 Vib (V=0)   15  0.110989D+01          0.045280          0.104262
 Vib (V=0)   16  0.109619D+01          0.039885          0.091838
 Vib (V=0)   17  0.109342D+01          0.038788          0.089313
 Vib (V=0)   18  0.108825D+01          0.036730          0.084574
 Vib (V=0)   19  0.108741D+01          0.036395          0.083803
 Vib (V=0)   20  0.107382D+01          0.030931          0.071221
 Vib (V=0)   21  0.106950D+01          0.029179          0.067187
 Vib (V=0)   22  0.106608D+01          0.027789          0.063986
 Vib (V=0)   23  0.105783D+01          0.024416          0.056220
 Vib (V=0)   24  0.105325D+01          0.022533          0.051885
 Electronic      0.100000D+01          0.000000          0.000000
 Translational   0.128320D+09          8.108295         18.670039
 Rotational      0.227498D+07          6.356978         14.637483
 ***** Axes restored to original set *****
 -------------------------------------------------------------------
 Center     Atomic                   Forces (Hartrees/Bohr)
 Number     Number              X              Y              Z
 -------------------------------------------------------------------
      1        6           0.000001169   -0.000000561    0.000000184
      2        6          -0.000000319   -0.000000051    0.000000418
      3        6          -0.000000121    0.000000312    0.000000641
      4        6           0.000000624    0.000000800   -0.000000033
      5        6           0.000000292    0.000000659   -0.000000105
      6        6          -0.000001337    0.000000363    0.000000007
      7        9           0.000000105    0.000000414    0.000000086
      8        6          -0.000000092    0.000000082   -0.000000293
      9        6           0.000000113    0.000000568    0.000000052
     10        6          -0.000000099    0.000000180   -0.000000465
     11        8          -0.000000748    0.000001698   -0.000000746
     12        6          -0.000000305   -0.000000422    0.000000125
     13        6          -0.000000672   -0.000000744   -0.000000135
     14        6           0.000000037   -0.000000783   -0.000000327
     15        6           0.000000666   -0.000000881   -0.000000384
     16        9           0.000000188   -0.000000705    0.000000021
     17        1           0.000000107   -0.000000393    0.000000019
     18        1           0.000000308   -0.000000537    0.000000530
     19        1           0.000000642   -0.000000098    0.000000364
     20        1           0.000000464    0.000000447    0.000000672
     21        1           0.000000620    0.000000873    0.000000220
     22        1           0.000000052    0.000000773   -0.000000348
     23        1          -0.000000538    0.000000317    0.000000112
     24        1          -0.000000600   -0.000000278    0.000000177
     25        1          -0.000000591   -0.000000929   -0.000000236
     26        1           0.000000035   -0.000001104   -0.000000556
 -------------------------------------------------------------------
 Cartesian Forces:  Max     0.000001698 RMS     0.000000539
 FormGI is forming the generalized inverse of G from B-inverse, IUseBI=4.

 GradGradGradGradGradGradGradGradGradGradGradGradGradGradGradGradGradGrad
 Berny optimization.
 Internal  Forces:  Max     0.000004015 RMS     0.000001067
 Search for a local minimum.
 Step number   1 out of a maximum of    2
 All quantities printed in internal units (Hartrees-Bohrs-Radians)
 Second derivative matrix not updated -- analytic derivatives used.
 ITU=  0
     Eigenvalues ---    0.00131   0.00863   0.01159   0.01296   0.01577
     Eigenvalues ---    0.01645   0.01650   0.01678   0.01698   0.01963
     Eigenvalues ---    0.02043   0.02161   0.02207   0.02241   0.02320
     Eigenvalues ---    0.02581   0.02716   0.02855   0.03297   0.03390
     Eigenvalues ---    0.04175   0.05178   0.05362   0.09769   0.09882
     Eigenvalues ---    0.10203   0.10873   0.11304   0.11322   0.11507
     Eigenvalues ---    0.13662   0.13982   0.16753   0.17033   0.17434
     Eigenvalues ---    0.17612   0.17717   0.17808   0.18097   0.18422
     Eigenvalues ---    0.18765   0.20140   0.21145   0.23102   0.23705
     Eigenvalues ---    0.30235   0.31938   0.32173   0.32262   0.32804
     Eigenvalues ---    0.33024   0.33808   0.34144   0.34285   0.34327
     Eigenvalues ---    0.34567   0.34694   0.34824   0.36451   0.37445
     Eigenvalues ---    0.39414   0.42119   0.43307   0.43914   0.44947
     Eigenvalues ---    0.45414   0.45487   0.45813   0.46475   0.47768
     Eigenvalues ---    0.49879   0.50707
 Angle between quadratic step and forces=  65.20 degrees.
 Linear search not attempted -- first point.
 Iteration  1 RMS(Cart)=  0.00012553 RMS(Int)=  0.00000000
 Iteration  2 RMS(Cart)=  0.00000001 RMS(Int)=  0.00000000
 Variable       Old X    -DE/DX   Delta X   Delta X   Delta X     New X
                                 (Linear)    (Quad)   (Total)
    R1        2.85492  -0.00000   0.00000   0.00000   0.00000   2.85492
    R2        2.09650  -0.00000   0.00000  -0.00000  -0.00000   2.09649
    R3        2.09858   0.00000   0.00000  -0.00000  -0.00000   2.09858
    R4        2.09188  -0.00000   0.00000  -0.00000  -0.00000   2.09188
    R5        2.66584  -0.00000   0.00000  -0.00000  -0.00000   2.66584
    R6        2.69358  -0.00000   0.00000   0.00000   0.00000   2.69358
    R7        2.65332  -0.00000   0.00000  -0.00000  -0.00000   2.65332
    R8        2.08103  -0.00000   0.00000  -0.00000  -0.00000   2.08102
    R9        2.65161  -0.00000   0.00000  -0.00000  -0.00000   2.65161
   R10        2.08064  -0.00000   0.00000  -0.00000  -0.00000   2.08064
   R11        2.64410  -0.00000   0.00000  -0.00000  -0.00000   2.64410
   R12        2.07799  -0.00000   0.00000  -0.00000  -0.00000   2.07799
   R13        2.54596   0.00000   0.00000   0.00000   0.00000   2.54596
   R14        2.66659  -0.00000   0.00000   0.00000   0.00000   2.66660
   R15        2.81179  -0.00000   0.00000  -0.00001  -0.00001   2.81178
   R16        2.68293  -0.00000   0.00000   0.00000   0.00000   2.68293
   R17        2.66002  -0.00000   0.00000   0.00000   0.00000   2.66002
   R18        2.57392  -0.00000   0.00000   0.00000   0.00000   2.57392
   R19        2.66222  -0.00000   0.00000  -0.00000  -0.00000   2.66221
   R20        1.85649   0.00000   0.00000   0.00000   0.00000   1.85649
   R21        2.64869  -0.00000   0.00000  -0.00000  -0.00000   2.64868
   R22        2.07747  -0.00000   0.00000  -0.00000  -0.00000   2.07747
   R23        2.65769  -0.00000   0.00000  -0.00000  -0.00000   2.65769
   R24        2.08058  -0.00000   0.00000  -0.00000  -0.00000   2.08057
   R25        2.64364  -0.00000   0.00000  -0.00000  -0.00000   2.64364
   R26        2.07672  -0.00000   0.00000  -0.00000  -0.00000   2.07672
   R27        2.55058  -0.00000   0.00000  -0.00000  -0.00000   2.55058
    A1        1.93600  -0.00000   0.00000  -0.00000  -0.00000   1.93599
    A2        1.94656  -0.00000   0.00000   0.00000   0.00000   1.94656
    A3        1.93974   0.00000   0.00000  -0.00000  -0.00000   1.93974
    A4        1.85640   0.00000   0.00000  -0.00000  -0.00000   1.85640
    A5        1.89601   0.00000   0.00000   0.00000   0.00000   1.89601
    A6        1.88616   0.00000   0.00000   0.00000   0.00000   1.88617
    A7        2.10928   0.00000   0.00000  -0.00000  -0.00000   2.10928
    A8        2.09780  -0.00000   0.00000   0.00000   0.00000   2.09780
    A9        2.07592   0.00000   0.00000  -0.00000  -0.00000   2.07592
   A10        2.11596  -0.00000   0.00000   0.00000   0.00000   2.11596
   A11        2.07639   0.00000   0.00000  -0.00000  -0.00000   2.07639
   A12        2.09072   0.00000   0.00000   0.00000   0.00000   2.09072
   A13        2.10105   0.00000   0.00000   0.00000   0.00000   2.10105
   A14        2.09420  -0.00000   0.00000   0.00000   0.00000   2.09420
   A15        2.08792  -0.00000   0.00000  -0.00000  -0.00000   2.08792
   A16        2.06592  -0.00000   0.00000   0.00000   0.00000   2.06592
   A17        2.13498   0.00000   0.00000  -0.00000  -0.00000   2.13498
   A18        2.08228   0.00000   0.00000   0.00000   0.00000   2.08228
   A19        2.07256   0.00000   0.00000   0.00000   0.00000   2.07256
   A20        2.14182  -0.00000   0.00000   0.00000   0.00000   2.14182
   A21        2.06878   0.00000   0.00000  -0.00000  -0.00000   2.06878
   A22        2.06557   0.00000   0.00000  -0.00000  -0.00000   2.06557
   A23        2.12442  -0.00000   0.00000  -0.00000  -0.00000   2.12442
   A24        2.09318   0.00000   0.00000   0.00000   0.00000   2.09318
   A25        2.10125  -0.00000   0.00000   0.00001   0.00001   2.10126
   A26        2.12905   0.00000   0.00000  -0.00000  -0.00000   2.12905
   A27        2.05288   0.00000   0.00000  -0.00000  -0.00000   2.05288
   A28        2.10851  -0.00000   0.00000   0.00000   0.00000   2.10851
   A29        2.10706  -0.00000   0.00000   0.00000   0.00000   2.10707
   A30        2.06761   0.00000   0.00000  -0.00000  -0.00000   2.06761
   A31        1.87381  -0.00000   0.00000   0.00000   0.00000   1.87381
   A32        2.08637  -0.00000   0.00000   0.00000   0.00000   2.08637
   A33        2.07188   0.00000   0.00000  -0.00000  -0.00000   2.07188
   A34        2.12488   0.00000   0.00000  -0.00000  -0.00000   2.12488
   A35        2.11472   0.00000   0.00000  -0.00000  -0.00000   2.11472
   A36        2.08470  -0.00000   0.00000   0.00000   0.00000   2.08470
   A37        2.08374  -0.00000   0.00000   0.00000   0.00000   2.08374
   A38        2.06258  -0.00000   0.00000   0.00000   0.00000   2.06258
   A39        2.13491   0.00000   0.00000  -0.00000  -0.00000   2.13491
   A40        2.08569   0.00000   0.00000  -0.00000  -0.00000   2.08569
   A41        2.14254  -0.00000   0.00000   0.00000   0.00000   2.14254
   A42        2.06060  -0.00000   0.00000  -0.00000  -0.00000   2.06060
   A43        2.07996   0.00000   0.00000  -0.00000  -0.00000   2.07996
    D1        2.23941   0.00000   0.00000   0.00002   0.00002   2.23943
    D2       -0.88119  -0.00000   0.00000   0.00003   0.00003  -0.88116
    D3       -1.97791   0.00000   0.00000   0.00002   0.00002  -1.97789
    D4        1.18468  -0.00000   0.00000   0.00003   0.00003   1.18471
    D5        0.12810   0.00000   0.00000   0.00002   0.00002   0.12812
    D6       -2.99250  -0.00000   0.00000   0.00003   0.00003  -2.99247
    D7       -3.10827  -0.00000   0.00000   0.00001   0.00001  -3.10825
    D8        0.01671  -0.00000   0.00000   0.00001   0.00001   0.01671
    D9        0.01259  -0.00000   0.00000   0.00000   0.00000   0.01260
   D10        3.13756   0.00000   0.00000  -0.00000  -0.00000   3.13756
   D11        3.10202   0.00000   0.00000  -0.00001  -0.00001   3.10201
   D12       -0.04446   0.00000   0.00000  -0.00001  -0.00001  -0.04446
   D13       -0.01898   0.00000   0.00000  -0.00001  -0.00001  -0.01898
   D14        3.11773   0.00000   0.00000  -0.00000  -0.00000   3.11773
   D15        0.00039  -0.00000   0.00000   0.00000   0.00000   0.00039
   D16        3.13587   0.00000   0.00000  -0.00000  -0.00000   3.13587
   D17       -3.12445  -0.00000   0.00000   0.00001   0.00001  -3.12444
   D18        0.01103  -0.00000   0.00000   0.00000   0.00000   0.01104
   D19       -0.00652   0.00000   0.00000  -0.00000  -0.00000  -0.00652
   D20        3.13674   0.00000   0.00000   0.00000   0.00000   3.13674
   D21        3.14116  -0.00000   0.00000  -0.00000  -0.00000   3.14116
   D22        0.00124  -0.00000   0.00000   0.00000   0.00000   0.00124
   D23       -3.13375  -0.00000   0.00000   0.00000   0.00000  -3.13375
   D24       -0.00049   0.00000   0.00000   0.00000   0.00000  -0.00048
   D25        0.00623  -0.00000   0.00000  -0.00000  -0.00000   0.00622
   D26        3.13949   0.00000   0.00000  -0.00000  -0.00000   3.13949
   D27        0.01331  -0.00000   0.00000   0.00000   0.00000   0.01332
   D28       -3.12348  -0.00000   0.00000  -0.00000  -0.00000  -3.12349
   D29       -3.13659  -0.00000   0.00000   0.00000   0.00000  -3.13659
   D30        0.00980   0.00000   0.00000  -0.00000  -0.00000   0.00979
   D31       -1.19217   0.00000   0.00000   0.00017   0.00017  -1.19200
   D32        1.95120   0.00000   0.00000   0.00018   0.00018   1.95137
   D33        1.94446   0.00000   0.00000   0.00018   0.00018   1.94464
   D34       -1.19536   0.00000   0.00000   0.00018   0.00018  -1.19517
   D35       -0.02101   0.00000   0.00000  -0.00001  -0.00001  -0.02102
   D36        3.12058  -0.00000   0.00000  -0.00001  -0.00001   3.12057
   D37        3.11888   0.00000   0.00000  -0.00001  -0.00001   3.11887
   D38       -0.02271   0.00000   0.00000  -0.00001  -0.00001  -0.02272
   D39       -3.12348  -0.00000   0.00000   0.00001   0.00001  -3.12347
   D40        0.00355   0.00000   0.00000   0.00000   0.00000   0.00356
   D41        0.01984  -0.00000   0.00000   0.00001   0.00001   0.01985
   D42       -3.13631  -0.00000   0.00000   0.00000   0.00000  -3.13631
   D43       -0.09819  -0.00000   0.00000  -0.00004  -0.00004  -0.09824
   D44        3.04340   0.00000   0.00000  -0.00005  -0.00005   3.04336
   D45        0.01169  -0.00000   0.00000   0.00001   0.00001   0.01170
   D46       -3.14072   0.00000   0.00000   0.00000   0.00000  -3.14072
   D47       -3.12990  -0.00000   0.00000   0.00001   0.00001  -3.12989
   D48        0.00087  -0.00000   0.00000   0.00001   0.00001   0.00088
   D49        0.00333  -0.00000   0.00000   0.00000   0.00000   0.00333
   D50        3.13836   0.00000   0.00000  -0.00000  -0.00000   3.13836
   D51       -3.12711  -0.00000   0.00000   0.00001   0.00001  -3.12710
   D52        0.00793  -0.00000   0.00000   0.00000   0.00000   0.00793
   D53       -0.00646   0.00000   0.00000  -0.00000  -0.00000  -0.00646
   D54        3.13699   0.00000   0.00000  -0.00000  -0.00000   3.13699
   D55       -3.14150  -0.00000   0.00000  -0.00000  -0.00000  -3.14150
   D56        0.00195  -0.00000   0.00000   0.00000   0.00000   0.00195
   D57       -0.00552   0.00000   0.00000  -0.00000  -0.00000  -0.00552
   D58       -3.13240  -0.00000   0.00000   0.00000   0.00000  -3.13240
   D59        3.13427   0.00000   0.00000  -0.00000  -0.00000   3.13427
   D60        0.00739  -0.00000   0.00000   0.00000   0.00000   0.00739
         Item               Value     Threshold  Converged?
 Maximum Force            0.000004     0.000450     YES
 RMS     Force            0.000001     0.000300     YES
 Maximum Displacement     0.000413     0.001800     YES
 RMS     Displacement     0.000126     0.001200     YES
 Predicted change in Energy=-9.489382D-10
 Optimization completed.
    -- Stationary point found.
                           ----------------------------
                           !   Optimized Parameters   !
                           ! (Angstroms and Degrees)  !
 --------------------------                            --------------------------
 ! Name  Definition              Value          Derivative Info.                !
 --------------------------------------------------------------------------------
 ! R1    R(1,2)                  1.5108         -DE/DX =    0.0                 !
 ! R2    R(1,17)                 1.1094         -DE/DX =    0.0                 !
 ! R3    R(1,18)                 1.1105         -DE/DX =    0.0                 !
 ! R4    R(1,19)                 1.107          -DE/DX =    0.0                 !
 ! R5    R(2,3)                  1.4107         -DE/DX =    0.0                 !
 ! R6    R(2,8)                  1.4254         -DE/DX =    0.0                 !
 ! R7    R(3,4)                  1.4041         -DE/DX =    0.0                 !
 ! R8    R(3,20)                 1.1012         -DE/DX =    0.0                 !
 ! R9    R(4,5)                  1.4032         -DE/DX =    0.0                 !
 ! R10   R(4,21)                 1.101          -DE/DX =    0.0                 !
 ! R11   R(5,6)                  1.3992         -DE/DX =    0.0                 !
 ! R12   R(5,22)                 1.0996         -DE/DX =    0.0                 !
 ! R13   R(6,7)                  1.3473         -DE/DX =    0.0                 !
 ! R14   R(6,8)                  1.4111         -DE/DX =    0.0                 !
 ! R15   R(8,9)                  1.4879         -DE/DX =    0.0                 !
 ! R16   R(9,10)                 1.4197         -DE/DX =    0.0                 !
 ! R17   R(9,15)                 1.4076         -DE/DX =    0.0                 !
 ! R18   R(10,11)                1.3621         -DE/DX =    0.0                 !
 ! R19   R(10,12)                1.4088         -DE/DX =    0.0                 !
 ! R20   R(11,23)                0.9824         -DE/DX =    0.0                 !
 ! R21   R(12,13)                1.4016         -DE/DX =    0.0                 !
 ! R22   R(12,24)                1.0993         -DE/DX =    0.0                 !
 ! R23   R(13,14)                1.4064         -DE/DX =    0.0                 !
 ! R24   R(13,25)                1.101          -DE/DX =    0.0                 !
 ! R25   R(14,15)                1.399          -DE/DX =    0.0                 !
 ! R26   R(14,26)                1.099          -DE/DX =    0.0                 !
 ! R27   R(15,16)                1.3497         -DE/DX =    0.0                 !
 ! A1    A(2,1,17)             110.9245         -DE/DX =    0.0                 !
 ! A2    A(2,1,18)             111.5297         -DE/DX =    0.0                 !
 ! A3    A(2,1,19)             111.1387         -DE/DX =    0.0                 !
 ! A4    A(17,1,18)            106.3639         -DE/DX =    0.0                 !
 ! A5    A(17,1,19)            108.6332         -DE/DX =    0.0                 !
 ! A6    A(18,1,19)            108.0693         -DE/DX =    0.0                 !
 ! A7    A(1,2,3)              120.8528         -DE/DX =    0.0                 !
 ! A8    A(1,2,8)              120.1952         -DE/DX =    0.0                 !
 ! A9    A(3,2,8)              118.9412         -DE/DX =    0.0                 !
 ! A10   A(2,3,4)              121.2353         -DE/DX =    0.0                 !
 ! A11   A(2,3,20)             118.9683         -DE/DX =    0.0                 !
 ! A12   A(4,3,20)             119.7896         -DE/DX =    0.0                 !
 ! A13   A(3,4,5)              120.3813         -DE/DX =    0.0                 !
 ! A14   A(3,4,21)             119.9888         -DE/DX =    0.0                 !
 ! A15   A(5,4,21)             119.629          -DE/DX =    0.0                 !
 ! A16   A(4,5,6)              118.3684         -DE/DX =    0.0                 !
 ! A17   A(4,5,22)             122.3254         -DE/DX =    0.0                 !
 ! A18   A(6,5,22)             119.3061         -DE/DX =    0.0                 !
 ! A19   A(5,6,7)              118.7489         -DE/DX =    0.0                 !
 ! A20   A(5,6,8)              122.717          -DE/DX =    0.0                 !
 ! A21   A(7,6,8)              118.5324         -DE/DX =    0.0                 !
 ! A22   A(2,8,6)              118.3485         -DE/DX =    0.0                 !
 ! A23   A(2,8,9)              121.7206         -DE/DX =    0.0                 !
 ! A24   A(6,8,9)              119.9304         -DE/DX =    0.0                 !
 ! A25   A(8,9,10)             120.393          -DE/DX =    0.0                 !
 ! A26   A(8,9,15)             121.9854         -DE/DX =    0.0                 !
 ! A27   A(10,9,15)            117.6215         -DE/DX =    0.0                 !
 ! A28   A(9,10,11)            120.8086         -DE/DX =    0.0                 !
 ! A29   A(9,10,12)            120.7259         -DE/DX =    0.0                 !
 ! A30   A(11,10,12)           118.4655         -DE/DX =    0.0                 !
 ! A31   A(10,11,23)           107.3613         -DE/DX =    0.0                 !
 ! A32   A(10,12,13)           119.5404         -DE/DX =    0.0                 !
 ! A33   A(10,12,24)           118.7101         -DE/DX =    0.0                 !
 ! A34   A(13,12,24)           121.7465         -DE/DX =    0.0                 !
 ! A35   A(12,13,14)           121.1646         -DE/DX =    0.0                 !
 ! A36   A(12,13,25)           119.4447         -DE/DX =    0.0                 !
 ! A37   A(14,13,25)           119.3896         -DE/DX =    0.0                 !
 ! A38   A(13,14,15)           118.1769         -DE/DX =    0.0                 !
 ! A39   A(13,14,26)           122.3216         -DE/DX =    0.0                 !
 ! A40   A(15,14,26)           119.5014         -DE/DX =    0.0                 !
 ! A41   A(9,15,14)            122.7583         -DE/DX =    0.0                 !
 ! A42   A(9,15,16)            118.0635         -DE/DX =    0.0                 !
 ! A43   A(14,15,16)           119.1731         -DE/DX =    0.0                 !
 ! D1    D(17,1,2,3)           128.3087         -DE/DX =    0.0                 !
 ! D2    D(17,1,2,8)           -50.4884         -DE/DX =    0.0                 !
 ! D3    D(18,1,2,3)          -113.3259         -DE/DX =    0.0                 !
 ! D4    D(18,1,2,8)            67.877          -DE/DX =    0.0                 !
 ! D5    D(19,1,2,3)             7.3393         -DE/DX =    0.0                 !
 ! D6    D(19,1,2,8)          -171.4578         -DE/DX =    0.0                 !
 ! D7    D(1,2,3,4)           -178.0906         -DE/DX =    0.0                 !
 ! D8    D(1,2,3,20)             0.9572         -DE/DX =    0.0                 !
 ! D9    D(8,2,3,4)              0.7215         -DE/DX =    0.0                 !
 ! D10   D(8,2,3,20)           179.7692         -DE/DX =    0.0                 !
 ! D11   D(1,2,8,6)            177.7327         -DE/DX =    0.0                 !
 ! D12   D(1,2,8,9)             -2.5471         -DE/DX =    0.0                 !
 ! D13   D(3,2,8,6)             -1.0873         -DE/DX =    0.0                 !
 ! D14   D(3,2,8,9)            178.6329         -DE/DX =    0.0                 !
 ! D15   D(2,3,4,5)              0.0223         -DE/DX =    0.0                 !
 ! D16   D(2,3,4,21)           179.6721         -DE/DX =    0.0                 !
 ! D17   D(20,3,4,5)          -179.0178         -DE/DX =    0.0                 !
 ! D18   D(20,3,4,21)            0.6321         -DE/DX =    0.0                 !
 ! D19   D(3,4,5,6)             -0.3735         -DE/DX =    0.0                 !
 ! D20   D(3,4,5,22)           179.722          -DE/DX =    0.0                 !
 ! D21   D(21,4,5,6)           179.9753         -DE/DX =    0.0                 !
 ! D22   D(21,4,5,22)            0.0709         -DE/DX =    0.0                 !
 ! D23   D(4,5,6,7)           -179.5507         -DE/DX =    0.0                 !
 ! D24   D(4,5,6,8)             -0.0278         -DE/DX =    0.0                 !
 ! D25   D(22,5,6,7)             0.3567         -DE/DX =    0.0                 !
 ! D26   D(22,5,6,8)           179.8796         -DE/DX =    0.0                 !
 ! D27   D(5,6,8,2)              0.7628         -DE/DX =    0.0                 !
 ! D28   D(5,6,8,9)           -178.9625         -DE/DX =    0.0                 !
 ! D29   D(7,6,8,2)           -179.7133         -DE/DX =    0.0                 !
 ! D30   D(7,6,8,9)              0.5614         -DE/DX =    0.0                 !
 ! D31   D(2,8,9,10)           -68.3065         -DE/DX =    0.0                 !
 ! D32   D(2,8,9,15)           111.7953         -DE/DX =    0.0                 !
 ! D33   D(6,8,9,10)           111.4093         -DE/DX =    0.0                 !
 ! D34   D(6,8,9,15)           -68.4889         -DE/DX =    0.0                 !
 ! D35   D(8,9,10,11)           -1.2036         -DE/DX =    0.0                 !
 ! D36   D(8,9,10,12)          178.7961         -DE/DX =    0.0                 !
 ! D37   D(15,9,10,11)         178.6989         -DE/DX =    0.0                 !
 ! D38   D(15,9,10,12)          -1.3013         -DE/DX =    0.0                 !
 ! D39   D(8,9,15,14)         -178.9622         -DE/DX =    0.0                 !
 ! D40   D(8,9,15,16)            0.2037         -DE/DX =    0.0                 !
 ! D41   D(10,9,15,14)           1.1369         -DE/DX =    0.0                 !
 ! D42   D(10,9,15,16)        -179.6972         -DE/DX =    0.0                 !
 ! D43   D(9,10,11,23)          -5.6261         -DE/DX =    0.0                 !
 ! D44   D(12,10,11,23)        174.3741         -DE/DX =    0.0                 !
 ! D45   D(9,10,12,13)           0.67           -DE/DX =    0.0                 !
 ! D46   D(9,10,12,24)        -179.9499         -DE/DX =    0.0                 !
 ! D47   D(11,10,12,13)       -179.3303         -DE/DX =    0.0                 !
 ! D48   D(11,10,12,24)          0.0498         -DE/DX =    0.0                 !
 ! D49   D(10,12,13,14)          0.1906         -DE/DX =    0.0                 !
 ! D50   D(10,12,13,25)        179.8148         -DE/DX =    0.0                 !
 ! D51   D(24,12,13,14)       -179.17           -DE/DX =    0.0                 !
 ! D52   D(24,12,13,25)          0.4542         -DE/DX =    0.0                 !
 ! D53   D(12,13,14,15)         -0.3701         -DE/DX =    0.0                 !
 ! D54   D(12,13,14,26)        179.7361         -DE/DX =    0.0                 !
 ! D55   D(25,13,14,15)       -179.9945         -DE/DX =    0.0                 !
 ! D56   D(25,13,14,26)          0.1116         -DE/DX =    0.0                 !
 ! D57   D(13,14,15,9)          -0.3164         -DE/DX =    0.0                 !
 ! D58   D(13,14,15,16)       -179.4734         -DE/DX =    0.0                 !
 ! D59   D(26,14,15,9)         179.5805         -DE/DX =    0.0                 !
 ! D60   D(26,14,15,16)          0.4235         -DE/DX =    0.0                 !
 --------------------------------------------------------------------------------
 GradGradGradGradGradGradGradGradGradGradGradGradGradGradGradGradGradGrad


 ----------------------------------------------------------------------

 Electric dipole moment (input orientation):
 (Debye = 10**-18 statcoulomb cm , SI units = C m)
                  (au)            (Debye)         (10**-30 SI)
   Tot        0.725162D+00      0.184318D+01      0.614818D+01
   x         -0.492786D+00     -0.125254D+01     -0.417802D+01
   y          0.190017D+00      0.482976D+00      0.161103D+01
   z         -0.496905D+00     -0.126301D+01     -0.421294D+01

 Dipole polarizability, Alpha (input orientation).
 (esu units = cm**3 , SI units = C**2 m**2 J**-1)
 Alpha(0;0):
               (au)            (10**-24 esu)      (10**-40 SI)
   iso        0.144549D+03      0.214200D+02      0.238330D+02
   aniso      0.931897D+02      0.138093D+02      0.153649D+02
   xx         0.203263D+03      0.301205D+02      0.335136D+02
   yx         0.153906D+00      0.228065D-01      0.253757D-01
   yy         0.979813D+02      0.145193D+02      0.161549D+02
   zx         0.428497D+00      0.634966D-01      0.706495D-01
   zy        -0.358479D+01     -0.531211D+00     -0.591052D+00
   zz         0.132403D+03      0.196201D+02      0.218303D+02

 ----------------------------------------------------------------------

 Dipole orientation:
     6          1.98187378         -1.61018378          4.41709435
     6         -0.54456300         -0.54764242          3.61790984
     6         -2.51493034         -0.23001951          5.38524735
     6         -4.89271849          0.68565472          4.64512509
     6         -5.36065972          1.30763771          2.11032645
     6         -3.40161463          1.00576469          0.36039005
     9         -3.82975356          1.61500702         -2.07424476
     6         -0.98587314          0.10583871          1.04233423
     6          1.02595225         -0.12864687         -0.90798465
     6          3.16720623          1.48685405         -0.85036895
     8          3.39823047          3.30555156          0.95629840
     6          5.10279998          1.24491267         -2.66209249
     6          4.89591619         -0.59475654         -4.55638632
     6          2.78380311         -2.20260563         -4.68730981
     6          0.89146118         -1.92883714         -2.86167650
     9         -1.14272430         -3.46556476         -2.93938847
     1          2.54652875         -3.20784981          3.18262229
     1          3.50513446         -0.17516677          4.26074008
     1          1.92507123         -2.28302187          6.39700331
     1         -2.17721047         -0.74145238          7.37397880
     1         -6.40618909          0.90884662          6.05531997
     1         -7.20176944          2.02127622          1.46295366
     1          1.82133777          3.31664034          1.93600840
     1          6.73341964          2.52790726         -2.55777791
     1          6.40761051         -0.77738879         -5.97420946
     1          2.58089268         -3.65140710         -6.16127105

 Electric dipole moment (dipole orientation):
 (Debye = 10**-18 statcoulomb cm , SI units = C m)
                  (au)            (Debye)         (10**-30 SI)
   Tot        0.725162D+00      0.184318D+01      0.614818D+01
   x          0.000000D+00      0.000000D+00      0.000000D+00
   y          0.000000D+00      0.000000D+00      0.000000D+00
   z          0.725162D+00      0.184318D+01      0.614818D+01

 Dipole polarizability, Alpha (dipole orientation).
 (esu units = cm**3 , SI units = C**2 m**2 J**-1)
 Alpha(0;0):
               (au)            (10**-24 esu)      (10**-40 SI)
   iso        0.144549D+03      0.214200D+02      0.238330D+02
   aniso      0.931897D+02      0.138093D+02      0.153649D+02
   xx         0.169481D+03      0.251145D+02      0.279436D+02
   yx        -0.434386D+01     -0.643693D+00     -0.716206D+00
   yy         0.997730D+02      0.147848D+02      0.164503D+02
   zx        -0.350103D+02     -0.518800D+01     -0.577243D+01
   zy         0.118334D+02      0.175353D+01      0.195106D+01
   zz         0.164394D+03      0.243607D+02      0.271049D+02

 ----------------------------------------------------------------------
 Unable to Open any file for archive entry.
 1\1\GINC-SEMLSCPN068\Freq\RBP86\def2SVP\C13H10F2O1\KTVF206\02-Dec-2025
 \0\\#N Geom=AllCheck Guess=TCheck SCRF=Check GenChk RBP86/def2SVP Freq
 \\example\\0,1\C,-0.736995847,1.5406569508,-2.0911007465\C,-1.47959944
 38,0.7492122809,-1.0401259208\C,-2.8898579943,0.7228734482,-1.01647040
 82\C,-3.5883822371,0.0224823014,-0.0200018414\C,-2.8914050264,-0.67089
 29623,0.981169533\C,-1.4926343037,-0.6507692308,0.9530918107\F,-0.8156
 731763,-1.321562636,1.9053963491\C,-0.7594889838,0.0356828507,-0.03811
 26737\C,0.7278488274,-0.0032347909,-0.0218538187\C,1.4394070146,-0.695
 5744028,-1.0367591784\O,0.7767834723,-1.3553411384,-2.0271374814\C,2.8
 480363064,-0.7157518059,-1.0423093393\C,3.5526173598,-0.0561402053,-0.
 0259298087\C,2.8781881888,0.623779556,1.0040174842\C,1.4793933701,0.63
 21481415,0.9845570552\F,0.8117898925,1.2877011579,1.9573243467\H,0.013
 18154,2.2120562792,-1.6249845668\H,-0.1758163302,0.8757097413,-2.78115
 91216\H,-1.4331799651,2.1535640338,-2.6953117912\H,-3.4466757004,1.277
 1313128,-1.7881333353\H,-4.6894045282,0.0201029772,-0.0180507353\H,-3.
 405809669,-1.2258585241,1.7790291982\H,-0.1819399782,-1.3132916945,-1.
 8168706134\H,3.3652225946,-1.2613819766,-1.8444157836\H,4.653432551,-0
 .0755067089,-0.0301001778\H,3.4112872564,1.1434866871,1.8123526262\\Ve
 rsion=ES64L-G16RevC.02\State=1-A\HF=-775.8002913\RMSD=2.949e-09\RMSF=5
 .389e-07\ZeroPoint=0.1918003\Thermal=0.2054643\ETot=-775.5948269\HTot=
 -775.5938828\GTot=-775.648795\Dipole=-0.4927862,0.1900173,-0.4969054\D
 ipoleDeriv=-0.0505608,-0.0746407,0.1195446,-0.0336086,0.0215745,-0.000
 4679,0.0495436,0.0129751,-0.0255698,0.1417725,0.1374433,-0.171845,0.02
 35791,0.0668561,-0.1649664,0.0143731,-0.1746389,0.1243757,-0.1916142,-
 0.1216808,0.1549867,-0.0841175,-0.1060208,-0.021611,0.0749214,-0.01506
 71,-0.0788399,0.0852098,-0.0130604,0.0261853,0.0433295,-0.0206008,-0.1
 131342,-0.0612492,-0.1226482,0.0612993,-0.1786832,0.1291827,-0.1715442
 ,-0.021819,-0.1182023,-0.0163346,0.0452562,-0.0142124,-0.0957502,0.441
 1727,-0.2550938,0.3284033,-0.1068324,0.3846143,-0.4201556,0.2103569,-0
 .4198247,0.6961923,-0.3884402,0.23918,-0.3239312,0.1657086,-0.3748154,
 0.395847,-0.2463251,0.3992365,-0.6427551,0.2032609,-0.0608505,0.095871
 ,0.1173474,-0.1305385,0.0633281,0.0125666,0.0514492,-0.1793516,-0.0203
 113,0.0071447,-0.0049967,-0.0844666,-0.1240369,-0.1266232,-0.1563132,-
 0.1135616,-0.2530519,0.540205,0.2531698,0.4191547,0.2564607,0.332874,0
 .3897389,0.3317404,0.3937299,0.6328022,-0.6779621,-0.2235189,-0.385622
 ,-0.1940292,-0.5365385,-0.3268544,-0.4079553,-0.332678,-0.7632424,-0.2
 61943,-0.1760615,-0.2619343,-0.0204431,-0.1375258,0.0090718,-0.011786,
 0.0071417,-0.1227382,0.0980109,0.0095379,0.0062958,-0.0247522,0.010209
 4,0.1848883,-0.0280709,0.1962958,0.1675157,-0.3633137,0.1360539,0.1823
 36,0.0096519,-0.1608078,-0.0137041,-0.0177049,-0.0127345,-0.159316,0.6
 868593,-0.2363211,-0.3035074,-0.0598271,0.3662895,0.4288153,-0.013684,
 0.4092823,0.7305882,-0.4078055,0.2275393,0.3192845,0.153498,-0.3472405
 ,-0.3796185,0.2371315,-0.3751278,-0.6465594,0.0236689,-0.0829598,-0.01
 01428,-0.0954655,0.0162412,0.0213278,-0.0107808,-0.0291157,0.006441,0.
 0507287,0.0027363,0.0721323,-0.0089032,0.0105232,-0.0599777,0.0868024,
 0.005579,0.0155995,-0.0329622,0.0859322,-0.0916265,0.0291435,0.0176194
 ,0.0795056,-0.0293055,0.0654255,0.0184344,0.0154851,0.0285124,-0.03633
 18,0.0438711,0.05112,0.0806175,-0.0639012,0.0803289,-0.0005938,-0.0846
 726,-0.0041672,0.0051568,0.0003789,0.0993847,0.0188156,0.0031394,0.022
 2819,0.0830719,0.0438377,-0.0173815,0.0264683,-0.030352,0.0842663,0.06
 81845,0.0357308,0.0709094,0.0304956,0.3416498,0.0012111,0.0111767,-0.0
 856663,0.3213076,0.0609198,-0.0577135,0.0566752,0.2660203,0.034589,0.0
 207888,0.025279,0.0286298,0.0781566,-0.0719333,0.0444781,-0.0719924,0.
 0219086,-0.0851771,0.0040963,-0.0003144,0.0001505,0.1035028,-0.014765,
 -0.0004191,-0.0178708,0.0866125,0.0369956,-0.0167926,-0.0304789,-0.021
 4666,0.0917877,-0.0709144,-0.0408316,-0.0718385,0.0264111\Polar=203.26
 32571,0.1539062,97.9813183,0.4284966,-3.5847912,132.403181\Quadrupole=
 7.281817,-3.7896087,-3.4922082,1.0549271,1.4860746,-1.6147395\PG=C01 [
 X(C13H10F2O1)]\NImag=0\\0.53179248,-0.02712537,0.50747389,0.03725336,0
 .00570580,0.49932302,-0.11103114,-0.03638527,0.04571637,0.64038531,-0.
 02976103,-0.10796135,0.05294737,0.00288035,0.31170280,0.04013105,0.056
 87745,-0.13915103,0.00270777,-0.20444828,0.44611152,-0.01847736,-0.004
 46964,0.00624172,-0.31499397,-0.01868682,0.02241652,0.65160811,-0.0174
 0594,0.00298871,0.00483393,0.01455180,-0.07899238,0.02266096,-0.008422
 26,0.31679308,0.02408463,0.00439226,0.00120953,-0.02200238,0.02399333,
 -0.09422816,0.01313334,-0.27341915,0.50583991,-0.00297235,0.00088648,-
 0.00158997,-0.02681990,-0.01623408,0.02169553,-0.16999201,-0.07129959,
 0.10151516,0.70618751,0.00161575,0.00459359,0.00316494,-0.03835853,0.0
 1204327,-0.00858569,-0.03924967,-0.13302517,0.10488803,-0.00037659,0.3
 0044552,-0.00179898,0.00287748,0.00359514,0.05438456,-0.00930587,0.017
 80084,0.05667789,0.10587553,-0.20866247,0.00259668,-0.24702337,0.48228
 261,-0.00068927,-0.00039831,0.00065421,-0.04228969,0.01358697,-0.01754
 191,0.05208195,0.01179741,-0.01681847,-0.17140203,0.04035516,-0.059307
 18,0.66807832,-0.00061099,-0.00080605,-0.00018825,0.01394042,-0.004729
 37,0.00377233,-0.00974393,-0.01273274,0.02832628,0.07218600,-0.1307135
 0,0.10866636,0.01093227,0.31114801,0.00098578,-0.00046905,-0.00087756,
 -0.01976249,0.00368774,-0.00791928,0.01356743,0.02812108,-0.03301531,-
 0.10456861,0.10896378,-0.21293166,-0.01454537,-0.28314543,0.52171695,-
 0.00248424,0.00280678,-0.00361403,0.06089393,-0.01236539,0.01586603,-0
 .04617436,-0.01598750,0.02256160,-0.02550342,0.04267696,-0.06083497,-0
 .32970588,-0.03307701,0.04742234,0.68865634,0.00163664,0.00402144,0.00
 253895,0.01403343,-0.01868666,0.02550944,-0.01438185,-0.00707350,0.005
 79065,0.01589836,0.01019966,-0.01277398,0.00358910,-0.07856415,0.02410
 047,0.00166055,0.30767945,-0.00270308,0.00269373,0.00216539,-0.0191289
 7,0.02546936,-0.03512805,0.02085559,0.00601617,-0.01169448,-0.02182769
 ,-0.01363817,0.02011686,-0.00740457,0.02481008,-0.09529310,-0.00584528
 ,-0.23523940,0.47917206,0.00044245,-0.00054611,0.00059700,-0.00595182,
 -0.00015055,0.00067876,0.00269573,0.00196098,-0.00295584,-0.00532898,-
 0.00473913,0.00701627,-0.02890952,0.03008594,-0.04321819,-0.13578550,0
 .06293474,-0.08820295,0.15632614,0.00124342,-0.00028222,0.00038013,-0.
 00424917,0.00454886,0.00350533,0.00142910,-0.00130341,0.00009783,-0.00
 006689,0.00488581,0.00297985,0.00848716,0.00208985,0.00794169,0.062533
 20,-0.11247385,0.10151746,-0.08309031,0.12153112,-0.00180945,0.0006086
 3,-0.00068604,0.00662260,0.00343774,0.00212986,-0.00196162,0.00008475,
 -0.00138566,0.00010430,0.00295752,0.00287349,-0.01215615,0.00749541,-0
 .00398079,-0.08758006,0.10231116,-0.18610238,0.11871619,-0.13999520,0.
 22296130,0.01245832,-0.00600718,0.00832955,-0.15208845,0.05825449,-0.0
 7688282,-0.02611181,0.01596599,-0.02143697,0.00052362,-0.00083696,0.00
 115059,-0.02292757,-0.01313695,0.01862806,-0.17035278,-0.07005284,0.09
 786628,0.01279408,0.01338410,-0.02037426,0.62472351,0.00439174,-0.0087
 0461,0.01683238,0.02918654,-0.11788854,0.08107950,0.03459674,0.0122170
 6,-0.00840576,-0.00060576,-0.01872247,0.02408367,-0.03328524,0.0134944
 2,-0.00741392,-0.03557546,-0.11749181,0.08215866,-0.00604964,-0.012127
 31,0.02684139,0.00138492,0.29947748,-0.00805658,0.01567960,-0.01857590
 ,-0.04462195,0.08720533,-0.17894557,-0.04770545,-0.00750220,0.01719135
 ,0.00178342,0.02329465,-0.03495822,0.04701467,-0.00843257,0.01865160,0
 .05335489,0.08135772,-0.17845313,0.00647893,0.02777776,-0.03367233,-0.
 00999494,-0.21948035,0.48172701,-0.00099829,-0.00107376,0.00174248,-0.
 02377137,0.00380014,-0.01220912,0.00227751,0.00068481,-0.00164613,-0.0
 0037751,0.00025523,-0.00024643,0.00262694,-0.00118219,0.00233810,-0.02
 725634,-0.00321366,0.01147218,-0.00085729,0.00202222,-0.00356038,-0.22
 135140,0.00316348,0.00010778,0.63756719,0.00138534,-0.00364531,-0.0016
 5511,0.01384677,0.00436254,0.00127308,0.00112327,0.00257310,0.00480058
 ,0.00002178,-0.00095754,0.00004003,-0.00101226,0.00174344,0.00407365,-
 0.01448673,0.00679060,0.00032615,-0.00071070,-0.00259748,-0.00191407,0
 .00241622,-0.06404143,-0.00244261,0.00088616,0.28431571,-0.00112425,-0
 .00104568,-0.00140824,-0.02187712,-0.00108827,0.00372165,-0.00147456,0
 .00558061,-0.00054386,-0.00034649,-0.00018047,-0.00114088,0.00149710,0
 .00504129,-0.00116601,0.02135712,-0.00017911,0.00323723,0.00222736,-0.
 00255890,0.00022370,-0.00131285,0.00064442,-0.07907853,0.02104362,0.22
 822024,0.50870013,0.00061651,0.00072177,0.00083408,-0.00006380,-0.0014
 5679,0.00262174,-0.00143146,-0.00072065,-0.00084023,0.00012942,0.00052
 730,-0.00023050,-0.00022288,-0.00122779,0.00035176,-0.00294502,0.00113
 601,-0.00247503,0.00073409,0.00041558,0.00011998,-0.02351631,0.0123787
 5,0.02099245,-0.16532182,0.03102503,0.04231330,0.70520524,0.00103999,0
 .00021828,0.00164385,-0.00153229,-0.00172147,-0.00067278,-0.00120632,0
 .00026251,-0.00052989,0.00011582,0.00034854,-0.00044052,0.00014800,-0.
 00056461,0.00064856,-0.00136875,-0.00186008,0.00120932,-0.00155992,0.0
 0056981,-0.00059471,0.00652206,0.00219585,-0.00107727,0.06405339,-0.11
 171130,-0.08157154,0.00396022,0.30718848,-0.00033179,0.00048197,0.0013
 5297,-0.00345766,-0.00144508,-0.00188874,-0.00092108,-0.00015909,-0.00
 108825,-0.00057262,0.00056648,-0.00045582,0.00088478,-0.00065073,0.000
 88628,-0.00372337,-0.00147771,0.00198588,-0.00116676,0.00057125,-0.000
 61805,0.01619409,-0.00235539,0.00214883,0.08607432,-0.07917264,-0.1784
 6967,0.01098018,0.22871056,0.49481347,-0.00035486,0.00029031,-0.001034
 33,0.00161070,0.00112966,0.00242330,0.00189912,-0.00008963,0.00040788,
 -0.00025789,-0.00092395,0.00094161,-0.00124949,0.00028963,-0.00112158,
 0.00250872,0.00280356,-0.00316634,0.00125476,-0.00103088,0.00152985,-0
 .00670550,0.00567194,0.00604841,0.01220336,0.00217452,0.00496524,-0.14
 729154,-0.06137942,-0.08854614,0.59838045,0.00105624,-0.00104549,0.000
 12158,0.00086344,-0.00045202,0.00096642,0.00025473,-0.00001108,0.00021
 229,0.00011651,-0.00009329,0.00010557,0.00014461,0.00021141,-0.0002631
 4,0.00000753,-0.00029232,-0.00035456,0.00029905,0.00031800,-0.00023280
 ,-0.00336474,-0.00140401,0.00185207,-0.01178375,-0.01018557,-0.0288697
 3,-0.03915404,-0.11235907,-0.10442605,0.04682824,0.13829135,-0.0002001
 3,0.00059257,-0.00131285,0.00168167,0.00135801,-0.00173065,0.00018690,
 -0.00029854,0.00071581,0.00038186,0.00015936,-0.00014422,0.00026251,-0
 .00010577,-0.00017692,-0.00022565,0.00001020,0.00007873,0.00081631,-0.
 00011836,0.00058083,-0.00531586,0.00131860,-0.00112946,-0.01719831,-0.
 03031812,-0.03435143,-0.04939502,-0.09863805,-0.19705539,0.00224345,0.
 15773391,0.28424503,0.00015064,-0.00005344,0.00008919,-0.00024059,-0.0
 0014037,-0.00046846,0.00033854,-0.00002377,0.00010702,-0.00008390,-0.0
 0008899,0.00008953,-0.00000259,-0.00004359,-0.00015754,-0.00022199,0.0
 0032826,0.00004509,-0.00005933,-0.00020097,0.00029406,0.00183475,0.001
 09440,0.00175268,-0.01932315,0.03014787,0.04508093,-0.31378664,-0.0034
 5710,-0.00988773,-0.03510575,-0.00835346,-0.01370848,0.65699141,-0.000
 24678,-0.00006201,-0.00020435,-0.00058297,0.00004605,0.00010781,0.0000
 1965,0.00001709,-0.00011144,0.00001819,0.00002915,0.00001415,0.0000675
 3,0.00028694,-0.00026050,0.00118379,-0.00041678,0.00065877,-0.00009310
 ,0.00002008,0.00000594,0.00109487,0.00251532,-0.00478270,0.01382190,0.
 00966810,0.00715735,0.02929518,-0.07844943,-0.02245825,-0.02865700,0.0
 0404839,-0.00445352,-0.00997989,0.29953082,-0.00001051,-0.00017286,-0.
 00008184,0.00033235,0.00073410,-0.00035640,0.00033394,0.00015518,0.000
 19226,0.00010872,-0.00017722,0.00008677,-0.00012738,0.00026211,0.00021
 508,0.00022691,-0.00009141,0.00029169,-0.00024339,-0.00004813,-0.00012
 349,0.00083351,-0.00395190,-0.00140902,0.02008976,0.00703992,0.0172509
 2,0.04013066,-0.02350992,-0.09799993,-0.04305022,-0.00371683,0.0012926
 7,-0.00351976,0.28103071,0.53417397,-0.00007567,-0.00005269,-0.0000348
 4,-0.00001701,-0.00001142,0.00056052,-0.00012209,-0.00000579,-0.000179
 49,0.00002665,0.00004350,-0.00002645,-0.00004170,-0.00003137,0.0001631
 2,-0.00009053,0.00005381,-0.00054430,-0.00001285,-0.00009388,0.0001785
 7,0.00009633,0.00004490,-0.00004146,-0.00054003,-0.00013297,0.00018435
 ,-0.02637288,-0.01545922,-0.02384881,-0.00336320,0.00151415,0.00304808
 ,-0.17298958,-0.06925834,-0.10787535,0.70274950,-0.00003049,0.00002738
 ,0.00004994,0.00005374,0.00003495,0.00005816,-0.00009006,0.00001781,-0
 .00002063,-0.00003254,0.00005286,-0.00006603,0.00006012,0.00001341,0.0
 0013698,-0.00034279,-0.00000303,0.00013636,0.00008225,0.00006587,-0.00
 023957,0.00045820,-0.00117626,-0.00000080,-0.00144885,-0.01471257,-0.0
 2298340,-0.03884708,0.00995185,0.01187057,0.00568780,0.00230614,-0.001
 79877,-0.04030203,-0.12395813,-0.10729610,-0.00368325,0.28523023,0.000
 04740,-0.00003338,0.00013732,-0.00037329,0.00003803,0.00022733,-0.0001
 6503,-0.00002175,-0.00016884,-0.00003373,0.00007409,-0.00006403,0.0001
 0726,-0.00002340,0.00007392,-0.00021998,0.00019680,0.00018219,0.000187
 56,0.00001322,-0.00015854,0.00074518,-0.00015194,-0.00149868,-0.002403
 17,-0.02297530,-0.03436364,-0.05907663,0.01275423,0.01924169,0.0084232
 2,-0.00194041,0.00130413,-0.06488018,-0.10901555,-0.21938456,0.0058690
 8,0.24215913,0.49684872,-0.00001013,-0.00014163,0.00014135,-0.00081476
 ,-0.00014440,-0.00009646,-0.00006032,0.00001022,-0.00010848,-0.0001513
 6,0.00007048,-0.00013755,0.00029225,-0.00002215,0.00021809,-0.00106203
 ,0.00071565,0.00003405,0.00067468,-0.00015013,0.00003985,0.00322777,-0
 .00080778,-0.00158942,-0.02405438,-0.03058361,-0.04756866,-0.04529061,
 0.01420352,0.02008578,0.00368089,-0.00189287,-0.00316821,0.04944580,0.
 00870560,0.01434086,-0.16421905,0.03743599,0.05603690,0.66617711,-0.00
 010536,-0.00001990,-0.00010962,-0.00102433,-0.00020470,0.00037651,-0.0
 0004120,0.00030681,-0.00014124,-0.00000381,0.00000512,0.00002114,-0.00
 001144,-0.00001536,-0.00018520,0.00065657,0.00026921,-0.00005526,0.000
 12682,-0.00013595,0.00025612,-0.00099094,0.00168323,-0.00464236,-0.011
 87179,0.01296773,0.00838722,0.01537895,-0.00382151,-0.00452187,-0.0031
 2722,-0.00164696,-0.00099736,-0.01086082,-0.01124521,-0.02685653,0.067
 23024,-0.12381253,-0.10572366,0.00789790,0.28812650,0.00010994,-0.0001
 9989,-0.00019403,0.00011496,-0.00015498,0.00017066,0.00007304,0.000284
 49,0.00042977,-0.00014436,-0.00008138,-0.00005108,-0.00007049,0.000173
 06,0.00016670,-0.00077014,0.00063949,-0.00144360,0.00049592,-0.0005606
 4,0.00067806,-0.00210850,-0.00390049,-0.00118937,-0.01882572,0.0071438
 5,0.01725762,0.02228729,-0.00508254,-0.00731320,-0.00459041,-0.0005070
 9,-0.00263785,-0.01523269,-0.02619364,-0.03414522,0.10120279,-0.106729
 40,-0.21571285,0.02448253,0.27674039,0.53197828,0.00016568,-0.00065347
 ,-0.00042165,-0.00172632,-0.00090832,0.00206107,-0.00041224,0.00129238
 ,0.00025347,0.00002938,-0.00023925,0.00004089,-0.00073615,0.00066201,0
 .00065095,-0.00200957,0.00128594,-0.00545511,0.00141591,-0.00165795,0.
 00257403,-0.02534013,-0.01364703,-0.02147207,-0.17795013,-0.03634782,-
 0.06256255,0.06873356,-0.01426768,-0.01743307,-0.00935015,0.00415173,0
 .00551808,-0.04522557,-0.01366509,-0.02229864,-0.02540095,0.04121268,0
 .06231701,-0.33067927,-0.02592853,-0.04656018,0.69020503,0.00059887,-0
 .00000819,0.00030219,0.00240572,-0.00112750,0.00003724,0.00035390,-0.0
 0056215,0.00034240,-0.00002461,-0.00001411,-0.00019785,0.00065343,0.00
 031691,-0.00064577,0.00125501,-0.00185087,0.00122484,-0.00104851,0.000
 25282,-0.00066960,-0.00286655,0.00582523,0.00232337,-0.06944082,-0.107
 21016,-0.08483504,0.01230301,-0.02209503,-0.02430894,0.00087680,0.0065
 6922,-0.00087893,-0.01123590,-0.00355791,-0.00587979,0.01510724,0.0070
 5060,0.01071379,0.00830878,-0.07489861,-0.02297101,-0.00195211,0.29293
 161,0.00073119,0.00022447,0.00011931,0.00365071,-0.00063595,0.00067766
 ,-0.00022117,-0.00037532,0.00035147,0.00093065,-0.00020081,0.00031514,
 -0.00050855,0.00003346,-0.00151437,0.00656058,-0.00164298,0.00373719,-
 0.00165330,0.00145832,-0.00361557,-0.01259953,0.00052942,0.00316550,-0
 .10542000,-0.08312302,-0.18612415,0.01953883,-0.02397537,-0.04035748,0
 .00052968,-0.00144145,0.00545076,-0.01847428,-0.00599312,-0.00945866,0
 .02179483,0.01209779,0.01854229,0.00794123,-0.02457086,-0.09486266,0.0
 1465292,0.23203878,0.49319843,0.00030309,0.00008842,0.00006906,0.00123
 065,-0.00089995,0.00022061,-0.00022968,-0.00007277,0.00033145,0.000075
 76,0.00010489,-0.00024436,0.00059297,0.00011804,-0.00042344,0.00159412
 ,-0.00117297,0.00160177,-0.00118870,0.00030540,-0.00158978,-0.00075033
 ,-0.00043311,-0.00136239,0.01333904,-0.00536625,-0.00712087,-0.0071208
 7,-0.00070834,-0.00145381,0.00225844,-0.00010886,0.00008034,0.00257072
 ,0.00155887,0.00270195,-0.00556239,-0.00411516,-0.00680062,-0.02634308
 ,0.02895394,0.04341941,-0.13258849,0.05925158,0.08579076,0.15004910,-0
 .00029323,-0.00000644,-0.00017297,0.00001420,0.00037401,-0.00005289,-0
 .00011986,-0.00002683,-0.00002521,-0.00012212,0.00006892,-0.00004034,-
 0.00004162,-0.00015250,0.00054619,-0.00175267,0.00039712,-0.00112446,0
 .00030881,-0.00054673,0.00025099,0.00209164,-0.00265149,0.00264981,0.0
 1273545,-0.01183386,-0.02705373,-0.00394235,0.00639134,-0.00221845,-0.
 00015234,-0.00160237,-0.00190109,0.00146676,-0.00153623,-0.00004751,0.
 00025790,0.00493392,-0.00282739,0.00828654,0.00176275,-0.00808991,0.05
 915033,-0.10785728,-0.10024058,-0.07903052,0.11569736,-0.00029104,-0.0
 0001359,-0.00006401,-0.00090377,0.00015569,0.00024519,-0.00016313,-0.0
 0009021,-0.00023201,-0.00026627,0.00024964,-0.00018553,0.00016721,-0.0
 0031168,0.00063835,-0.00291450,0.00084200,-0.00335453,0.00153999,-0.00
 033090,0.00232799,0.00432498,0.00238927,0.00034304,0.01987375,-0.02764
 020,-0.03533803,-0.00655458,-0.00179962,0.00384060,-0.00021270,-0.0019
 7061,-0.00330553,0.00223932,-0.00004083,-0.00149687,0.00007079,-0.0028
 8664,0.00249869,0.01191387,-0.00742747,-0.00410771,0.08626331,-0.10109
 132,-0.19026465,-0.11693400,0.13798689,0.22928689,-0.15537964,-0.10527
 310,-0.07863295,-0.01239361,-0.00908243,-0.00260092,0.00013062,-0.0016
 9996,0.00155221,-0.00058458,0.00049150,0.00068998,0.00020077,0.0000753
 9,-0.00018765,-0.00055223,0.00001869,0.00043879,0.00011751,-0.00006997
 ,0.00004489,-0.00045572,0.00172698,-0.00154974,0.00080730,0.00023021,-
 0.00044459,0.00004252,0.00007862,0.00025262,-0.00020534,0.00003259,-0.
 00021807,-0.00001439,0.00000380,0.00003586,-0.00000835,0.00000278,-0.0
 0004700,-0.00006184,-0.00009129,0.00005946,0.00026705,-0.00019243,-0.0
 0055686,-0.00024903,0.00023574,0.00020982,0.16877203,-0.10570515,-0.13
 523828,-0.06634265,-0.00904470,-0.00862989,-0.00576011,0.00047228,-0.0
 0129426,0.00111359,-0.00016725,0.00051543,-0.00000763,0.00009427,-0.00
 025953,0.00014280,-0.00063855,0.00051377,0.00014021,0.00025720,-0.0001
 1457,0.00009328,-0.00079553,0.00068236,0.00009394,-0.00040533,-0.00005
 422,-0.00022467,-0.00000232,-0.00058079,-0.00068952,0.00052565,0.00012
 243,0.00055349,0.00020777,0.00008967,-0.00013566,-0.00004003,-0.000063
 06,-0.00002209,0.00000833,0.00006884,0.00008863,0.00018300,0.00029263,
 0.00063466,0.00020249,-0.00016568,-0.00027062,0.11616087,0.14353212,-0
 .07753264,-0.06668598,-0.08939413,0.01640270,0.01455735,0.00990247,0.0
 0049274,0.00124769,-0.00201377,0.00057108,-0.00065936,-0.00061382,0.00
 022589,0.00016750,-0.00002138,0.00022356,-0.00081806,-0.00004026,-0.00
 011028,0.00000320,0.00000653,-0.00001279,0.00045613,0.00019481,0.00022
 821,0.00056455,0.00004344,-0.00039657,-0.00007981,0.00008569,-0.000053
 90,-0.00026600,0.00010703,0.00019876,0.00013499,0.00001390,0.00005832,
 -0.00003463,-0.00003807,-0.00007940,-0.00005557,-0.00001455,-0.0002498
 1,0.00031056,-0.00017877,0.00012613,-0.00021420,-0.00003541,0.08010739
 ,0.07070937,0.09665043,-0.10260824,0.08126310,0.07857406,-0.01000996,0
 .00595459,0.01021969,-0.00004279,-0.00129508,0.00162552,-0.00043219,-0
 .00088680,-0.00066121,0.00049123,0.00008413,0.00004520,-0.00090845,-0.
 00071737,0.00022462,0.00009344,-0.00003509,0.00003978,-0.00009706,0.00
 104053,-0.00180328,0.00058199,0.00035431,0.00023328,-0.00061648,0.0008
 6301,-0.00084101,-0.00098830,0.00035848,-0.00042235,0.00009251,-0.0000
 4398,0.00008830,-0.00003014,-0.00009285,0.00001349,0.00002943,0.000053
 48,0.00003408,0.00011453,-0.00028943,-0.00021599,-0.00013010,0.0001324
 8,0.00012819,0.01002071,-0.01261273,-0.01280548,0.11251582,0.07896252,
 -0.13599799,-0.09520845,-0.00942545,0.01271629,0.01128311,-0.00055475,
 -0.00113003,0.00081935,-0.00020551,-0.00055291,-0.00045994,-0.00015731
 ,-0.00004998,0.00025408,-0.00019218,-0.00035640,-0.00058275,0.00012350
 ,-0.00000156,0.00006732,0.00006260,-0.00024667,-0.00003813,-0.00001510
 ,0.00002637,-0.00032696,0.00217598,0.00065888,0.00307401,-0.00075508,-
 0.00082507,-0.00180198,-0.00062923,-0.00012484,-0.00031365,0.00011236,
 0.00003649,0.00010689,-0.00013685,-0.00015588,-0.00015055,0.00024102,-
 0.00013144,0.00009955,0.00001094,0.00000205,-0.00007171,0.00943709,-0.
 01079810,-0.00998365,-0.08404532,0.14695533,0.07850953,-0.09678988,-0.
 13749318,0.01020062,-0.01014526,-0.01259363,-0.00117320,0.00036118,-0.
 00123243,0.00025548,0.00079336,-0.00007504,0.00030430,-0.00015768,-0.0
 0009595,0.00030866,0.00064850,0.00082740,-0.00021837,0.00007314,-0.000
 16821,0.00106997,0.00096775,0.00067405,0.00005795,-0.00060084,0.000015
 48,-0.00194696,-0.00032746,-0.00262275,0.00107939,-0.00073498,0.001952
 68,0.00026483,0.00018561,0.00024928,-0.00003475,-0.00019440,-0.0002145
 6,-0.00009283,0.00015272,0.00009905,0.00009083,-0.00042992,-0.00006364
 ,-0.00023506,0.00023361,0.00031546,0.00672863,-0.00740660,-0.00790011,
 -0.08769763,0.10173661,0.14805148,-0.15115354,0.09351896,-0.09264353,0
 .00985075,-0.00978984,0.00934163,0.00061305,-0.00134340,0.00159664,0.0
 0023947,-0.00014817,-0.00004685,-0.00006877,-0.00005420,0.00001625,0.0
 0045827,-0.00002368,0.00036139,-0.00000973,-0.00018718,0.00031090,-0.0
 0181937,-0.00149979,0.00210023,-0.00045451,0.00031580,-0.00035851,0.00
 024990,0.00006194,-0.00008750,-0.00011973,0.00014173,-0.00028149,0.000
 09369,-0.00000973,-0.00004937,-0.00001600,-0.00003072,-0.00001128,-0.0
 0004836,0.00000600,0.00002632,0.00014652,0.00030524,0.00038579,0.00010
 272,-0.00013939,-0.00016156,-0.01058482,0.01173777,-0.00782312,-0.0083
 2712,0.00549682,-0.00828097,0.16102240,0.09116855,-0.12205269,0.078670
 78,0.01034726,-0.00929870,0.00697899,0.00147176,0.00047078,-0.00051182
 ,-0.00014084,-0.00007237,-0.00011205,-0.00020187,0.00000768,-0.0000607
 8,0.00089713,0.00049653,0.00018706,-0.00011587,-0.00033931,0.00029139,
 -0.00223066,-0.00059869,0.00208049,-0.00049928,0.00019710,-0.00023474,
 -0.00046631,-0.00023281,-0.00075945,0.00053707,-0.00044589,0.00058841,
 0.00010118,0.00004906,0.00000191,0.00000409,-0.00003659,-0.00003413,0.
 00004229,0.00005045,0.00006830,0.00007205,0.00000572,0.00001026,0.0000
 1195,0.00002822,0.00006574,-0.01142251,0.01126623,-0.00978186,0.009767
 80,-0.00894912,0.01046694,-0.09860535,0.12873928,-0.08985593,0.0778682
 5,-0.11776300,-0.01373609,0.01071144,-0.01275709,-0.00186893,-0.000802
 72,0.00060938,0.00014895,-0.00023353,-0.00015708,0.00014555,-0.0000606
 5,0.00012617,-0.00110676,0.00024074,0.00010261,0.00016777,0.00024862,-
 0.00060608,0.00269064,0.00248178,-0.00170692,0.00041338,0.00023648,-0.
 00017534,-0.00032954,-0.00047524,-0.00073435,0.00046685,-0.00032681,0.
 00069821,0.00001894,0.00003615,0.00005807,-0.00003669,-0.00003783,-0.0
 0004725,-0.00002867,0.00001497,0.00003699,0.00009508,0.00006368,0.0002
 1470,-0.00000458,-0.00001696,-0.00002879,-0.00592838,0.00728954,-0.006
 47252,0.01194950,-0.00969041,0.01105725,0.09578175,-0.08778025,0.12721
 858,0.00075768,0.00158877,-0.00162838,-0.01105110,0.01475707,-0.020248
 95,-0.12095350,0.06865938,-0.09594591,0.00986660,-0.00836378,0.0117712
 2,-0.00073076,-0.00148308,0.00220433,-0.00099267,-0.00065353,0.0009236
 1,0.00024918,0.00006770,-0.00011386,-0.00465865,-0.00078380,0.00118816
 ,-0.00033569,0.00067420,-0.00115403,-0.00018849,-0.00029316,-0.0003534
 8,0.00017781,0.00011035,0.00029472,0.00004172,-0.00002575,0.00007028,-
 0.00006645,-0.00002193,-0.00005743,-0.00008133,-0.00009140,0.00001462,
 -0.00019882,0.00028518,0.00036248,0.00009919,-0.00005507,-0.00016505,0
 .00021457,-0.00014564,0.00018970,0.00000208,-0.00013797,0.00009293,0.0
 0001005,-0.00080703,0.00082783,0.12676423,-0.00107484,-0.00211776,-0.0
 0273611,-0.00121105,0.00181821,0.00105422,0.06860847,-0.10728486,0.104
 52400,0.00887600,-0.00391753,0.00853248,-0.00194763,0.00322139,0.00426
 955,-0.00074662,-0.00019710,-0.00036957,0.00015429,-0.00059902,-0.0003
 1782,-0.00051709,0.00425389,0.00193350,0.00004683,0.00035689,0.0000460
 4,-0.00010484,0.00001617,0.00014822,0.00004855,-0.00004704,-0.00014891
 ,0.00003499,-0.00003965,0.00000960,-0.00002376,-0.00000189,0.00000025,
 0.00003848,-0.00000575,0.00002560,-0.00002455,0.00003164,-0.00000162,0
 .00005264,-0.00002836,-0.00007205,-0.00041891,-0.00000991,0.00024019,0
 .00047192,0.00022323,-0.00017820,0.00032157,0.00026867,0.00003330,-0.0
 7304575,0.10618345,0.00118981,-0.00223074,-0.00094165,0.00220788,0.000
 71578,0.00184231,-0.09628992,0.10397026,-0.17703193,-0.01217706,0.0092
 0831,-0.01065934,0.00312310,0.00420062,0.00042842,0.00075289,-0.000406
 44,0.00019352,-0.00017594,-0.00036962,-0.00032808,0.00029075,0.0021724
 7,0.00261185,0.00020978,0.00007238,0.00018538,-0.00006121,-0.00006507,
 0.00003694,-0.00002355,0.00002730,-0.00000773,-0.00000775,-0.00000155,
 0.00001542,-0.00001510,-0.00000280,-0.00000164,-0.00000409,0.00000053,
 -0.00001160,0.00001427,0.00007775,0.00009513,0.00001678,-0.00004506,-0
 .00005759,-0.00022025,-0.00005357,0.00018986,0.00041046,0.00005636,-0.
 00006941,-0.00025755,-0.00011615,0.00049096,0.10159847,-0.11551017,0.1
 8418059,-0.00045862,0.00021396,-0.00030191,0.00068571,-0.00169863,0.00
 244267,-0.01008728,0.00194160,-0.00277182,-0.32420774,-0.00057599,0.00
 039201,-0.01030913,-0.00168436,0.00247087,0.00127234,0.00139100,-0.001
 98421,-0.00093506,0.00012393,-0.00019317,0.00073814,-0.00002444,0.0000
 1582,-0.00002278,0.00000354,-0.00001851,0.00001467,-0.00004502,-0.0000
 2568,-0.00001355,0.00005364,0.00001007,0.00000026,0.00000444,-0.000003
 91,-0.00001270,-0.00000248,-0.00000533,-0.00001383,-0.00000243,0.00000
 292,0.00003181,0.00006485,0.00005566,-0.00000465,-0.00002659,-0.000025
 16,-0.00010634,-0.00007059,0.00012597,-0.00009216,-0.00008823,0.000082
 27,0.00003185,0.00000355,0.00000136,0.00074397,0.00002331,-0.00001529,
 0.34197938,-0.00051802,0.00006601,-0.00025692,-0.00135817,0.00289094,0
 .00501971,-0.01470894,0.00387132,-0.00030980,-0.00056649,-0.04114139,0
 .00863041,0.01487361,0.00361471,0.00002671,0.00070520,0.00360554,0.004
 92531,0.00107713,-0.00023951,0.00026039,0.00012549,-0.00103865,-0.0000
 0661,0.00000756,-0.00044403,-0.00040448,0.00012488,0.00005504,0.000091
 90,-0.00004668,-0.00000987,-0.00005032,-0.00000522,-0.00000638,-0.0000
 2674,0.00000935,0.00000330,0.00001171,0.00000535,-0.00002441,-0.000036
 22,-0.00011457,0.00007531,0.00002499,0.00001190,-0.00002206,-0.0000106
 3,-0.00008790,-0.00004716,0.00009751,-0.00002574,-0.00001730,0.0000960
 3,0.00005133,-0.00002185,-0.00000579,0.00014596,-0.00222872,-0.0022486
 6,0.00054758,0.03343094,0.00077933,-0.00019179,0.00022685,0.00151830,0
 .00497533,-0.00064549,0.02122935,-0.00036263,0.00406333,0.00055570,0.0
 0851392,-0.04738100,-0.02159079,0.00010620,0.00340403,-0.00068874,0.00
 501799,-0.00014388,-0.00162612,0.00022455,-0.00038230,-0.00017455,-0.0
 0009257,-0.00093789,0.00003098,-0.00037092,-0.00013077,0.00002884,0.00
 000885,-0.00000735,0.00002437,-0.00003223,0.00001997,-0.00000041,0.000
 00803,-0.00000623,0.00000258,-0.00000677,0.00000625,0.00000351,-0.0000
 0441,-0.00002134,-0.00002338,0.00003306,-0.00003917,-0.00003469,-0.000
 01424,0.00002757,0.00013323,0.00009725,-0.00013266,0.00011877,0.000100
 13,-0.00007326,-0.00006300,-0.00002159,-0.00000014,-0.00027219,-0.0021
 8882,-0.00071696,-0.00034000,-0.01353765,0.04347983,0.00013603,-0.0000
 1781,0.00002013,-0.00075891,0.00062312,-0.00082783,-0.00101567,0.00160
 910,-0.00236833,0.01118291,0.00813878,-0.01172605,-0.11565417,-0.06581
 705,0.09439082,-0.00811106,-0.01616137,0.02325242,0.00286697,0.0003204
 8,-0.00054119,-0.00490887,0.00090424,-0.00134910,-0.00033954,-0.000658
 10,0.00107230,-0.00031728,-0.00026763,-0.00029928,0.00012027,0.0000720
 3,0.00017553,0.00000828,0.00011891,0.00000970,-0.00005293,-0.00002493,
 -0.00001581,-0.00004982,0.00004092,-0.00004987,-0.00009693,0.00028569,
 0.00040042,0.00015623,-0.00016923,-0.00020693,0.00001704,0.00002983,-0
 .00001643,0.00001310,0.00002140,-0.00002629,-0.00000433,-0.00004272,0.
 00004972,0.00038755,0.00043396,-0.00059832,0.00076094,-0.00026197,0.00
 040827,0.11574966,-0.00009948,-0.00042604,-0.00034488,0.00028936,-0.00
 053437,-0.00060027,0.00207745,0.00365796,0.00405503,-0.00801445,-0.003
 41846,0.00797732,-0.06660224,-0.10737801,0.10970236,0.00173867,0.00317
 905,0.00202768,-0.00021758,-0.00238812,-0.00246762,0.00041324,0.003430
 36,0.00179821,-0.00011889,0.00015357,-0.00002973,0.00001406,0.00002011
 ,0.00002227,-0.00001788,-0.00000788,-0.00006176,-0.00001460,-0.0000229
 2,-0.00000975,0.00000409,-0.00001096,-0.00000781,-0.00003050,-0.000013
 99,-0.00000300,-0.00000509,0.00011337,0.00030329,0.00009678,-0.0000710
 0,-0.00016024,-0.00009193,0.00000403,0.00002970,0.00010007,-0.00000166
 ,-0.00003247,0.00005048,0.00004885,0.00001653,-0.00036422,0.00003916,0
 .00058238,-0.00007934,-0.00234865,-0.00232403,0.07087442,0.10594260,-0
 .00000666,-0.00026845,-0.00021835,-0.00060629,-0.00051754,-0.00018497,
 -0.00320390,0.00399452,0.00075500,0.01143002,0.00820675,-0.00968451,0.
 09590630,0.10968128,-0.18881273,-0.00242891,0.00198873,0.00169517,0.00
 024074,-0.00244859,-0.00056847,-0.00020050,0.00149327,0.00234624,-0.00
 022379,0.00002072,0.00013193,0.00001792,0.00007276,0.00006420,-0.00000
 822,-0.00004361,-0.00005745,-0.00001210,-0.00001527,-0.00001767,0.0000
 0429,-0.00000084,0.00000780,0.00001203,0.00000130,0.,-0.00001159,0.000
 01034,0.00009100,0.00004640,-0.00001890,-0.00005635,-0.00001569,-0.000
 00570,0.00002843,0.00009961,-0.00001670,-0.00001264,0.00000457,-0.0000
 1562,0.00005598,0.00056360,0.00059498,-0.00038828,0.00010638,-0.002344
 10,-0.00061300,-0.10171373,-0.12043608,0.19543162,-0.00017410,0.000787
 22,-0.00038520,-0.00036362,0.00077914,-0.00275593,-0.00142123,-0.00017
 206,-0.00008993,-0.00003765,0.00046310,-0.00042754,0.00055872,-0.00017
 276,0.00044766,-0.00076575,-0.00162451,0.00235728,-0.00086456,0.000730
 37,-0.00104440,0.00504000,-0.00286255,-0.00141756,0.00251819,0.0044715
 1,0.00537689,-0.03258177,-0.00454439,-0.00337046,-0.42094197,0.0087152
 7,0.07540743,0.00264852,-0.00174502,-0.00208442,-0.00131331,-0.0001290
 3,-0.00017658,0.00032543,0.00056286,0.00080575,-0.00067149,-0.00056097
 ,-0.00107010,-0.00046995,0.00074086,0.00118052,-0.00001245,-0.00024548
 ,0.00014517,0.00032114,-0.00034110,0.00067993,-0.00019795,0.00008935,0
 .00018133,0.00001088,-0.00001420,0.00004726,0.00001868,0.00000902,-0.0
 0001551,-0.00002368,0.00000831,-0.00000855,0.44823531,-0.00015468,-0.0
 0098223,-0.00004208,0.00083182,-0.00034302,-0.00029406,0.00123883,0.00
 028395,0.00010831,-0.00026973,-0.00052691,0.00059885,-0.00110047,-0.00
 013255,-0.00017317,0.00046233,0.00191572,-0.00178192,0.00078574,-0.001
 00402,0.00120619,-0.00126666,-0.00016276,0.00025824,-0.00070515,-0.001
 44339,-0.00040779,-0.02214096,-0.00014254,0.00488728,0.03009621,-0.019
 45007,-0.02267639,-0.00146876,-0.00015707,-0.00388135,-0.00035757,0.00
 186292,-0.00004953,0.00032784,-0.00032506,-0.00031769,-0.00080564,-0.0
 0019438,0.00006226,0.00028766,0.00007153,0.00005640,-0.00006738,0.0001
 7061,0.00007754,-0.00045898,-0.00132863,0.00122491,-0.00017176,0.00042
 346,0.00017809,-0.00002222,0.00005726,-0.00004010,-0.00007133,-0.00002
 173,0.00005597,-0.00004374,0.00002346,0.00006146,-0.00482892,0.0221854
 2,-0.00005514,0.00007773,0.00006652,0.00085928,-0.00225148,0.00262227,
 -0.00008105,-0.00012775,-0.00004436,-0.00053657,-0.00027304,0.00008784
 ,-0.00021650,0.00033985,-0.00047884,0.00133505,0.00152409,-0.00223412,
 0.00042478,-0.00043306,0.00069587,-0.00169381,0.00227589,0.00203279,-0
 .00186781,-0.00072562,-0.00153830,-0.03579046,-0.00049512,0.00298057,0
 .11390819,-0.01784716,-0.05424922,-0.00199167,-0.00390471,-0.00337425,
 -0.00105584,-0.00020630,0.00128710,0.00041444,-0.00013210,-0.00025144,
 -0.00083174,0.00009898,-0.00041097,0.00029001,0.00001593,0.00007738,0.
 00014604,-0.00003715,-0.00034936,0.00065995,0.00109042,-0.00062479,0.0
 0014245,0.00000721,-0.00022533,-0.00016439,0.00011517,-0.00005394,-0.0
 0002270,0.00005299,0.00000575,-0.00004151,-0.00003054,0.00000987,-0.07
 357903,0.02058444,0.05450996,0.00003529,0.00006537,0.00004362,-0.00003
 067,-0.00022124,0.00008719,-0.00006749,-0.00004886,-0.00003973,-0.0000
 4311,0.00003445,-0.00002027,0.00000161,-0.00011342,0.00001383,-0.00029
 692,0.00019941,-0.00029938,0.00009161,-0.00003709,0.00013090,-0.000207
 35,0.00058077,0.00115443,-0.00474089,-0.00063686,-0.00130097,-0.008727
 45,0.01579644,0.02311433,0.00247254,-0.00002018,0.00002513,-0.11573819
 ,0.06497899,0.09523497,0.01064846,-0.00820329,-0.01208061,-0.00089440,
 -0.00141304,-0.00237797,-0.00115705,-0.00068966,-0.00105216,0.00026463
 ,0.00005302,0.00009540,0.00000807,0.00000391,-0.00001721,-0.00000993,0
 .00004291,-0.00002291,0.00000221,0.00000230,-0.00002469,-0.00002497,0.
 00000586,-0.00000798,-0.00000422,0.00000940,0.00000290,-0.00003513,-0.
 00000287,0.00000312,0.00019004,-0.00008037,-0.00015360,0.11704725,-0.0
 0000651,-0.00003525,0.00001378,-0.00003546,0.00002744,-0.00014720,0.00
 003063,-0.00001894,0.00001245,-0.00001451,-0.00001070,0.00000989,0.000
 01365,-0.00001754,-0.00000234,-0.00005969,0.00006145,-0.00004679,0.000
 04809,-0.00004356,0.00008033,-0.00001937,0.00017626,0.00006554,-0.0002
 5264,0.00356393,-0.00171465,-0.00096909,0.00279060,-0.00145468,0.00005
 939,-0.00199764,0.00176938,0.06543985,-0.10398917,-0.10933561,0.007667
 62,-0.00373592,-0.00729346,-0.00176451,0.00382380,-0.00386762,-0.00061
 238,-0.00027865,0.00043534,0.00013947,-0.00046819,0.00025400,0.0000053
 2,-0.00000607,-0.00001685,0.00004906,0.00004933,0.00002825,-0.00000647
 ,-0.00000363,0.00001085,0.00000928,0.00000667,0.00000351,0.00000018,-0
 .00000108,0.00000203,0.00000305,-0.00000033,0.00000008,-0.00000502,-0.
 00043152,0.00026312,-0.07012342,0.10284512,-0.00000855,0.00002002,0.00
 000455,0.00002742,0.00004364,0.00005347,0.00001228,-0.00001200,-0.0000
 0613,0.00000201,-0.00000191,0.00000915,-0.00001077,0.00000321,-0.00002
 717,0.00003557,-0.00007747,0.00005748,-0.00001658,0.00004407,-0.000043
 16,-0.00024044,0.00003698,0.00017510,-0.00025796,-0.00169338,0.0019402
 3,-0.00254759,-0.00133516,0.00209293,0.00016128,0.00184228,-0.00051188
 ,0.09663424,-0.10877665,-0.19013214,0.01148211,-0.00820078,-0.01060601
 ,-0.00316092,-0.00382804,0.00056215,-0.00064657,0.00042120,0.00012471,
 0.00014082,0.00030251,-0.00018968,-0.00000319,0.00000878,-0.00001165,-
 0.00001444,-0.00002208,-0.00001573,0.00001137,0.00000006,0.00000050,0.
 00000370,-0.00000179,0.00000053,0.00000308,0.00000011,-0.00000079,0.00
 000292,-0.00000023,0.00000025,0.00004079,0.00026735,-0.00016512,-0.102
 32371,0.11925371,0.19762629,0.00000235,0.00000673,-0.00001106,0.000004
 87,-0.00003375,0.00002724,-0.00000260,0.00000281,0.00000762,-0.0000142
 8,0.00000177,-0.00000716,0.00000231,-0.00000430,0.00000164,0.00000983,
 0.00005917,-0.00004881,-0.00000493,-0.00002902,0.00002300,0.00001536,0
 .00002588,0.00002528,0.00060237,-0.00006657,-0.00006765,0.00100971,-0.
 00137974,-0.00213748,-0.00096261,-0.00001321,0.00000643,-0.01049898,0.
 00189422,0.00246256,-0.32420556,0.00489039,0.00087550,-0.00995289,-0.0
 0129070,-0.00235524,0.00126915,0.00140634,0.00201394,-0.00091861,0.000
 13191,0.00018950,0.00000209,-0.00000928,0.00001077,0.00000542,-0.00002
 741,0.00002178,-0.00001493,0.00000819,-0.00000123,-0.00000656,0.000003
 25,-0.00000427,-0.00000495,0.00000005,-0.00000043,-0.00000537,-0.00000
 079,0.00000233,-0.00000305,-0.00008448,-0.00017054,0.00080287,0.000025
 29,0.00011995,0.34210960,0.00000501,-0.00001487,0.00001851,0.00003958,
 0.00006282,0.00000384,0.00002710,-0.00000893,0.00001111,-0.00000522,-0
 .00001616,0.00000579,-0.00001210,-0.00000376,0.00001611,-0.00007148,0.
 00006900,-0.00007141,0.00002185,-0.00003633,0.00003298,-0.00005164,-0.
 00025203,0.00023682,-0.00001444,-0.00107653,0.00011749,-0.00083423,0.0
 0356489,-0.00493069,-0.00072314,0.00012492,0.00005949,-0.01394514,0.00
 379263,-0.00006467,0.00507063,-0.04033364,-0.00841242,0.01438195,0.003
 33230,0.00002087,0.00066092,0.00345808,-0.00460992,0.00106167,-0.00019
 590,-0.00027534,-0.00000017,0.00000364,-0.00001332,0.00001401,-0.00001
 688,0.00000077,0.00000349,0.00000047,0.00000224,0.00000643,0.00000345,
 0.00000164,-0.00000054,0.00000127,0.00000165,-0.00000839,0.00000095,0.
 00000208,-0.00011273,-0.00022158,-0.00004175,0.00017943,-0.00253880,0.
 00234377,-0.00538380,0.03271216,-0.00001390,0.00001195,-0.00001796,-0.
 00001099,-0.00002616,-0.00000313,-0.00000687,-0.00000186,-0.00000693,0
 .00000231,0.00001125,-0.00000094,0.00000339,-0.00000707,-0.00000601,-0
 .00000728,-0.00001882,-0.00002584,0.00002706,0.00001656,0.00001589,0.0
 0002649,0.00022377,-0.00002950,-0.00001240,0.00023336,-0.00086802,-0.0
 0133464,-0.00495554,-0.00067118,-0.00124495,-0.00000744,0.00019393,-0.
 02153882,0.00054381,0.00375082,0.00097536,-0.00840998,-0.04757102,0.02
 186759,-0.00039565,0.00336498,0.00073909,-0.00470274,-0.00066387,0.001
 65218,-0.00029465,-0.00040865,0.00000094,0.00000087,0.00000029,-0.0000
 1144,-0.00001044,0.00001925,-0.00000827,0.00000653,0.00000480,-0.00000
 384,-0.00000368,-0.00000211,0.00000012,-0.00000079,0.00000009,0.000002
 96,-0.00000285,-0.00000207,-0.00021884,-0.00004427,-0.00031903,0.00040
 593,0.00230160,-0.00062323,-0.00090664,0.01330764,0.04432553,0.0000069
 4,-0.00004009,-0.00000834,-0.00024526,-0.00018054,0.00013109,-0.000048
 75,0.00011080,0.00002715,-0.00005240,0.00000892,-0.00003573,0.00001251
 ,0.00003133,0.00006866,-0.00017482,0.00025742,-0.00034734,0.00015172,-
 0.00016414,0.00019542,-0.00016056,-0.00061722,-0.00105321,-0.00482878,
 0.00092533,0.00138012,-0.00094033,0.00062597,0.00087165,0.00034281,-0.
 00002923,-0.00000496,-0.00092618,0.00154169,0.00226262,0.01099242,0.00
 751354,0.01172410,-0.12006589,-0.06405338,-0.10004344,-0.00883536,-0.0
 1516065,-0.02356775,0.00291922,0.00023935,0.00060206,0.00000807,-0.000
 00077,-0.00000875,0.00001151,0.00002430,-0.00001814,-0.00000172,0.0000
 0791,-0.00001716,-0.00003653,0.00000912,-0.00000318,-0.00000473,-0.000
 01010,-0.00000633,-0.00002528,-0.00000706,0.00000261,-0.00002437,0.000
 06838,0.00007215,0.00041318,0.00037817,0.00055318,0.00075940,-0.000309
 04,-0.00038455,0.12075320,0.00003381,0.00001741,0.00003727,-0.00007703
 ,-0.00005821,-0.00000284,-0.00002862,0.00000407,-0.00001254,0.00003084
 ,-0.00000536,0.00000905,-0.00003279,-0.00002850,-0.00001245,0.00008108
 ,0.00006802,-0.00023688,0.00005502,-0.00004925,0.00014984,-0.00003672,
 0.00055525,-0.00020147,0.00054850,0.00319431,-0.00148575,0.00040973,-0
 .00069370,0.00060401,-0.00011612,-0.00011622,0.00010446,0.00198220,0.0
 0347243,-0.00371791,-0.00796958,-0.00374317,-0.00753590,-0.06476449,-0
 .09607089,-0.10633862,0.00191740,0.00286315,-0.00114159,-0.00034870,-0
 .00256233,0.00246403,-0.00000159,-0.00000024,0.00001302,-0.00000359,0.
 00001647,0.00002831,-0.00000148,-0.00000086,-0.00000247,-0.00001002,-0
 .00000247,0.00000063,-0.00000162,-0.00000158,0.00000270,-0.00000299,0.
 00000894,0.00000313,0.00000171,-0.00012685,0.00005996,-0.00036197,0.00
 023239,-0.00063819,-0.00013295,-0.00241115,0.00222459,0.06882998,0.095
 43832,-0.00002339,-0.00001061,-0.00002085,0.00005383,-0.00001137,0.000
 02697,0.00001519,-0.00001314,-0.00000324,-0.00001852,0.00000286,-0.000
 00220,0.00000186,0.00000418,0.00000959,-0.00004554,0.00000846,0.000069
 96,-0.00002691,0.00001041,-0.00005435,0.00019774,-0.00023305,0.0003223
 7,0.00018893,-0.00141317,0.00198917,0.00076193,0.00057749,-0.00024788,
 -0.00010038,0.00011951,0.00003079,0.00306527,-0.00367125,0.00039543,-0
 .01190170,-0.00739328,-0.01052774,-0.10149743,-0.10630369,-0.19278778,
 0.00269532,-0.00138726,0.00147067,-0.00028410,0.00241261,-0.00047581,0
 .00000542,-0.00001045,-0.00000644,0.00000836,-0.00001045,-0.00000607,-
 0.00000630,0.00000437,-0.00000028,0.00000185,0.00000166,-0.00000066,-0
 .00000148,0.00000096,-0.00000143,-0.00000452,-0.00000353,-0.00000099,-
 0.00002595,0.00008106,-0.00005685,-0.00059057,-0.00062464,-0.00031465,
 -0.00007700,0.00223673,-0.00045605,0.10760808,0.11562559,0.20064834\\-
 0.00000117,0.00000056,-0.00000018,0.00000032,0.00000005,-0.00000042,0.
 00000012,-0.00000031,-0.00000064,-0.00000062,-0.00000080,0.00000003,-0
 .00000029,-0.00000066,0.00000011,0.00000134,-0.00000036,0.,-0.00000010
 ,-0.00000041,-0.00000009,0.00000009,-0.00000008,0.00000029,-0.00000011
 ,-0.00000057,-0.00000005,0.00000010,-0.00000018,0.00000047,0.00000075,
 -0.00000170,0.00000075,0.00000030,0.00000042,-0.00000013,0.00000067,0.
 00000074,0.00000014,-0.00000004,0.00000078,0.00000033,-0.00000067,0.00
 000088,0.00000038,-0.00000019,0.00000070,-0.00000002,-0.00000011,0.000
 00039,-0.00000002,-0.00000031,0.00000054,-0.00000053,-0.00000064,0.000
 00010,-0.00000036,-0.00000046,-0.00000045,-0.00000067,-0.00000062,-0.0
 0000087,-0.00000022,-0.00000005,-0.00000077,0.00000035,0.00000054,-0.0
 0000032,-0.00000011,0.00000060,0.00000028,-0.00000018,0.00000059,0.000
 00093,0.00000024,-0.00000004,0.00000110,0.00000056\\\@
 The archive entry for this job was punched.


 YOU ARE IN A MAZE OF TWISTY LITTLE PASSAGES.
 Job cpu time:       0 days  0 hours 23 minutes 38.0 seconds.
 Elapsed time:       0 days  0 hours  3 minutes  0.5 seconds.
 File lengths (MBytes):  RWF=    233 Int=      0 D2E=      0 Chk=      8 Scr=      1
 Normal termination of Gaussian 16 at Tue Dec  2 14:18:04 2025.
