 Entering Gaussian System, Link 0=g16
 Initial command:
 /path/to/gaussian "/path/to/scratch/inp" -scrdir="/path/to/scratch/"
 Entering Link 1 = /path/to/gaussian PID=   3638337.
  
 Copyright (c) 1988-2021, Gaussian, Inc.  All Rights Reserved.
  
 This is part of the Gaussian(R) 16 program.  It is based on
 the Gaussian(R) 09 system (copyright 2009, Gaussian, Inc.),
 the Gaussian(R) 03 system (copyright 2003, Gaussian, Inc.),
 the Gaussian(R) 98 system (copyright 1998, Gaussian, Inc.),
 the Gaussian(R) 94 system (copyright 1995, Gaussian, Inc.),
 the Gaussian 92(TM) system (copyright 1992, Gaussian, Inc.),
 the Gaussian 90(TM) system (copyright 1990, Gaussian, Inc.),
 the Gaussian 88(TM) system (copyright 1988, Gaussian, Inc.),
 the Gaussian 86(TM) system (copyright 1986, Carnegie Mellon
 University), and the Gaussian 82(TM) system (copyright 1983,
 Carnegie Mellon University). Gaussian is a federally registered
 trademark of Gaussian, Inc.
  
 This software contains proprietary and confidential information,
 including trade secrets, belonging to Gaussian, Inc.
  
 This software is provided under written license and may be
 used, copied, transmitted, or stored only in accord with that
 written license.
  
 The following legend is applicable only to US Government
 contracts under FAR:
  
                    RESTRICTED RIGHTS LEGEND
  
 Use, reproduction and disclosure by the US Government is
 subject to restrictions as set forth in subparagraphs (a)
 and (c) of the Commercial Computer Software - Restricted
 Rights clause in FAR 52.227-19.
  
 Gaussian, Inc.
 340 Quinnipiac St., Bldg. 40, Wallingford CT 06492
  
  
 ---------------------------------------------------------------
 Warning -- This program may not be used in any manner that
 competes with the business of Gaussian, Inc. or will provide
 assistance to any competitor of Gaussian, Inc.  The licensee
 of this program is prohibited from giving any competitor of
 Gaussian, Inc. access to this program.  By using this program,
 the user acknowledges that Gaussian, Inc. is engaged in the
 business of creating and licensing software in the field of
 computational chemistry and represents and warrants to the
 licensee that it is not a competitor of Gaussian, Inc. and that
 it will not use this program in any manner prohibited above.
 ---------------------------------------------------------------
  

 Cite this work as:
 Gaussian 16, Revision C.02,
 M. J. Frisch, G. W. Trucks, H. B. Schlegel, G. E. Scuseria, 
 M. A. Robb, J. R. Cheeseman, G. Scalmani, V. Barone, 
 G. A. Petersson, H. Nakatsuji, X. Li, M. Caricato, A. V. Marenich, 
 J. Bloino, B. G. Janesko, R. Gomperts, B. Mennucci, H. P. Hratchian, 
 J. V. Ortiz, A. F. Izmaylov, J. L. Sonnenberg, D. Williams-Young, 
 F. Ding, F. Lipparini, F. Egidi, J. Goings, B. Peng, A. Petrone, 
 T. Henderson, D. Ranasinghe, V. G. Zakrzewski, J. Gao, N. Rega, 
 G. Zheng, W. Liang, M. Hada, M. Ehara, K. Toyota, R. Fukuda, 
 J. Hasegawa, M. Ishida, T. Nakajima, Y. Honda, O. Kitao, H. Nakai, 
 T. Vreven, K. Throssell, J. A. Montgomery, Jr., J. E. Peralta, 
 F. Ogliaro, M. J. Bearpark, J. J. Heyd, E. N. Brothers, K. N. Kudin, 
 V. N. Staroverov, T. A. Keith, R. Kobayashi, J. Normand, 
 K. Raghavachari, A. P. Rendell, J. C. Burant, S. S. Iyengar, 
 J. Tomasi, M. Cossi, J. M. Millam, M. Klene, C. Adamo, R. Cammi, 
 J. W. Ochterski, R. L. Martin, K. Morokuma, O. Farkas, 
 J. B. Foresman, and D. J. Fox, Gaussian, Inc., Wallingford CT, 2019.
 
 ******************************************
 Gaussian 16:  ES64L-G16RevC.02  7-Dec-2021
                 2-Dec-2025 
 ******************************************
 %mem=6000MB
 %nprocshared=4
 Will use up to    4 processors via shared memory.
 -------------------
 # PW6B95D3 def2tzvp
 -------------------
 1/38=1,172=1/1;
 2/12=2,17=6,18=5,40=1/2;
 3/5=44,7=101,11=2,25=1,30=1,74=-76/1,2,3;
 4//1;
 5/5=2,38=5/2;
 6/7=2,8=2,9=2,10=2,28=1/1;
 99/5=1,9=1/99;
 -------
 example
 -------
 Symbolic Z-matrix:
 Charge =  0 Multiplicity = 1
 C                    -0.76137   2.13762   1.37709 
 C                    -1.48587   1.03104   0.64705 
 C                    -2.89545   0.99434   0.60442 
 C                    -3.57747  -0.05153  -0.0378 
 C                    -2.86421  -1.09038  -0.65499 
 C                    -1.46606  -1.04978  -0.619 
 F                    -0.77346  -2.03855  -1.21712 
 C                    -0.74921  -0.0098    0.0101 
 C                     0.7386   -0.01659  -0.00878 
 C                     1.4519    0.95641  -0.75722 
 O                     0.79092   1.896    -1.48899 
 C                     2.86059   0.97197  -0.75983 
 C                     3.56371   0.00677  -0.02597 
 C                     2.88781  -0.98175   0.71154 
 C                     1.48892  -0.97306   0.70085 
 F                     0.81975  -1.90607   1.41037 
 H                    -0.01678   1.72261   2.08714 
 H                    -0.19645   2.78707   0.67542 
 H                    -1.46992   2.77511   1.94009 
 H                    -3.46509   1.79619   1.09966 
 H                    -4.67833  -0.0625   -0.05403 
 H                    -3.36548  -1.92705  -1.16282 
 H                    -0.16674   1.68123  -1.44539 
 H                     3.37914   1.7407   -1.35037 
 H                     4.66463   0.01853  -0.03159 
 H                     3.41981  -1.74993   1.28996 
 
                          Input orientation:                          
 ---------------------------------------------------------------------
 Center     Atomic      Atomic             Coordinates (Angstroms)
 Number     Number       Type             X           Y           Z
 ---------------------------------------------------------------------
      1          6           0       -0.761373    2.137619    1.377092
      2          6           0       -1.485873    1.031036    0.647047
      3          6           0       -2.895454    0.994341    0.604415
      4          6           0       -3.577474   -0.051527   -0.037803
      5          6           0       -2.864209   -1.090382   -0.654993
      6          6           0       -1.466064   -1.049775   -0.618999
      7          9           0       -0.773463   -2.038550   -1.217122
      8          6           0       -0.749205   -0.009796    0.010097
      9          6           0        0.738595   -0.016588   -0.008781
     10          6           0        1.451897    0.956410   -0.757217
     11          8           0        0.790919    1.895999   -1.488991
     12          6           0        2.860593    0.971974   -0.759829
     13          6           0        3.563713    0.006769   -0.025969
     14          6           0        2.887809   -0.981754    0.711536
     15          6           0        1.488921   -0.973057    0.700846
     16          9           0        0.819751   -1.906069    1.410368
     17          1           0       -0.016783    1.722614    2.087137
     18          1           0       -0.196453    2.787066    0.675421
     19          1           0       -1.469922    2.775109    1.940086
     20          1           0       -3.465085    1.796192    1.099659
     21          1           0       -4.678326   -0.062501   -0.054028
     22          1           0       -3.365481   -1.927051   -1.162822
     23          1           0       -0.166735    1.681226   -1.445393
     24          1           0        3.379142    1.740697   -1.350371
     25          1           0        4.664630    0.018529   -0.031589
     26          1           0        3.419813   -1.749930    1.289958
 ---------------------------------------------------------------------
                    Distance matrix (angstroms):
                    1          2          3          4          5
     1  C    0.000000
     2  C    1.510759   0.000000
     3  C    2.541341   1.410703   0.000000
     4  C    3.837279   2.452704   1.404078   0.000000
     5  C    4.355603   2.845265   2.435807   1.403171   0.000000
     6  C    3.826284   2.435783   2.778184   2.406728   1.399198
     7  F    4.916348   3.661286   4.125442   3.633391   2.363521
     8  C    2.545627   1.425383   2.442926   2.828982   2.466425
     9  C    2.968359   2.544776   3.821557   4.316308   3.814554
    10  C    3.293796   3.256995   4.555759   5.179582   4.777926
    11  O    3.268398   3.239537   4.334130   4.998166   4.793118
    12  C    4.363920   4.568868   5.915551   6.558779   6.085857
    13  C    5.021501   5.196190   6.564566   7.141435   6.551152
    14  C    4.846646   4.815037   6.112492   6.574703   5.913114
    15  C    3.898389   3.587295   4.806527   5.202228   4.560900
    16  F    4.341943   3.811187   4.781703   4.987195   4.301467
    17  H    1.109418   2.170337   3.318975   4.510152   4.851810
    18  H    1.110522   2.178773   3.240912   4.471868   4.890964
    19  H    1.106977   2.171174   2.643349   4.042733   4.860092
    20  H    2.739270   2.169701   1.101232   2.172675   3.431059
    21  H    4.714992   3.446605   2.174648   1.101026   2.169958
    22  H    5.454730   3.944468   3.446532   2.197316   1.099627
    23  H    2.920327   2.557573   3.481297   4.076381   3.947519
    24  H    4.973979   5.306757   6.614287   7.302699   6.890427
    25  H    5.993032   6.270120   7.649286   8.242404   7.635557
    26  H    5.709899   5.675638   6.919797   7.321854   6.611110
                    6          7          8          9         10
     6  C    0.000000
     7  F    1.347265   0.000000
     8  C    1.411101   2.371181   0.000000
     9  C    2.510052   2.799060   1.487935   0.000000
    10  C    3.543780   3.759458   2.523326   1.419747   0.000000
    11  O    3.811619   4.242862   2.872508   2.419039   1.362062
    12  C    4.777788   4.741174   3.819332   2.458496   1.408784
    13  C    5.173647   4.940979   4.313101   2.825267   2.428232
    14  C    4.553148   4.271001   3.829437   2.463640   2.824103
    15  C    3.237254   3.151548   2.532630   1.407619   2.418711
    16  F    3.174353   3.075644   2.831648   2.364468   3.645795
    17  H    4.136391   5.063304   2.802103   2.826357   3.291571
    18  H    4.243676   5.215480   2.927563   3.033632   2.849704
    19  H    4.602029   5.798649   3.464100   4.058226   4.372658
    20  H    3.879355   5.226619   3.438712   4.710174   5.322587
    21  H    3.407716   4.528301   3.929998   5.417305   6.253982
    22  H    2.161745   2.594983   3.449131   4.671736   5.629031
    23  H    3.135211   3.775839   2.305922   2.401260   1.902344
    24  H    5.638941   5.616457   4.685974   3.443894   2.163611
    25  H    6.250739   5.933795   5.414070   3.926258   3.424589
    26  H    5.292082   4.894110   4.695404   3.446756   3.922741
                   11         12         13         14         15
    11  O    0.000000
    12  C    2.380977   0.000000
    13  C    3.660329   1.401624   0.000000
    14  C    4.185777   2.445958   1.406392   0.000000
    15  C    3.676150   2.792526   2.406882   1.398956   0.000000
    16  F    4.781510   4.142212   3.640239   2.370567   1.349712
    17  H    3.670305   4.116791   4.497699   4.200302   3.384611
    18  H    2.540390   3.834062   4.728726   4.870111   4.120638
    19  H    4.200334   5.412411   6.071784   5.883296   4.933479
    20  H    4.982433   6.644639   7.339828   6.944558   5.689461
    21  H    5.983935   7.642224   8.242378   7.660125   6.279640
    22  H    5.656656   6.879734   7.283256   6.596244   5.286642
    23  H    0.982410   3.183984   4.328373   4.590647   3.793779
    24  H    2.596581   1.099349   2.189661   3.450305   3.891643
    25  H    4.544728   2.166550   1.100994   2.170229   3.406586
    26  H    5.284547   3.452986   2.199628   1.098952   2.163083
                   16         17         18         19         20
    16  F    0.000000
    17  H    3.784857   0.000000
    18  H    4.857812   1.777155   0.000000
    19  H    5.237999   1.800273   1.794782   0.000000
    20  H    5.671252   3.587661   3.441768   2.375978   0.000000
    21  H    5.980974   5.431501   5.360906   4.724656   2.501537
    22  H    4.913035   5.924193   5.970325   5.944030   4.357899
    23  H    4.690118   3.535953   2.391990   3.788977   4.167688
    24  H    5.241285   4.832090   4.240708   5.950675   7.269743
    25  H    4.535021   5.413736   5.638687   7.008492   8.398338
    26  H    2.607528   4.950177   5.834327   6.693889   7.746807
                   21         22         23         24         25
    21  H    0.000000
    22  H    2.535652   0.000000
    23  H    5.032985   4.830268   0.000000
    24  H    8.357920   7.679680   3.547648   0.000000
    25  H    9.343334   8.339524   5.301461   2.521414   0.000000
    26  H    8.380547   7.217182   5.667301   4.376925   2.534463
                   26
    26  H    0.000000
 Stoichiometry    C13H10F2O
 Framework group  C1[X(C13H10F2O)]
 Deg. of freedom    72
 Full point group                 C1      NOp   1
 Largest Abelian subgroup         C1      NOp   1
 Largest concise Abelian subgroup C1      NOp   1
                         Standard orientation:                         
 ---------------------------------------------------------------------
 Center     Atomic      Atomic             Coordinates (Angstroms)
 Number     Number       Type             X           Y           Z
 ---------------------------------------------------------------------
      1          6           0       -0.761373    2.137619    1.377092
      2          6           0       -1.485873    1.031036    0.647047
      3          6           0       -2.895454    0.994341    0.604415
      4          6           0       -3.577474   -0.051527   -0.037803
      5          6           0       -2.864209   -1.090382   -0.654993
      6          6           0       -1.466064   -1.049775   -0.618999
      7          9           0       -0.773463   -2.038550   -1.217122
      8          6           0       -0.749205   -0.009796    0.010097
      9          6           0        0.738595   -0.016588   -0.008781
     10          6           0        1.451897    0.956410   -0.757217
     11          8           0        0.790919    1.895999   -1.488991
     12          6           0        2.860593    0.971974   -0.759829
     13          6           0        3.563713    0.006769   -0.025969
     14          6           0        2.887809   -0.981754    0.711536
     15          6           0        1.488921   -0.973057    0.700846
     16          9           0        0.819751   -1.906069    1.410368
     17          1           0       -0.016783    1.722614    2.087137
     18          1           0       -0.196453    2.787066    0.675421
     19          1           0       -1.469922    2.775109    1.940086
     20          1           0       -3.465085    1.796192    1.099659
     21          1           0       -4.678326   -0.062501   -0.054028
     22          1           0       -3.365481   -1.927051   -1.162822
     23          1           0       -0.166735    1.681226   -1.445393
     24          1           0        3.379142    1.740697   -1.350371
     25          1           0        4.664630    0.018529   -0.031589
     26          1           0        3.419813   -1.749930    1.289958
 ---------------------------------------------------------------------
 Rotational constants (GHZ):           0.8752714           0.4431186           0.3752469
 Standard basis: def2TZVP (5D, 7F)
 There are   636 symmetry adapted cartesian basis functions of A   symmetry.
 There are   556 symmetry adapted basis functions of A   symmetry.
   556 basis functions,   896 primitive gaussians,   636 cartesian basis functions
    57 alpha electrons       57 beta electrons
       nuclear repulsion energy      1079.7870663966 Hartrees.
 NAtoms=   26 NActive=   26 NUniq=   26 SFac= 1.00D+00 NAtFMM=   60 NAOKFM=F Big=F
 Integral buffers will be    131072 words long.
 Raffenetti 2 integral format.
 Two-electron integral symmetry is turned on.
 Nuclear repulsion after empirical dispersion term =     1079.7694496003 Hartrees.
 One-electron integrals computed using PRISM.
   1 Symmetry operations used in ECPInt.
 ECPInt:  NShTT=   23436 NPrTT=   72772 LenC2=   21895 LenP2D=   50253.
 LDataN:  DoStor=T MaxTD1= 6 Len=  172
 NBasis=   556 RedAO= T EigKep=  9.10D-06  NBF=   556
 NBsUse=   556 1.00D-06 EigRej= -1.00D+00 NBFU=   556
 ExpMin= 9.52D-02 ExpMax= 3.55D+04 ExpMxC= 1.21D+03 IAcc=3 IRadAn=         5 AccDes= 0.00D+00
 Harris functional with IExCor= 7409 and IRadAn=       5 diagonalized for initial guess.
 HarFok:  IExCor= 7409 AccDes= 0.00D+00 IRadAn=         5 IDoV= 1 UseB2=F ITyADJ=14
 ICtDFT=  3500011 ScaDFX=  1.000000  1.000000  1.000000  1.000000
 FoFCou: FMM=F IPFlag=           0 FMFlag=      100000 FMFlg1=           0
         NFxFlg=           0 DoJE=T BraDBF=F KetDBF=T FulRan=T
         wScrn=  0.000000 ICntrl=       500 IOpCl=  0 I1Cent=   200000004 NGrid=           0
         NMat0=    1 NMatS0=      1 NMatT0=    0 NMatD0=    1 NMtDS0=    0 NMtDT0=    0
 Petite list used in FoFCou.
 Requested convergence on RMS density matrix=1.00D-08 within 128 cycles.
 Requested convergence on MAX density matrix=1.00D-06.
 Requested convergence on             energy=1.00D-06.
 No special actions if energy rises.
 Integral accuracy reduced to 1.0D-05 until final iterations.
 Problem detected with inexpensive integrals.
 Switching to full accuracy and repeating last cycle.
 SCF Done:  E(RPW6B95D3) =  -777.583481139     A.U. after   18 cycles
            NFock= 18  Conv=0.43D-08     -V/T= 2.0051

 **********************************************************************

            Population analysis using the SCF Density.

 **********************************************************************

 Orbital symmetries:
       Occupied  (A) (A) (A) (A) (A) (A) (A) (A) (A) (A) (A) (A)
                 (A) (A) (A) (A) (A) (A) (A) (A) (A) (A) (A) (A)
                 (A) (A) (A) (A) (A) (A) (A) (A) (A) (A) (A) (A)
                 (A) (A) (A) (A) (A) (A) (A) (A) (A) (A) (A) (A)
                 (A) (A) (A) (A) (A) (A) (A) (A) (A)
       Virtual   (A) (A) (A) (A) (A) (A) (A) (A) (A) (A) (A) (A)
                 (A) (A) (A) (A) (A) (A) (A) (A) (A) (A) (A) (A)
                 (A) (A) (A) (A) (A) (A) (A) (A) (A) (A) (A) (A)
                 (A) (A) (A) (A) (A) (A) (A) (A) (A) (A) (A) (A)
                 (A) (A) (A) (A) (A) (A) (A) (A) (A) (A) (A) (A)
                 (A) (A) (A) (A) (A) (A) (A) (A) (A) (A) (A) (A)
                 (A) (A) (A) (A) (A) (A) (A) (A) (A) (A) (A) (A)
                 (A) (A) (A) (A) (A) (A) (A) (A) (A) (A) (A) (A)
                 (A) (A) (A) (A) (A) (A) (A) (A) (A) (A) (A) (A)
                 (A) (A) (A) (A) (A) (A) (A) (A) (A) (A) (A) (A)
                 (A) (A) (A) (A) (A) (A) (A) (A) (A) (A) (A) (A)
                 (A) (A) (A) (A) (A) (A) (A) (A) (A) (A) (A) (A)
                 (A) (A) (A) (A) (A) (A) (A) (A) (A) (A) (A) (A)
                 (A) (A) (A) (A) (A) (A) (A) (A) (A) (A) (A) (A)
                 (A) (A) (A) (A) (A) (A) (A) (A) (A) (A) (A) (A)
                 (A) (A) (A) (A) (A) (A) (A) (A) (A) (A) (A) (A)
                 (A) (A) (A) (A) (A) (A) (A) (A) (A) (A) (A) (A)
                 (A) (A) (A) (A) (A) (A) (A) (A) (A) (A) (A) (A)
                 (A) (A) (A) (A) (A) (A) (A) (A) (A) (A) (A) (A)
                 (A) (A) (A) (A) (A) (A) (A) (A) (A) (A) (A) (A)
                 (A) (A) (A) (A) (A) (A) (A) (A) (A) (A) (A) (A)
                 (A) (A) (A) (A) (A) (A) (A) (A) (A) (A) (A) (A)
                 (A) (A) (A) (A) (A) (A) (A) (A) (A) (A) (A) (A)
                 (A) (A) (A) (A) (A) (A) (A) (A) (A) (A) (A) (A)
                 (A) (A) (A) (A) (A) (A) (A) (A) (A) (A) (A) (A)
                 (A) (A) (A) (A) (A) (A) (A) (A) (A) (A) (A) (A)
                 (A) (A) (A) (A) (A) (A) (A) (A) (A) (A) (A) (A)
                 (A) (A) (A) (A) (A) (A) (A) (A) (A) (A) (A) (A)
                 (A) (A) (A) (A) (A) (A) (A) (A) (A) (A) (A) (A)
                 (A) (A) (A) (A) (A) (A) (A) (A) (A) (A) (A) (A)
                 (A) (A) (A) (A) (A) (A) (A) (A) (A) (A) (A) (A)
                 (A) (A) (A) (A) (A) (A) (A) (A) (A) (A) (A) (A)
                 (A) (A) (A) (A) (A) (A) (A) (A) (A) (A) (A) (A)
                 (A) (A) (A) (A) (A) (A) (A) (A) (A) (A) (A) (A)
                 (A) (A) (A) (A) (A) (A) (A) (A) (A) (A) (A) (A)
                 (A) (A) (A) (A) (A) (A) (A) (A) (A) (A) (A) (A)
                 (A) (A) (A) (A) (A) (A) (A) (A) (A) (A) (A) (A)
                 (A) (A) (A) (A) (A) (A) (A) (A) (A) (A) (A) (A)
                 (A) (A) (A) (A) (A) (A) (A) (A) (A) (A) (A) (A)
                 (A) (A) (A) (A) (A) (A) (A) (A) (A) (A) (A) (A)
                 (A) (A) (A) (A) (A) (A) (A) (A) (A) (A) (A) (A)
                 (A) (A) (A) (A) (A) (A) (A)
 The electronic state is 1-A.
 Alpha  occ. eigenvalues --  -24.88779 -24.88354 -19.33549 -10.39713 -10.39196
 Alpha  occ. eigenvalues --  -10.37576 -10.33405 -10.33126 -10.32248 -10.32232
 Alpha  occ. eigenvalues --  -10.31714 -10.31663 -10.31348 -10.30553 -10.30452
 Alpha  occ. eigenvalues --  -10.30387  -1.27017  -1.26451  -1.10297  -0.90611
 Alpha  occ. eigenvalues --   -0.88217  -0.82090  -0.80191  -0.77158  -0.75930
 Alpha  occ. eigenvalues --   -0.72249  -0.67027  -0.64270  -0.63375  -0.62644
 Alpha  occ. eigenvalues --   -0.58033  -0.56405  -0.55065  -0.53106  -0.52618
 Alpha  occ. eigenvalues --   -0.50161  -0.49797  -0.49533  -0.49120  -0.46264
 Alpha  occ. eigenvalues --   -0.45386  -0.45106  -0.44498  -0.44214  -0.43103
 Alpha  occ. eigenvalues --   -0.41294  -0.40489  -0.39704  -0.39044  -0.38387
 Alpha  occ. eigenvalues --   -0.37767  -0.36442  -0.35705  -0.28933  -0.27148
 Alpha  occ. eigenvalues --   -0.26318  -0.24838
 Alpha virt. eigenvalues --   -0.03675  -0.01613  -0.00703   0.00095   0.03622
 Alpha virt. eigenvalues --    0.04992   0.05923   0.06869   0.08719   0.09766
 Alpha virt. eigenvalues --    0.09952   0.10237   0.11369   0.11663   0.12304
 Alpha virt. eigenvalues --    0.13133   0.14032   0.14683   0.15008   0.16682
 Alpha virt. eigenvalues --    0.17677   0.19031   0.19645   0.20058   0.20672
 Alpha virt. eigenvalues --    0.21167   0.21973   0.22355   0.23022   0.24294
 Alpha virt. eigenvalues --    0.24608   0.25519   0.25665   0.26605   0.27148
 Alpha virt. eigenvalues --    0.27907   0.28354   0.29577   0.30248   0.31055
 Alpha virt. eigenvalues --    0.31111   0.32197   0.32412   0.33317   0.33890
 Alpha virt. eigenvalues --    0.34790   0.35173   0.35840   0.36066   0.36432
 Alpha virt. eigenvalues --    0.36776   0.37302   0.38098   0.39511   0.39937
 Alpha virt. eigenvalues --    0.40063   0.40682   0.41349   0.41520   0.42246
 Alpha virt. eigenvalues --    0.43124   0.43674   0.43993   0.44717   0.45356
 Alpha virt. eigenvalues --    0.45935   0.46118   0.46534   0.47399   0.48209
 Alpha virt. eigenvalues --    0.48756   0.49580   0.50427   0.50838   0.51744
 Alpha virt. eigenvalues --    0.52349   0.53289   0.53749   0.54908   0.56777
 Alpha virt. eigenvalues --    0.58360   0.58892   0.59460   0.61830   0.63337
 Alpha virt. eigenvalues --    0.63959   0.64661   0.65372   0.65505   0.66196
 Alpha virt. eigenvalues --    0.67099   0.67412   0.68159   0.69733   0.70856
 Alpha virt. eigenvalues --    0.71348   0.73262   0.73752   0.74001   0.74625
 Alpha virt. eigenvalues --    0.76510   0.77276   0.77770   0.78401   0.79975
 Alpha virt. eigenvalues --    0.80605   0.82244   0.83187   0.84313   0.84769
 Alpha virt. eigenvalues --    0.85408   0.86405   0.86999   0.87943   0.89205
 Alpha virt. eigenvalues --    0.90500   0.90874   0.92281   0.92998   0.93648
 Alpha virt. eigenvalues --    0.94381   0.94862   0.96054   0.97629   0.98535
 Alpha virt. eigenvalues --    1.00705   1.01641   1.02705   1.03974   1.05110
 Alpha virt. eigenvalues --    1.06355   1.07252   1.09351   1.10330   1.10939
 Alpha virt. eigenvalues --    1.12406   1.12920   1.13331   1.14243   1.15506
 Alpha virt. eigenvalues --    1.17098   1.17332   1.18629   1.20616   1.21497
 Alpha virt. eigenvalues --    1.22582   1.24405   1.25105   1.25478   1.26383
 Alpha virt. eigenvalues --    1.28068   1.28845   1.29586   1.31119   1.33197
 Alpha virt. eigenvalues --    1.34620   1.34864   1.36878   1.37617   1.38637
 Alpha virt. eigenvalues --    1.40377   1.42961   1.43753   1.44759   1.45758
 Alpha virt. eigenvalues --    1.46872   1.47149   1.49117   1.50628   1.51483
 Alpha virt. eigenvalues --    1.52050   1.53812   1.55518   1.55701   1.55972
 Alpha virt. eigenvalues --    1.56966   1.57323   1.58363   1.59984   1.60337
 Alpha virt. eigenvalues --    1.61086   1.62298   1.63284   1.63828   1.64928
 Alpha virt. eigenvalues --    1.66798   1.67096   1.68008   1.68768   1.69739
 Alpha virt. eigenvalues --    1.71006   1.72536   1.73903   1.75258   1.76153
 Alpha virt. eigenvalues --    1.77267   1.81064   1.83076   1.85686   1.85930
 Alpha virt. eigenvalues --    1.87397   1.88798   1.89768   1.90636   1.92429
 Alpha virt. eigenvalues --    1.93259   1.93414   1.95761   1.98196   1.98541
 Alpha virt. eigenvalues --    2.00092   2.02454   2.04272   2.04895   2.05155
 Alpha virt. eigenvalues --    2.07437   2.08743   2.09773   2.11370   2.11852
 Alpha virt. eigenvalues --    2.12408   2.12826   2.14514   2.15145   2.16340
 Alpha virt. eigenvalues --    2.17237   2.18465   2.19695   2.20146   2.21110
 Alpha virt. eigenvalues --    2.22804   2.24246   2.25207   2.26148   2.27801
 Alpha virt. eigenvalues --    2.30237   2.31434   2.32734   2.34715   2.39201
 Alpha virt. eigenvalues --    2.40406   2.40638   2.41753   2.43295   2.44974
 Alpha virt. eigenvalues --    2.45765   2.46195   2.47061   2.49225   2.50745
 Alpha virt. eigenvalues --    2.51300   2.52701   2.55215   2.55426   2.55680
 Alpha virt. eigenvalues --    2.56361   2.57428   2.58705   2.59037   2.59713
 Alpha virt. eigenvalues --    2.60254   2.62207   2.62591   2.63815   2.64685
 Alpha virt. eigenvalues --    2.66651   2.67860   2.68747   2.69707   2.70691
 Alpha virt. eigenvalues --    2.70919   2.72140   2.74268   2.74620   2.75529
 Alpha virt. eigenvalues --    2.75918   2.77044   2.77588   2.78054   2.79273
 Alpha virt. eigenvalues --    2.81300   2.82233   2.83202   2.84767   2.85776
 Alpha virt. eigenvalues --    2.87426   2.87583   2.89242   2.90093   2.91850
 Alpha virt. eigenvalues --    2.92295   2.92584   2.94876   2.95024   2.95332
 Alpha virt. eigenvalues --    2.96262   2.98241   2.99172   3.00030   3.01057
 Alpha virt. eigenvalues --    3.01580   3.02270   3.03019   3.03275   3.04997
 Alpha virt. eigenvalues --    3.05653   3.06511   3.07854   3.08415   3.09320
 Alpha virt. eigenvalues --    3.10673   3.10949   3.13203   3.13927   3.14486
 Alpha virt. eigenvalues --    3.15279   3.16096   3.16491   3.18422   3.18821
 Alpha virt. eigenvalues --    3.19939   3.20378   3.22681   3.23415   3.24301
 Alpha virt. eigenvalues --    3.24884   3.25543   3.25771   3.26787   3.27162
 Alpha virt. eigenvalues --    3.28363   3.29011   3.30181   3.31212   3.32067
 Alpha virt. eigenvalues --    3.33959   3.34824   3.36194   3.36836   3.38254
 Alpha virt. eigenvalues --    3.39499   3.39862   3.40394   3.42368   3.43805
 Alpha virt. eigenvalues --    3.44495   3.44888   3.45364   3.47041   3.47785
 Alpha virt. eigenvalues --    3.48871   3.50104   3.50999   3.52190   3.52683
 Alpha virt. eigenvalues --    3.54018   3.54939   3.55892   3.56968   3.57660
 Alpha virt. eigenvalues --    3.59155   3.59685   3.60748   3.61907   3.62910
 Alpha virt. eigenvalues --    3.65198   3.69221   3.71471   3.73360   3.73987
 Alpha virt. eigenvalues --    3.75992   3.78134   3.79832   3.81092   3.83893
 Alpha virt. eigenvalues --    3.85570   3.86445   3.88027   3.89070   3.89855
 Alpha virt. eigenvalues --    3.92335   3.95255   3.99063   3.99313   4.01005
 Alpha virt. eigenvalues --    4.02027   4.03600   4.03804   4.04962   4.05847
 Alpha virt. eigenvalues --    4.08525   4.08925   4.10083   4.11230   4.11769
 Alpha virt. eigenvalues --    4.14188   4.15481   4.16422   4.18308   4.19115
 Alpha virt. eigenvalues --    4.20027   4.20723   4.22037   4.22707   4.24178
 Alpha virt. eigenvalues --    4.25541   4.28522   4.31148   4.33523   4.35147
 Alpha virt. eigenvalues --    4.37348   4.38299   4.42414   4.43603   4.45642
 Alpha virt. eigenvalues --    4.48256   4.50068   4.52371   4.56576   4.58350
 Alpha virt. eigenvalues --    4.63024   4.63300   4.66243   4.67438   4.68189
 Alpha virt. eigenvalues --    4.70195   4.75779   4.81661   4.83747   4.88861
 Alpha virt. eigenvalues --    4.95709   5.00537   5.01236   5.01859   5.04882
 Alpha virt. eigenvalues --    5.09062   5.11400   5.14399   5.26169   5.26620
 Alpha virt. eigenvalues --    5.29166   5.31606   5.42089   5.44088   5.46553
 Alpha virt. eigenvalues --    5.47849   5.53803   5.59497   5.62446   5.73850
 Alpha virt. eigenvalues --    5.78874   5.96269   6.25665   6.33345   6.42692
 Alpha virt. eigenvalues --    6.71408   6.81011   6.87667   6.88079   6.88761
 Alpha virt. eigenvalues --    6.89421   6.98016   6.98704   6.99933   7.07412
 Alpha virt. eigenvalues --    7.08069   7.22737   7.23164   7.25839   7.40275
 Alpha virt. eigenvalues --    7.41868   7.53628   7.55097   8.36405   8.37559
 Alpha virt. eigenvalues --    8.53968   8.55467   8.75144   8.75824   8.97127
 Alpha virt. eigenvalues --    8.97950   8.99987   9.03213  22.14575  22.21924
 Alpha virt. eigenvalues --   22.40992  22.62103  22.62706  22.63997  22.64971
 Alpha virt. eigenvalues --   22.79393  22.89018  22.94962  23.00412  23.27839
 Alpha virt. eigenvalues --   23.62137  44.06230  57.42829  57.43981
          Condensed to atoms (all electrons):
               1          2          3          4          5          6
     1  C    5.011335   0.288799  -0.064748   0.013868  -0.001924   0.008719
     2  C    0.288799   5.515638   0.400811   0.108350  -0.168964   0.098671
     3  C   -0.064748   0.400811   5.063649   0.396705   0.066306  -0.123825
     4  C    0.013868   0.108350   0.396705   4.988825   0.355583   0.080862
     5  C   -0.001924  -0.168964   0.066306   0.355583   5.136240   0.416689
     6  C    0.008719   0.098671  -0.123825   0.080862   0.416689   4.876419
     7  F   -0.000182   0.012220  -0.002952   0.010021  -0.066856   0.341682
     8  C   -0.053575   0.009023   0.031226  -0.172072   0.097048   0.124269
     9  C   -0.019991  -0.162674   0.026734  -0.010995   0.019023  -0.099145
    10  C    0.025888  -0.048897   0.002281  -0.001933   0.001935   0.023140
    11  O   -0.024072   0.029875   0.001449   0.000132   0.000646  -0.000623
    12  C    0.008013  -0.003773  -0.000174  -0.000000  -0.000112   0.001791
    13  C   -0.000423   0.000494   0.000052  -0.000015   0.000084  -0.000357
    14  C   -0.000887   0.001156  -0.000184   0.000100  -0.000371   0.000303
    15  C   -0.008744   0.042414   0.000154   0.001011  -0.001799  -0.032379
    16  F    0.000788   0.000444  -0.000319   0.000161  -0.000513   0.012803
    17  H    0.412766  -0.048804  -0.004392  -0.000150  -0.000086   0.001689
    18  H    0.372188   0.007429   0.005372  -0.000096  -0.000010  -0.001733
    19  H    0.405531  -0.052450  -0.008420   0.002037  -0.000172   0.000223
    20  H   -0.010900  -0.051196   0.411420  -0.047951   0.007539  -0.001176
    21  H   -0.000512   0.009257  -0.045383   0.413337  -0.042503   0.007067
    22  H    0.000092  -0.004582   0.012835  -0.057477   0.420357  -0.060201
    23  H   -0.001536  -0.005540   0.002784  -0.001073   0.001120   0.000223
    24  H    0.000024  -0.000040  -0.000003   0.000000  -0.000002  -0.000001
    25  H    0.000000  -0.000003  -0.000000   0.000000   0.000000   0.000008
    26  H    0.000008   0.000007  -0.000002   0.000000  -0.000004  -0.000057
               7          8          9         10         11         12
     1  C   -0.000182  -0.053575  -0.019991   0.025888  -0.024072   0.008013
     2  C    0.012220   0.009023  -0.162674  -0.048897   0.029875  -0.003773
     3  C   -0.002952   0.031226   0.026734   0.002281   0.001449  -0.000174
     4  C    0.010021  -0.172072  -0.010995  -0.001933   0.000132  -0.000000
     5  C   -0.066856   0.097048   0.019023   0.001935   0.000646  -0.000112
     6  C    0.341682   0.124269  -0.099145   0.023140  -0.000623   0.001791
     7  F    8.997770  -0.131948   0.016100   0.006011  -0.000108   0.000019
     8  C   -0.131948   6.340763  -0.063835  -0.061727  -0.022002   0.003944
     9  C    0.016100  -0.063835   6.528906   0.068644  -0.094531   0.018425
    10  C    0.006011  -0.061727   0.068644   4.994971   0.342741   0.457767
    11  O   -0.000108  -0.022002  -0.094531   0.342741   7.863004  -0.035149
    12  C    0.000019   0.003944   0.018425   0.457767  -0.035149   5.067869
    13  C    0.000163  -0.006092  -0.132746   0.053521  -0.001876   0.456132
    14  C   -0.000552   0.014182   0.048245  -0.126122   0.002474   0.039640
    15  C    0.009727  -0.054260   0.032815   0.083378   0.000820  -0.117357
    16  F   -0.000655   0.022103  -0.126842   0.006376  -0.000069  -0.001554
    17  H    0.000002  -0.000135  -0.001612  -0.001956  -0.000043  -0.001183
    18  H    0.000001  -0.033983   0.001749  -0.017193   0.021229  -0.002112
    19  H    0.000003   0.010887  -0.000928   0.000056   0.000327  -0.000143
    20  H    0.000006   0.017250  -0.000062   0.000107  -0.000031  -0.000001
    21  H   -0.000112  -0.002261   0.000157  -0.000012   0.000000  -0.000000
    22  H    0.003798   0.023054  -0.000488   0.000015   0.000004  -0.000001
    23  H    0.000076   0.029896  -0.040457  -0.021102   0.298554   0.005736
    24  H   -0.000003  -0.000807   0.018439  -0.048586   0.006172   0.407870
    25  H    0.000000   0.000042  -0.003419   0.012087  -0.000175  -0.053363
    26  H    0.000006  -0.000383   0.024449  -0.004134   0.000029   0.011886
              13         14         15         16         17         18
     1  C   -0.000423  -0.000887  -0.008744   0.000788   0.412766   0.372188
     2  C    0.000494   0.001156   0.042414   0.000444  -0.048804   0.007429
     3  C    0.000052  -0.000184   0.000154  -0.000319  -0.004392   0.005372
     4  C   -0.000015   0.000100   0.001011   0.000161  -0.000150  -0.000096
     5  C    0.000084  -0.000371  -0.001799  -0.000513  -0.000086  -0.000010
     6  C   -0.000357   0.000303  -0.032379   0.012803   0.001689  -0.001733
     7  F    0.000163  -0.000552   0.009727  -0.000655   0.000002   0.000001
     8  C   -0.006092   0.014182  -0.054260   0.022103  -0.000135  -0.033983
     9  C   -0.132746   0.048245   0.032815  -0.126842  -0.001612   0.001749
    10  C    0.053521  -0.126122   0.083378   0.006376  -0.001956  -0.017193
    11  O   -0.001876   0.002474   0.000820  -0.000069  -0.000043   0.021229
    12  C    0.456132   0.039640  -0.117357  -0.001554  -0.001183  -0.002112
    13  C    4.915589   0.377813   0.064433   0.009169   0.000298   0.000186
    14  C    0.377813   5.143332   0.445550  -0.065204   0.000196   0.000583
    15  C    0.064433   0.445550   4.923043   0.332825   0.003744   0.002112
    16  F    0.009169  -0.065204   0.332825   9.007355   0.000031   0.000009
    17  H    0.000298   0.000196   0.003744   0.000031   0.543281  -0.029066
    18  H    0.000186   0.000583   0.002112   0.000009  -0.029066   0.547430
    19  H    0.000012  -0.000033   0.000241   0.000006  -0.020023  -0.019845
    20  H    0.000000  -0.000002  -0.000035  -0.000002  -0.000014   0.000317
    21  H    0.000000   0.000000   0.000011   0.000000   0.000018   0.000024
    22  H    0.000000  -0.000003  -0.000069   0.000005  -0.000004  -0.000003
    23  H    0.000145  -0.000626   0.003710  -0.000004   0.000492  -0.005246
    24  H   -0.051474   0.008973  -0.002096   0.000014  -0.000038   0.000102
    25  H    0.420370  -0.047310   0.008459  -0.000118   0.000002   0.000003
    26  H   -0.056961   0.418760  -0.059923   0.003566   0.000004  -0.000006
              19         20         21         22         23         24
     1  C    0.405531  -0.010900  -0.000512   0.000092  -0.001536   0.000024
     2  C   -0.052450  -0.051196   0.009257  -0.004582  -0.005540  -0.000040
     3  C   -0.008420   0.411420  -0.045383   0.012835   0.002784  -0.000003
     4  C    0.002037  -0.047951   0.413337  -0.057477  -0.001073   0.000000
     5  C   -0.000172   0.007539  -0.042503   0.420357   0.001120  -0.000002
     6  C    0.000223  -0.001176   0.007067  -0.060201   0.000223  -0.000001
     7  F    0.000003   0.000006  -0.000112   0.003798   0.000076  -0.000003
     8  C    0.010887   0.017250  -0.002261   0.023054   0.029896  -0.000807
     9  C   -0.000928  -0.000062   0.000157  -0.000488  -0.040457   0.018439
    10  C    0.000056   0.000107  -0.000012   0.000015  -0.021102  -0.048586
    11  O    0.000327  -0.000031   0.000000   0.000004   0.298554   0.006172
    12  C   -0.000143  -0.000001  -0.000000  -0.000001   0.005736   0.407870
    13  C    0.000012   0.000000   0.000000   0.000000   0.000145  -0.051474
    14  C   -0.000033  -0.000002   0.000000  -0.000003  -0.000626   0.008973
    15  C    0.000241  -0.000035   0.000011  -0.000069   0.003710  -0.002096
    16  F    0.000006  -0.000002   0.000000   0.000005  -0.000004   0.000014
    17  H   -0.020023  -0.000014   0.000018  -0.000004   0.000492  -0.000038
    18  H   -0.019845   0.000317   0.000024  -0.000003  -0.005246   0.000102
    19  H    0.557920   0.004199  -0.000037  -0.000003   0.000019  -0.000001
    20  H    0.004199   0.568859  -0.006177  -0.000243   0.000005   0.000000
    21  H   -0.000037  -0.006177   0.557245  -0.007733   0.000000  -0.000000
    22  H   -0.000003  -0.000243  -0.007733   0.549252  -0.000003   0.000000
    23  H    0.000019   0.000005   0.000000  -0.000003   0.391973  -0.000908
    24  H   -0.000001   0.000000  -0.000000   0.000000  -0.000908   0.556216
    25  H    0.000000  -0.000000   0.000000  -0.000000   0.000037  -0.007714
    26  H   -0.000000   0.000000  -0.000000   0.000000  -0.000008  -0.000178
              25         26
     1  C    0.000000   0.000008
     2  C   -0.000003   0.000007
     3  C   -0.000000  -0.000002
     4  C    0.000000   0.000000
     5  C    0.000000  -0.000004
     6  C    0.000008  -0.000057
     7  F    0.000000   0.000006
     8  C    0.000042  -0.000383
     9  C   -0.003419   0.024449
    10  C    0.012087  -0.004134
    11  O   -0.000175   0.000029
    12  C   -0.053363   0.011886
    13  C    0.420370  -0.056961
    14  C   -0.047310   0.418760
    15  C    0.008459  -0.059923
    16  F   -0.000118   0.003566
    17  H    0.000002   0.000004
    18  H    0.000003  -0.000006
    19  H    0.000000  -0.000000
    20  H   -0.000000   0.000000
    21  H    0.000000  -0.000000
    22  H   -0.000000   0.000000
    23  H    0.000037  -0.000008
    24  H   -0.007714  -0.000178
    25  H    0.563775  -0.007706
    26  H   -0.007706   0.553862
 Mulliken charges:
               1
     1  C   -0.360525
     2  C    0.022334
     3  C   -0.171379
     4  C   -0.079230
     5  C   -0.239252
     6  C    0.324939
     7  F   -0.194238
     8  C   -0.120608
     9  C   -0.045962
    10  C    0.252744
    11  O   -0.388781
    12  C   -0.264168
    13  C   -0.048518
    14  C   -0.260014
    15  C    0.322214
    16  F   -0.200375
    17  H    0.144985
    18  H    0.150559
    19  H    0.120594
    20  H    0.108089
    21  H    0.117613
    22  H    0.121399
    23  H    0.341733
    24  H    0.114041
    25  H    0.115026
    26  H    0.116783
 Sum of Mulliken charges =  -0.00000
 Mulliken charges with hydrogens summed into heavy atoms:
               1
     1  C    0.055613
     2  C    0.022334
     3  C   -0.063290
     4  C    0.038383
     5  C   -0.117853
     6  C    0.324939
     7  F   -0.194238
     8  C   -0.120608
     9  C   -0.045962
    10  C    0.252744
    11  O   -0.047048
    12  C   -0.150127
    13  C    0.066507
    14  C   -0.143231
    15  C    0.322214
    16  F   -0.200375
 Electronic spatial extent (au):  <R**2>=           3164.5701
 Charge=              0.0000 electrons
 Dipole moment (field-independent basis, Debye):
    X=             -1.2192    Y=              1.4777    Z=              0.5395  Tot=              1.9902
 Quadrupole moment (field-independent basis, Debye-Ang):
   XX=            -75.3604   YY=            -93.3754   ZZ=            -94.1750
   XY=             -1.8998   XZ=              1.5866   YZ=              2.5119
 Traceless Quadrupole moment (field-independent basis, Debye-Ang):
   XX=             12.2765   YY=             -5.7385   ZZ=             -6.5380
   XY=             -1.8998   XZ=              1.5866   YZ=              2.5119
 Octapole moment (field-independent basis, Debye-Ang**2):
  XXX=              2.1507  YYY=            -17.3950  ZZZ=             -1.2913  XYY=             -7.6766
  XXY=            -12.3711  XXZ=             -2.2300  XZZ=             -2.1005  YZZ=             -4.1630
  YYZ=              4.6441  XYZ=            -11.7291
 Hexadecapole moment (field-independent basis, Debye-Ang**3):
 XXXX=          -2325.5622 YYYY=          -1006.3530 ZZZZ=           -532.2725 XXXY=             14.1761
 XXXZ=             15.9070 YYYX=             -6.8940 YYYZ=              4.6504 ZZZX=             17.6332
 ZZZY=             -3.3096 XXYY=           -578.4694 XXZZ=           -546.8609 YYZZ=           -255.4875
 XXYZ=             -3.4378 YYXZ=              6.8654 ZZXY=             -6.7805
 N-N= 1.079769449600D+03 E-N=-3.978379904128D+03  KE= 7.736729762863D+02
 Unable to Open any file for archive entry.
 1\1\GINC-SEMLSCPN085\SP\RPW6B95D3\def2TZVP\C13H10F2O1\KTVF206\02-Dec-2
 025\0\\# PW6B95D3 def2tzvp\\example\\0,1\C,0,-0.761373,2.137619,1.3770
 92\C,0,-1.485873,1.031036,0.647047\C,0,-2.895454,0.994341,0.604415\C,0
 ,-3.577474,-0.051527,-0.037803\C,0,-2.864209,-1.090382,-0.654993\C,0,-
 1.466064,-1.049775,-0.618999\F,0,-0.773463,-2.03855,-1.217122\C,0,-0.7
 49205,-0.009796,0.010097\C,0,0.738595,-0.016588,-0.008781\C,0,1.451897
 ,0.95641,-0.757217\O,0,0.790919,1.895999,-1.488991\C,0,2.860593,0.9719
 74,-0.759829\C,0,3.563713,0.006769,-0.025969\C,0,2.887809,-0.981754,0.
 711536\C,0,1.488921,-0.973057,0.700846\F,0,0.819751,-1.906069,1.410368
 \H,0,-0.016783,1.722614,2.087137\H,0,-0.196453,2.787066,0.675421\H,0,-
 1.469922,2.775109,1.940086\H,0,-3.465085,1.796192,1.099659\H,0,-4.6783
 26,-0.062501,-0.054028\H,0,-3.365481,-1.927051,-1.162822\H,0,-0.166735
 ,1.681226,-1.445393\H,0,3.379142,1.740697,-1.350371\H,0,4.66463,0.0185
 29,-0.031589\H,0,3.419813,-1.74993,1.289958\\Version=ES64L-G16RevC.02\
 State=1-A\HF=-777.5834811\RMSD=4.318e-09\Dipole=-0.4796657,0.5813625,0
 .2122495\Quadrupole=9.1272855,-4.2664117,-4.8608738,-1.4124413,1.17961
 26,1.8675448\PG=C01 [X(C13H10F2O1)]\\@
 The archive entry for this job was punched.


 SACRED COWS MAKE GREAT HAMBURGERS -- ROBERT REISNER
 Job cpu time:       0 days  0 hours 33 minutes 26.5 seconds.
 Elapsed time:       0 days  0 hours  8 minutes 28.4 seconds.
 File lengths (MBytes):  RWF=    172 Int=      0 D2E=      0 Chk=     19 Scr=      1
 Normal termination of Gaussian 16 at Tue Dec  2 16:33:30 2025.
