%mem=8000MB
%nprocshared=8
# opt=calcfc freq bp86 def2svp empiricaldispersion=GD3BJ

example

0 1
C   -0.7319820968   1.5669644094  -2.0544934957
C   -1.4706904162   0.7583350085  -1.0231418361
C   -2.8666116874   0.7406951269  -0.9964557046
C   -3.5597454719   0.0279573652  -0.0237726927
C   -2.8726025561  -0.6849966159   0.9506077864
C   -1.4899148290  -0.6651306797   0.9135468355
F   -0.8138374964  -1.3573817435   1.8522433764
C   -0.7591450040   0.0281417030  -0.0492129832
C    0.7219490881  -0.0115481538  -0.0343173314
C    1.4360466877  -0.7256643735  -1.0087212438
O    0.7901968135  -1.4316192729  -1.9777794416
C    2.8295861104  -0.7400411013  -1.0146064512
C    3.5226986424  -0.0483906653  -0.0314236698
C    2.8503527402   0.6561776958   0.9640073402
C    1.4681360151   0.6499146442   0.9354479367
F    0.7960353368   1.3345743229   1.8857716488
H    0.0223442987   2.2036454025  -1.5814494501
H   -0.2012385097   0.9268056487  -2.7685662200
H   -1.4224844829   2.2004253209  -2.6156236463
H   -3.4166216759   1.3071199677  -1.7424621898
H   -4.6456105203   0.0318817717  -0.0189225824
H   -3.3820707715  -1.2458791471   1.7267525321
H   -0.1611808276  -1.4020038725  -1.7968927348
H    3.3462110357  -1.3038695097  -1.7836308478
H    4.6083296863  -0.0622752507  -0.0336003493
H    3.3721750810   1.1974436405   1.7448064759

