%mem=6000MB
%nprocshared=4
# PW6B95D3 def2tzvp

example

0 1
C -0.761373 2.137619 1.377092
C -1.485873 1.031036 0.647047
C -2.895454 0.994341 0.604415
C -3.577474 -0.051527 -0.037803
C -2.864209 -1.090382 -0.654993
C -1.466064 -1.049775 -0.618999
F -0.773463 -2.038550 -1.217122
C -0.749205 -0.009796 0.010097
C 0.738595 -0.016588 -0.008781
C 1.451897 0.956410 -0.757217
O 0.790919 1.895999 -1.488991
C 2.860593 0.971974 -0.759829
C 3.563713 0.006769 -0.025969
C 2.887809 -0.981754 0.711536
C 1.488921 -0.973057 0.700846
F 0.819751 -1.906069 1.410368
H -0.016783 1.722614 2.087137
H -0.196453 2.787066 0.675421
H -1.469922 2.775109 1.940086
H -3.465085 1.796192 1.099659
H -4.678326 -0.062501 -0.054028
H -3.365481 -1.927051 -1.162822
H -0.166735 1.681226 -1.445393
H 3.379142 1.740697 -1.350371
H 4.664630 0.018529 -0.031589
H 3.419813 -1.749930 1.289958

    