 Entering Gaussian System, Link 0=/path/to/g16
 Initial command:
 /path/to/g16 "path/to/scratch/gaussian_tmp/Gau-2666753.inp" -scrdir="path/to/scratch/gaussian_tmp/"
 Entering Link 1 = /path/to/g16 PID=   2666754.
  
 Copyright (c) 1988-2021, Gaussian, Inc.  All Rights Reserved.
  
 This is part of the Gaussian(R) 16 program.  It is based on
 the Gaussian(R) 09 system (copyright 2009, Gaussian, Inc.),
 the Gaussian(R) 03 system (copyright 2003, Gaussian, Inc.),
 the Gaussian(R) 98 system (copyright 1998, Gaussian, Inc.),
 the Gaussian(R) 94 system (copyright 1995, Gaussian, Inc.),
 the Gaussian 92(TM) system (copyright 1992, Gaussian, Inc.),
 the Gaussian 90(TM) system (copyright 1990, Gaussian, Inc.),
 the Gaussian 88(TM) system (copyright 1988, Gaussian, Inc.),
 the Gaussian 86(TM) system (copyright 1986, Carnegie Mellon
 University), and the Gaussian 82(TM) system (copyright 1983,
 Carnegie Mellon University). Gaussian is a federally registered
 trademark of Gaussian, Inc.
  
 This software contains proprietary and confidential information,
 including trade secrets, belonging to Gaussian, Inc.
  
 This software is provided under written license and may be
 used, copied, transmitted, or stored only in accord with that
 written license.
  
 The following legend is applicable only to US Government
 contracts under FAR:
  
                    RESTRICTED RIGHTS LEGEND
  
 Use, reproduction and disclosure by the US Government is
 subject to restrictions as set forth in subparagraphs (a)
 and (c) of the Commercial Computer Software - Restricted
 Rights clause in FAR 52.227-19.
  
 Gaussian, Inc.
 340 Quinnipiac St., Bldg. 40, Wallingford CT 06492
  
  
 ---------------------------------------------------------------
 Warning -- This program may not be used in any manner that
 competes with the business of Gaussian, Inc. or will provide
 assistance to any competitor of Gaussian, Inc.  The licensee
 of this program is prohibited from giving any competitor of
 Gaussian, Inc. access to this program.  By using this program,
 the user acknowledges that Gaussian, Inc. is engaged in the
 business of creating and licensing software in the field of
 computational chemistry and represents and warrants to the
 licensee that it is not a competitor of Gaussian, Inc. and that
 it will not use this program in any manner prohibited above.
 ---------------------------------------------------------------
  

 Cite this work as:
 Gaussian 16, Revision C.02,
 M. J. Frisch, G. W. Trucks, H. B. Schlegel, G. E. Scuseria, 
 M. A. Robb, J. R. Cheeseman, G. Scalmani, V. Barone, 
 G. A. Petersson, H. Nakatsuji, X. Li, M. Caricato, A. V. Marenich, 
 J. Bloino, B. G. Janesko, R. Gomperts, B. Mennucci, H. P. Hratchian, 
 J. V. Ortiz, A. F. Izmaylov, J. L. Sonnenberg, D. Williams-Young, 
 F. Ding, F. Lipparini, F. Egidi, J. Goings, B. Peng, A. Petrone, 
 T. Henderson, D. Ranasinghe, V. G. Zakrzewski, J. Gao, N. Rega, 
 G. Zheng, W. Liang, M. Hada, M. Ehara, K. Toyota, R. Fukuda, 
 J. Hasegawa, M. Ishida, T. Nakajima, Y. Honda, O. Kitao, H. Nakai, 
 T. Vreven, K. Throssell, J. A. Montgomery, Jr., J. E. Peralta, 
 F. Ogliaro, M. J. Bearpark, J. J. Heyd, E. N. Brothers, K. N. Kudin, 
 V. N. Staroverov, T. A. Keith, R. Kobayashi, J. Normand, 
 K. Raghavachari, A. P. Rendell, J. C. Burant, S. S. Iyengar, 
 J. Tomasi, M. Cossi, J. M. Millam, M. Klene, C. Adamo, R. Cammi, 
 J. W. Ochterski, R. L. Martin, K. Morokuma, O. Farkas, 
 J. B. Foresman, and D. J. Fox, Gaussian, Inc., Wallingford CT, 2019.
 
 ******************************************
 Gaussian 16:  ES64L-G16RevC.02  7-Dec-2021
                23-Jul-2026 
 ******************************************
 %mem=8000MB
 %nprocshared=8
 Will use up to    8 processors via shared memory.
 ----------------------------------------------------------------------
 # opt=calcfc freq bp86 empiricaldispersion=GD3BJ def2svp IOP(1/8=2) no
 symm
 ----------------------------------------------------------------------
 1/8=2,10=4,18=20,19=15,26=3,38=1/1,3;
 2/9=110,12=2,15=1,17=6,18=5,40=1/2;
 3/5=43,7=101,11=2,25=1,30=1,71=2,74=404,124=41,140=1/1,2,3;
 4//1;
 5/5=2,38=5/2;
 8/6=4,10=90,11=11/1;
 11/6=1,8=1,9=11,15=111,16=1,31=1/1,2,10;
 10/6=1,13=1,31=1/2;
 6/7=2,8=2,9=2,10=2,28=1/1;
 7/10=1,25=1,30=1/1,2,3,16;
 1/8=2,10=4,18=20,19=15,26=3/3(2);
 2/9=110,15=1/2;
 99//99;
 2/9=110,15=1/2;
 3/5=43,7=101,11=2,25=1,30=1,71=1,74=404,124=41/1,2,3;
 4/5=5,16=3,69=1/1;
 5/5=2,38=5/2;
 7/30=1/1,2,3,16;
 1/8=2,18=20,19=15,26=3/3(-5);
 2/9=110,15=1/2;
 6/7=2,8=2,9=2,10=2,19=2,28=1/1;
 99/9=1/99;
 -------
 example
 -------
 Symbolic Z-matrix:
 Charge =  0 Multiplicity = 1
 C                    -0.73282   1.55652  -2.06542 
 C                    -1.47085   0.75408  -1.02966 
 C                    -2.86702   0.73586  -1.00221 
 C                    -3.56012   0.0273   -0.02665 
 C                    -2.87257  -0.68111   0.95105 
 C                    -1.49004  -0.66098   0.91331 
 F                    -0.81328  -1.34869   1.85564 
 C                    -0.75874   0.02806  -0.05262 
 C                     0.72179  -0.01272  -0.03684 
 C                     1.43742  -0.72404  -1.01278 
 O                     0.79148  -1.42971  -1.98258 
 C                     2.8308   -0.73668  -1.01861 
 C                     3.52346  -0.04628  -0.03405 
 C                     2.85035   0.65508   0.96323 
 C                     1.46795   0.64705   0.9345 
 F                     0.79466   1.32964   1.88625 
 H                    -1.41782   2.21741  -2.59974 
 H                     0.05088   2.16231  -1.60177 
 H                    -0.24012   0.91148  -2.80116 
 H                    -3.41655   1.29873  -1.75005 
 H                    -4.6451    0.0312   -0.02176 
 H                    -3.38087  -1.23791   1.72956 
 H                    -0.15926  -1.40199  -1.79812 
 H                     3.34727  -1.29773  -1.78843 
 H                     4.60821  -0.05856  -0.03661 
 H                     3.37075   1.19499   1.74481 
 

 GradGradGradGradGradGradGradGradGradGradGradGradGradGradGradGradGradGrad
 Berny optimization.
 Initialization pass.
                           ----------------------------
                           !    Initial Parameters    !
                           ! (Angstroms and Degrees)  !
 --------------------------                            --------------------------
 ! Name  Definition              Value          Derivative Info.                !
 --------------------------------------------------------------------------------
 ! R1    R(1,2)                  1.5038         calculate D2E/DX2 analytically  !
 ! R2    R(1,17)                 1.0916         calculate D2E/DX2 analytically  !
 ! R3    R(1,18)                 1.0937         calculate D2E/DX2 analytically  !
 ! R4    R(1,19)                 1.0955         calculate D2E/DX2 analytically  !
 ! R5    R(2,3)                  1.3966         calculate D2E/DX2 analytically  !
 ! R6    R(2,8)                  1.4103         calculate D2E/DX2 analytically  !
 ! R7    R(3,4)                  1.3907         calculate D2E/DX2 analytically  !
 ! R8    R(3,20)                 1.0854         calculate D2E/DX2 analytically  !
 ! R9    R(4,5)                  1.3894         calculate D2E/DX2 analytically  !
 ! R10   R(4,21)                 1.085          calculate D2E/DX2 analytically  !
 ! R11   R(5,6)                  1.3832         calculate D2E/DX2 analytically  !
 ! R12   R(5,22)                 1.0837         calculate D2E/DX2 analytically  !
 ! R13   R(6,7)                  1.3487         calculate D2E/DX2 analytically  !
 ! R14   R(6,8)                  1.3938         calculate D2E/DX2 analytically  !
 ! R15   R(8,9)                  1.4812         calculate D2E/DX2 analytically  !
 ! R16   R(9,10)                 1.4038         calculate D2E/DX2 analytically  !
 ! R17   R(9,15)                 1.3912         calculate D2E/DX2 analytically  !
 ! R18   R(10,11)                1.3623         calculate D2E/DX2 analytically  !
 ! R19   R(10,12)                1.3935         calculate D2E/DX2 analytically  !
 ! R20   R(11,23)                0.9689         calculate D2E/DX2 analytically  !
 ! R21   R(12,13)                1.3877         calculate D2E/DX2 analytically  !
 ! R22   R(12,24)                1.0836         calculate D2E/DX2 analytically  !
 ! R23   R(13,14)                1.3927         calculate D2E/DX2 analytically  !
 ! R24   R(13,25)                1.0848         calculate D2E/DX2 analytically  !
 ! R25   R(14,15)                1.3827         calculate D2E/DX2 analytically  !
 ! R26   R(14,26)                1.0831         calculate D2E/DX2 analytically  !
 ! R27   R(15,16)                1.351          calculate D2E/DX2 analytically  !
 ! A1    A(2,1,17)             110.6242         calculate D2E/DX2 analytically  !
 ! A2    A(2,1,18)             110.8086         calculate D2E/DX2 analytically  !
 ! A3    A(2,1,19)             111.6602         calculate D2E/DX2 analytically  !
 ! A4    A(17,1,18)            108.7745         calculate D2E/DX2 analytically  !
 ! A5    A(17,1,19)            108.0586         calculate D2E/DX2 analytically  !
 ! A6    A(18,1,19)            106.7729         calculate D2E/DX2 analytically  !
 ! A7    A(1,2,3)              120.7399         calculate D2E/DX2 analytically  !
 ! A8    A(1,2,8)              120.2703         calculate D2E/DX2 analytically  !
 ! A9    A(3,2,8)              118.9779         calculate D2E/DX2 analytically  !
 ! A10   A(2,3,4)              121.2425         calculate D2E/DX2 analytically  !
 ! A11   A(2,3,20)             119.0682         calculate D2E/DX2 analytically  !
 ! A12   A(4,3,20)             119.6833         calculate D2E/DX2 analytically  !
 ! A13   A(3,4,5)              120.4483         calculate D2E/DX2 analytically  !
 ! A14   A(3,4,21)             119.9793         calculate D2E/DX2 analytically  !
 ! A15   A(5,4,21)             119.571          calculate D2E/DX2 analytically  !
 ! A16   A(4,5,6)              117.9039         calculate D2E/DX2 analytically  !
 ! A17   A(4,5,22)             122.3679         calculate D2E/DX2 analytically  !
 ! A18   A(6,5,22)             119.7281         calculate D2E/DX2 analytically  !
 ! A19   A(5,6,7)              118.3638         calculate D2E/DX2 analytically  !
 ! A20   A(5,6,8)              123.4046         calculate D2E/DX2 analytically  !
 ! A21   A(7,6,8)              118.2308         calculate D2E/DX2 analytically  !
 ! A22   A(2,8,6)              118.0157         calculate D2E/DX2 analytically  !
 ! A23   A(2,8,9)              121.7549         calculate D2E/DX2 analytically  !
 ! A24   A(6,8,9)              120.2295         calculate D2E/DX2 analytically  !
 ! A25   A(8,9,10)             121.0719         calculate D2E/DX2 analytically  !
 ! A26   A(8,9,15)             122.0377         calculate D2E/DX2 analytically  !
 ! A27   A(10,9,15)            116.8903         calculate D2E/DX2 analytically  !
 ! A28   A(9,10,11)            121.0447         calculate D2E/DX2 analytically  !
 ! A29   A(9,10,12)            121.1495         calculate D2E/DX2 analytically  !
 ! A30   A(11,10,12)           117.8053         calculate D2E/DX2 analytically  !
 ! A31   A(10,11,23)           108.3568         calculate D2E/DX2 analytically  !
 ! A32   A(10,12,13)           119.4475         calculate D2E/DX2 analytically  !
 ! A33   A(10,12,24)           118.9652         calculate D2E/DX2 analytically  !
 ! A34   A(13,12,24)           121.5832         calculate D2E/DX2 analytically  !
 ! A35   A(12,13,14)           121.1545         calculate D2E/DX2 analytically  !
 ! A36   A(12,13,25)           119.4582         calculate D2E/DX2 analytically  !
 ! A37   A(14,13,25)           119.3858         calculate D2E/DX2 analytically  !
 ! A38   A(13,14,15)           117.7368         calculate D2E/DX2 analytically  !
 ! A39   A(13,14,26)           122.3798         calculate D2E/DX2 analytically  !
 ! A40   A(15,14,26)           119.8834         calculate D2E/DX2 analytically  !
 ! A41   A(9,15,14)            123.605          calculate D2E/DX2 analytically  !
 ! A42   A(9,15,16)            117.6576         calculate D2E/DX2 analytically  !
 ! A43   A(14,15,16)           118.7306         calculate D2E/DX2 analytically  !
 ! D1    D(17,1,2,3)            10.9008         calculate D2E/DX2 analytically  !
 ! D2    D(17,1,2,8)          -167.834          calculate D2E/DX2 analytically  !
 ! D3    D(18,1,2,3)           131.6251         calculate D2E/DX2 analytically  !
 ! D4    D(18,1,2,8)           -47.1097         calculate D2E/DX2 analytically  !
 ! D5    D(19,1,2,3)          -109.4869         calculate D2E/DX2 analytically  !
 ! D6    D(19,1,2,8)            71.7783         calculate D2E/DX2 analytically  !
 ! D7    D(1,2,3,4)           -178.2014         calculate D2E/DX2 analytically  !
 ! D8    D(1,2,3,20)             0.9015         calculate D2E/DX2 analytically  !
 ! D9    D(8,2,3,4)              0.5495         calculate D2E/DX2 analytically  !
 ! D10   D(8,2,3,20)           179.6525         calculate D2E/DX2 analytically  !
 ! D11   D(1,2,8,6)            177.7656         calculate D2E/DX2 analytically  !
 ! D12   D(1,2,8,9)             -2.2222         calculate D2E/DX2 analytically  !
 ! D13   D(3,2,8,6)             -0.9913         calculate D2E/DX2 analytically  !
 ! D14   D(3,2,8,9)            179.0209         calculate D2E/DX2 analytically  !
 ! D15   D(2,3,4,5)              0.1326         calculate D2E/DX2 analytically  !
 ! D16   D(2,3,4,21)           179.6992         calculate D2E/DX2 analytically  !
 ! D17   D(20,3,4,5)          -178.9649         calculate D2E/DX2 analytically  !
 ! D18   D(20,3,4,21)            0.6017         calculate D2E/DX2 analytically  !
 ! D19   D(3,4,5,6)             -0.3399         calculate D2E/DX2 analytically  !
 ! D20   D(3,4,5,22)           179.5653         calculate D2E/DX2 analytically  !
 ! D21   D(21,4,5,6)          -179.9082         calculate D2E/DX2 analytically  !
 ! D22   D(21,4,5,22)           -0.0031         calculate D2E/DX2 analytically  !
 ! D23   D(4,5,6,7)           -179.8097         calculate D2E/DX2 analytically  !
 ! D24   D(4,5,6,8)             -0.144          calculate D2E/DX2 analytically  !
 ! D25   D(22,5,6,7)             0.2825         calculate D2E/DX2 analytically  !
 ! D26   D(22,5,6,8)           179.9482         calculate D2E/DX2 analytically  !
 ! D27   D(5,6,8,2)              0.8136         calculate D2E/DX2 analytically  !
 ! D28   D(5,6,8,9)           -179.1984         calculate D2E/DX2 analytically  !
 ! D29   D(7,6,8,2)           -179.5202         calculate D2E/DX2 analytically  !
 ! D30   D(7,6,8,9)              0.4678         calculate D2E/DX2 analytically  !
 ! D31   D(2,8,9,10)           -71.1751         calculate D2E/DX2 analytically  !
 ! D32   D(2,8,9,15)           108.7087         calculate D2E/DX2 analytically  !
 ! D33   D(6,8,9,10)           108.8374         calculate D2E/DX2 analytically  !
 ! D34   D(6,8,9,15)           -71.2788         calculate D2E/DX2 analytically  !
 ! D35   D(8,9,10,11)           -1.8628         calculate D2E/DX2 analytically  !
 ! D36   D(8,9,10,12)          178.4173         calculate D2E/DX2 analytically  !
 ! D37   D(15,9,10,11)         178.2476         calculate D2E/DX2 analytically  !
 ! D38   D(15,9,10,12)          -1.4723         calculate D2E/DX2 analytically  !
 ! D39   D(8,9,15,14)         -178.5281         calculate D2E/DX2 analytically  !
 ! D40   D(8,9,15,16)            0.5134         calculate D2E/DX2 analytically  !
 ! D41   D(10,9,15,14)           1.3603         calculate D2E/DX2 analytically  !
 ! D42   D(10,9,15,16)        -179.5982         calculate D2E/DX2 analytically  !
 ! D43   D(9,10,11,23)          -5.4185         calculate D2E/DX2 analytically  !
 ! D44   D(12,10,11,23)        174.3105         calculate D2E/DX2 analytically  !
 ! D45   D(9,10,12,13)           0.7158         calculate D2E/DX2 analytically  !
 ! D46   D(9,10,12,24)         179.987          calculate D2E/DX2 analytically  !
 ! D47   D(11,10,12,13)       -179.0129         calculate D2E/DX2 analytically  !
 ! D48   D(11,10,12,24)          0.2583         calculate D2E/DX2 analytically  !
 ! D49   D(10,12,13,14)          0.2505         calculate D2E/DX2 analytically  !
 ! D50   D(10,12,13,25)        179.8107         calculate D2E/DX2 analytically  !
 ! D51   D(24,12,13,14)       -179.001          calculate D2E/DX2 analytically  !
 ! D52   D(24,12,13,25)          0.5593         calculate D2E/DX2 analytically  !
 ! D53   D(12,13,14,15)         -0.3868         calculate D2E/DX2 analytically  !
 ! D54   D(12,13,14,26)        179.5803         calculate D2E/DX2 analytically  !
 ! D55   D(25,13,14,15)       -179.9473         calculate D2E/DX2 analytically  !
 ! D56   D(25,13,14,26)          0.0198         calculate D2E/DX2 analytically  !
 ! D57   D(13,14,15,9)          -0.4529         calculate D2E/DX2 analytically  !
 ! D58   D(13,14,15,16)       -179.4847         calculate D2E/DX2 analytically  !
 ! D59   D(26,14,15,9)         179.5792         calculate D2E/DX2 analytically  !
 ! D60   D(26,14,15,16)          0.5473         calculate D2E/DX2 analytically  !
 --------------------------------------------------------------------------------
 Trust Radius=2.00D-02 FncErr=1.00D-07 GrdErr=1.00D-06 EigMax=2.50D+02 EigMin=1.00D-04
 Number of steps in this run=    140 maximum allowed number of steps=    156.
 GradGradGradGradGradGradGradGradGradGradGradGradGradGradGradGradGradGrad

                          Input orientation:                          
 ---------------------------------------------------------------------
 Center     Atomic      Atomic             Coordinates (Angstroms)
 Number     Number       Type             X           Y           Z
 ---------------------------------------------------------------------
      1          6           0       -0.732817    1.556523   -2.065423
      2          6           0       -1.470846    0.754084   -1.029664
      3          6           0       -2.867024    0.735863   -1.002214
      4          6           0       -3.560124    0.027299   -0.026647
      5          6           0       -2.872574   -0.681110    0.951053
      6          6           0       -1.490044   -0.660981    0.913306
      7          9           0       -0.813280   -1.348693    1.855637
      8          6           0       -0.758744    0.028065   -0.052620
      9          6           0        0.721787   -0.012721   -0.036835
     10          6           0        1.437418   -0.724036   -1.012783
     11          8           0        0.791479   -1.429711   -1.982584
     12          6           0        2.830800   -0.736682   -1.018611
     13          6           0        3.523462   -0.046281   -0.034045
     14          6           0        2.850347    0.655075    0.963231
     15          6           0        1.467948    0.647047    0.934500
     16          9           0        0.794657    1.329644    1.886251
     17          1           0       -1.417822    2.217408   -2.599736
     18          1           0        0.050878    2.162305   -1.601770
     19          1           0       -0.240117    0.911481   -2.801158
     20          1           0       -3.416554    1.298733   -1.750046
     21          1           0       -4.645099    0.031197   -0.021757
     22          1           0       -3.380873   -1.237912    1.729559
     23          1           0       -0.159257   -1.401988   -1.798121
     24          1           0        3.347266   -1.297734   -1.788427
     25          1           0        4.608205   -0.058556   -0.036614
     26          1           0        3.370754    1.194993    1.744810
 ---------------------------------------------------------------------
                    Distance matrix (angstroms):
                    1          2          3          4          5
     1  C    0.000000
     2  C    1.503793   0.000000
     3  C    2.521653   1.396566   0.000000
     4  C    3.806415   2.428856   1.390749   0.000000
     5  C    4.322579   2.819195   2.413109   1.389412   0.000000
     6  C    3.789927   2.403729   2.741617   2.375389   1.383192
     7  F    4.880725   3.630294   4.090300   3.602985   2.346195
     8  C    2.527496   1.410252   2.418171   2.801500   2.445110
     9  C    2.948486   2.526132   3.791029   4.282110   3.787096
    10  C    3.319476   3.262380   4.545288   5.149019   4.736510
    11  O    3.353795   3.285595   4.362967   4.988489   4.753095
    12  C    4.365086   4.552655   5.885054   6.512416   6.034164
    13  C    4.981104   5.155091   6.510562   7.083972   6.502515
    14  C    4.777491   4.759637   6.046307   6.516755   5.876849
    15  C    3.830151   3.536370   4.748761   5.156491   4.539208
    16  F    4.242686   3.737156   4.701459   4.931470   4.285593
    17  H    1.091554   2.146917   2.616723   4.000853   4.808931
    18  H    1.093675   2.150822   3.302780   4.480915   4.811287
    19  H    1.095509   2.162789   3.188680   4.416122   4.852346
    20  H    2.714473   2.145081   1.085384   2.146454   3.392880
    21  H    4.670026   3.407979   2.149279   1.084993   2.143732
    22  H    5.405826   3.902507   3.409166   2.171899   1.083729
    23  H    3.025427   2.638075   3.540604   4.092295   3.929339
    24  H    4.987042   5.291492   6.585670   7.250629   6.824323
    25  H    5.937261   6.213003   7.579086   8.168786   7.571335
    26  H    5.611406   5.597607   6.831311   7.248354   6.567264
                    6          7          8          9         10
     6  C    0.000000
     7  F    1.348683   0.000000
     8  C    1.393771   2.353696   0.000000
     9  C    2.493031   2.778975   1.481176   0.000000
    10  C    3.504829   3.699145   2.512110   1.403770   0.000000
    11  O    3.765963   4.160981   2.872814   2.408040   1.362251
    12  C    4.733680   4.681365   3.795102   2.436378   1.393452
    13  C    5.139122   4.906578   4.282892   2.801878   2.401845
    14  C    4.535800   4.270086   3.801398   2.444760   2.793376
    15  C    3.234363   3.167882   2.513106   1.391239   2.381746
    16  F    3.182620   3.124082   2.804708   2.346384   3.610422
    17  H    4.542225   5.738720   3.422778   4.014955   4.395783
    18  H    4.083012   5.002753   2.758684   2.762223   3.255820
    19  H    4.222818   5.207940   2.933233   3.069347   2.947426
    20  H    3.826927   5.175602   3.399972   4.666998   5.310009
    21  H    3.362711   4.484590   3.886479   5.367087   6.208826
    22  H    2.138774   2.573073   3.413857   4.631745   5.567804
    23  H    3.109971   3.712214   2.334782   2.410068   1.904139
    24  H    5.577130   5.530998   4.650815   3.407707   2.139690
    25  H    6.201121   5.885369   5.367672   3.886689   3.383735
    26  H    5.269098   4.897832   4.652443   3.413189   3.876181
                   11         12         13         14         15
    11  O    0.000000
    12  C    2.359738   0.000000
    13  C    3.629657   1.387733   0.000000
    14  C    4.154888   2.421790   1.392676   0.000000
    15  C    3.644162   2.754399   2.375694   1.382720   0.000000
    16  F    4.752046   4.105339   3.609305   2.352205   1.350959
    17  H    4.308523   5.410859   6.010270   5.775196   4.825405
    18  H    3.687288   4.058592   4.403914   4.085094   3.276700
    19  H    2.686156   3.914645   4.768517   4.877226   4.116134
    20  H    5.020561   6.611153   7.274445   6.859316   5.611582
    21  H    5.961164   7.581057   8.168938   7.585587   6.217962
    22  H    5.587962   6.810915   7.224966   6.557344   5.262724
    23  H    0.968863   3.160808   4.302595   4.573214   3.783327
    24  H    2.566547   1.083574   2.162182   3.410574   3.837752
    25  H    4.498251   2.140874   1.084816   2.144535   3.361868
    26  H    5.237861   3.414587   2.174489   1.083143   2.139513
                   16         17         18         19         20
    16  F    0.000000
    17  H    5.080086   0.000000
    18  H    3.662352   1.776528   0.000000
    19  H    4.818446   1.770030   1.757206   0.000000
    20  H    5.563984   2.358149   3.576427   3.368167   0.000000
    21  H    5.909096   4.673416   5.393539   5.282408   2.470416
    22  H    4.904279   5.876700   5.868232   5.917063   4.306216
    23  H    4.684694   3.914920   3.575877   2.522847   4.231571
    24  H    5.188659   5.976664   4.782561   4.333079   7.245163
    25  H    4.490842   6.932721   5.305768   5.664795   8.317142
    26  H    2.583489   6.546058   4.812158   5.812452   7.634942
                   21         22         23         24         25
    21  H    0.000000
    22  H    2.505197   0.000000
    23  H    5.033117   4.780194   0.000000
    24  H    8.292471   7.592606   3.508086   0.000000
    25  H    9.253752   8.266537   5.257034   2.488850   0.000000
    26  H    8.290301   7.176610   5.635392   4.324118   2.505223
                   26
    26  H    0.000000
 Symmetry turned off by external request.
 Stoichiometry    C13H10F2O
 Framework group  C1[X(C13H10F2O)]
 Deg. of freedom    72
 Full point group                 C1      NOp   1
 Rotational constants (GHZ):           0.8897387           0.4444844           0.3848094
 Standard basis: def2SVP (5D, 7F)
   274 basis functions,   470 primitive gaussians,   290 cartesian basis functions
    57 alpha electrons       57 beta electrons
       nuclear repulsion energy      1087.6963516381 Hartrees.
 NAtoms=   26 NActive=   26 NUniq=   26 SFac= 1.00D+00 NAtFMM=   60 NAOKFM=F Big=F
 Integral buffers will be    131072 words long.
 Raffenetti 2 integral format.
 Two-electron integral symmetry is turned off.
 Nuclear repulsion after empirical dispersion term =     1087.6428162272 Hartrees.
 One-electron integrals computed using PRISM.
   1 Symmetry operations used in ECPInt.
 ECPInt:  NShTT=    8001 NPrTT=   29641 LenC2=    7681 LenP2D=   20711.
 LDataN:  DoStor=T MaxTD1= 4 Len=   56
 NBasis=   274 RedAO= T EigKep=  2.07D-04  NBF=   274
 NBsUse=   274 1.00D-06 EigRej= -1.00D+00 NBFU=   274
 ExpMin= 1.22D-01 ExpMax= 2.89D+03 ExpMxC= 4.35D+02 IAcc=3 IRadAn=         5 AccDes= 0.00D+00
 Harris functional with IExCor=  404 and IRadAn=       5 diagonalized for initial guess.
 HarFok:  IExCor=  404 AccDes= 0.00D+00 IRadAn=         5 IDoV= 1 UseB2=F ITyADJ=14
 ICtDFT=  3500011 ScaDFX=  1.000000  1.000000  1.000000  1.000000
 FoFCou: FMM=F IPFlag=           0 FMFlag=      100000 FMFlg1=           0
         NFxFlg=           0 DoJE=T BraDBF=F KetDBF=T FulRan=T
         wScrn=  0.000000 ICntrl=       500 IOpCl=  0 I1Cent=   200000004 NGrid=           0
         NMat0=    1 NMatS0=      1 NMatT0=    0 NMatD0=    1 NMtDS0=    0 NMtDT0=    0
 Symmetry not used in FoFCou.
 Requested convergence on RMS density matrix=1.00D-08 within 128 cycles.
 Requested convergence on MAX density matrix=1.00D-06.
 Requested convergence on             energy=1.00D-06.
 No special actions if energy rises.
 Integral accuracy reduced to 1.0D-05 until final iterations.
 Initial convergence to 1.0D-05 achieved.  Increase integral accuracy.
 SCF Done:  E(RB-P86) =  -775.795925343     A.U. after   16 cycles
            NFock= 16  Conv=0.87D-08     -V/T= 2.0096
 DoSCS=F DFT=T ScalE2(SS,OS)=  1.000000  1.000000
 Range of M.O.s used for correlation:     1   274
 NBasis=   274 NAE=    57 NBE=    57 NFC=     0 NFV=     0
 NROrb=    274 NOA=    57 NOB=    57 NVA=   217 NVB=   217

 **** Warning!!: The largest alpha MO coefficient is  0.12805076D+02

   1 Symmetry operations used in ECPInt.
 ECPInt:  NShTT=    8001 NPrTT=   29641 LenC2=    7681 LenP2D=   20711.
 LDataN:  DoStor=T MaxTD1= 5 Len=  102
 Symmetrizing basis deriv contribution to polar:
 IMax=3 JMax=2 DiffMx= 0.00D+00
 G2DrvN: will do    27 centers at a time, making    1 passes.
 Calling FoFCou, ICntrl=  3507 FMM=F I1Cent=   0 AccDes= 0.00D+00.
 End of G2Drv F.D. properties file   721 does not exist.
 End of G2Drv F.D. properties file   722 does not exist.
 End of G2Drv F.D. properties file   788 does not exist.
          IDoAtm=11111111111111111111111111
          Differentiating once with respect to nuclear coordinates.
 Keep J ints in memory in canonical form, NReq=722055369.
          There are    81 degrees of freedom in the 1st order CPHF.  IDoFFX=6 NUNeed=     0.
     75 vectors produced by pass  0 Test12= 1.53D-14 1.23D-09 XBig12= 1.98D-01 2.09D-01.
 AX will form    75 AO Fock derivatives at one time.
     75 vectors produced by pass  1 Test12= 1.53D-14 1.23D-09 XBig12= 5.84D-02 5.80D-02.
     75 vectors produced by pass  2 Test12= 1.53D-14 1.23D-09 XBig12= 2.67D-04 1.44D-03.
     75 vectors produced by pass  3 Test12= 1.53D-14 1.23D-09 XBig12= 4.53D-07 4.64D-05.
     75 vectors produced by pass  4 Test12= 1.53D-14 1.23D-09 XBig12= 2.83D-10 1.21D-06.
     31 vectors produced by pass  5 Test12= 1.53D-14 1.23D-09 XBig12= 4.71D-14 1.50D-08.
 InvSVY:  IOpt=1 It=  1 EMax= 3.89D-16
 Solved reduced A of dimension   406 with    81 vectors.
 End of Minotr F.D. properties file   721 does not exist.
 End of Minotr F.D. properties file   722 does not exist.
 End of Minotr F.D. properties file   788 does not exist.

 **********************************************************************

            Population analysis using the SCF Density.

 **********************************************************************

 Alpha  occ. eigenvalues --  -24.30249 -24.29688 -18.81612 -10.00161  -9.99490
 Alpha  occ. eigenvalues --   -9.98079  -9.94176  -9.93917  -9.93181  -9.92958
 Alpha  occ. eigenvalues --   -9.92674  -9.92468  -9.92342  -9.91930  -9.91412
 Alpha  occ. eigenvalues --   -9.91256  -1.11043  -1.10351  -0.97257  -0.80289
 Alpha  occ. eigenvalues --   -0.78095  -0.72263  -0.70290  -0.67353  -0.66319
 Alpha  occ. eigenvalues --   -0.63226  -0.58522  -0.55782  -0.54813  -0.54709
 Alpha  occ. eigenvalues --   -0.50828  -0.48917  -0.47470  -0.45986  -0.45254
 Alpha  occ. eigenvalues --   -0.43077  -0.42922  -0.41391  -0.40687  -0.39818
 Alpha  occ. eigenvalues --   -0.38781  -0.38514  -0.37430  -0.36604  -0.36256
 Alpha  occ. eigenvalues --   -0.34953  -0.33985  -0.33538  -0.32353  -0.32144
 Alpha  occ. eigenvalues --   -0.31465  -0.30508  -0.29636  -0.24617  -0.23102
 Alpha  occ. eigenvalues --   -0.22267  -0.20538
 Alpha virt. eigenvalues --   -0.06366  -0.04485  -0.03762  -0.02694   0.03416
 Alpha virt. eigenvalues --    0.03829   0.05036   0.06581   0.08226   0.09009
 Alpha virt. eigenvalues --    0.09712   0.10428   0.10760   0.11273   0.11896
 Alpha virt. eigenvalues --    0.13062   0.13085   0.14090   0.18030   0.19468
 Alpha virt. eigenvalues --    0.21991   0.23972   0.24899   0.25274   0.26558
 Alpha virt. eigenvalues --    0.27567   0.28161   0.29435   0.30046   0.30602
 Alpha virt. eigenvalues --    0.33595   0.35222   0.35606   0.37179   0.37714
 Alpha virt. eigenvalues --    0.39477   0.39590   0.40435   0.41365   0.42021
 Alpha virt. eigenvalues --    0.42663   0.43030   0.43900   0.46372   0.46435
 Alpha virt. eigenvalues --    0.46979   0.48340   0.49848   0.51355   0.51958
 Alpha virt. eigenvalues --    0.52013   0.53187   0.53439   0.54248   0.56156
 Alpha virt. eigenvalues --    0.57508   0.58275   0.59471   0.59730   0.60686
 Alpha virt. eigenvalues --    0.61465   0.61831   0.62397   0.63941   0.64926
 Alpha virt. eigenvalues --    0.65445   0.65791   0.66208   0.67564   0.68296
 Alpha virt. eigenvalues --    0.68701   0.69736   0.71042   0.71520   0.71995
 Alpha virt. eigenvalues --    0.74368   0.75007   0.77254   0.77406   0.78134
 Alpha virt. eigenvalues --    0.80704   0.81307   0.84509   0.87389   0.91765
 Alpha virt. eigenvalues --    0.94191   0.97528   0.98827   1.01327   1.03252
 Alpha virt. eigenvalues --    1.06722   1.07595   1.09695   1.11067   1.13058
 Alpha virt. eigenvalues --    1.13105   1.14932   1.17407   1.17746   1.18025
 Alpha virt. eigenvalues --    1.18607   1.20462   1.21124   1.21783   1.24099
 Alpha virt. eigenvalues --    1.26081   1.29663   1.30922   1.37833   1.38572
 Alpha virt. eigenvalues --    1.40787   1.42226   1.42997   1.45434   1.46088
 Alpha virt. eigenvalues --    1.48062   1.49048   1.50752   1.54774   1.56168
 Alpha virt. eigenvalues --    1.60108   1.61085   1.61897   1.62116   1.63539
 Alpha virt. eigenvalues --    1.64609   1.65021   1.65344   1.67184   1.68689
 Alpha virt. eigenvalues --    1.69648   1.69813   1.72171   1.72401   1.72838
 Alpha virt. eigenvalues --    1.74052   1.74439   1.76214   1.77456   1.77722
 Alpha virt. eigenvalues --    1.79432   1.81191   1.84103   1.85054   1.86118
 Alpha virt. eigenvalues --    1.87727   1.89135   1.90649   1.93169   1.96370
 Alpha virt. eigenvalues --    1.96945   1.99820   2.00170   2.01103   2.03269
 Alpha virt. eigenvalues --    2.04695   2.05859   2.07235   2.08197   2.11417
 Alpha virt. eigenvalues --    2.11653   2.13148   2.13745   2.16344   2.16907
 Alpha virt. eigenvalues --    2.19185   2.19916   2.20848   2.23117   2.24293
 Alpha virt. eigenvalues --    2.26365   2.26883   2.29252   2.35823   2.37135
 Alpha virt. eigenvalues --    2.38458   2.40312   2.46561   2.48684   2.50072
 Alpha virt. eigenvalues --    2.53022   2.53792   2.54759   2.56423   2.57407
 Alpha virt. eigenvalues --    2.62908   2.63792   2.65980   2.68458   2.70134
 Alpha virt. eigenvalues --    2.74137   2.80758   2.82539   2.83283   2.84711
 Alpha virt. eigenvalues --    2.86086   2.88384   2.90113   2.92158   2.93115
 Alpha virt. eigenvalues --    2.97201   2.98516   2.99067   3.02144   3.02950
 Alpha virt. eigenvalues --    3.06807   3.15193   3.20599   3.21231   3.31819
 Alpha virt. eigenvalues --    3.39445   3.42456   3.44708   3.47634   3.69959
 Alpha virt. eigenvalues --    3.76249   3.79960
          Condensed to atoms (all electrons):
               1          2          3          4          5          6
     1  C    4.610887   0.452304  -0.104059   0.018679  -0.002352   0.016848
     2  C    0.452304   5.278347   0.233884   0.147250  -0.173794   0.152980
     3  C   -0.104059   0.233884   5.280382   0.168795   0.145651  -0.188585
     4  C    0.018679   0.147250   0.168795   5.251725   0.097126   0.187920
     5  C   -0.002352  -0.173794   0.145651   0.097126   5.433847   0.194255
     6  C    0.016848   0.152980  -0.188585   0.187920   0.194255   5.072351
     7  F   -0.000045   0.005287  -0.000353   0.005762  -0.070956   0.420701
     8  C   -0.095449   0.148950   0.088668  -0.175437   0.036536   0.065849
     9  C   -0.026870  -0.076696   0.027512  -0.004517   0.024814  -0.110373
    10  C    0.002772  -0.013124  -0.000002   0.000173  -0.000456  -0.006218
    11  O   -0.005123   0.001671  -0.000490   0.000043  -0.000050  -0.000550
    12  C   -0.000399   0.000486  -0.000007   0.000003  -0.000008  -0.000243
    13  C    0.000048   0.000077   0.000003  -0.000000   0.000006   0.000095
    14  C   -0.000189  -0.000374  -0.000009   0.000004  -0.000017   0.000729
    15  C   -0.000702  -0.005342  -0.000430   0.000117   0.000773  -0.003685
    16  F    0.000095  -0.002824  -0.000054   0.000004  -0.000182   0.005299
    17  H    0.366588  -0.008957  -0.015956   0.000652   0.000001  -0.000371
    18  H    0.354660   0.004707   0.006350  -0.000775   0.000171  -0.000441
    19  H    0.349764   0.004246   0.001189  -0.000437   0.000051   0.000178
    20  H   -0.021504  -0.076805   0.447242  -0.083262   0.017397  -0.002401
    21  H   -0.000476   0.017074  -0.072411   0.441193  -0.076981   0.015369
    22  H    0.000038  -0.002641   0.016212  -0.081258   0.434506  -0.073720
    23  H   -0.001085   0.010634   0.000164  -0.000168  -0.000010   0.000516
    24  H    0.000011  -0.000017  -0.000000   0.000000  -0.000000   0.000004
    25  H   -0.000002   0.000000   0.000000  -0.000000   0.000000  -0.000000
    26  H   -0.000002   0.000015  -0.000000   0.000000  -0.000001  -0.000027
               7          8          9         10         11         12
     1  C   -0.000045  -0.095449  -0.026870   0.002772  -0.005123  -0.000399
     2  C    0.005287   0.148950  -0.076696  -0.013124   0.001671   0.000486
     3  C   -0.000353   0.088668   0.027512  -0.000002  -0.000490  -0.000007
     4  C    0.005762  -0.175437  -0.004517   0.000173   0.000043   0.000003
     5  C   -0.070956   0.036536   0.024814  -0.000456  -0.000050  -0.000008
     6  C    0.420701   0.065849  -0.110373  -0.006218  -0.000550  -0.000243
     7  F    8.884474  -0.110864   0.017112  -0.002775  -0.000000  -0.000039
     8  C   -0.110864   6.216800   0.025051  -0.070962  -0.012096   0.019419
     9  C    0.017112   0.025051   6.436020   0.012367  -0.102523   0.026824
    10  C   -0.002775  -0.070962   0.012367   5.168994   0.456955   0.213364
    11  O   -0.000000  -0.012096  -0.102523   0.456955   7.550324  -0.082183
    12  C   -0.000039   0.019419   0.026824   0.213364  -0.082183   5.338356
    13  C    0.000005  -0.003060  -0.174402   0.186790   0.005344   0.150690
    14  C   -0.000193   0.025287   0.040875  -0.193583  -0.000181   0.149242
    15  C    0.004673  -0.074727   0.045247   0.204418   0.004091  -0.172244
    16  F   -0.000504   0.015587  -0.108628   0.004955  -0.000002  -0.000305
    17  H    0.000001   0.012579  -0.000210   0.000148   0.000094   0.000014
    18  H    0.000000  -0.016752   0.015809   0.000297  -0.000306  -0.000080
    19  H   -0.000000  -0.013722  -0.000236  -0.001095   0.017605  -0.001434
    20  H    0.000004   0.021589  -0.000254  -0.000011  -0.000003  -0.000000
    21  H   -0.000077  -0.001683   0.000056  -0.000001   0.000000   0.000000
    22  H    0.001668   0.024575  -0.000391   0.000008   0.000001  -0.000001
    23  H    0.000081   0.014989  -0.035123  -0.006963   0.324860   0.010459
    24  H    0.000001  -0.000374   0.027195  -0.073174   0.000746   0.436077
    25  H    0.000000   0.000011  -0.002380   0.017452  -0.000093  -0.076050
    26  H    0.000002  -0.000335   0.025878  -0.002974   0.000006   0.016712
              13         14         15         16         17         18
     1  C    0.000048  -0.000189  -0.000702   0.000095   0.366588   0.354660
     2  C    0.000077  -0.000374  -0.005342  -0.002824  -0.008957   0.004707
     3  C    0.000003  -0.000009  -0.000430  -0.000054  -0.015956   0.006350
     4  C   -0.000000   0.000004   0.000117   0.000004   0.000652  -0.000775
     5  C    0.000006  -0.000017   0.000773  -0.000182   0.000001   0.000171
     6  C    0.000095   0.000729  -0.003685   0.005299  -0.000371  -0.000441
     7  F    0.000005  -0.000193   0.004673  -0.000504   0.000001   0.000000
     8  C   -0.003060   0.025287  -0.074727   0.015587   0.012579  -0.016752
     9  C   -0.174402   0.040875   0.045247  -0.108628  -0.000210   0.015809
    10  C    0.186790  -0.193583   0.204418   0.004955   0.000148   0.000297
    11  O    0.005344  -0.000181   0.004091  -0.000002   0.000094  -0.000306
    12  C    0.150690   0.149242  -0.172244  -0.000305   0.000014  -0.000080
    13  C    5.268234   0.075704   0.197725   0.005707  -0.000001  -0.000009
    14  C    0.075704   5.480278   0.175556  -0.070257  -0.000001   0.000088
    15  C    0.197725   0.175556   5.043828   0.417356   0.000107  -0.000110
    16  F    0.005707  -0.070257   0.417356   8.893858   0.000003   0.000170
    17  H   -0.000001  -0.000001   0.000107   0.000003   0.651320  -0.020319
    18  H   -0.000009   0.000088  -0.000110   0.000170  -0.020319   0.623487
    19  H    0.000017   0.000139   0.000344   0.000003  -0.018010  -0.018358
    20  H   -0.000000  -0.000000  -0.000010   0.000001   0.008611   0.000292
    21  H   -0.000000   0.000000   0.000000   0.000000   0.000004   0.000012
    22  H    0.000000  -0.000001  -0.000026   0.000003  -0.000001  -0.000001
    23  H   -0.000361  -0.000150   0.000941   0.000003  -0.000019   0.000279
    24  H   -0.088583   0.017202  -0.003266   0.000004  -0.000001  -0.000029
    25  H    0.444957  -0.075593   0.015883  -0.000078   0.000000   0.000001
    26  H   -0.083371   0.436988  -0.076423   0.001468  -0.000000   0.000011
              19         20         21         22         23         24
     1  C    0.349764  -0.021504  -0.000476   0.000038  -0.001085   0.000011
     2  C    0.004246  -0.076805   0.017074  -0.002641   0.010634  -0.000017
     3  C    0.001189   0.447242  -0.072411   0.016212   0.000164  -0.000000
     4  C   -0.000437  -0.083262   0.441193  -0.081258  -0.000168   0.000000
     5  C    0.000051   0.017397  -0.076981   0.434506  -0.000010  -0.000000
     6  C    0.000178  -0.002401   0.015369  -0.073720   0.000516   0.000004
     7  F   -0.000000   0.000004  -0.000077   0.001668   0.000081   0.000001
     8  C   -0.013722   0.021589  -0.001683   0.024575   0.014989  -0.000374
     9  C   -0.000236  -0.000254   0.000056  -0.000391  -0.035123   0.027195
    10  C   -0.001095  -0.000011  -0.000001   0.000008  -0.006963  -0.073174
    11  O    0.017605  -0.000003   0.000000   0.000001   0.324860   0.000746
    12  C   -0.001434  -0.000000   0.000000  -0.000001   0.010459   0.436077
    13  C    0.000017  -0.000000  -0.000000   0.000000  -0.000361  -0.088583
    14  C    0.000139  -0.000000   0.000000  -0.000001  -0.000150   0.017202
    15  C    0.000344  -0.000010   0.000000  -0.000026   0.000941  -0.003266
    16  F    0.000003   0.000001   0.000000   0.000003   0.000003   0.000004
    17  H   -0.018010   0.008611   0.000004  -0.000001  -0.000019  -0.000001
    18  H   -0.018358   0.000292   0.000012  -0.000001   0.000279  -0.000029
    19  H    0.642368   0.000688   0.000012  -0.000002  -0.002029   0.000069
    20  H    0.000688   0.720934  -0.014151  -0.000292  -0.000020   0.000000
    21  H    0.000012  -0.014151   0.703175  -0.014426  -0.000003  -0.000000
    22  H   -0.000002  -0.000292  -0.014426   0.694389  -0.000012   0.000000
    23  H   -0.002029  -0.000020  -0.000003  -0.000012   0.497875  -0.000556
    24  H    0.000069   0.000000  -0.000000   0.000000  -0.000556   0.712547
    25  H    0.000001  -0.000000  -0.000000  -0.000000   0.000021  -0.014643
    26  H   -0.000002   0.000000  -0.000000   0.000000  -0.000003  -0.000227
              25         26
     1  C   -0.000002  -0.000002
     2  C    0.000000   0.000015
     3  C    0.000000  -0.000000
     4  C   -0.000000   0.000000
     5  C    0.000000  -0.000001
     6  C   -0.000000  -0.000027
     7  F    0.000000   0.000002
     8  C    0.000011  -0.000335
     9  C   -0.002380   0.025878
    10  C    0.017452  -0.002974
    11  O   -0.000093   0.000006
    12  C   -0.076050   0.016712
    13  C    0.444957  -0.083371
    14  C   -0.075593   0.436988
    15  C    0.015883  -0.076423
    16  F   -0.000078   0.001468
    17  H    0.000000  -0.000000
    18  H    0.000001   0.000011
    19  H    0.000001  -0.000002
    20  H   -0.000000   0.000000
    21  H   -0.000000  -0.000000
    22  H   -0.000000   0.000000
    23  H    0.000021  -0.000003
    24  H   -0.014643  -0.000227
    25  H    0.701749  -0.014513
    26  H   -0.014513   0.703145
 Mulliken charges:
               1
     1  C    0.085564
     2  C   -0.097336
     3  C   -0.033697
     4  C    0.026408
     5  C   -0.060325
     6  C    0.253521
     7  F   -0.153964
     8  C   -0.140429
     9  C   -0.082157
    10  C    0.102647
    11  O   -0.158138
    12  C   -0.028653
    13  C    0.014386
    14  C   -0.061543
    15  C    0.225904
    16  F   -0.161681
    17  H    0.023723
    18  H    0.050848
    19  H    0.038653
    20  H   -0.018044
    21  H    0.003316
    22  H    0.001374
    23  H    0.185677
    24  H   -0.012985
    25  H    0.003277
    26  H   -0.006347
 Sum of Mulliken charges =  -0.00000
 Mulliken charges with hydrogens summed into heavy atoms:
               1
     1  C    0.198788
     2  C   -0.097336
     3  C   -0.051740
     4  C    0.029724
     5  C   -0.058951
     6  C    0.253521
     7  F   -0.153964
     8  C   -0.140429
     9  C   -0.082157
    10  C    0.102647
    11  O    0.027539
    12  C   -0.041638
    13  C    0.017663
    14  C   -0.067889
    15  C    0.225904
    16  F   -0.161681
 APT charges:
               1
     1  C   -0.487509
     2  C   -0.502786
     3  C   -0.609889
     4  C   -0.376091
     5  C   -0.512655
     6  C   -0.260162
     7  F    0.087406
     8  C   -0.493909
     9  C   -0.410695
    10  C   -0.383521
    11  O    0.162342
    12  C   -0.629932
    13  C   -0.278404
    14  C   -0.564188
    15  C   -0.262647
    16  F    0.085145
    17  H    0.611386
    18  H    0.125556
    19  H    0.226885
    20  H    0.656745
    21  H    0.857845
    22  H    0.663647
    23  H    0.127181
    24  H    0.658767
    25  H    0.851083
    26  H    0.658399
 Sum of APT charges =  -0.00000
 APT charges with hydrogens summed into heavy atoms:
               1
     1  C    0.476318
     2  C   -0.502786
     3  C    0.046857
     4  C    0.481754
     5  C    0.150992
     6  C   -0.260162
     7  F    0.087406
     8  C   -0.493909
     9  C   -0.410695
    10  C   -0.383521
    11  O    0.289522
    12  C    0.028835
    13  C    0.572679
    14  C    0.094211
    15  C   -0.262647
    16  F    0.085145
 Electronic spatial extent (au):  <R**2>=           3120.0329
 Charge=             -0.0000 electrons
 Dipole moment (field-independent basis, Debye):
    X=             -1.2531    Y=              0.4896    Z=             -1.3136  Tot=              1.8803
 Quadrupole moment (field-independent basis, Debye-Ang):
   XX=            -77.8117   YY=            -92.3005   ZZ=            -92.0468
   XY=              1.5075   XZ=              2.1033   YZ=             -2.1611
 Traceless Quadrupole moment (field-independent basis, Debye-Ang):
   XX=              9.5747   YY=             -4.9142   ZZ=             -4.6605
   XY=              1.5075   XZ=              2.1033   YZ=             -2.1611
 Octapole moment (field-independent basis, Debye-Ang**2):
  XXX=              3.4586  YYY=             -6.6244  ZZZ=             33.4994  XYY=             -2.5826
  XXY=             -3.7031  XXZ=             16.3874  XZZ=             -5.0382  YZZ=              2.0205
  YYZ=              8.3341  XYZ=              9.3394
 Hexadecapole moment (field-independent basis, Debye-Ang**3):
 XXXX=          -2343.7845 YYYY=           -541.5447 ZZZZ=           -941.4219 XXXY=             27.6616
 XXXZ=            -16.2329 YYYX=             31.6082 YYYZ=             18.4753 ZZZX=              4.4234
 ZZZY=             12.7038 XXYY=           -535.9636 XXZZ=           -569.4087 YYZZ=           -245.2994
 XXYZ=              5.8314 YYXZ=              6.1419 ZZXY=             12.5717
 N-N= 1.087642816227D+03 E-N=-3.987135456668D+03  KE= 7.683931826539D+02
  Exact polarizability:       0.000       0.000       0.000       0.000       0.000       0.000
 Approx polarizability:     351.005       0.330     196.666       2.106       4.526     273.882
   1 Symmetry operations used in ECPInt.
 ECPInt:  NShTT=    8001 NPrTT=   29641 LenC2=    7681 LenP2D=   20711.
 LDataN:  DoStor=T MaxTD1= 6 Len=  172
 Calling FoFJK, ICntrl=    100527 FMM=F ISym2X=0 I1Cent= 0 IOpClX= 0 NMat=1 NMatS=1 NMatT=0.
 -------------------------------------------------------------------
 Center     Atomic                   Forces (Hartrees/Bohr)
 Number     Number              X              Y              Z
 -------------------------------------------------------------------
      1        6          -0.003551743   -0.003189811    0.004191800
      2        6           0.004753889    0.004325354   -0.006142152
      3        6          -0.001589678    0.000781168   -0.001477471
      4        6          -0.003178256    0.000047078   -0.000176659
      5        6          -0.003246817   -0.000119825    0.000240595
      6        6           0.008290479   -0.008379320    0.011636116
      7        9           0.001202454   -0.001181457    0.001510616
      8        6           0.007022364    0.001083733   -0.002434395
      9        6          -0.006037897   -0.000903398   -0.000759054
     10        6          -0.008004641   -0.007941514   -0.010433440
     11        8           0.009483860   -0.001001070   -0.004558901
     12        6           0.002895364   -0.000387050   -0.000750702
     13        6           0.003278548    0.000225044    0.000206008
     14        6           0.003393990   -0.000023010    0.000285675
     15        6          -0.008397633    0.008761416    0.011838813
     16        9          -0.001214276    0.001191447    0.001741247
     17        1          -0.005787486    0.006334509   -0.005519233
     18        1           0.007314938    0.005503025    0.003717216
     19        1           0.004821740   -0.006026972   -0.006192120
     20        1          -0.005389189    0.005656842   -0.007521477
     21        1          -0.011111217    0.000123759   -0.000086297
     22        1          -0.004712930   -0.005650635    0.007864237
     23        1          -0.010992047    0.001123683    0.002903804
     24        1           0.004695222   -0.005673600   -0.007866883
     25        1           0.011224671   -0.000165065   -0.000084073
     26        1           0.004836290    0.005485673    0.007866729
 -------------------------------------------------------------------
 Cartesian Forces:  Max     0.011838813 RMS     0.005473198
 FormGI is forming the generalized inverse of G from B-inverse, IUseBI=4.

 GradGradGradGradGradGradGradGradGradGradGradGradGradGradGradGradGradGrad
 Berny optimization.
 Internal  Forces:  Max     0.015583982 RMS     0.005395171
 Search for a local minimum.
 Step number   1 out of a maximum of  140
 All quantities printed in internal units (Hartrees-Bohrs-Radians)
 Mixed Optimization -- RFO/linear search
 Second derivative matrix not updated -- analytic derivatives used.
 ITU=  0
     Eigenvalues ---    0.00111   0.00630   0.01164   0.01286   0.01616
     Eigenvalues ---    0.01651   0.01687   0.01731   0.01749   0.01948
     Eigenvalues ---    0.02089   0.02209   0.02284   0.02316   0.02395
     Eigenvalues ---    0.02581   0.02831   0.02941   0.03359   0.03440
     Eigenvalues ---    0.03727   0.05244   0.05398   0.09957   0.10057
     Eigenvalues ---    0.10393   0.11109   0.11533   0.11557   0.11744
     Eigenvalues ---    0.13818   0.14160   0.16528   0.17284   0.17912
     Eigenvalues ---    0.18027   0.18078   0.18148   0.18508   0.18908
     Eigenvalues ---    0.19213   0.21129   0.21761   0.23379   0.24416
     Eigenvalues ---    0.31784   0.33693   0.34951   0.35150   0.35726
     Eigenvalues ---    0.36032   0.36448   0.37265   0.37371   0.37527
     Eigenvalues ---    0.37551   0.37864   0.38006   0.38437   0.39029
     Eigenvalues ---    0.40967   0.44485   0.45759   0.46150   0.47752
     Eigenvalues ---    0.49132   0.49412   0.49618   0.49966   0.51615
     Eigenvalues ---    0.53810   0.54501
 RFO step:  Lambda=-8.23290274D-03 EMin= 1.11428586D-03
 Linear search not attempted -- first point.
 Maximum step size (   0.020) exceeded in Quadratic search.
    -- Step size scaled by   0.147
 Iteration  1 RMS(Cart)=  0.00588215 RMS(Int)=  0.00000722
 Iteration  2 RMS(Cart)=  0.00001488 RMS(Int)=  0.00000020
 Iteration  3 RMS(Cart)=  0.00000000 RMS(Int)=  0.00000020
 Variable       Old X    -DE/DX   Delta X   Delta X   Delta X     New X
                                 (Linear)    (Quad)   (Total)
    R1        2.84176   0.00539   0.00000   0.00186   0.00186   2.84361
    R2        2.06274   0.01017   0.00000   0.00403   0.00403   2.06677
    R3        2.06675   0.00987   0.00000   0.00402   0.00402   2.07077
    R4        2.07021   0.00988   0.00000   0.00401   0.00401   2.07423
    R5        2.63913   0.01363   0.00000   0.00372   0.00372   2.64284
    R6        2.66499   0.01299   0.00000   0.00391   0.00391   2.66890
    R7        2.62813   0.01344   0.00000   0.00353   0.00353   2.63166
    R8        2.05108   0.01084   0.00000   0.00413   0.00413   2.05521
    R9        2.62561   0.01421   0.00000   0.00366   0.00366   2.62926
   R10        2.05034   0.01111   0.00000   0.00418   0.00418   2.05452
   R11        2.61385   0.01554   0.00000   0.00420   0.00420   2.61806
   R12        2.04795   0.01076   0.00000   0.00414   0.00414   2.05209
   R13        2.54864   0.00226   0.00000  -0.00035  -0.00035   2.54830
   R14        2.63384   0.01530   0.00000   0.00449   0.00449   2.63833
   R15        2.79902   0.00514   0.00000   0.00181   0.00181   2.80083
   R16        2.65274   0.01353   0.00000   0.00414   0.00414   2.65688
   R17        2.62906   0.01549   0.00000   0.00424   0.00424   2.63330
   R18        2.57428   0.00183   0.00000  -0.00004  -0.00004   2.57424
   R19        2.63324   0.01468   0.00000   0.00403   0.00403   2.63727
   R20        1.83089   0.01137   0.00000   0.00350   0.00350   1.83438
   R21        2.62244   0.01416   0.00000   0.00369   0.00368   2.62612
   R22        2.04766   0.01076   0.00000   0.00411   0.00411   2.05177
   R23        2.63178   0.01419   0.00000   0.00364   0.00364   2.63541
   R24        2.05000   0.01123   0.00000   0.00422   0.00422   2.05422
   R25        2.61296   0.01558   0.00000   0.00427   0.00427   2.61723
   R26        2.04684   0.01073   0.00000   0.00412   0.00412   2.05096
   R27        2.55294   0.00243   0.00000  -0.00030  -0.00030   2.55264
    A1        1.93076   0.00130   0.00000   0.00130   0.00130   1.93206
    A2        1.93397   0.00052   0.00000   0.00048   0.00048   1.93445
    A3        1.94884  -0.00080   0.00000  -0.00061  -0.00061   1.94823
    A4        1.89847  -0.00055   0.00000  -0.00019  -0.00019   1.89828
    A5        1.88598  -0.00015   0.00000  -0.00007  -0.00007   1.88591
    A6        1.86354  -0.00040   0.00000  -0.00099  -0.00099   1.86255
    A7        2.10731   0.00096   0.00000   0.00041   0.00041   2.10772
    A8        2.09911  -0.00114   0.00000  -0.00031  -0.00031   2.09880
    A9        2.07656   0.00019   0.00000  -0.00008  -0.00008   2.07648
   A10        2.11608  -0.00006   0.00000  -0.00008  -0.00008   2.11600
   A11        2.07813  -0.00009   0.00000  -0.00017  -0.00017   2.07796
   A12        2.08887   0.00015   0.00000   0.00025   0.00025   2.08912
   A13        2.10222  -0.00014   0.00000  -0.00012  -0.00012   2.10209
   A14        2.09403  -0.00010   0.00000   0.00000   0.00000   2.09404
   A15        2.08691   0.00023   0.00000   0.00012   0.00012   2.08703
   A16        2.05781   0.00125   0.00000   0.00111   0.00111   2.05892
   A17        2.13572  -0.00024   0.00000  -0.00012  -0.00012   2.13561
   A18        2.08965  -0.00102   0.00000  -0.00100  -0.00100   2.08865
   A19        2.06584   0.00151   0.00000   0.00098   0.00098   2.06681
   A20        2.15382  -0.00282   0.00000  -0.00172  -0.00172   2.15210
   A21        2.06352   0.00131   0.00000   0.00074   0.00074   2.06426
   A22        2.05976   0.00158   0.00000   0.00089   0.00089   2.06065
   A23        2.12502  -0.00137   0.00000  -0.00036  -0.00036   2.12467
   A24        2.09840  -0.00021   0.00000  -0.00053  -0.00053   2.09787
   A25        2.11310  -0.00281   0.00000  -0.00191  -0.00191   2.11119
   A26        2.12996   0.00014   0.00000   0.00006   0.00006   2.13002
   A27        2.04012   0.00267   0.00000   0.00185   0.00185   2.04198
   A28        2.11263  -0.00131   0.00000  -0.00065  -0.00065   2.11198
   A29        2.11446  -0.00122   0.00000  -0.00104  -0.00104   2.11342
   A30        2.05609   0.00253   0.00000   0.00169   0.00169   2.05778
   A31        1.89118  -0.00196   0.00000  -0.00244  -0.00244   1.88874
   A32        2.08475   0.00041   0.00000   0.00019   0.00019   2.08494
   A33        2.07633  -0.00071   0.00000  -0.00058  -0.00058   2.07576
   A34        2.12203   0.00031   0.00000   0.00039   0.00039   2.12242
   A35        2.11455  -0.00004   0.00000   0.00005   0.00005   2.11459
   A36        2.08494  -0.00005   0.00000  -0.00005  -0.00005   2.08489
   A37        2.08368   0.00009   0.00000  -0.00000  -0.00000   2.08367
   A38        2.05489   0.00125   0.00000   0.00106   0.00106   2.05595
   A39        2.13593  -0.00025   0.00000  -0.00015  -0.00015   2.13578
   A40        2.09236  -0.00100   0.00000  -0.00091  -0.00091   2.09145
   A41        2.15731  -0.00306   0.00000  -0.00210  -0.00210   2.15522
   A42        2.05351   0.00153   0.00000   0.00099   0.00099   2.05450
   A43        2.07224   0.00153   0.00000   0.00111   0.00111   2.07335
    D1        0.19025  -0.00010   0.00000  -0.00127  -0.00127   0.18899
    D2       -2.92926  -0.00048   0.00000  -0.00229  -0.00229  -2.93154
    D3        2.29729   0.00042   0.00000  -0.00033  -0.00033   2.29697
    D4       -0.82222   0.00005   0.00000  -0.00134  -0.00134  -0.82356
    D5       -1.91091  -0.00026   0.00000  -0.00166  -0.00166  -1.91256
    D6        1.25277  -0.00064   0.00000  -0.00267  -0.00267   1.25009
    D7       -3.11020  -0.00038   0.00000  -0.00076  -0.00076  -3.11096
    D8        0.01573  -0.00030   0.00000  -0.00079  -0.00079   0.01494
    D9        0.00959  -0.00003   0.00000   0.00024   0.00024   0.00983
   D10        3.13553   0.00006   0.00000   0.00021   0.00021   3.13574
   D11        3.10259   0.00054   0.00000   0.00104   0.00104   3.10364
   D12       -0.03878   0.00025   0.00000   0.00009   0.00009  -0.03870
   D13       -0.01730   0.00016   0.00000   0.00004   0.00004  -0.01727
   D14        3.12450  -0.00013   0.00000  -0.00092  -0.00092   3.12358
   D15        0.00231  -0.00010   0.00000  -0.00029  -0.00029   0.00202
   D16        3.13634   0.00002   0.00000  -0.00007  -0.00007   3.13627
   D17       -3.12353  -0.00018   0.00000  -0.00025  -0.00025  -3.12378
   D18        0.01050  -0.00006   0.00000  -0.00003  -0.00003   0.01047
   D19       -0.00593   0.00007   0.00000   0.00003   0.00003  -0.00590
   D20        3.13401   0.00011   0.00000   0.00034   0.00034   3.13434
   D21       -3.13999  -0.00005   0.00000  -0.00018  -0.00018  -3.14017
   D22       -0.00005  -0.00001   0.00000   0.00012   0.00012   0.00007
   D23       -3.13827   0.00007   0.00000   0.00044   0.00044  -3.13783
   D24       -0.00251   0.00011   0.00000   0.00027   0.00027  -0.00224
   D25        0.00493   0.00002   0.00000   0.00015   0.00015   0.00508
   D26        3.14069   0.00006   0.00000  -0.00002  -0.00002   3.14067
   D27        0.01420  -0.00022   0.00000  -0.00031  -0.00031   0.01389
   D28       -3.12760   0.00007   0.00000   0.00063   0.00063  -3.12697
   D29       -3.13322  -0.00018   0.00000  -0.00048  -0.00048  -3.13369
   D30        0.00816   0.00011   0.00000   0.00047   0.00047   0.00863
   D31       -1.24224   0.00107   0.00000   0.00639   0.00639  -1.23585
   D32        1.89733   0.00085   0.00000   0.00618   0.00618   1.90350
   D33        1.89957   0.00077   0.00000   0.00541   0.00541   1.90498
   D34       -1.24405   0.00054   0.00000   0.00520   0.00520  -1.23885
   D35       -0.03251   0.00051   0.00000   0.00133   0.00133  -0.03118
   D36        3.11397   0.00005   0.00000   0.00046   0.00046   3.11443
   D37        3.11101   0.00073   0.00000   0.00154   0.00154   3.11254
   D38       -0.02570   0.00026   0.00000   0.00066   0.00066  -0.02503
   D39       -3.11590  -0.00010   0.00000  -0.00053  -0.00053  -3.11643
   D40        0.00896   0.00010   0.00000  -0.00014  -0.00014   0.00882
   D41        0.02374  -0.00032   0.00000  -0.00074  -0.00074   0.02301
   D42       -3.13458  -0.00012   0.00000  -0.00034  -0.00034  -3.13492
   D43       -0.09457  -0.00001   0.00000  -0.00019  -0.00019  -0.09476
   D44        3.04229   0.00043   0.00000   0.00065   0.00065   3.04294
   D45        0.01249  -0.00009   0.00000  -0.00025  -0.00025   0.01225
   D46        3.14137   0.00006   0.00000   0.00011   0.00011   3.14147
   D47       -3.12436  -0.00053   0.00000  -0.00109  -0.00109  -3.12545
   D48        0.00451  -0.00038   0.00000  -0.00073  -0.00073   0.00378
   D49        0.00437  -0.00012   0.00000  -0.00020  -0.00020   0.00417
   D50        3.13829   0.00003   0.00000   0.00005   0.00005   3.13834
   D51       -3.12416  -0.00027   0.00000  -0.00056  -0.00056  -3.12471
   D52        0.00976  -0.00011   0.00000  -0.00031  -0.00031   0.00945
   D53       -0.00675   0.00009   0.00000   0.00016   0.00016  -0.00659
   D54        3.13427   0.00014   0.00000   0.00036   0.00036   3.13463
   D55       -3.14067  -0.00006   0.00000  -0.00009  -0.00009  -3.14076
   D56        0.00035  -0.00002   0.00000   0.00011   0.00011   0.00046
   D57       -0.00790   0.00017   0.00000   0.00035   0.00035  -0.00756
   D58       -3.13260  -0.00003   0.00000  -0.00005  -0.00005  -3.13265
   D59        3.13425   0.00013   0.00000   0.00015   0.00015   3.13440
   D60        0.00955  -0.00008   0.00000  -0.00025  -0.00025   0.00931
         Item               Value     Threshold  Converged?
 Maximum Force            0.015584     0.000450     NO 
 RMS     Force            0.005395     0.000300     NO 
 Maximum Displacement     0.021342     0.001800     NO 
 RMS     Displacement     0.005889     0.001200     NO 
 Predicted change in Energy=-1.125693D-03
 GradGradGradGradGradGradGradGradGradGradGradGradGradGradGradGradGradGrad

                          Input orientation:                          
 ---------------------------------------------------------------------
 Center     Atomic      Atomic             Coordinates (Angstroms)
 Number     Number       Type             X           Y           Z
 ---------------------------------------------------------------------
      1          6           0       -0.732650    1.553323   -2.069407
      2          6           0       -1.471848    0.753273   -1.031210
      3          6           0       -2.869998    0.734052   -1.004686
      4          6           0       -3.564112    0.026345   -0.026555
      5          6           0       -2.875538   -0.680375    0.954392
      6          6           0       -1.490735   -0.660251    0.918380
      7          9           0       -0.814158   -1.345762    1.862186
      8          6           0       -0.758964    0.028807   -0.050603
      9          6           0        0.722537   -0.011573   -0.034672
     10          6           0        1.437395   -0.720813   -1.015834
     11          8           0        0.788820   -1.420774   -1.987985
     12          6           0        2.832899   -0.734125   -1.022142
     13          6           0        3.527391   -0.046909   -0.033894
     14          6           0        2.854274    0.652234    0.967616
     15          6           0        1.469570    0.646025    0.940672
     16          9           0        0.797184    1.325457    1.895098
     17          1           0       -1.417895    2.212997   -2.609243
     18          1           0        0.051688    2.162590   -1.606382
     19          1           0       -0.236736    0.904375   -2.802711
     20          1           0       -3.420348    1.295921   -1.755837
     21          1           0       -4.651305    0.029456   -0.022336
     22          1           0       -3.384929   -1.237086    1.735300
     23          1           0       -0.163012   -1.390694   -1.799846
     24          1           0        3.349350   -1.293519   -1.796229
     25          1           0        4.614357   -0.059832   -0.037080
     26          1           0        3.376593    1.190173    1.752303
 ---------------------------------------------------------------------
                    Distance matrix (angstroms):
                    1          2          3          4          5
     1  C    0.000000
     2  C    1.504775   0.000000
     3  C    2.524499   1.398533   0.000000
     4  C    3.810785   2.432143   1.392617   0.000000
     5  C    4.327209   2.822819   2.416324   1.391346   0.000000
     6  C    3.794928   2.408175   2.746748   2.379749   1.385417
     7  F    4.885567   3.634590   4.095248   3.607252   2.348641
     8  C    2.529904   1.412319   2.421592   2.805252   2.448028
     9  C    2.950697   2.528518   3.795153   4.286824   3.791001
    10  C    3.315238   3.261420   4.546470   5.152861   4.741815
    11  O    3.341669   3.279104   4.358567   4.988925   4.757446
    12  C    4.363750   4.554479   5.888877   6.518531   6.041177
    13  C    4.985178   5.160167   6.517586   7.091885   6.509646
    14  C    4.785551   4.766639   6.055077   6.525013   5.882752
    15  C    3.838429   3.542846   4.756470   5.163088   4.543070
    16  F    4.255540   3.746890   4.712401   4.939772   4.289193
    17  H    1.093689   2.150324   2.621161   4.007240   4.816204
    18  H    1.095803   2.153639   3.307417   4.487026   4.817537
    19  H    1.097633   2.164844   3.193113   4.421471   4.857009
    20  H    2.718144   2.148536   1.087571   2.150095   3.398221
    21  H    4.676380   3.413310   2.152794   1.087206   2.147372
    22  H    5.412648   3.908322   3.414390   2.175430   1.085920
    23  H    3.010711   2.626870   3.531939   4.089014   3.930417
    24  H    4.984161   5.293257   6.589224   7.257392   6.833088
    25  H    5.943324   6.220235   7.588286   8.178929   7.580674
    26  H    5.623452   5.607692   6.843166   7.258940   6.574553
                    6          7          8          9         10
     6  C    0.000000
     7  F    1.348500   0.000000
     8  C    1.396144   2.356109   0.000000
     9  C    2.495529   2.782007   1.482137   0.000000
    10  C    3.509815   3.707162   2.513482   1.405959   0.000000
    11  O    3.771171   4.171209   2.872345   2.409496   1.362230
    12  C    4.739715   4.689827   3.798345   2.439427   1.395582
    13  C    5.144377   4.912351   4.287056   2.805077   2.405502
    14  C    4.539179   4.271960   3.805381   2.447351   2.797656
    15  C    3.235778   3.167304   2.515938   1.393481   2.386880
    16  F    3.183015   3.119762   2.808674   2.348879   3.615330
    17  H    4.550273   5.746560   3.428049   4.019773   4.393049
    18  H    4.089245   5.008911   2.762360   2.765374   3.253143
    19  H    4.226948   5.211315   2.934866   3.069398   2.938857
    20  H    3.834247   5.182741   3.405344   4.672842   5.311543
    21  H    3.368953   4.490695   3.892444   5.374013   6.214677
    22  H    2.141977   2.576194   3.418717   4.637452   5.575848
    23  H    3.112098   3.719743   2.330234   2.408736   1.903869
    24  H    5.585388   5.542701   4.655534   3.412714   2.143031
    25  H    6.208507   5.893183   5.374069   3.892120   3.389387
    26  H    5.273554   4.899534   4.658548   3.417819   3.882645
                   11         12         13         14         15
    11  O    0.000000
    12  C    2.362752   0.000000
    13  C    3.633971   1.389683   0.000000
    14  C    4.159211   2.425198   1.394601   0.000000
    15  C    3.648576   2.759732   2.380035   1.384981   0.000000
    16  F    4.756068   4.110511   3.613645   2.354797   1.350799
    17  H    4.296493   5.410515   6.016266   5.786306   4.836813
    18  H    3.678245   4.058007   4.408528   4.094036   3.286007
    19  H    2.668682   3.908678   4.768642   4.881935   4.122032
    20  H    5.015120   6.615323   7.282813   6.870402   5.621817
    21  H    5.963381   7.589201   8.179061   7.596156   6.226769
    22  H    5.596139   6.820399   7.233723   6.564033   5.267229
    23  H    0.970714   3.164078   4.306207   4.575633   3.784704
    24  H    2.570852   1.085751   2.166001   3.416123   3.845261
    25  H    4.504767   2.144438   1.087047   2.148102   3.368074
    26  H    5.244364   3.419951   2.177983   1.085324   2.142797
                   16         17         18         19         20
    16  F    0.000000
    17  H    5.097391   0.000000
    18  H    3.676536   1.779873   0.000000
    19  H    4.828635   1.773432   1.759971   0.000000
    20  H    5.578332   2.362022   3.581688   3.374113   0.000000
    21  H    5.919646   4.681333   5.401630   5.290027   2.474715
    22  H    4.907365   5.886200   5.876646   5.923725   4.313400
    23  H    4.685303   3.900826   3.565017   2.505696   4.222567
    24  H    5.196006   5.973549   4.780722   4.324785   7.248148
    25  H    4.497015   6.940450   5.312233   5.666703   8.327586
    26  H    2.586898   6.561735   4.825075   5.821166   7.649617
                   21         22         23         24         25
    21  H    0.000000
    22  H    2.509406   0.000000
    23  H    5.032012   4.785562   0.000000
    24  H    8.301051   7.604302   3.513709   0.000000
    25  H    9.266104   8.277429   5.263250   2.493358   0.000000
    26  H    8.303237   7.184014   5.639808   4.331460   2.509275
                   26
    26  H    0.000000
 Symmetry turned off by external request.
 Stoichiometry    C13H10F2O
 Framework group  C1[X(C13H10F2O)]
 Deg. of freedom    72
 Full point group                 C1      NOp   1
 Rotational constants (GHZ):           0.8877275           0.4442256           0.3835302
 Standard basis: def2SVP (5D, 7F)
   274 basis functions,   470 primitive gaussians,   290 cartesian basis functions
    57 alpha electrons       57 beta electrons
       nuclear repulsion energy      1086.5833593259 Hartrees.
 NAtoms=   26 NActive=   26 NUniq=   26 SFac= 1.00D+00 NAtFMM=   60 NAOKFM=F Big=F
 Integral buffers will be    131072 words long.
 Raffenetti 2 integral format.
 Two-electron integral symmetry is turned off.
 Nuclear repulsion after empirical dispersion term =     1086.5298631998 Hartrees.
 One-electron integrals computed using PRISM.
   1 Symmetry operations used in ECPInt.
 ECPInt:  NShTT=    8001 NPrTT=   29641 LenC2=    7680 LenP2D=   20698.
 LDataN:  DoStor=T MaxTD1= 4 Len=   56
 NBasis=   274 RedAO= T EigKep=  2.10D-04  NBF=   274
 NBsUse=   274 1.00D-06 EigRej= -1.00D+00 NBFU=   274
 Initial guess from the checkpoint file:  "path/to/scratch/gaussian_tmp/Gau-2666754.chk"
 B after Tr=    -0.000027    0.000626    0.002127
         Rot=    1.000000   -0.000322   -0.000054    0.000016 Ang=  -0.04 deg.
 ExpMin= 1.22D-01 ExpMax= 2.89D+03 ExpMxC= 4.35D+02 IAcc=3 IRadAn=         5 AccDes= 0.00D+00
 Harris functional with IExCor=  404 and IRadAn=       5 diagonalized for initial guess.
 HarFok:  IExCor=  404 AccDes= 0.00D+00 IRadAn=         5 IDoV= 1 UseB2=F ITyADJ=14
 ICtDFT=  3500011 ScaDFX=  1.000000  1.000000  1.000000  1.000000
 FoFCou: FMM=F IPFlag=           0 FMFlag=      100000 FMFlg1=           0
         NFxFlg=           0 DoJE=T BraDBF=F KetDBF=T FulRan=T
         wScrn=  0.000000 ICntrl=       500 IOpCl=  0 I1Cent=   200000004 NGrid=           0
         NMat0=    1 NMatS0=      1 NMatT0=    0 NMatD0=    1 NMtDS0=    0 NMtDT0=    0
 Symmetry not used in FoFCou.
 Requested convergence on RMS density matrix=1.00D-08 within 128 cycles.
 Requested convergence on MAX density matrix=1.00D-06.
 Requested convergence on             energy=1.00D-06.
 No special actions if energy rises.
 Integral accuracy reduced to 1.0D-05 until final iterations.
 Initial convergence to 1.0D-05 achieved.  Increase integral accuracy.
 SCF Done:  E(RB-P86) =  -775.797054519     A.U. after   11 cycles
            NFock= 11  Conv=0.69D-08     -V/T= 2.0098
   1 Symmetry operations used in ECPInt.
 ECPInt:  NShTT=    8001 NPrTT=   29641 LenC2=    7680 LenP2D=   20698.
 LDataN:  DoStor=T MaxTD1= 5 Len=  102
 Calling FoFJK, ICntrl=      2527 FMM=F ISym2X=0 I1Cent= 0 IOpClX= 0 NMat=1 NMatS=1 NMatT=0.
 -------------------------------------------------------------------
 Center     Atomic                   Forces (Hartrees/Bohr)
 Number     Number              X              Y              Z
 -------------------------------------------------------------------
      1        6          -0.003081523   -0.002720836    0.003599237
      2        6           0.004069545    0.003683947   -0.005271204
      3        6          -0.001359634    0.000658438   -0.001255840
      4        6          -0.002710062    0.000038114   -0.000150852
      5        6          -0.002771879   -0.000080919    0.000181598
      6        6           0.007105618   -0.007140556    0.010023981
      7        9           0.001025322   -0.001005404    0.001287845
      8        6           0.006000886    0.000932883   -0.002082820
      9        6          -0.005142152   -0.000779775   -0.000645703
     10        6          -0.006870946   -0.006752835   -0.008984703
     11        8           0.008113877   -0.000858076   -0.003945881
     12        6           0.002479722   -0.000325240   -0.000624953
     13        6           0.002793070    0.000191631    0.000176677
     14        6           0.002898680   -0.000047485    0.000221837
     15        6          -0.007196411    0.007468507    0.010204664
     16        9          -0.001034086    0.001011411    0.001487763
     17        1          -0.004950207    0.005396347   -0.004773890
     18        1           0.006258791    0.004736685    0.003172573
     19        1           0.004163617   -0.005180684   -0.005264854
     20        1          -0.004613565    0.004829214   -0.006458794
     21        1          -0.009518762    0.000098643   -0.000079583
     22        1          -0.004037152   -0.004832236    0.006744702
     23        1          -0.009400889    0.000984893    0.002526559
     24        1           0.004012321   -0.004835231   -0.006763913
     25        1           0.009615763   -0.000147548   -0.000076638
     26        1           0.004150056    0.004676113    0.006752190
 -------------------------------------------------------------------
 Cartesian Forces:  Max     0.010204664 RMS     0.004690331

 GradGradGradGradGradGradGradGradGradGradGradGradGradGradGradGradGradGrad
 Berny optimization.
 Using GEDIIS/GDIIS optimizer.
 FormGI is forming the generalized inverse of G from B-inverse, IUseBI=4.
 Internal  Forces:  Max     0.013337822 RMS     0.004619310
 Search for a local minimum.
 Step number   2 out of a maximum of  140
 All quantities printed in internal units (Hartrees-Bohrs-Radians)
 Mixed Optimization -- RFO/linear search
 Update second derivatives using D2CorX and points    1    2
 DE= -1.13D-03 DEPred=-1.13D-03 R= 1.00D+00
 TightC=F SS=  1.41D+00  RLast= 2.38D-02 DXNew= 3.3636D-02 7.1359D-02
 Trust test= 1.00D+00 RLast= 2.38D-02 DXMaxT set to 5.00D-02
 ITU=  1  0
 Use linear search instead of GDIIS.
     Eigenvalues ---    0.00111   0.00631   0.01164   0.01286   0.01616
     Eigenvalues ---    0.01651   0.01687   0.01731   0.01749   0.01948
     Eigenvalues ---    0.02089   0.02209   0.02284   0.02316   0.02395
     Eigenvalues ---    0.02581   0.02831   0.02942   0.03359   0.03440
     Eigenvalues ---    0.03728   0.05244   0.05398   0.09957   0.10057
     Eigenvalues ---    0.10393   0.11109   0.11533   0.11557   0.11744
     Eigenvalues ---    0.13818   0.14160   0.16528   0.17285   0.17912
     Eigenvalues ---    0.18027   0.18078   0.18148   0.18509   0.18908
     Eigenvalues ---    0.19214   0.21128   0.21763   0.23381   0.24416
     Eigenvalues ---    0.31784   0.33690   0.34947   0.35150   0.35714
     Eigenvalues ---    0.36024   0.36449   0.37261   0.37361   0.37522
     Eigenvalues ---    0.37537   0.37857   0.37994   0.38437   0.39028
     Eigenvalues ---    0.40961   0.44481   0.45761   0.46148   0.47747
     Eigenvalues ---    0.49131   0.49412   0.49614   0.49966   0.51604
     Eigenvalues ---    0.53711   0.54399
 RFO step:  Lambda=-1.04919708D-02 EMin= 1.11427654D-03
 Quartic linear search produced a step of  2.00000.
 Maximum step size (   0.050) exceeded in Quadratic search.
    -- Step size scaled by   0.550
 Iteration  1 RMS(Cart)=  0.12329652 RMS(Int)=  0.00346373
 Iteration  2 RMS(Cart)=  0.00590192 RMS(Int)=  0.00001476
 Iteration  3 RMS(Cart)=  0.00001379 RMS(Int)=  0.00001259
 Iteration  4 RMS(Cart)=  0.00000000 RMS(Int)=  0.00001259
 Variable       Old X    -DE/DX   Delta X   Delta X   Delta X     New X
                                 (Linear)    (Quad)   (Total)
    R1        2.84361   0.00462   0.00371  -0.00047   0.00324   2.84685
    R2        2.06677   0.00871   0.00807   0.00191   0.00998   2.07675
    R3        2.07077   0.00845   0.00804  -0.00028   0.00777   2.07854
    R4        2.07423   0.00846   0.00803   0.00238   0.01041   2.08464
    R5        2.64284   0.01166   0.00743   0.00212   0.00955   2.65239
    R6        2.66890   0.01113   0.00781  -0.00080   0.00702   2.67591
    R7        2.63166   0.01150   0.00706   0.00434   0.01140   2.64307
    R8        2.05521   0.00929   0.00827   0.00163   0.00989   2.06510
    R9        2.62926   0.01216   0.00731   0.00392   0.01123   2.64050
   R10        2.05452   0.00952   0.00836   0.00186   0.01023   2.06475
   R11        2.61806   0.01330   0.00841   0.00491   0.01332   2.63138
   R12        2.05209   0.00922   0.00828   0.00141   0.00969   2.06178
   R13        2.54830   0.00193  -0.00069   0.00238   0.00169   2.54998
   R14        2.63833   0.01310   0.00897   0.00076   0.00973   2.64806
   R15        2.80083   0.00440   0.00363   0.00274   0.00637   2.80720
   R16        2.65688   0.01158   0.00827  -0.00003   0.00824   2.66512
   R17        2.63330   0.01326   0.00848   0.00009   0.00857   2.64187
   R18        2.57424   0.00156  -0.00008  -0.00187  -0.00195   2.57230
   R19        2.63727   0.01256   0.00805   0.00389   0.01194   2.64921
   R20        1.83438   0.00974   0.00700   0.00216   0.00915   1.84354
   R21        2.62612   0.01212   0.00737   0.00423   0.01159   2.63771
   R22        2.05177   0.00922   0.00823   0.00153   0.00975   2.06153
   R23        2.63541   0.01214   0.00727   0.00439   0.01166   2.64707
   R24        2.05422   0.00962   0.00843   0.00186   0.01029   2.06452
   R25        2.61723   0.01334   0.00854   0.00441   0.01296   2.63019
   R26        2.05096   0.00920   0.00824   0.00143   0.00967   2.06063
   R27        2.55264   0.00207  -0.00060   0.00331   0.00271   2.55535
    A1        1.93206   0.00112   0.00260  -0.00178   0.00081   1.93286
    A2        1.93445   0.00045   0.00095   0.00269   0.00365   1.93810
    A3        1.94823  -0.00069  -0.00122  -0.00691  -0.00813   1.94009
    A4        1.89828  -0.00047  -0.00038  -0.00070  -0.00109   1.89719
    A5        1.88591  -0.00013  -0.00014  -0.00196  -0.00211   1.88380
    A6        1.86255  -0.00035  -0.00198   0.00901   0.00704   1.86958
    A7        2.10772   0.00082   0.00082   0.00796   0.00877   2.11649
    A8        2.09880  -0.00097  -0.00062  -0.00821  -0.00884   2.08996
    A9        2.07648   0.00016  -0.00015   0.00035   0.00018   2.07665
   A10        2.11600  -0.00005  -0.00016  -0.00210  -0.00227   2.11373
   A11        2.07796  -0.00008  -0.00035   0.00275   0.00239   2.08035
   A12        2.08912   0.00013   0.00051  -0.00054  -0.00004   2.08908
   A13        2.10209  -0.00012  -0.00025   0.00244   0.00219   2.10428
   A14        2.09404  -0.00008   0.00001  -0.00120  -0.00119   2.09284
   A15        2.08703   0.00020   0.00025  -0.00123  -0.00099   2.08604
   A16        2.05892   0.00108   0.00223  -0.00284  -0.00061   2.05831
   A17        2.13561  -0.00021  -0.00023  -0.00060  -0.00084   2.13476
   A18        2.08865  -0.00088  -0.00200   0.00343   0.00142   2.09007
   A19        2.06681   0.00129   0.00195   0.00166   0.00359   2.07040
   A20        2.15210  -0.00242  -0.00343  -0.00039  -0.00383   2.14828
   A21        2.06426   0.00112   0.00148  -0.00122   0.00024   2.06450
   A22        2.06065   0.00135   0.00177   0.00267   0.00444   2.06509
   A23        2.12467  -0.00116  -0.00071  -0.00748  -0.00819   2.11647
   A24        2.09787  -0.00019  -0.00106   0.00481   0.00374   2.10161
   A25        2.11119  -0.00241  -0.00383  -0.00773  -0.01158   2.09961
   A26        2.13002   0.00012   0.00012   0.00483   0.00493   2.13495
   A27        2.04198   0.00229   0.00371   0.00288   0.00659   2.04856
   A28        2.11198  -0.00112  -0.00129  -0.00482  -0.00612   2.10586
   A29        2.11342  -0.00105  -0.00207  -0.00057  -0.00264   2.11078
   A30        2.05778   0.00217   0.00337   0.00541   0.00877   2.06655
   A31        1.88874  -0.00169  -0.00489   0.00154  -0.00335   1.88539
   A32        2.08494   0.00035   0.00038  -0.00177  -0.00139   2.08355
   A33        2.07576  -0.00061  -0.00115   0.00304   0.00189   2.07764
   A34        2.12242   0.00027   0.00078  -0.00126  -0.00048   2.12194
   A35        2.11459  -0.00004   0.00010   0.00206   0.00215   2.11675
   A36        2.08489  -0.00004  -0.00009  -0.00109  -0.00118   2.08371
   A37        2.08367   0.00008  -0.00000  -0.00096  -0.00096   2.08271
   A38        2.05595   0.00108   0.00211  -0.00258  -0.00047   2.05548
   A39        2.13578  -0.00022  -0.00029  -0.00031  -0.00061   2.13517
   A40        2.09145  -0.00086  -0.00182   0.00288   0.00106   2.09251
   A41        2.15522  -0.00263  -0.00419  -0.00004  -0.00423   2.15099
   A42        2.05450   0.00131   0.00198  -0.00157   0.00040   2.05491
   A43        2.07335   0.00132   0.00223   0.00165   0.00387   2.07722
    D1        0.18899  -0.00010  -0.00254   0.07300   0.07047   0.25945
    D2       -2.93154  -0.00043  -0.00457   0.06774   0.06317  -2.86837
    D3        2.29697   0.00036  -0.00065   0.07272   0.07207   2.36904
    D4       -0.82356   0.00003  -0.00269   0.06746   0.06478  -0.75878
    D5       -1.91256  -0.00023  -0.00331   0.08133   0.07801  -1.83456
    D6        1.25009  -0.00056  -0.00535   0.07607   0.07071   1.32081
    D7       -3.11096  -0.00033  -0.00152  -0.01534  -0.01689  -3.12785
    D8        0.01494  -0.00026  -0.00158  -0.00711  -0.00872   0.00622
    D9        0.00983  -0.00002   0.00049  -0.01025  -0.00975   0.00008
   D10        3.13574   0.00005   0.00042  -0.00202  -0.00159   3.13415
   D11        3.10364   0.00047   0.00208   0.01572   0.01778   3.12142
   D12       -0.03870   0.00021   0.00017   0.02380   0.02393  -0.01476
   D13       -0.01727   0.00014   0.00007   0.01046   0.01055  -0.00672
   D14        3.12358  -0.00012  -0.00184   0.01854   0.01670   3.14028
   D15        0.00202  -0.00009  -0.00058   0.00279   0.00221   0.00424
   D16        3.13627   0.00002  -0.00014   0.00330   0.00316   3.13943
   D17       -3.12378  -0.00016  -0.00051  -0.00551  -0.00602  -3.12980
   D18        0.01047  -0.00005  -0.00007  -0.00500  -0.00507   0.00539
   D19       -0.00590   0.00006   0.00007   0.00418   0.00425  -0.00165
   D20        3.13434   0.00010   0.00067  -0.00442  -0.00375   3.13059
   D21       -3.14017  -0.00005  -0.00037   0.00367   0.00331  -3.13687
   D22        0.00007  -0.00000   0.00024  -0.00493  -0.00469  -0.00463
   D23       -3.13783   0.00006   0.00088  -0.01400  -0.01314   3.13222
   D24       -0.00224   0.00009   0.00055  -0.00370  -0.00316  -0.00539
   D25        0.00508   0.00002   0.00029  -0.00564  -0.00535  -0.00027
   D26        3.14067   0.00005  -0.00004   0.00467   0.00463  -3.13788
   D27        0.01389  -0.00019  -0.00062  -0.00367  -0.00428   0.00961
   D28       -3.12697   0.00007   0.00126  -0.01161  -0.01037  -3.13734
   D29       -3.13369  -0.00016  -0.00095   0.00663   0.00568  -3.12801
   D30        0.00863   0.00010   0.00093  -0.00131  -0.00041   0.00822
   D31       -1.23585   0.00096   0.01277  -0.18289  -0.17014  -1.40599
   D32        1.90350   0.00077   0.01235  -0.19285  -0.18047   1.72303
   D33        1.90498   0.00069   0.01082  -0.17465  -0.16386   1.74113
   D34       -1.23885   0.00050   0.01040  -0.18460  -0.17419  -1.41304
   D35       -0.03118   0.00045   0.00267  -0.00498  -0.00230  -0.03348
   D36        3.11443   0.00005   0.00092  -0.00985  -0.00888   3.10555
   D37        3.11254   0.00063   0.00307   0.00449   0.00753   3.12007
   D38       -0.02503   0.00023   0.00133  -0.00038   0.00095  -0.02408
   D39       -3.11643  -0.00009  -0.00106   0.01184   0.01083  -3.10560
   D40        0.00882   0.00008  -0.00028   0.01471   0.01448   0.02330
   D41        0.02301  -0.00028  -0.00147   0.00225   0.00076   0.02377
   D42       -3.13492  -0.00011  -0.00069   0.00512   0.00441  -3.13051
   D43       -0.09476  -0.00001  -0.00038   0.01912   0.01874  -0.07602
   D44        3.04294   0.00037   0.00130   0.02383   0.02513   3.06807
   D45        0.01225  -0.00008  -0.00049  -0.00060  -0.00108   0.01117
   D46        3.14147   0.00005   0.00022   0.00026   0.00048  -3.14123
   D47       -3.12545  -0.00046  -0.00217  -0.00530  -0.00748  -3.13293
   D48        0.00378  -0.00033  -0.00146  -0.00445  -0.00592  -0.00215
   D49        0.00417  -0.00011  -0.00040  -0.00023  -0.00064   0.00353
   D50        3.13834   0.00003   0.00009   0.00130   0.00140   3.13973
   D51       -3.12471  -0.00023  -0.00112  -0.00113  -0.00226  -3.12697
   D52        0.00945  -0.00010  -0.00062   0.00040  -0.00022   0.00923
   D53       -0.00659   0.00008   0.00031   0.00194   0.00226  -0.00433
   D54        3.13463   0.00012   0.00072  -0.00514  -0.00440   3.13023
   D55       -3.14076  -0.00005  -0.00018   0.00041   0.00023  -3.14054
   D56        0.00046  -0.00002   0.00023  -0.00667  -0.00644  -0.00598
   D57       -0.00756   0.00014   0.00070  -0.00300  -0.00229  -0.00984
   D58       -3.13265  -0.00003  -0.00009  -0.00587  -0.00595  -3.13860
   D59        3.13440   0.00011   0.00030   0.00390   0.00421   3.13860
   D60        0.00931  -0.00007  -0.00049   0.00102   0.00054   0.00985
         Item               Value     Threshold  Converged?
 Maximum Force            0.013338     0.000450     NO 
 RMS     Force            0.004619     0.000300     NO 
 Maximum Displacement     0.369897     0.001800     NO 
 RMS     Displacement     0.124287     0.001200     NO 
 Predicted change in Energy=-9.921708D-04
 GradGradGradGradGradGradGradGradGradGradGradGradGradGradGradGradGradGrad

                          Input orientation:                          
 ---------------------------------------------------------------------
 Center     Atomic      Atomic             Coordinates (Angstroms)
 Number     Number       Type             X           Y           Z
 ---------------------------------------------------------------------
      1          6           0       -0.707348    1.646838   -1.987034
      2          6           0       -1.469031    0.799286   -1.001640
      3          6           0       -2.872439    0.788626   -0.981896
      4          6           0       -3.576206    0.012992   -0.054897
      5          6           0       -2.894028   -0.769088    0.880735
      6          6           0       -1.501914   -0.750066    0.855754
      7          9           0       -0.828917   -1.491628    1.760200
      8          6           0       -0.763576    0.007802   -0.063007
      9          6           0        0.721483   -0.020233   -0.039687
     10          6           0        1.432364   -0.825536   -0.953548
     11          8           0        0.770907   -1.616516   -1.842195
     12          6           0        2.834138   -0.829507   -0.971918
     13          6           0        3.533131   -0.033987   -0.062597
     14          6           0        2.861200    0.765352    0.871064
     15          6           0        1.469555    0.745146    0.859779
     16          9           0        0.795249    1.509970    1.747974
     17          1           0       -1.366626    2.395885   -2.447483
     18          1           0        0.129076    2.166710   -1.497200
     19          1           0       -0.278043    1.029954   -2.794546
     20          1           0       -3.420342    1.403573   -1.700135
     21          1           0       -4.668794    0.020937   -0.055679
     22          1           0       -3.413979   -1.376782    1.622856
     23          1           0       -0.183909   -1.549278   -1.653728
     24          1           0        3.352506   -1.464075   -1.692133
     25          1           0        4.625540   -0.038303   -0.075616
     26          1           0        3.389832    1.385240    1.595870
 ---------------------------------------------------------------------
                    Distance matrix (angstroms):
                    1          2          3          4          5
     1  C    0.000000
     2  C    1.506488   0.000000
     3  C    2.536621   1.403587   0.000000
     4  C    3.825304   2.440238   1.398650   0.000000
     5  C    4.340780   2.834387   2.428237   1.397292   0.000000
     6  C    3.802358   2.418984   2.760954   2.390445   1.392468
     7  F    4.889428   3.644968   4.110307   3.620228   2.358009
     8  C    2.528138   1.416032   2.429268   2.812646   2.456223
     9  C    2.934765   2.528896   3.802405   4.297844   3.805243
    10  C    3.429154   3.325726   4.597570   5.157177   4.699516
    11  O    3.585484   3.399993   4.449583   4.974647   4.643731
    12  C    4.439017   4.601208   5.931566   6.530179   6.020620
    13  C    4.950787   5.157303   6.523276   7.109496   6.537478
    14  C    4.656209   4.717952   6.025663   6.547033   5.956278
    15  C    3.695443   3.478951   4.716626   5.179998   4.618896
    16  F    4.028252   3.632136   4.628656   4.959930   4.422327
    17  H    1.098968   2.156404   2.645506   4.035454   4.840150
    18  H    1.099914   2.160874   3.342715   4.521930   4.838662
    19  H    1.103143   2.164757   3.174087   4.406559   4.856709
    20  H    2.738946   2.158859   1.092806   2.159818   3.414433
    21  H    4.697524   3.426244   2.161970   1.092617   2.156573
    22  H    5.431339   3.925058   3.430305   2.184639   1.091048
    23  H    3.255800   2.755451   3.625651   4.062588   3.791695
    24  H    5.123198   5.370922   6.658005   7.271128   6.791306
    25  H    5.910407   6.221163   7.597686   8.201932   7.615284
    26  H    5.449085   5.540664   6.798299   7.289292   6.681276
                    6          7          8          9         10
     6  C    0.000000
     7  F    1.349393   0.000000
     8  C    1.401295   2.361492   0.000000
     9  C    2.505586   2.794339   1.485506   0.000000
    10  C    3.448080   3.594649   2.511906   1.410322   0.000000
    11  O    3.632544   3.943639   2.856319   2.408235   1.361201
    12  C    4.706171   4.617451   3.804044   2.446895   1.401900
    13  C    5.167961   4.947198   4.296910   2.811775   2.415277
    14  C    4.618819   4.416048   3.819080   2.454588   2.810997
    15  C    3.326455   3.331199   2.526279   1.398018   2.399287
    16  F    3.343767   3.412866   2.822427   2.354293   3.627496
    17  H    4.563626   5.753823   3.428168   3.999413   4.521476
    18  H    4.087065   4.991176   2.741281   2.694070   3.308724
    19  H    4.241582   5.235222   2.956661   3.113068   3.123717
    20  H    3.853711   5.203036   3.418592   4.683911   5.392131
    21  H    3.384418   4.508872   3.905247   5.390457   6.224694
    22  H    2.153419   2.591255   3.432761   4.659004   5.516229
    23  H    2.945060   3.474805   2.300197   2.400592   1.904309
    24  H    5.528737   5.422514   4.665040   3.426009   2.154108
    25  H    6.238569   5.935779   5.389328   3.904264   3.403949
    26  H    5.388552   5.108935   4.679745   3.430815   3.901121
                   11         12         13         14         15
    11  O    0.000000
    12  C    2.373539   0.000000
    13  C    3.647087   1.395818   0.000000
    14  C    4.171857   2.437394   1.400770   0.000000
    15  C    3.655983   2.774298   2.390851   1.391837   0.000000
    16  F    4.760758   4.126504   3.627391   2.364652   1.352234
    17  H    4.586369   5.497896   5.966538   5.616574   4.659060
    18  H    3.852761   4.070700   4.299853   3.877754   3.061548
    19  H    3.001844   4.057738   4.808384   4.833379   4.060702
    20  H    5.167948   6.680978   7.286899   6.817343   5.558577
    21  H    5.955102   7.606362   8.202112   7.623241   6.248349
    22  H    5.438504   6.787587   7.273664   6.673215   5.379012
    23  H    0.975559   3.176719   4.317892   4.583096   3.783654
    24  H    2.590445   1.090913   2.175584   3.432449   3.865024
    25  H    4.524350   2.153713   1.092495   2.157536   3.383636
    26  H    5.262091   3.436195   2.187522   1.090439   2.153838
                   16         17         18         19         20
    16  F    0.000000
    17  H    4.802125   0.000000
    18  H    3.377313   1.786808   0.000000
    19  H    4.692212   1.780796   1.772305   0.000000
    20  H    5.447199   2.400201   3.636198   3.348339   0.000000
    21  H    5.943580   4.718624   5.449943   5.272400   2.484863
    22  H    5.105546   5.915432   5.902909   5.927894   4.332745
    23  H    4.678603   4.194422   3.732429   2.821837   4.381321
    24  H    5.217168   6.143292   4.859125   4.540526   7.354926
    25  H    4.515945   6.888909   5.205878   5.707790   8.333924
    26  H    2.602029   6.324081   4.561832   5.731953   7.565875
                   21         22         23         24         25
    21  H    0.000000
    22  H    2.519059   0.000000
    23  H    5.013335   4.604250   0.000000
    24  H    8.320125   7.535390   3.537649   0.000000
    25  H    9.294544   8.325275   5.282450   2.503312   0.000000
    26  H    8.338489   7.343116   5.651806   4.350972   2.519388
                   26
    26  H    0.000000
 Symmetry turned off by external request.
 Stoichiometry    C13H10F2O
 Framework group  C1[X(C13H10F2O)]
 Deg. of freedom    72
 Full point group                 C1      NOp   1
 Rotational constants (GHZ):           0.8842339           0.4255035           0.3956701
 Standard basis: def2SVP (5D, 7F)
   274 basis functions,   470 primitive gaussians,   290 cartesian basis functions
    57 alpha electrons       57 beta electrons
       nuclear repulsion energy      1082.4502250056 Hartrees.
 NAtoms=   26 NActive=   26 NUniq=   26 SFac= 1.00D+00 NAtFMM=   60 NAOKFM=F Big=F
 Integral buffers will be    131072 words long.
 Raffenetti 2 integral format.
 Two-electron integral symmetry is turned off.
 Nuclear repulsion after empirical dispersion term =     1082.3969240571 Hartrees.
 One-electron integrals computed using PRISM.
   1 Symmetry operations used in ECPInt.
 ECPInt:  NShTT=    8001 NPrTT=   29641 LenC2=    7687 LenP2D=   20676.
 LDataN:  DoStor=T MaxTD1= 4 Len=   56
 NBasis=   274 RedAO= T EigKep=  2.17D-04  NBF=   274
 NBsUse=   274 1.00D-06 EigRej= -1.00D+00 NBFU=   274
 Initial guess from the checkpoint file:  "path/to/scratch/gaussian_tmp/Gau-2666754.chk"
 B after Tr=    -0.005404   -0.016212   -0.027415
         Rot=    0.999971    0.007534    0.000519   -0.001266 Ang=   0.88 deg.
 ExpMin= 1.22D-01 ExpMax= 2.89D+03 ExpMxC= 4.35D+02 IAcc=3 IRadAn=         5 AccDes= 0.00D+00
 Harris functional with IExCor=  404 and IRadAn=       5 diagonalized for initial guess.
 HarFok:  IExCor=  404 AccDes= 0.00D+00 IRadAn=         5 IDoV= 1 UseB2=F ITyADJ=14
 ICtDFT=  3500011 ScaDFX=  1.000000  1.000000  1.000000  1.000000
 FoFCou: FMM=F IPFlag=           0 FMFlag=      100000 FMFlg1=           0
         NFxFlg=           0 DoJE=T BraDBF=F KetDBF=T FulRan=T
         wScrn=  0.000000 ICntrl=       500 IOpCl=  0 I1Cent=   200000004 NGrid=           0
         NMat0=    1 NMatS0=      1 NMatT0=    0 NMatD0=    1 NMtDS0=    0 NMtDT0=    0
 Symmetry not used in FoFCou.
 Requested convergence on RMS density matrix=1.00D-08 within 128 cycles.
 Requested convergence on MAX density matrix=1.00D-06.
 Requested convergence on             energy=1.00D-06.
 No special actions if energy rises.
 Integral accuracy reduced to 1.0D-05 until final iterations.
 Initial convergence to 1.0D-05 achieved.  Increase integral accuracy.
 SCF Done:  E(RB-P86) =  -775.798258901     A.U. after   13 cycles
            NFock= 13  Conv=0.76D-08     -V/T= 2.0101
   1 Symmetry operations used in ECPInt.
 ECPInt:  NShTT=    8001 NPrTT=   29641 LenC2=    7687 LenP2D=   20676.
 LDataN:  DoStor=T MaxTD1= 5 Len=  102
 Calling FoFJK, ICntrl=      2527 FMM=F ISym2X=0 I1Cent= 0 IOpClX= 0 NMat=1 NMatS=1 NMatT=0.
 -------------------------------------------------------------------
 Center     Atomic                   Forces (Hartrees/Bohr)
 Number     Number              X              Y              Z
 -------------------------------------------------------------------
      1        6          -0.003441005   -0.001727853    0.001824302
      2        6           0.002161435    0.002523220   -0.002361984
      3        6          -0.000463445   -0.000519576   -0.000305132
      4        6          -0.000727520   -0.000140522   -0.000017907
      5        6          -0.001120494    0.001056906   -0.001254141
      6        6           0.004222949   -0.004803538    0.006887864
      7        9           0.000167720   -0.000402045    0.000114089
      8        6           0.002900750    0.001018996   -0.000644576
      9        6          -0.001802073   -0.001385222    0.000376229
     10        6          -0.004288329   -0.004770664   -0.005527372
     11        8           0.005012448   -0.000817577   -0.002765168
     12        6           0.001279615    0.000532551    0.000810225
     13        6           0.000673566    0.000301814    0.000064030
     14        6           0.001178812   -0.001351511   -0.001034880
     15        6          -0.004545513    0.005550623    0.006505321
     16        9          -0.000114402    0.000360179    0.000206173
     17        1          -0.002845987    0.003637656   -0.002932539
     18        1           0.004284140    0.002388101    0.001814204
     19        1           0.002806143   -0.002901807   -0.003277812
     20        1          -0.002692574    0.003294790   -0.003702952
     21        1          -0.005742570    0.000105819   -0.000053103
     22        1          -0.002349469   -0.003299585    0.003905853
     23        1          -0.005067648    0.001385224    0.001565689
     24        1           0.002292443   -0.003321166   -0.003901448
     25        1           0.005796812   -0.000093225   -0.000054400
     26        1           0.002424198    0.003378415    0.003759436
 -------------------------------------------------------------------
 Cartesian Forces:  Max     0.006887864 RMS     0.002903334

 GradGradGradGradGradGradGradGradGradGradGradGradGradGradGradGradGradGrad
 Berny optimization.
 Using GEDIIS/GDIIS optimizer.
 FormGI is forming the generalized inverse of G from B-inverse, IUseBI=4.
 Internal  Forces:  Max     0.007426366 RMS     0.002621796
 Search for a local minimum.
 Step number   3 out of a maximum of  140
 All quantities printed in internal units (Hartrees-Bohrs-Radians)
 Mixed Optimization -- RFO/linear search
 Update second derivatives using D2CorX and points    1    2    3
 DE= -1.20D-03 DEPred=-9.92D-04 R= 1.21D+00
 TightC=F SS=  1.41D+00  RLast= 3.94D-01 DXNew= 8.4090D-02 1.1823D+00
 Trust test= 1.21D+00 RLast= 3.94D-01 DXMaxT set to 8.41D-02
 ITU=  1  1  0
 Use linear search instead of GDIIS.
     Eigenvalues ---    0.00113   0.00437   0.01164   0.01292   0.01616
     Eigenvalues ---    0.01645   0.01681   0.01731   0.01749   0.01940
     Eigenvalues ---    0.02080   0.02207   0.02284   0.02311   0.02397
     Eigenvalues ---    0.02553   0.02831   0.02932   0.03345   0.03435
     Eigenvalues ---    0.03634   0.05238   0.05399   0.09957   0.10057
     Eigenvalues ---    0.10394   0.11109   0.11534   0.11557   0.11743
     Eigenvalues ---    0.13819   0.14162   0.16543   0.17286   0.17907
     Eigenvalues ---    0.18027   0.18083   0.18156   0.18545   0.18913
     Eigenvalues ---    0.19218   0.21128   0.21813   0.23455   0.24446
     Eigenvalues ---    0.31779   0.33666   0.34965   0.35135   0.35875
     Eigenvalues ---    0.36138   0.36517   0.37268   0.37434   0.37531
     Eigenvalues ---    0.37714   0.37918   0.38426   0.38819   0.39115
     Eigenvalues ---    0.40896   0.44351   0.45908   0.46351   0.47835
     Eigenvalues ---    0.49119   0.49401   0.49500   0.49989   0.51677
     Eigenvalues ---    0.54084   0.62400
 RFO step:  Lambda=-1.43205869D-03 EMin= 1.13274974D-03
 Quartic linear search produced a step of  0.52605.
 Iteration  1 RMS(Cart)=  0.03076110 RMS(Int)=  0.00031129
 Iteration  2 RMS(Cart)=  0.00047090 RMS(Int)=  0.00003003
 Iteration  3 RMS(Cart)=  0.00000017 RMS(Int)=  0.00003003
 Variable       Old X    -DE/DX   Delta X   Delta X   Delta X     New X
                                 (Linear)    (Quad)   (Total)
    R1        2.84685   0.00287   0.00170   0.00392   0.00562   2.85247
    R2        2.07675   0.00542   0.00525   0.00715   0.01240   2.08915
    R3        2.07854   0.00519   0.00409   0.00896   0.01305   2.09158
    R4        2.08464   0.00511   0.00548   0.00685   0.01233   2.09697
    R5        2.65239   0.00614   0.00502   0.00482   0.00985   2.66224
    R6        2.67591   0.00691   0.00369   0.00813   0.01184   2.68775
    R7        2.64307   0.00583   0.00600   0.00191   0.00789   2.65096
    R8        2.06510   0.00564   0.00520   0.00749   0.01270   2.07780
    R9        2.64050   0.00610   0.00591   0.00191   0.00780   2.64830
   R10        2.06475   0.00574   0.00538   0.00728   0.01266   2.07741
   R11        2.63138   0.00692   0.00701   0.00339   0.01040   2.64179
   R12        2.06178   0.00561   0.00510   0.00787   0.01297   2.07475
   R13        2.54998   0.00038   0.00089  -0.00459  -0.00370   2.54628
   R14        2.64806   0.00743   0.00512   0.00866   0.01380   2.66187
   R15        2.80720   0.00284   0.00335   0.00352   0.00687   2.81407
   R16        2.66512   0.00695   0.00434   0.00876   0.01309   2.67821
   R17        2.64187   0.00732   0.00451   0.00740   0.01191   2.65378
   R18        2.57230   0.00048  -0.00102   0.00008  -0.00094   2.57135
   R19        2.64921   0.00665   0.00628   0.00425   0.01053   2.65974
   R20        1.84354   0.00536   0.00482   0.00496   0.00977   1.85331
   R21        2.63771   0.00613   0.00610   0.00200   0.00810   2.64581
   R22        2.06153   0.00560   0.00513   0.00761   0.01274   2.07427
   R23        2.64707   0.00614   0.00613   0.00165   0.00778   2.65485
   R24        2.06452   0.00580   0.00542   0.00736   0.01278   2.07729
   R25        2.63019   0.00695   0.00682   0.00378   0.01059   2.64078
   R26        2.06063   0.00559   0.00509   0.00779   0.01288   2.07351
   R27        2.55535   0.00040   0.00143  -0.00527  -0.00384   2.55151
    A1        1.93286   0.00107   0.00042   0.00786   0.00825   1.94111
    A2        1.93810   0.00045   0.00192   0.00133   0.00323   1.94133
    A3        1.94009  -0.00032  -0.00428   0.00434   0.00005   1.94015
    A4        1.89719  -0.00032  -0.00057   0.00140   0.00079   1.89798
    A5        1.88380  -0.00021  -0.00111   0.00070  -0.00043   1.88336
    A6        1.86958  -0.00076   0.00370  -0.01644  -0.01274   1.85684
    A7        2.11649  -0.00036   0.00461  -0.00952  -0.00498   2.11151
    A8        2.08996   0.00049  -0.00465   0.01021   0.00548   2.09544
    A9        2.07665  -0.00012   0.00009  -0.00051  -0.00043   2.07622
   A10        2.11373   0.00016  -0.00120   0.00238   0.00118   2.11491
   A11        2.08035  -0.00024   0.00126  -0.00386  -0.00261   2.07774
   A12        2.08908   0.00008  -0.00002   0.00144   0.00141   2.09049
   A13        2.10428  -0.00011   0.00115  -0.00334  -0.00220   2.10208
   A14        2.09284  -0.00003  -0.00063   0.00161   0.00099   2.09383
   A15        2.08604   0.00014  -0.00052   0.00173   0.00122   2.08726
   A16        2.05831   0.00111  -0.00032   0.00648   0.00615   2.06446
   A17        2.13476  -0.00017  -0.00044   0.00104   0.00058   2.13534
   A18        2.09007  -0.00094   0.00075  -0.00743  -0.00670   2.08337
   A19        2.07040   0.00081   0.00189   0.00081   0.00266   2.07307
   A20        2.14828  -0.00168  -0.00201  -0.00432  -0.00631   2.14196
   A21        2.06450   0.00087   0.00013   0.00356   0.00365   2.06815
   A22        2.06509   0.00064   0.00234  -0.00069   0.00160   2.06669
   A23        2.11647   0.00038  -0.00431   0.01180   0.00736   2.12383
   A24        2.10161  -0.00101   0.00197  -0.01097  -0.00913   2.09249
   A25        2.09961  -0.00140  -0.00609   0.00062  -0.00547   2.09414
   A26        2.13495  -0.00017   0.00259  -0.00411  -0.00151   2.13344
   A27        2.04856   0.00158   0.00346   0.00355   0.00699   2.05555
   A28        2.10586  -0.00023  -0.00322   0.00458   0.00136   2.10722
   A29        2.11078  -0.00100  -0.00139  -0.00379  -0.00521   2.10557
   A30        2.06655   0.00123   0.00461  -0.00079   0.00383   2.07038
   A31        1.88539  -0.00198  -0.00176  -0.01054  -0.01230   1.87310
   A32        2.08355   0.00036  -0.00073   0.00302   0.00227   2.08583
   A33        2.07764  -0.00061   0.00099  -0.00573  -0.00473   2.07291
   A34        2.12194   0.00025  -0.00025   0.00276   0.00250   2.12444
   A35        2.11675   0.00001   0.00113  -0.00206  -0.00094   2.11581
   A36        2.08371  -0.00004  -0.00062   0.00109   0.00048   2.08419
   A37        2.08271   0.00003  -0.00051   0.00097   0.00047   2.08318
   A38        2.05548   0.00109  -0.00025   0.00599   0.00573   2.06122
   A39        2.13517  -0.00020  -0.00032   0.00031  -0.00001   2.13516
   A40        2.09251  -0.00088   0.00056  -0.00625  -0.00570   2.08681
   A41        2.15099  -0.00203  -0.00222  -0.00639  -0.00863   2.14236
   A42        2.05491   0.00114   0.00021   0.00459   0.00481   2.05971
   A43        2.07722   0.00089   0.00203   0.00181   0.00385   2.08107
    D1        0.25945  -0.00016   0.03707  -0.04868  -0.01161   0.24784
    D2       -2.86837  -0.00075   0.03323  -0.06361  -0.03039  -2.89876
    D3        2.36904   0.00046   0.03791  -0.04071  -0.00277   2.36627
    D4       -0.75878  -0.00013   0.03408  -0.05563  -0.02155  -0.78033
    D5       -1.83456  -0.00040   0.04104  -0.05766  -0.01663  -1.85118
    D6        1.32081  -0.00099   0.03720  -0.07258  -0.03540   1.28540
    D7       -3.12785  -0.00049  -0.00888  -0.00395  -0.01284  -3.14068
    D8        0.00622  -0.00048  -0.00459  -0.01116  -0.01573  -0.00950
    D9        0.00008   0.00010  -0.00513   0.01094   0.00578   0.00586
   D10        3.13415   0.00011  -0.00083   0.00373   0.00289   3.13704
   D11        3.12142   0.00062   0.00935   0.00577   0.01519   3.13661
   D12       -0.01476   0.00008   0.01259  -0.02285  -0.01034  -0.02510
   D13       -0.00672   0.00004   0.00555  -0.00874  -0.00317  -0.00989
   D14        3.14028  -0.00049   0.00878  -0.03736  -0.02870   3.11159
   D15        0.00424  -0.00015   0.00116  -0.00511  -0.00393   0.00031
   D16        3.13943  -0.00002   0.00166  -0.00347  -0.00180   3.13763
   D17       -3.12980  -0.00016  -0.00317   0.00216  -0.00100  -3.13080
   D18        0.00539  -0.00003  -0.00267   0.00380   0.00113   0.00653
   D19       -0.00165   0.00004   0.00223  -0.00281  -0.00058  -0.00223
   D20        3.13059   0.00019  -0.00197   0.00747   0.00548   3.13607
   D21       -3.13687  -0.00009   0.00174  -0.00445  -0.00270  -3.13957
   D22       -0.00463   0.00006  -0.00247   0.00583   0.00336  -0.00127
   D23        3.13222   0.00028  -0.00691   0.01845   0.01149  -3.13948
   D24       -0.00539   0.00013  -0.00166   0.00493   0.00324  -0.00216
   D25       -0.00027   0.00013  -0.00282   0.00841   0.00558   0.00530
   D26       -3.13788  -0.00002   0.00244  -0.00512  -0.00268  -3.14056
   D27        0.00961  -0.00017  -0.00225   0.00087  -0.00135   0.00826
   D28       -3.13734   0.00037  -0.00546   0.02931   0.02376  -3.11359
   D29       -3.12801  -0.00032   0.00299  -0.01260  -0.00958  -3.13759
   D30        0.00822   0.00021  -0.00022   0.01584   0.01553   0.02375
   D31       -1.40599   0.00163  -0.08950   0.11254   0.02304  -1.38295
   D32        1.72303   0.00146  -0.09494   0.11881   0.02388   1.74691
   D33        1.74113   0.00108  -0.08620   0.08330  -0.00290   1.73823
   D34       -1.41304   0.00090  -0.09163   0.08957  -0.00206  -1.41510
   D35       -0.03348   0.00070  -0.00121   0.02120   0.02000  -0.01349
   D36        3.10555   0.00023  -0.00467   0.02085   0.01621   3.12175
   D37        3.12007   0.00087   0.00396   0.01528   0.01925   3.13932
   D38       -0.02408   0.00040   0.00050   0.01494   0.01546  -0.00862
   D39       -3.10560  -0.00025   0.00570  -0.02160  -0.01588  -3.12148
   D40        0.02330  -0.00009   0.00762  -0.02067  -0.01304   0.01027
   D41        0.02377  -0.00044   0.00040  -0.01553  -0.01514   0.00863
   D42       -3.13051  -0.00028   0.00232  -0.01459  -0.01230   3.14037
   D43       -0.07602   0.00015   0.00986   0.00919   0.01904  -0.05698
   D44        3.06807   0.00061   0.01322   0.00954   0.02277   3.09084
   D45        0.01117  -0.00016  -0.00057  -0.00697  -0.00750   0.00367
   D46       -3.14123   0.00005   0.00025  -0.00126  -0.00099   3.14096
   D47       -3.13293  -0.00062  -0.00394  -0.00730  -0.01121   3.13904
   D48       -0.00215  -0.00041  -0.00312  -0.00159  -0.00470  -0.00685
   D49        0.00353  -0.00012  -0.00034  -0.00147  -0.00179   0.00174
   D50        3.13973   0.00004   0.00073  -0.00038   0.00035   3.14008
   D51       -3.12697  -0.00033  -0.00119  -0.00727  -0.00845  -3.13542
   D52        0.00923  -0.00017  -0.00012  -0.00619  -0.00630   0.00292
   D53       -0.00433   0.00011   0.00119   0.00127   0.00244  -0.00190
   D54        3.13023   0.00021  -0.00232   0.01004   0.00771   3.13794
   D55       -3.14054  -0.00005   0.00012   0.00018   0.00030  -3.14024
   D56       -0.00598   0.00004  -0.00339   0.00895   0.00557  -0.00040
   D57       -0.00984   0.00019  -0.00120   0.00761   0.00639  -0.00346
   D58       -3.13860   0.00003  -0.00313   0.00665   0.00351  -3.13509
   D59        3.13860   0.00010   0.00221  -0.00096   0.00124   3.13984
   D60        0.00985  -0.00007   0.00029  -0.00193  -0.00164   0.00821
         Item               Value     Threshold  Converged?
 Maximum Force            0.007426     0.000450     NO 
 RMS     Force            0.002622     0.000300     NO 
 Maximum Displacement     0.146557     0.001800     NO 
 RMS     Displacement     0.030903     0.001200     NO 
 Predicted change in Energy=-1.029290D-03
 GradGradGradGradGradGradGradGradGradGradGradGradGradGradGradGradGradGrad

                          Input orientation:                          
 ---------------------------------------------------------------------
 Center     Atomic      Atomic             Coordinates (Angstroms)
 Number     Number       Type             X           Y           Z
 ---------------------------------------------------------------------
      1          6           0       -0.727814    1.654610   -2.003659
      2          6           0       -1.476073    0.810872   -1.000318
      3          6           0       -2.884369    0.774711   -0.990007
      4          6           0       -3.583920   -0.007116   -0.058721
      5          6           0       -2.890859   -0.773709    0.887841
      6          6           0       -1.493406   -0.738123    0.874232
      7          9           0       -0.816958   -1.473338    1.778367
      8          6           0       -0.760215    0.031626   -0.049926
      9          6           0        0.728352   -0.004955   -0.030541
     10          6           0        1.429094   -0.815587   -0.958137
     11          8           0        0.756474   -1.578174   -1.862323
     12          6           0        2.836279   -0.842307   -0.967712
     13          6           0        3.547124   -0.062455   -0.047483
     14          6           0        2.881962    0.746566    0.888871
     15          6           0        1.484597    0.754787    0.876651
     16          9           0        0.821922    1.529908    1.761575
     17          1           0       -1.400878    2.378510   -2.498784
     18          1           0        0.099775    2.210038   -1.522362
     19          1           0       -0.265519    1.024503   -2.791449
     20          1           0       -3.439281    1.379913   -1.721278
     21          1           0       -4.683160   -0.017689   -0.066147
     22          1           0       -3.406479   -1.392516    1.633914
     23          1           0       -0.201103   -1.471723   -1.679165
     24          1           0        3.347551   -1.481617   -1.698964
     25          1           0        4.646108   -0.085590   -0.055384
     26          1           0        3.420622    1.362167    1.620202
 ---------------------------------------------------------------------
                    Distance matrix (angstroms):
                    1          2          3          4          5
     1  C    0.000000
     2  C    1.509463   0.000000
     3  C    2.540166   1.408798   0.000000
     4  C    3.834249   2.449230   1.402826   0.000000
     5  C    4.351583   2.842123   2.433919   1.401419   0.000000
     6  C    3.820152   2.431795   2.774677   2.403127   1.397973
     7  F    4.908740   3.656930   4.122112   3.630533   2.362961
     8  C    2.540118   1.422295   2.438844   2.823985   2.463253
     9  C    2.961042   2.542741   3.818404   4.312365   3.812230
    10  C    3.441982   3.329737   4.597393   5.156829   4.698019
    11  O    3.560053   3.381547   4.421848   4.955827   4.638276
    12  C    4.473314   4.618489   5.944834   6.537795   6.020622
    13  C    5.005000   5.186820   6.553876   7.131267   6.544336
    14  C    4.713996   4.750331   6.064779   6.578267   5.969649
    15  C    3.741741   3.505956   4.751071   5.210113   4.634765
    16  F    4.073600   3.664130   4.677405   5.008729   4.455874
    17  H    1.105529   2.169917   2.655056   4.051024   4.860633
    18  H    1.106819   2.171058   3.353905   4.541765   4.863715
    19  H    1.109668   2.172378   3.188410   4.420840   4.864478
    20  H    2.739937   2.167436   1.099525   2.169993   3.427296
    21  H    4.711189   3.441598   2.171880   1.099316   2.166564
    22  H    5.449052   3.939615   3.443027   2.194500   1.097912
    23  H    3.186955   2.701226   3.566696   4.026706   3.783059
    24  H    5.151443   5.386183   6.665618   7.273915   6.790468
    25  H    5.975208   6.259205   7.636866   8.230403   7.626864
    26  H    5.516105   5.581100   6.849176   7.331939   6.703217
                    6          7          8          9         10
     6  C    0.000000
     7  F    1.347435   0.000000
     8  C    1.408599   2.368711   0.000000
     9  C    2.508458   2.795761   1.489142   0.000000
    10  C    3.450302   3.600811   2.517079   1.417250   0.000000
    11  O    3.640931   3.967531   2.859472   2.414795   1.360701
    12  C    4.706356   4.613598   3.813247   2.454140   1.407471
    13  C    5.168464   4.936550   4.308366   2.819409   2.425397
    14  C    4.620429   4.404678   3.828568   2.459296   2.821805
    15  C    3.331259   3.327881   2.533908   1.404319   2.415700
    16  F    3.360370   3.421359   2.833645   2.361406   3.642367
    17  H    4.593386   5.785474   3.451843   4.038161   4.537024
    18  H    4.119896   5.030156   2.766429   2.743507   3.352588
    19  H    4.248738   5.237032   2.957444   3.109690   3.101400
    20  H    3.874169   5.221603   3.433467   4.705913   5.394783
    21  H    3.402626   4.524230   3.923288   5.411644   6.228317
    22  H    2.159907   2.594806   3.444737   4.668251   5.516733
    23  H    2.954328   3.511953   2.286282   2.394422   1.899457
    24  H    5.532539   5.425407   4.677924   3.438659   2.161689
    25  H    6.243686   5.927359   5.407596   3.918665   3.420094
    26  H    5.395865   5.101195   4.694578   3.441263   3.918754
                   11         12         13         14         15
    11  O    0.000000
    12  C    2.380634   0.000000
    13  C    3.657700   1.400104   0.000000
    14  C    4.182246   2.444075   1.404888   0.000000
    15  C    3.670810   2.789163   2.403315   1.397443   0.000000
    16  F    4.774630   4.139329   3.637998   2.370444   1.350200
    17  H    4.551329   5.538171   6.037375   5.699313   4.728213
    18  H    3.859712   4.136774   4.384485   3.961864   3.129018
    19  H    2.946468   4.053658   4.821522   4.850633   4.073157
    20  H    5.135614   6.699909   7.327474   6.868197   5.602196
    21  H    5.937254   7.618056   8.230426   7.663368   6.287035
    22  H    5.439515   6.785515   7.276589   6.683955   5.395089
    23  H    0.980730   3.182455   4.324075   4.584856   3.785648
    24  H    2.598016   1.097656   2.186606   3.446515   3.886631
    25  H    4.541155   2.163434   1.099257   2.167097   3.401481
    26  H    5.279324   3.449414   2.196980   1.097253   2.161012
                   16         17         18         19         20
    16  F    0.000000
    17  H    4.879716   0.000000
    18  H    3.430499   1.798260   0.000000
    19  H    4.708289   1.791096   1.774686   0.000000
    20  H    5.505508   2.399333   3.640548   3.368137   0.000000
    21  H    6.003461   4.736335   5.473554   5.294240   2.497996
    22  H    5.141618   5.943254   5.935848   5.940661   4.352558
    23  H    4.679216   4.115279   3.697361   2.733581   4.315021
    24  H    5.236738   6.171537   4.920118   4.530832   7.365456
    25  H    4.531619   6.971946   5.300102   5.730833   8.384296
    26  H    2.607943   6.422294   4.650013   5.758847   7.630471
                   21         22         23         24         25
    21  H    0.000000
    22  H    2.531851   0.000000
    23  H    4.980450   4.610554   0.000000
    24  H    8.324752   7.532128   3.548723   0.000000
    25  H    9.329521   8.331023   5.296554   2.517241   0.000000
    26  H    8.391606   7.361914   5.659828   4.371420   2.530890
                   26
    26  H    0.000000
 Symmetry turned off by external request.
 Stoichiometry    C13H10F2O
 Framework group  C1[X(C13H10F2O)]
 Deg. of freedom    72
 Full point group                 C1      NOp   1
 Rotational constants (GHZ):           0.8777331           0.4241897           0.3920712
 Standard basis: def2SVP (5D, 7F)
   274 basis functions,   470 primitive gaussians,   290 cartesian basis functions
    57 alpha electrons       57 beta electrons
       nuclear repulsion energy      1079.0900729167 Hartrees.
 NAtoms=   26 NActive=   26 NUniq=   26 SFac= 1.00D+00 NAtFMM=   60 NAOKFM=F Big=F
 Integral buffers will be    131072 words long.
 Raffenetti 2 integral format.
 Two-electron integral symmetry is turned off.
 Nuclear repulsion after empirical dispersion term =     1079.0369501288 Hartrees.
 One-electron integrals computed using PRISM.
   1 Symmetry operations used in ECPInt.
 ECPInt:  NShTT=    8001 NPrTT=   29641 LenC2=    7682 LenP2D=   20635.
 LDataN:  DoStor=T MaxTD1= 4 Len=   56
 NBasis=   274 RedAO= T EigKep=  2.25D-04  NBF=   274
 NBsUse=   274 1.00D-06 EigRej= -1.00D+00 NBFU=   274
 Initial guess from the checkpoint file:  "path/to/scratch/gaussian_tmp/Gau-2666754.chk"
 B after Tr=     0.005522    0.008773    0.007650
         Rot=    1.000000   -0.000031   -0.000533    0.000308 Ang=  -0.07 deg.
 ExpMin= 1.22D-01 ExpMax= 2.89D+03 ExpMxC= 4.35D+02 IAcc=3 IRadAn=         5 AccDes= 0.00D+00
 Harris functional with IExCor=  404 and IRadAn=       5 diagonalized for initial guess.
 HarFok:  IExCor=  404 AccDes= 0.00D+00 IRadAn=         5 IDoV= 1 UseB2=F ITyADJ=14
 ICtDFT=  3500011 ScaDFX=  1.000000  1.000000  1.000000  1.000000
 FoFCou: FMM=F IPFlag=           0 FMFlag=      100000 FMFlg1=           0
         NFxFlg=           0 DoJE=T BraDBF=F KetDBF=T FulRan=T
         wScrn=  0.000000 ICntrl=       500 IOpCl=  0 I1Cent=   200000004 NGrid=           0
         NMat0=    1 NMatS0=      1 NMatT0=    0 NMatD0=    1 NMtDS0=    0 NMtDT0=    0
 Symmetry not used in FoFCou.
 Requested convergence on RMS density matrix=1.00D-08 within 128 cycles.
 Requested convergence on MAX density matrix=1.00D-06.
 Requested convergence on             energy=1.00D-06.
 No special actions if energy rises.
 Integral accuracy reduced to 1.0D-05 until final iterations.
 Initial convergence to 1.0D-05 achieved.  Increase integral accuracy.
 SCF Done:  E(RB-P86) =  -775.799479521     A.U. after   12 cycles
            NFock= 12  Conv=0.72D-08     -V/T= 2.0104
   1 Symmetry operations used in ECPInt.
 ECPInt:  NShTT=    8001 NPrTT=   29641 LenC2=    7682 LenP2D=   20635.
 LDataN:  DoStor=T MaxTD1= 5 Len=  102
 Calling FoFJK, ICntrl=      2527 FMM=F ISym2X=0 I1Cent= 0 IOpClX= 0 NMat=1 NMatS=1 NMatT=0.
 -------------------------------------------------------------------
 Center     Atomic                   Forces (Hartrees/Bohr)
 Number     Number              X              Y              Z
 -------------------------------------------------------------------
      1        6          -0.000034913   -0.000580802    0.000615298
      2        6           0.000537113    0.000019089   -0.001055173
      3        6          -0.000203279    0.000368361   -0.000053170
      4        6          -0.000361140    0.000016103    0.000006602
      5        6          -0.000451392   -0.000128811    0.000202649
      6        6           0.000934241   -0.000440838    0.001354842
      7        9           0.000210925   -0.000087830    0.000197548
      8        6           0.000586887   -0.000238394   -0.000341468
      9        6          -0.000525294    0.000250063   -0.000309302
     10        6          -0.000772511   -0.000448967   -0.001248269
     11        8           0.000704138    0.000262745   -0.000604739
     12        6           0.000322939   -0.000178421   -0.000158919
     13        6           0.000378566    0.000044432    0.000046374
     14        6           0.000526367    0.000075719    0.000213784
     15        6          -0.000985474    0.000505728    0.001237632
     16        9          -0.000253764    0.000137407    0.000318499
     17        1          -0.000625795    0.000510855   -0.000671890
     18        1           0.000675117    0.000705879    0.000535369
     19        1           0.000675786   -0.000909779   -0.000546121
     20        1          -0.000569565    0.000622169   -0.000749691
     21        1          -0.001160410   -0.000007323   -0.000024128
     22        1          -0.000524917   -0.000641796    0.000761930
     23        1          -0.001303539    0.000182238    0.000311923
     24        1           0.000500181   -0.000657983   -0.000764891
     25        1           0.001174502   -0.000036227   -0.000005528
     26        1           0.000545233    0.000656384    0.000730839
 -------------------------------------------------------------------
 Cartesian Forces:  Max     0.001354842 RMS     0.000589024

 GradGradGradGradGradGradGradGradGradGradGradGradGradGradGradGradGradGrad
 Berny optimization.
 Using GEDIIS/GDIIS optimizer.
 FormGI is forming the generalized inverse of G from B-inverse, IUseBI=4.
 Internal  Forces:  Max     0.001843987 RMS     0.000662148
 Search for a local minimum.
 Step number   4 out of a maximum of  140
 All quantities printed in internal units (Hartrees-Bohrs-Radians)
 Mixed Optimization -- En-DIIS/RFO-DIIS
 Update second derivatives using D2CorX and points    1    2    3    4
 DE= -1.22D-03 DEPred=-1.03D-03 R= 1.19D+00
 TightC=F SS=  1.41D+00  RLast= 1.20D-01 DXNew= 1.4142D-01 3.6057D-01
 Trust test= 1.19D+00 RLast= 1.20D-01 DXMaxT set to 1.41D-01
 ITU=  1  1  1  0
 Use linear search instead of GDIIS.
     Eigenvalues ---    0.00113   0.00470   0.01164   0.01303   0.01615
     Eigenvalues ---    0.01643   0.01680   0.01731   0.01749   0.01938
     Eigenvalues ---    0.02076   0.02205   0.02285   0.02308   0.02399
     Eigenvalues ---    0.02542   0.02831   0.02926   0.03331   0.03428
     Eigenvalues ---    0.03611   0.05233   0.05404   0.09957   0.10059
     Eigenvalues ---    0.10400   0.11118   0.11544   0.11562   0.11746
     Eigenvalues ---    0.13809   0.14152   0.16494   0.17259   0.17934
     Eigenvalues ---    0.18030   0.18052   0.18135   0.18471   0.18907
     Eigenvalues ---    0.19197   0.21125   0.21914   0.23489   0.24431
     Eigenvalues ---    0.31781   0.33723   0.34921   0.35187   0.35484
     Eigenvalues ---    0.35973   0.36468   0.37123   0.37286   0.37497
     Eigenvalues ---    0.37534   0.37833   0.37953   0.38435   0.39007
     Eigenvalues ---    0.40998   0.44655   0.45987   0.46180   0.47730
     Eigenvalues ---    0.49138   0.49410   0.49802   0.49969   0.51502
     Eigenvalues ---    0.53221   0.54206
 RFO step:  Lambda=-8.90392461D-04 EMin= 1.13306362D-03
 Quartic linear search produced a step of  0.27465.
 Iteration  1 RMS(Cart)=  0.12288719 RMS(Int)=  0.00367533
 Iteration  2 RMS(Cart)=  0.00590503 RMS(Int)=  0.00001386
 Iteration  3 RMS(Cart)=  0.00001362 RMS(Int)=  0.00001107
 Iteration  4 RMS(Cart)=  0.00000000 RMS(Int)=  0.00001107
 Variable       Old X    -DE/DX   Delta X   Delta X   Delta X     New X
                                 (Linear)    (Quad)   (Total)
    R1        2.85247   0.00023   0.00154   0.00065   0.00219   2.85466
    R2        2.08915   0.00102   0.00341  -0.00034   0.00306   2.09221
    R3        2.09158   0.00109   0.00358   0.00129   0.00487   2.09646
    R4        2.09697   0.00119   0.00339  -0.00097   0.00242   2.09939
    R5        2.66224   0.00145   0.00270   0.00042   0.00312   2.66537
    R6        2.68775   0.00054   0.00325   0.00221   0.00547   2.69322
    R7        2.65096   0.00160   0.00217  -0.00020   0.00197   2.65292
    R8        2.07780   0.00113   0.00349   0.00000   0.00349   2.08129
    R9        2.64830   0.00170   0.00214   0.00041   0.00254   2.65084
   R10        2.07741   0.00116   0.00348  -0.00001   0.00346   2.08087
   R11        2.64179   0.00182   0.00286  -0.00065   0.00220   2.64399
   R12        2.07475   0.00113   0.00356   0.00001   0.00357   2.07833
   R13        2.54628   0.00029  -0.00102  -0.00021  -0.00122   2.54506
   R14        2.66187   0.00145   0.00379   0.00099   0.00478   2.66665
   R15        2.81407   0.00029   0.00189  -0.00299  -0.00111   2.81297
   R16        2.67821   0.00091   0.00360   0.00134   0.00494   2.68315
   R17        2.65378   0.00146   0.00327   0.00236   0.00563   2.65941
   R18        2.57135   0.00024  -0.00026   0.00238   0.00213   2.57348
   R19        2.65974   0.00160   0.00289  -0.00065   0.00224   2.66198
   R20        1.85331   0.00135   0.00268   0.00036   0.00304   1.85635
   R21        2.64581   0.00168   0.00222   0.00010   0.00232   2.64813
   R22        2.07427   0.00113   0.00350  -0.00000   0.00350   2.07777
   R23        2.65485   0.00164   0.00214  -0.00004   0.00210   2.65696
   R24        2.07729   0.00117   0.00351  -0.00000   0.00351   2.08080
   R25        2.64078   0.00184   0.00291  -0.00023   0.00268   2.64346
   R26        2.07351   0.00112   0.00354   0.00001   0.00355   2.07706
   R27        2.55151   0.00041  -0.00106  -0.00060  -0.00165   2.54985
    A1        1.94111   0.00019   0.00226  -0.00130   0.00095   1.94206
    A2        1.94133   0.00000   0.00089  -0.00467  -0.00379   1.93754
    A3        1.94015  -0.00042   0.00001   0.00429   0.00430   1.94445
    A4        1.89798  -0.00000   0.00022  -0.00087  -0.00067   1.89731
    A5        1.88336   0.00013  -0.00012   0.00275   0.00261   1.88598
    A6        1.85684   0.00010  -0.00350  -0.00001  -0.00351   1.85333
    A7        2.11151   0.00103  -0.00137  -0.00117  -0.00259   2.10892
    A8        2.09544  -0.00123   0.00151   0.00109   0.00255   2.09799
    A9        2.07622   0.00020  -0.00012   0.00016   0.00002   2.07624
   A10        2.11491  -0.00023   0.00033   0.00058   0.00091   2.11582
   A11        2.07774   0.00012  -0.00072  -0.00075  -0.00148   2.07626
   A12        2.09049   0.00012   0.00039   0.00013   0.00050   2.09099
   A13        2.10208   0.00001  -0.00060  -0.00068  -0.00128   2.10080
   A14        2.09383  -0.00002   0.00027   0.00025   0.00053   2.09436
   A15        2.08726   0.00001   0.00033   0.00042   0.00075   2.08802
   A16        2.06446   0.00001   0.00169   0.00062   0.00230   2.06677
   A17        2.13534  -0.00000   0.00016  -0.00031  -0.00015   2.13519
   A18        2.08337  -0.00001  -0.00184  -0.00030  -0.00215   2.08123
   A19        2.07307   0.00031   0.00073  -0.00109  -0.00037   2.07270
   A20        2.14196  -0.00043  -0.00173   0.00074  -0.00099   2.14097
   A21        2.06815   0.00011   0.00100   0.00034   0.00133   2.06947
   A22        2.06669   0.00044   0.00044  -0.00147  -0.00103   2.06566
   A23        2.12383  -0.00121   0.00202  -0.00069   0.00129   2.12513
   A24        2.09249   0.00078  -0.00251   0.00234  -0.00021   2.09228
   A25        2.09414  -0.00099  -0.00150   0.00548   0.00397   2.09811
   A26        2.13344   0.00050  -0.00041  -0.00198  -0.00240   2.13104
   A27        2.05555   0.00050   0.00192  -0.00343  -0.00152   2.05402
   A28        2.10722  -0.00077   0.00037   0.00098   0.00136   2.10858
   A29        2.10557  -0.00004  -0.00143   0.00218   0.00074   2.10631
   A30        2.07038   0.00080   0.00105  -0.00314  -0.00208   2.06829
   A31        1.87310  -0.00013  -0.00338   0.00227  -0.00111   1.87199
   A32        2.08583  -0.00010   0.00062   0.00015   0.00076   2.08659
   A33        2.07291   0.00002  -0.00130  -0.00031  -0.00161   2.07130
   A34        2.12444   0.00008   0.00069   0.00014   0.00083   2.12527
   A35        2.11581   0.00002  -0.00026  -0.00092  -0.00118   2.11463
   A36        2.08419  -0.00002   0.00013   0.00044   0.00058   2.08477
   A37        2.08318  -0.00001   0.00013   0.00047   0.00060   2.08378
   A38        2.06122   0.00001   0.00157   0.00062   0.00218   2.06340
   A39        2.13516   0.00000  -0.00000  -0.00018  -0.00019   2.13497
   A40        2.08681  -0.00002  -0.00156  -0.00043  -0.00199   2.08482
   A41        2.14236  -0.00039  -0.00237   0.00135  -0.00103   2.14134
   A42        2.05971   0.00012   0.00132   0.00054   0.00186   2.06157
   A43        2.08107   0.00027   0.00106  -0.00192  -0.00086   2.08021
    D1        0.24784  -0.00022  -0.00319  -0.08661  -0.08980   0.15804
    D2       -2.89876  -0.00039  -0.00835  -0.06737  -0.07572  -2.97448
    D3        2.36627  -0.00008  -0.00076  -0.09186  -0.09261   2.27365
    D4       -0.78033  -0.00026  -0.00592  -0.07262  -0.07853  -0.85887
    D5       -1.85118  -0.00023  -0.00457  -0.09212  -0.09669  -1.94787
    D6        1.28540  -0.00040  -0.00972  -0.07288  -0.08261   1.20279
    D7       -3.14068  -0.00021  -0.00353   0.02390   0.02037  -3.12032
    D8       -0.00950  -0.00016  -0.00432   0.01898   0.01466   0.00515
    D9        0.00586  -0.00003   0.00159   0.00487   0.00645   0.01232
   D10        3.13704   0.00002   0.00079  -0.00005   0.00074   3.13779
   D11        3.13661   0.00029   0.00417  -0.02450  -0.02032   3.11629
   D12       -0.02510   0.00017  -0.00284  -0.01397  -0.01683  -0.04193
   D13       -0.00989   0.00012  -0.00087  -0.00565  -0.00651  -0.01640
   D14        3.11159  -0.00000  -0.00788   0.00488  -0.00302   3.10856
   D15        0.00031  -0.00005  -0.00108  -0.00049  -0.00157  -0.00127
   D16        3.13763   0.00001  -0.00049  -0.00163  -0.00212   3.13551
   D17       -3.13080  -0.00010  -0.00027   0.00447   0.00419  -3.12660
   D18        0.00653  -0.00004   0.00031   0.00334   0.00365   0.01017
   D19       -0.00223   0.00004  -0.00016  -0.00295  -0.00311  -0.00534
   D20        3.13607   0.00005   0.00151   0.00099   0.00250   3.13857
   D21       -3.13957  -0.00003  -0.00074  -0.00183  -0.00257   3.14105
   D22       -0.00127  -0.00002   0.00092   0.00212   0.00304   0.00178
   D23       -3.13948  -0.00003   0.00316   0.00553   0.00867  -3.13081
   D24       -0.00216   0.00007   0.00089   0.00204   0.00292   0.00077
   D25        0.00530  -0.00004   0.00153   0.00171   0.00324   0.00854
   D26       -3.14056   0.00006  -0.00073  -0.00178  -0.00251   3.14011
   D27        0.00826  -0.00014  -0.00037   0.00228   0.00191   0.01017
   D28       -3.11359  -0.00000   0.00652  -0.00802  -0.00152  -3.11511
   D29       -3.13759  -0.00005  -0.00263  -0.00120  -0.00383  -3.14142
   D30        0.02375   0.00010   0.00426  -0.01150  -0.00726   0.01648
   D31       -1.38295   0.00133   0.00633   0.16003   0.16636  -1.21660
   D32        1.74691   0.00123   0.00656   0.16703   0.17359   1.92050
   D33        1.73823   0.00120  -0.00080   0.17068   0.16989   1.90811
   D34       -1.41510   0.00110  -0.00056   0.17768   0.17712  -1.23798
   D35       -0.01349   0.00025   0.00549  -0.00741  -0.00191  -0.01540
   D36        3.12175   0.00003   0.00445  -0.00243   0.00204   3.12379
   D37        3.13932   0.00035   0.00529  -0.01411  -0.00882   3.13049
   D38       -0.00862   0.00013   0.00425  -0.00913  -0.00487  -0.01350
   D39       -3.12148  -0.00003  -0.00436   0.00004  -0.00431  -3.12579
   D40        0.01027   0.00010  -0.00358  -0.00403  -0.00760   0.00266
   D41        0.00863  -0.00015  -0.00416   0.00695   0.00279   0.01142
   D42        3.14037  -0.00001  -0.00338   0.00288  -0.00051   3.13987
   D43       -0.05698  -0.00012   0.00523  -0.03298  -0.02776  -0.08474
   D44        3.09084   0.00010   0.00625  -0.03789  -0.03163   3.05921
   D45        0.00367  -0.00003  -0.00206   0.00541   0.00337   0.00704
   D46        3.14096   0.00003  -0.00027   0.00047   0.00021   3.14117
   D47        3.13904  -0.00025  -0.00308   0.01031   0.00724  -3.13690
   D48       -0.00685  -0.00019  -0.00129   0.00537   0.00408  -0.00277
   D49        0.00174  -0.00005  -0.00049   0.00089   0.00040   0.00215
   D50        3.14008   0.00000   0.00010  -0.00139  -0.00129   3.13879
   D51       -3.13542  -0.00012  -0.00232   0.00598   0.00367  -3.13174
   D52        0.00292  -0.00006  -0.00173   0.00371   0.00198   0.00490
   D53       -0.00190   0.00004   0.00067  -0.00312  -0.00246  -0.00436
   D54        3.13794   0.00005   0.00212   0.00001   0.00212   3.14006
   D55       -3.14024  -0.00002   0.00008  -0.00085  -0.00077  -3.14101
   D56       -0.00040  -0.00001   0.00153   0.00228   0.00381   0.00341
   D57       -0.00346   0.00007   0.00175  -0.00093   0.00081  -0.00265
   D58       -3.13509  -0.00007   0.00096   0.00317   0.00413  -3.13096
   D59        3.13984   0.00006   0.00034  -0.00397  -0.00364   3.13621
   D60        0.00821  -0.00008  -0.00045   0.00013  -0.00032   0.00789
         Item               Value     Threshold  Converged?
 Maximum Force            0.001844     0.000450     NO 
 RMS     Force            0.000662     0.000300     NO 
 Maximum Displacement     0.367480     0.001800     NO 
 RMS     Displacement     0.123977     0.001200     NO 
 Predicted change in Energy=-5.860351D-04
 GradGradGradGradGradGradGradGradGradGradGradGradGradGradGradGradGradGrad

                          Input orientation:                          
 ---------------------------------------------------------------------
 Center     Atomic      Atomic             Coordinates (Angstroms)
 Number     Number       Type             X           Y           Z
 ---------------------------------------------------------------------
      1          6           0       -0.737596    1.554762   -2.082936
      2          6           0       -1.479538    0.760248   -1.034009
      3          6           0       -2.889457    0.725809   -1.016301
      4          6           0       -3.587704    0.010850   -0.030336
      5          6           0       -2.890519   -0.690692    0.964408
      6          6           0       -1.491821   -0.663279    0.942373
      7          9           0       -0.815454   -1.344815    1.886763
      8          6           0       -0.759102    0.040455   -0.036997
      9          6           0        0.728821   -0.000135   -0.021428
     10          6           0        1.434673   -0.713324   -1.025991
     11          8           0        0.766768   -1.383712   -2.005303
     12          6           0        2.843050   -0.740541   -1.033064
     13          6           0        3.552479   -0.062942   -0.032414
     14          6           0        2.883278    0.643286    0.982598
     15          6           0        1.484587    0.657895    0.966655
     16          9           0        0.822700    1.340016    1.924410
     17          1           0       -1.429696    2.186989   -2.672058
     18          1           0        0.031327    2.205935   -1.618720
     19          1           0       -0.195137    0.888892   -2.787606
     20          1           0       -3.446265    1.285006   -1.784599
     21          1           0       -4.688819    0.002408   -0.032364
     22          1           0       -3.404433   -1.258815    1.753518
     23          1           0       -0.191840   -1.320053   -1.800343
     24          1           0        3.355914   -1.303420   -1.826194
     25          1           0        4.653302   -0.087567   -0.038071
     26          1           0        3.420313    1.180059    1.777304
 ---------------------------------------------------------------------
                    Distance matrix (angstroms):
                    1          2          3          4          5
     1  C    0.000000
     2  C    1.510622   0.000000
     3  C    2.540744   1.410451   0.000000
     4  C    3.836658   2.452208   1.403867   0.000000
     5  C    4.354704   2.844251   2.435094   1.402763   0.000000
     6  C    3.826363   2.435706   2.778372   2.406935   1.399139
     7  F    4.916515   3.661039   4.125137   3.632970   2.363157
     8  C    2.545477   1.425188   2.442777   2.828765   2.465832
     9  C    2.969495   2.545653   3.822133   4.316548   3.814231
    10  C    3.313623   3.265593   4.557334   5.171076   4.761248
    11  O    3.302085   3.253592   4.335456   4.980635   4.761849
    12  C    4.380830   4.575711   5.917102   6.551691   6.071753
    13  C    5.022584   5.196347   6.564198   7.140565   6.549804
    14  C    4.831047   4.807759   6.109573   6.580245   5.925923
    15  C    3.878462   3.577592   4.803018   5.209683   4.578235
    16  F    4.305747   3.793240   4.775472   5.003936   4.339743
    17  H    1.107149   2.172851   2.647165   4.046143   4.861989
    18  H    1.109398   2.171315   3.329363   4.520923   4.858002
    19  H    1.110948   2.177461   3.228541   4.459037   4.882394
    20  H    2.738368   2.169510   1.101371   2.172766   3.430637
    21  H    4.714532   3.446317   2.174659   1.101149   2.169753
    22  H    5.454046   3.943621   3.446133   2.197220   1.099803
    23  H    2.939774   2.563803   3.475257   4.054149   3.914436
    24  H    4.999195   5.316754   6.616521   7.291519   6.868829
    25  H    5.995039   6.270757   7.649295   8.241597   7.634000
    26  H    5.685953   5.664650   6.915473   7.331229   6.632277
                    6          7          8          9         10
     6  C    0.000000
     7  F    1.346788   0.000000
     8  C    1.411129   2.371287   0.000000
     9  C    2.509965   2.798953   1.488558   0.000000
    10  C    3.527227   3.734432   2.521693   1.419863   0.000000
    11  O    3.782729   4.201561   2.868930   2.418984   1.361826
    12  C    4.764392   4.719659   3.818063   2.457961   1.408658
    13  C    5.172579   4.940169   4.312822   2.824378   2.428022
    14  C    4.566205   4.295426   3.830132   2.462468   2.823700
    15  C    3.256547   3.185535   2.534302   1.407300   2.419374
    16  F    3.214747   3.145359   2.835150   2.364552   3.646311
    17  H    4.603477   5.799464   3.464225   4.058146   4.396130
    18  H    4.136613   5.060956   2.795698   2.811510   3.292838
    19  H    4.243037   5.217658   2.933215   3.048902   2.885595
    20  H    3.879695   5.226473   3.438585   4.710807   5.328448
    21  H    3.407939   4.527805   3.929904   5.417652   6.244735
    22  H    2.161181   2.593832   3.448453   4.671027   5.607154
    23  H    3.105445   3.739553   2.298294   2.398820   1.900865
    24  H    5.619189   5.584628   4.684077   3.443450   2.163263
    25  H    6.249420   5.932364   5.413917   3.925490   3.424490
    26  H    5.312633   4.932412   4.696583   3.445639   3.922516
                   11         12         13         14         15
    11  O    0.000000
    12  C    2.381147   0.000000
    13  C    3.660179   1.401332   0.000000
    14  C    4.185199   2.445300   1.406000   0.000000
    15  C    3.676405   2.792834   2.407057   1.398859   0.000000
    16  F    4.781680   4.142124   3.639938   2.370322   1.349325
    17  H    4.244870   5.432596   6.070583   5.860143   4.906262
    18  H    3.684547   4.114669   4.479139   4.164415   3.345528
    19  H    2.588819   3.868339   4.747809   4.873540   4.119381
    20  H    4.992035   6.650047   7.339586   6.937745   5.681194
    21  H    5.964667   7.634293   8.241557   7.666651   6.287976
    22  H    5.616338   6.860371   7.281366   6.614199   5.309938
    23  H    0.982340   3.183569   4.327335   4.588662   3.791960
    24  H    2.596575   1.099507   2.189765   3.449980   3.892124
    25  H    4.544792   2.166425   1.101113   2.169999   3.406750
    26  H    5.284159   3.452551   2.199454   1.099131   2.162601
                   16         17         18         19         20
    16  F    0.000000
    17  H    5.188272   0.000000
    18  H    3.732273   1.801240   0.000000
    19  H    4.841755   1.795145   1.775438   0.000000
    20  H    5.655425   2.380695   3.601287   3.425312   0.000000
    21  H    5.999583   4.728875   5.445349   5.345128   2.501864
    22  H    4.965056   5.946333   5.931352   5.961043   4.357872
    23  H    4.688181   3.819885   3.537709   2.419533   4.168676
    24  H    5.241370   5.983352   4.838543   4.282582   7.278140
    25  H    4.534626   7.008164   5.396412   5.658689   8.398648
    26  H    2.606688   6.658327   4.906183   5.830494   7.736153
                   21         22         23         24         25
    21  H    0.000000
    22  H    2.535687   0.000000
    23  H    5.009738   4.791078   0.000000
    24  H    8.345103   7.649747   3.547888   0.000000
    25  H    9.342556   8.337188   5.300946   2.521685   0.000000
    26  H    8.391650   7.247471   5.665489   4.376872   2.534309
                   26
    26  H    0.000000
 Symmetry turned off by external request.
 Stoichiometry    C13H10F2O
 Framework group  C1[X(C13H10F2O)]
 Deg. of freedom    72
 Full point group                 C1      NOp   1
 Rotational constants (GHZ):           0.8752581           0.4399527           0.3775963
 Standard basis: def2SVP (5D, 7F)
   274 basis functions,   470 primitive gaussians,   290 cartesian basis functions
    57 alpha electrons       57 beta electrons
       nuclear repulsion energy      1079.4387976564 Hartrees.
 NAtoms=   26 NActive=   26 NUniq=   26 SFac= 1.00D+00 NAtFMM=   60 NAOKFM=F Big=F
 Integral buffers will be    131072 words long.
 Raffenetti 2 integral format.
 Two-electron integral symmetry is turned off.
 Nuclear repulsion after empirical dispersion term =     1079.3855999422 Hartrees.
 One-electron integrals computed using PRISM.
   1 Symmetry operations used in ECPInt.
 ECPInt:  NShTT=    8001 NPrTT=   29641 LenC2=    7678 LenP2D=   20637.
 LDataN:  DoStor=T MaxTD1= 4 Len=   56
 NBasis=   274 RedAO= T EigKep=  2.30D-04  NBF=   274
 NBsUse=   274 1.00D-06 EigRej= -1.00D+00 NBFU=   274
 Initial guess from the checkpoint file:  "path/to/scratch/gaussian_tmp/Gau-2666754.chk"
 B after Tr=     0.001608    0.011848    0.029145
         Rot=    0.999965   -0.008247   -0.000480    0.001103 Ang=  -0.96 deg.
 ExpMin= 1.22D-01 ExpMax= 2.89D+03 ExpMxC= 4.35D+02 IAcc=3 IRadAn=         5 AccDes= 0.00D+00
 Harris functional with IExCor=  404 and IRadAn=       5 diagonalized for initial guess.
 HarFok:  IExCor=  404 AccDes= 0.00D+00 IRadAn=         5 IDoV= 1 UseB2=F ITyADJ=14
 ICtDFT=  3500011 ScaDFX=  1.000000  1.000000  1.000000  1.000000
 FoFCou: FMM=F IPFlag=           0 FMFlag=      100000 FMFlg1=           0
         NFxFlg=           0 DoJE=T BraDBF=F KetDBF=T FulRan=T
         wScrn=  0.000000 ICntrl=       500 IOpCl=  0 I1Cent=   200000004 NGrid=           0
         NMat0=    1 NMatS0=      1 NMatT0=    0 NMatD0=    1 NMtDS0=    0 NMtDT0=    0
 Symmetry not used in FoFCou.
 Requested convergence on RMS density matrix=1.00D-08 within 128 cycles.
 Requested convergence on MAX density matrix=1.00D-06.
 Requested convergence on             energy=1.00D-06.
 No special actions if energy rises.
 Integral accuracy reduced to 1.0D-05 until final iterations.
 Initial convergence to 1.0D-05 achieved.  Increase integral accuracy.
 SCF Done:  E(RB-P86) =  -775.800249830     A.U. after   13 cycles
            NFock= 13  Conv=0.37D-08     -V/T= 2.0105
   1 Symmetry operations used in ECPInt.
 ECPInt:  NShTT=    8001 NPrTT=   29641 LenC2=    7678 LenP2D=   20637.
 LDataN:  DoStor=T MaxTD1= 5 Len=  102
 Calling FoFJK, ICntrl=      2527 FMM=F ISym2X=0 I1Cent= 0 IOpClX= 0 NMat=1 NMatS=1 NMatT=0.
 -------------------------------------------------------------------
 Center     Atomic                   Forces (Hartrees/Bohr)
 Number     Number              X              Y              Z
 -------------------------------------------------------------------
      1        6           0.000616324    0.000003743    0.000121841
      2        6           0.000112332   -0.000327177   -0.000363294
      3        6          -0.000170318    0.000357516   -0.000048747
      4        6          -0.000234796    0.000075499   -0.000039304
      5        6          -0.000119297   -0.000319171    0.000467530
      6        6          -0.000048076    0.000418572   -0.000331361
      7        9           0.000240568    0.000023171    0.000266777
      8        6           0.000041950   -0.000348834   -0.000050252
      9        6          -0.000217766    0.000418646   -0.000441413
     10        6           0.000053787    0.000257163    0.000092709
     11        8          -0.000103601    0.000188790    0.000123439
     12        6           0.000050471   -0.000214631   -0.000374467
     13        6           0.000263030   -0.000051217    0.000000416
     14        6           0.000184981    0.000366216    0.000418685
     15        6           0.000048117   -0.000510425   -0.000214310
     16        9          -0.000287450   -0.000025166    0.000246595
     17        1           0.000021322   -0.000135848    0.000100958
     18        1          -0.000188737    0.000105283    0.000041066
     19        1          -0.000111398   -0.000039728    0.000014425
     20        1           0.000020264   -0.000078354    0.000057904
     21        1           0.000081797   -0.000006172   -0.000002931
     22        1          -0.000015274    0.000064985   -0.000085619
     23        1          -0.000163676   -0.000211769   -0.000012346
     24        1           0.000006330    0.000046827    0.000092996
     25        1          -0.000078649    0.000014229   -0.000005889
     26        1          -0.000002237   -0.000072148   -0.000075407
 -------------------------------------------------------------------
 Cartesian Forces:  Max     0.000616324 RMS     0.000214221

 GradGradGradGradGradGradGradGradGradGradGradGradGradGradGradGradGradGrad
 Berny optimization.
 Using GEDIIS/GDIIS optimizer.
 FormGI is forming the generalized inverse of G from B-inverse, IUseBI=4.
 Internal  Forces:  Max     0.000502876 RMS     0.000160183
 Search for a local minimum.
 Step number   5 out of a maximum of  140
 All quantities printed in internal units (Hartrees-Bohrs-Radians)
 Mixed Optimization -- En-DIIS/RFO-DIIS
 Swapping is turned off.
 Update second derivatives using D2CorX and points    1    2    3    4    5
 DE= -7.70D-04 DEPred=-5.86D-04 R= 1.31D+00
 TightC=F SS=  1.41D+00  RLast= 4.09D-01 DXNew= 2.3784D-01 1.2259D+00
 Trust test= 1.31D+00 RLast= 4.09D-01 DXMaxT set to 2.38D-01
 ITU=  1  1  1  1  0
     Eigenvalues ---    0.00118   0.00378   0.01164   0.01309   0.01621
     Eigenvalues ---    0.01643   0.01680   0.01731   0.01750   0.01940
     Eigenvalues ---    0.02087   0.02215   0.02286   0.02324   0.02405
     Eigenvalues ---    0.02555   0.02831   0.02941   0.03351   0.03464
     Eigenvalues ---    0.03604   0.05242   0.05421   0.09957   0.10061
     Eigenvalues ---    0.10401   0.11124   0.11545   0.11565   0.11747
     Eigenvalues ---    0.13813   0.14158   0.16578   0.17311   0.17941
     Eigenvalues ---    0.18017   0.18100   0.18196   0.18577   0.18922
     Eigenvalues ---    0.19234   0.21132   0.21885   0.23401   0.24394
     Eigenvalues ---    0.31792   0.33756   0.34981   0.35176   0.35601
     Eigenvalues ---    0.36089   0.36448   0.37283   0.37396   0.37529
     Eigenvalues ---    0.37596   0.37840   0.37982   0.38441   0.39055
     Eigenvalues ---    0.41099   0.44724   0.45739   0.46117   0.47694
     Eigenvalues ---    0.49142   0.49423   0.49865   0.49951   0.51276
     Eigenvalues ---    0.52549   0.54154
 En-DIIS/RFO-DIIS/Sim-DIIS IScMMF=       -3 using points:     5    4
 RFO step:  Lambda=-1.49817404D-04.
 DidBck=F Rises=F RFO-DIIS coefs:    1.45678   -0.45678
 Iteration  1 RMS(Cart)=  0.06001107 RMS(Int)=  0.00083337
 Iteration  2 RMS(Cart)=  0.00137484 RMS(Int)=  0.00000933
 Iteration  3 RMS(Cart)=  0.00000070 RMS(Int)=  0.00000932
 Variable       Old X    -DE/DX   Delta X   Delta X   Delta X     New X
                                 (Linear)    (Quad)   (Total)
    R1        2.85466  -0.00006   0.00100  -0.00020   0.00080   2.85546
    R2        2.09221  -0.00014   0.00140  -0.00144  -0.00005   2.09216
    R3        2.09646  -0.00005   0.00223  -0.00164   0.00059   2.09705
    R4        2.09939  -0.00004   0.00110  -0.00150  -0.00040   2.09899
    R5        2.66537   0.00022   0.00143  -0.00054   0.00089   2.66626
    R6        2.69322  -0.00035   0.00250  -0.00114   0.00136   2.69457
    R7        2.65292   0.00027   0.00090  -0.00063   0.00026   2.65319
    R8        2.08129  -0.00009   0.00159  -0.00148   0.00011   2.08140
    R9        2.65084   0.00033   0.00116  -0.00023   0.00092   2.65176
   R10        2.08087  -0.00008   0.00158  -0.00147   0.00012   2.08099
   R11        2.64399   0.00022   0.00101  -0.00110  -0.00010   2.64389
   R12        2.07833  -0.00009   0.00163  -0.00156   0.00007   2.07840
   R13        2.54506   0.00030  -0.00056   0.00117   0.00061   2.54567
   R14        2.66665  -0.00015   0.00218  -0.00156   0.00063   2.66727
   R15        2.81297  -0.00025  -0.00050  -0.00135  -0.00185   2.81111
   R16        2.68315  -0.00024   0.00226  -0.00162   0.00064   2.68379
   R17        2.65941  -0.00011   0.00257  -0.00102   0.00155   2.66096
   R18        2.57348   0.00006   0.00097   0.00003   0.00100   2.57448
   R19        2.66198   0.00019   0.00102  -0.00077   0.00025   2.66223
   R20        1.85635   0.00014   0.00139  -0.00100   0.00038   1.85674
   R21        2.64813   0.00031   0.00106  -0.00050   0.00056   2.64870
   R22        2.07777  -0.00009   0.00160  -0.00152   0.00008   2.07785
   R23        2.65696   0.00030   0.00096  -0.00024   0.00072   2.65768
   R24        2.08080  -0.00008   0.00160  -0.00148   0.00013   2.08093
   R25        2.64346   0.00024   0.00122  -0.00104   0.00018   2.64364
   R26        2.07706  -0.00009   0.00162  -0.00156   0.00006   2.07712
   R27        2.54985   0.00030  -0.00076   0.00095   0.00019   2.55005
    A1        1.94206  -0.00015   0.00043  -0.00266  -0.00223   1.93983
    A2        1.93754  -0.00001  -0.00173  -0.00016  -0.00190   1.93564
    A3        1.94445  -0.00005   0.00196   0.00144   0.00340   1.94785
    A4        1.89731   0.00001  -0.00031  -0.00072  -0.00103   1.89628
    A5        1.88598   0.00005   0.00119  -0.00083   0.00036   1.88634
    A6        1.85333   0.00017  -0.00160   0.00312   0.00152   1.85485
    A7        2.10892   0.00048  -0.00118   0.00038  -0.00086   2.10806
    A8        2.09799  -0.00050   0.00116   0.00001   0.00112   2.09911
    A9        2.07624   0.00002   0.00001  -0.00044  -0.00045   2.07579
   A10        2.11582  -0.00011   0.00042   0.00003   0.00045   2.11627
   A11        2.07626   0.00009  -0.00068   0.00042  -0.00027   2.07599
   A12        2.09099   0.00002   0.00023  -0.00045  -0.00022   2.09077
   A13        2.10080   0.00003  -0.00059   0.00048  -0.00011   2.10069
   A14        2.09436  -0.00001   0.00024  -0.00025  -0.00001   2.09435
   A15        2.08802  -0.00002   0.00034  -0.00024   0.00010   2.08812
   A16        2.06677  -0.00019   0.00105  -0.00133  -0.00028   2.06648
   A17        2.13519   0.00003  -0.00007  -0.00017  -0.00024   2.13495
   A18        2.08123   0.00016  -0.00098   0.00151   0.00053   2.08175
   A19        2.07270   0.00011  -0.00017  -0.00016  -0.00033   2.07236
   A20        2.14097   0.00006  -0.00045   0.00119   0.00075   2.14172
   A21        2.06947  -0.00016   0.00061  -0.00102  -0.00041   2.06906
   A22        2.06566   0.00019  -0.00047   0.00004  -0.00043   2.06523
   A23        2.12513  -0.00050   0.00059  -0.00089  -0.00033   2.12480
   A24        2.09228   0.00031  -0.00010   0.00099   0.00087   2.09315
   A25        2.09811   0.00004   0.00181   0.00282   0.00463   2.10273
   A26        2.13104  -0.00011  -0.00109  -0.00183  -0.00293   2.12811
   A27        2.05402   0.00007  -0.00070  -0.00097  -0.00169   2.05234
   A28        2.10858  -0.00023   0.00062   0.00010   0.00072   2.10930
   A29        2.10631   0.00007   0.00034   0.00058   0.00091   2.10722
   A30        2.06829   0.00016  -0.00095  -0.00068  -0.00163   2.06666
   A31        1.87199   0.00029  -0.00051   0.00237   0.00186   1.87385
   A32        2.08659  -0.00009   0.00035  -0.00028   0.00006   2.08665
   A33        2.07130   0.00010  -0.00073   0.00083   0.00009   2.07139
   A34        2.12527  -0.00001   0.00038  -0.00057  -0.00019   2.12508
   A35        2.11463   0.00001  -0.00054   0.00029  -0.00025   2.11438
   A36        2.08477  -0.00000   0.00026  -0.00016   0.00010   2.08487
   A37        2.08378  -0.00001   0.00027  -0.00014   0.00014   2.08392
   A38        2.06340  -0.00020   0.00100  -0.00129  -0.00030   2.06310
   A39        2.13497   0.00005  -0.00009  -0.00001  -0.00009   2.13487
   A40        2.08482   0.00015  -0.00091   0.00130   0.00039   2.08521
   A41        2.14134   0.00014  -0.00047   0.00157   0.00110   2.14243
   A42        2.06157  -0.00027   0.00085  -0.00147  -0.00062   2.06095
   A43        2.08021   0.00013  -0.00039  -0.00011  -0.00050   2.07970
    D1        0.15804  -0.00008  -0.04102   0.01086  -0.03016   0.12789
    D2       -2.97448  -0.00001  -0.03459   0.01824  -0.01634  -2.99082
    D3        2.27365  -0.00018  -0.04230   0.00802  -0.03428   2.23937
    D4       -0.85887  -0.00010  -0.03587   0.01540  -0.02047  -0.87933
    D5       -1.94787  -0.00001  -0.04417   0.01276  -0.03141  -1.97928
    D6        1.20279   0.00007  -0.03773   0.02014  -0.01760   1.18519
    D7       -3.12032   0.00006   0.00930   0.00686   0.01614  -3.10417
    D8        0.00515   0.00007   0.00669   0.00689   0.01358   0.01873
    D9        0.01232  -0.00002   0.00295  -0.00043   0.00252   0.01484
   D10        3.13779  -0.00001   0.00034  -0.00039  -0.00005   3.13774
   D11        3.11629  -0.00008  -0.00928  -0.00926  -0.01856   3.09774
   D12       -0.04193   0.00005  -0.00769   0.00132  -0.00638  -0.04832
   D13       -0.01640  -0.00001  -0.00297  -0.00202  -0.00499  -0.02139
   D14        3.10856   0.00012  -0.00138   0.00856   0.00718   3.11574
   D15       -0.00127   0.00002  -0.00072   0.00188   0.00116  -0.00011
   D16        3.13551   0.00000  -0.00097   0.00043  -0.00054   3.13497
   D17       -3.12660   0.00001   0.00192   0.00184   0.00375  -3.12285
   D18        0.01017  -0.00001   0.00167   0.00039   0.00205   0.01223
   D19       -0.00534  -0.00001  -0.00142  -0.00079  -0.00221  -0.00756
   D20        3.13857  -0.00005   0.00114  -0.00246  -0.00132   3.13725
   D21        3.14105   0.00001  -0.00117   0.00065  -0.00052   3.14053
   D22        0.00178  -0.00003   0.00139  -0.00102   0.00037   0.00214
   D23       -3.13081  -0.00013   0.00396  -0.00459  -0.00063  -3.13144
   D24        0.00077  -0.00001   0.00134  -0.00178  -0.00045   0.00032
   D25        0.00854  -0.00009   0.00148  -0.00297  -0.00149   0.00705
   D26        3.14011   0.00002  -0.00115  -0.00016  -0.00131   3.13881
   D27        0.01017   0.00002   0.00087   0.00319   0.00407   0.01424
   D28       -3.11511  -0.00010  -0.00070  -0.00717  -0.00787  -3.12297
   D29       -3.14142   0.00014  -0.00175   0.00600   0.00425  -3.13717
   D30        0.01648   0.00002  -0.00332  -0.00436  -0.00768   0.00880
   D31       -1.21660   0.00026   0.07599   0.00117   0.07715  -1.13945
   D32        1.92050   0.00031   0.07929   0.00487   0.08416   2.00466
   D33        1.90811   0.00039   0.07760   0.01190   0.08950   1.99761
   D34       -1.23798   0.00044   0.08090   0.01560   0.09651  -1.14146
   D35       -0.01540  -0.00006  -0.00087  -0.00642  -0.00729  -0.02269
   D36        3.12379  -0.00005   0.00093  -0.00468  -0.00373   3.12006
   D37        3.13049  -0.00011  -0.00403  -0.00996  -0.01400   3.11650
   D38       -0.01350  -0.00010  -0.00223  -0.00822  -0.01044  -0.02394
   D39       -3.12579   0.00004  -0.00197   0.00421   0.00226  -3.12352
   D40        0.00266   0.00010  -0.00347   0.00341  -0.00005   0.00261
   D41        0.01142   0.00009   0.00127   0.00783   0.00910   0.02052
   D42        3.13987   0.00014  -0.00023   0.00703   0.00679  -3.13653
   D43       -0.08474  -0.00014  -0.01268  -0.00932  -0.02200  -0.10674
   D44        3.05921  -0.00015  -0.01445  -0.01103  -0.02548   3.03373
   D45        0.00704   0.00005   0.00154   0.00398   0.00553   0.01257
   D46        3.14117   0.00002   0.00009   0.00124   0.00134  -3.14068
   D47       -3.13690   0.00006   0.00331   0.00569   0.00900  -3.12790
   D48       -0.00277   0.00003   0.00186   0.00294   0.00481   0.00204
   D49        0.00215   0.00002   0.00018   0.00108   0.00127   0.00341
   D50        3.13879  -0.00001  -0.00059  -0.00016  -0.00076   3.13804
   D51       -3.13174   0.00005   0.00168   0.00391   0.00559  -3.12615
   D52        0.00490   0.00002   0.00090   0.00266   0.00357   0.00847
   D53       -0.00436  -0.00003  -0.00112  -0.00160  -0.00273  -0.00709
   D54        3.14006  -0.00006   0.00097  -0.00349  -0.00252   3.13754
   D55       -3.14101   0.00000  -0.00035  -0.00036  -0.00071   3.14147
   D56        0.00341  -0.00002   0.00174  -0.00224  -0.00050   0.00291
   D57       -0.00265  -0.00003   0.00037  -0.00301  -0.00264  -0.00529
   D58       -3.13096  -0.00008   0.00189  -0.00219  -0.00030  -3.13126
   D59        3.13621   0.00000  -0.00166  -0.00119  -0.00285   3.13336
   D60        0.00789  -0.00005  -0.00015  -0.00037  -0.00051   0.00738
         Item               Value     Threshold  Converged?
 Maximum Force            0.000503     0.000450     NO 
 RMS     Force            0.000160     0.000300     YES
 Maximum Displacement     0.215103     0.001800     NO 
 RMS     Displacement     0.060158     0.001200     NO 
 Predicted change in Energy=-7.758917D-05
 GradGradGradGradGradGradGradGradGradGradGradGradGradGradGradGradGradGrad

                          Input orientation:                          
 ---------------------------------------------------------------------
 Center     Atomic      Atomic             Coordinates (Angstroms)
 Number     Number       Type             X           Y           Z
 ---------------------------------------------------------------------
      1          6           0       -0.741141    1.502788   -2.120466
      2          6           0       -1.480653    0.730276   -1.052942
      3          6           0       -2.891088    0.703678   -1.027149
      4          6           0       -3.588477    0.026110   -0.014339
      5          6           0       -2.889921   -0.644218    1.001433
      6          6           0       -1.491286   -0.625908    0.970962
      7          9           0       -0.813831   -1.277223    1.936129
      8          6           0       -0.758916    0.037737   -0.036724
      9          6           0        0.728044   -0.002546   -0.022119
     10          6           0        1.440944   -0.663253   -1.057593
     11          8           0        0.780189   -1.294276   -2.068147
     12          6           0        2.849591   -0.682589   -1.062930
     13          6           0        3.553599   -0.055135   -0.025991
     14          6           0        2.878165    0.591532    1.024496
     15          6           0        1.479380    0.600773    1.004675
     16          9           0        0.811901    1.226189    1.996784
     17          1           0       -1.439415    2.103284   -2.734910
     18          1           0        0.009252    2.183861   -1.668242
     19          1           0       -0.178888    0.826701   -2.799081
     20          1           0       -3.448801    1.241619   -1.809916
     21          1           0       -4.689680    0.023957   -0.010810
     22          1           0       -3.403229   -1.181524    1.812275
     23          1           0       -0.178268   -1.267292   -1.853616
     24          1           0        3.367124   -1.203317   -1.881474
     25          1           0        4.654607   -0.074182   -0.030054
     26          1           0        3.410628    1.086271    1.849043
 ---------------------------------------------------------------------
                    Distance matrix (angstroms):
                    1          2          3          4          5
     1  C    0.000000
     2  C    1.511046   0.000000
     3  C    2.540904   1.410922   0.000000
     4  C    3.837144   2.453053   1.404006   0.000000
     5  C    4.355817   2.845299   2.435563   1.403251   0.000000
     6  C    3.827661   2.436295   2.778433   2.407105   1.399087
     7  F    4.918303   3.661864   4.125528   3.633409   2.363155
     8  C    2.547287   1.425908   2.443476   2.829673   2.466579
     9  C    2.971126   2.545185   3.821905   4.316623   3.814325
    10  C    3.253141   3.236924   4.542679   5.182536   4.795450
    11  O    3.184454   3.200135   4.307409   5.004677   4.828520
    12  C    4.334468   4.554921   5.905795   6.561290   6.099596
    13  C    5.025808   5.197614   6.565982   7.142548   6.551456
    14  C    4.880630   4.830558   6.124223   6.573913   5.899019
    15  C    3.938382   3.607264   4.820777   5.201135   4.543216
    16  F    4.409103   3.847409   4.809295   4.984790   4.265282
    17  H    1.107125   2.171605   2.642480   4.041612   4.859320
    18  H    1.109710   2.170558   3.318722   4.509428   4.850815
    19  H    1.110738   2.180113   3.242053   4.474486   4.894610
    20  H    2.737896   2.169813   1.101430   2.172802   3.431095
    21  H    4.714716   3.447140   2.174832   1.101210   2.170305
    22  H    5.455153   3.944711   3.446535   2.197548   1.099840
    23  H    2.839256   2.515465   3.453573   4.084771   3.986551
    24  H    4.925237   5.284524   6.597858   7.306030   6.911900
    25  H    5.997563   6.271752   7.650934   8.243709   7.636021
    26  H    5.759138   5.698497   6.937614   7.320082   6.588623
                    6          7          8          9         10
     6  C    0.000000
     7  F    1.347110   0.000000
     8  C    1.411461   2.371558   0.000000
     9  C    2.510023   2.799450   1.487578   0.000000
    10  C    3.565726   3.797808   2.524469   1.420199   0.000000
    11  O    3.852596   4.309921   2.875723   2.420231   1.362354
    12  C    4.794074   4.771647   3.820117   2.459006   1.408790
    13  C    5.174028   4.941443   4.313529   2.826047   2.428440
    14  C    4.536202   4.237234   3.829000   2.464011   2.824037
    15  C    3.214147   3.106975   2.532093   1.408121   2.419129
    16  F    3.128457   2.985591   2.831085   2.364908   3.646218
    17  H    4.602680   5.799810   3.465512   4.060989   4.331696
    18  H    4.136643   5.064392   2.803174   2.829621   3.244795
    19  H    4.248021   5.220332   2.930787   3.036724   2.806528
    20  H    3.879794   5.226900   3.439334   4.710647   5.301334
    21  H    3.408214   4.528338   3.930873   5.417800   6.257201
    22  H    2.161491   2.594124   3.449317   4.671446   5.654270
    23  H    3.180193   3.842682   2.311135   2.403199   1.902725
    24  H    5.663386   5.662150   4.686953   3.444386   2.163474
    25  H    6.251275   5.934391   5.414685   3.927225   3.424977
    26  H    5.266056   4.841460   4.694746   3.447176   3.922884
                   11         12         13         14         15
    11  O    0.000000
    12  C    2.380557   0.000000
    13  C    3.660284   1.401630   0.000000
    14  C    4.185955   2.445721   1.406384   0.000000
    15  C    3.677270   2.792756   2.407254   1.398955   0.000000
    16  F    4.783034   4.142157   3.640099   2.370143   1.349428
    17  H    4.112740   5.380723   6.076776   5.921151   4.976083
    18  H    3.584928   4.080498   4.502498   4.244645   3.436849
    19  H    2.439803   3.803139   4.732772   4.901084   4.155654
    20  H    4.937794   6.627995   7.341497   6.963261   5.711355
    21  H    5.990813   7.645049   8.243672   7.659391   6.278633
    22  H    5.707134   6.900254   7.283230   6.574210   5.260103
    23  H    0.982543   3.183550   4.328553   4.591355   3.795693
    24  H    2.595256   1.099551   2.189957   3.450396   3.892066
    25  H    4.544620   2.166812   1.101180   2.170484   3.407095
    26  H    5.284940   3.453001   2.199773   1.099163   2.162957
                   16         17         18         19         20
    16  F    0.000000
    17  H    5.312876   0.000000
    18  H    3.872182   1.800808   0.000000
    19  H    4.913408   1.795191   1.776535   0.000000
    20  H    5.713561   2.373966   3.586924   3.441357   0.000000
    21  H    5.978560   4.723192   5.430675   5.363403   2.501851
    22  H    4.857823   5.943351   5.923246   5.974441   4.358207
    23  H    4.692916   3.705125   3.461211   2.297545   4.122248
    24  H    5.241427   5.896167   4.774280   4.187742   7.241524
    25  H    4.534912   7.013895   5.418648   5.642852   8.400266
    26  H    2.606681   6.750545   5.014514   5.878525   7.775852
                   21         22         23         24         25
    21  H    0.000000
    22  H    2.536095   0.000000
    23  H    5.041437   4.883287   0.000000
    24  H    8.361679   7.712454   3.546079   0.000000
    25  H    9.344822   8.339611   5.301469   2.521967   0.000000
    26  H    8.378696   7.181427   5.668255   4.377313   2.534786
                   26
    26  H    0.000000
 Symmetry turned off by external request.
 Stoichiometry    C13H10F2O
 Framework group  C1[X(C13H10F2O)]
 Deg. of freedom    72
 Full point group                 C1      NOp   1
 Rotational constants (GHZ):           0.8747879           0.4483482           0.3712849
 Standard basis: def2SVP (5D, 7F)
   274 basis functions,   470 primitive gaussians,   290 cartesian basis functions
    57 alpha electrons       57 beta electrons
       nuclear repulsion energy      1080.4105267028 Hartrees.
 NAtoms=   26 NActive=   26 NUniq=   26 SFac= 1.00D+00 NAtFMM=   60 NAOKFM=F Big=F
 Integral buffers will be    131072 words long.
 Raffenetti 2 integral format.
 Two-electron integral symmetry is turned off.
 Nuclear repulsion after empirical dispersion term =     1080.3572691310 Hartrees.
 One-electron integrals computed using PRISM.
   1 Symmetry operations used in ECPInt.
 ECPInt:  NShTT=    8001 NPrTT=   29641 LenC2=    7676 LenP2D=   20640.
 LDataN:  DoStor=T MaxTD1= 4 Len=   56
 NBasis=   274 RedAO= T EigKep=  2.31D-04  NBF=   274
 NBsUse=   274 1.00D-06 EigRej= -1.00D+00 NBFU=   274
 Initial guess from the checkpoint file:  "path/to/scratch/gaussian_tmp/Gau-2666754.chk"
 B after Tr=     0.000069    0.003212    0.011814
         Rot=    0.999991   -0.004132   -0.000003    0.000516 Ang=  -0.48 deg.
 ExpMin= 1.22D-01 ExpMax= 2.89D+03 ExpMxC= 4.35D+02 IAcc=3 IRadAn=         5 AccDes= 0.00D+00
 Harris functional with IExCor=  404 and IRadAn=       5 diagonalized for initial guess.
 HarFok:  IExCor=  404 AccDes= 0.00D+00 IRadAn=         5 IDoV= 1 UseB2=F ITyADJ=14
 ICtDFT=  3500011 ScaDFX=  1.000000  1.000000  1.000000  1.000000
 FoFCou: FMM=F IPFlag=           0 FMFlag=      100000 FMFlg1=           0
         NFxFlg=           0 DoJE=T BraDBF=F KetDBF=T FulRan=T
         wScrn=  0.000000 ICntrl=       500 IOpCl=  0 I1Cent=   200000004 NGrid=           0
         NMat0=    1 NMatS0=      1 NMatT0=    0 NMatD0=    1 NMtDS0=    0 NMtDT0=    0
 Symmetry not used in FoFCou.
 Requested convergence on RMS density matrix=1.00D-08 within 128 cycles.
 Requested convergence on MAX density matrix=1.00D-06.
 Requested convergence on             energy=1.00D-06.
 No special actions if energy rises.
 Integral accuracy reduced to 1.0D-05 until final iterations.
 Initial convergence to 1.0D-05 achieved.  Increase integral accuracy.
 SCF Done:  E(RB-P86) =  -775.800197356     A.U. after   12 cycles
            NFock= 12  Conv=0.68D-08     -V/T= 2.0105
   1 Symmetry operations used in ECPInt.
 ECPInt:  NShTT=    8001 NPrTT=   29641 LenC2=    7676 LenP2D=   20640.
 LDataN:  DoStor=T MaxTD1= 5 Len=  102
 Calling FoFJK, ICntrl=      2527 FMM=F ISym2X=0 I1Cent= 0 IOpClX= 0 NMat=1 NMatS=1 NMatT=0.
 -------------------------------------------------------------------
 Center     Atomic                   Forces (Hartrees/Bohr)
 Number     Number              X              Y              Z
 -------------------------------------------------------------------
      1        6          -0.000059888    0.000364786   -0.000159214
      2        6          -0.000011785    0.000026777   -0.000047426
      3        6          -0.000048746    0.000063324   -0.000001345
      4        6          -0.000083632    0.000042467   -0.000066522
      5        6           0.000052364   -0.000095680    0.000142294
      6        6          -0.000214965   -0.000033448   -0.000180503
      7        9          -0.000034276   -0.000101733    0.000003223
      8        6           0.000341855    0.000067084   -0.000042673
      9        6          -0.000455263   -0.000024731   -0.000142663
     10        6           0.000196531   -0.000027517    0.000229654
     11        8           0.000231509   -0.000615591    0.000300274
     12        6          -0.000022654   -0.000041358   -0.000124012
     13        6           0.000092280   -0.000026959   -0.000040956
     14        6          -0.000059509    0.000106692    0.000137589
     15        6           0.000265543   -0.000036312   -0.000107551
     16        9           0.000062700    0.000098371   -0.000030327
     17        1           0.000030663    0.000010045    0.000163932
     18        1          -0.000141523   -0.000037678   -0.000028380
     19        1          -0.000270963    0.000424748    0.000009586
     20        1           0.000063543   -0.000074062    0.000086383
     21        1           0.000128982   -0.000002339    0.000000608
     22        1           0.000052436    0.000074616   -0.000099585
     23        1           0.000113451   -0.000156776   -0.000010981
     24        1          -0.000043793    0.000059942    0.000110575
     25        1          -0.000131066    0.000007267   -0.000002323
     26        1          -0.000053792   -0.000071935   -0.000099655
 -------------------------------------------------------------------
 Cartesian Forces:  Max     0.000615591 RMS     0.000155306

 GradGradGradGradGradGradGradGradGradGradGradGradGradGradGradGradGradGrad
 Berny optimization.
 Using GEDIIS/GDIIS optimizer.
 FormGI is forming the generalized inverse of G from B-inverse, IUseBI=4.
 Internal  Forces:  Max     0.001295421 RMS     0.000350740
 Search for a local minimum.
 Step number   6 out of a maximum of  140
 All quantities printed in internal units (Hartrees-Bohrs-Radians)
 Mixed Optimization -- En-DIIS/RFO-DIIS
 Swapping is turned off.
 Update second derivatives using D2CorX and points    1    2    4    5    6
 DE=  5.25D-05 DEPred=-7.76D-05 R=-6.76D-01
 Trust test=-6.76D-01 RLast= 1.94D-01 DXMaxT set to 1.19D-01
 ITU= -1  1  1  1  1  0
     Eigenvalues ---    0.00112   0.00898   0.01166   0.01314   0.01620
     Eigenvalues ---    0.01659   0.01701   0.01732   0.01749   0.01962
     Eigenvalues ---    0.02108   0.02220   0.02285   0.02333   0.02401
     Eigenvalues ---    0.02655   0.02832   0.02975   0.03383   0.03464
     Eigenvalues ---    0.04207   0.05274   0.05409   0.09957   0.10059
     Eigenvalues ---    0.10404   0.11119   0.11547   0.11564   0.11747
     Eigenvalues ---    0.13851   0.14191   0.16486   0.17303   0.17921
     Eigenvalues ---    0.18044   0.18094   0.18147   0.18466   0.18902
     Eigenvalues ---    0.19231   0.21128   0.22309   0.24056   0.24667
     Eigenvalues ---    0.30080   0.31826   0.33821   0.35040   0.35276
     Eigenvalues ---    0.35918   0.36430   0.36730   0.37302   0.37455
     Eigenvalues ---    0.37533   0.37768   0.37931   0.38441   0.39016
     Eigenvalues ---    0.40966   0.44198   0.45695   0.46286   0.47019
     Eigenvalues ---    0.48210   0.49164   0.49448   0.50012   0.50360
     Eigenvalues ---    0.51744   0.54132
 En-DIIS/RFO-DIIS/Sim-DIIS IScMMF=       -3 using points:     6    5    4
 RFO step:  Lambda=-2.28475131D-04.
 EnCoef did   100 forward-backward iterations
 DidBck=T Rises=T En-DIIS coefs:    0.44339    0.55661    0.00000
 Iteration  1 RMS(Cart)=  0.04135274 RMS(Int)=  0.00035940
 Iteration  2 RMS(Cart)=  0.00062897 RMS(Int)=  0.00000389
 Iteration  3 RMS(Cart)=  0.00000013 RMS(Int)=  0.00000389
 Variable       Old X    -DE/DX   Delta X   Delta X   Delta X     New X
                                 (Linear)    (Quad)   (Total)
    R1        2.85546   0.00018  -0.00045  -0.00002  -0.00047   2.85499
    R2        2.09216  -0.00010   0.00003  -0.00012  -0.00009   2.09207
    R3        2.09705  -0.00013  -0.00033   0.00001  -0.00032   2.09673
    R4        2.09899  -0.00040   0.00022  -0.00045  -0.00023   2.09876
    R5        2.66626   0.00002  -0.00050   0.00024  -0.00026   2.66600
    R6        2.69457   0.00081  -0.00076  -0.00010  -0.00086   2.69372
    R7        2.65319  -0.00019  -0.00015   0.00051   0.00036   2.65355
    R8        2.08140  -0.00013  -0.00006  -0.00011  -0.00017   2.08123
    R9        2.65176  -0.00018  -0.00051   0.00049  -0.00002   2.65174
   R10        2.08099  -0.00013  -0.00006  -0.00007  -0.00013   2.08085
   R11        2.64389  -0.00018   0.00006   0.00041   0.00047   2.64436
   R12        2.07840  -0.00013  -0.00004  -0.00015  -0.00019   2.07821
   R13        2.54567   0.00003  -0.00034   0.00068   0.00034   2.54601
   R14        2.66727   0.00015  -0.00035  -0.00017  -0.00052   2.66676
   R15        2.81111   0.00022   0.00103  -0.00014   0.00089   2.81201
   R16        2.68379   0.00040  -0.00035  -0.00031  -0.00066   2.68313
   R17        2.66096   0.00018  -0.00086   0.00011  -0.00075   2.66021
   R18        2.57448  -0.00002  -0.00056  -0.00007  -0.00062   2.57385
   R19        2.66223  -0.00006  -0.00014   0.00037   0.00023   2.66245
   R20        1.85674  -0.00012  -0.00021   0.00013  -0.00008   1.85666
   R21        2.64870  -0.00016  -0.00031   0.00048   0.00016   2.64886
   R22        2.07785  -0.00013  -0.00005  -0.00012  -0.00017   2.07768
   R23        2.65768  -0.00014  -0.00040   0.00060   0.00019   2.65787
   R24        2.08093  -0.00013  -0.00007  -0.00007  -0.00014   2.08079
   R25        2.64364  -0.00015  -0.00010   0.00032   0.00022   2.64386
   R26        2.07712  -0.00013  -0.00003  -0.00015  -0.00019   2.07693
   R27        2.55005  -0.00001  -0.00011   0.00073   0.00062   2.55067
    A1        1.93983  -0.00021   0.00124  -0.00123   0.00001   1.93984
    A2        1.93564  -0.00007   0.00106  -0.00091   0.00015   1.93579
    A3        1.94785   0.00044  -0.00189   0.00084  -0.00106   1.94679
    A4        1.89628  -0.00002   0.00057  -0.00098  -0.00040   1.89588
    A5        1.88634  -0.00012  -0.00020   0.00014  -0.00006   1.88628
    A6        1.85485  -0.00002  -0.00085   0.00227   0.00142   1.85627
    A7        2.10806  -0.00100   0.00048   0.00097   0.00147   2.10953
    A8        2.09911   0.00116  -0.00063  -0.00097  -0.00157   2.09754
    A9        2.07579  -0.00017   0.00025  -0.00014   0.00012   2.07591
   A10        2.11627   0.00025  -0.00025  -0.00009  -0.00035   2.11593
   A11        2.07599  -0.00012   0.00015   0.00029   0.00044   2.07643
   A12        2.09077  -0.00013   0.00013  -0.00019  -0.00006   2.09071
   A13        2.10069  -0.00001   0.00006   0.00033   0.00039   2.10109
   A14        2.09435   0.00001   0.00000  -0.00020  -0.00019   2.09416
   A15        2.08812   0.00000  -0.00006  -0.00014  -0.00020   2.08792
   A16        2.06648  -0.00000   0.00016  -0.00074  -0.00058   2.06591
   A17        2.13495  -0.00001   0.00014  -0.00010   0.00004   2.13498
   A18        2.08175   0.00001  -0.00029   0.00084   0.00054   2.08230
   A19        2.07236  -0.00023   0.00018   0.00001   0.00020   2.07256
   A20        2.14172   0.00032  -0.00042   0.00046   0.00004   2.14176
   A21        2.06906  -0.00008   0.00023  -0.00046  -0.00023   2.06883
   A22        2.06523  -0.00039   0.00024   0.00016   0.00040   2.06563
   A23        2.12480   0.00125   0.00018  -0.00052  -0.00032   2.12448
   A24        2.09315  -0.00086  -0.00048   0.00039  -0.00008   2.09306
   A25        2.10273   0.00097  -0.00257   0.00127  -0.00130   2.10143
   A26        2.12811  -0.00054   0.00163  -0.00094   0.00069   2.12880
   A27        2.05234  -0.00043   0.00094  -0.00034   0.00061   2.05295
   A28        2.10930   0.00053  -0.00040  -0.00040  -0.00081   2.10849
   A29        2.10722   0.00007  -0.00051   0.00027  -0.00024   2.10699
   A30        2.06666  -0.00060   0.00091   0.00014   0.00104   2.06771
   A31        1.87385   0.00012  -0.00104   0.00099  -0.00004   1.87381
   A32        2.08665   0.00012  -0.00004  -0.00021  -0.00025   2.08641
   A33        2.07139  -0.00004  -0.00005   0.00050   0.00045   2.07184
   A34        2.12508  -0.00008   0.00011  -0.00030  -0.00020   2.12488
   A35        2.11438  -0.00004   0.00014   0.00022   0.00036   2.11474
   A36        2.08487   0.00002  -0.00006  -0.00013  -0.00019   2.08468
   A37        2.08392   0.00002  -0.00008  -0.00009  -0.00017   2.08375
   A38        2.06310   0.00000   0.00017  -0.00071  -0.00054   2.06256
   A39        2.13487  -0.00002   0.00005  -0.00002   0.00003   2.13490
   A40        2.08521   0.00001  -0.00022   0.00073   0.00051   2.08572
   A41        2.14243   0.00028  -0.00061   0.00069   0.00008   2.14251
   A42        2.06095  -0.00005   0.00035  -0.00072  -0.00038   2.06057
   A43        2.07970  -0.00022   0.00028   0.00003   0.00031   2.08002
    D1        0.12789  -0.00002   0.01679  -0.02332  -0.00654   0.12135
    D2       -2.99082   0.00032   0.00910  -0.01650  -0.00740  -2.99822
    D3        2.23937  -0.00024   0.01908  -0.02602  -0.00693   2.23244
    D4       -0.87933   0.00010   0.01139  -0.01919  -0.00780  -0.88713
    D5       -1.97928  -0.00003   0.01748  -0.02323  -0.00574  -1.98503
    D6        1.18519   0.00031   0.00980  -0.01640  -0.00661   1.17859
    D7       -3.10417   0.00038  -0.00899   0.00611  -0.00287  -3.10704
    D8        0.01873   0.00029  -0.00756   0.00656  -0.00099   0.01774
    D9        0.01484   0.00006  -0.00140  -0.00064  -0.00204   0.01280
   D10        3.13774  -0.00003   0.00003  -0.00018  -0.00016   3.13758
   D11        3.09774  -0.00053   0.01033  -0.00734   0.00299   3.10073
   D12       -0.04832  -0.00034   0.00355  -0.00039   0.00317  -0.04515
   D13       -0.02139  -0.00019   0.00278  -0.00065   0.00212  -0.01926
   D14        3.11574   0.00001  -0.00400   0.00630   0.00230   3.11804
   D15       -0.00011   0.00007  -0.00064   0.00113   0.00049   0.00038
   D16        3.13497  -0.00002   0.00030   0.00053   0.00083   3.13581
   D17       -3.12285   0.00016  -0.00209   0.00067  -0.00142  -3.12427
   D18        0.01223   0.00007  -0.00114   0.00007  -0.00107   0.01116
   D19       -0.00756  -0.00007   0.00123  -0.00030   0.00093  -0.00662
   D20        3.13725  -0.00006   0.00074  -0.00137  -0.00064   3.13661
   D21        3.14053   0.00002   0.00029   0.00030   0.00059   3.14112
   D22        0.00214   0.00003  -0.00020  -0.00078  -0.00098   0.00116
   D23       -3.13144   0.00006   0.00035  -0.00268  -0.00233  -3.13377
   D24        0.00032  -0.00007   0.00025  -0.00105  -0.00080  -0.00047
   D25        0.00705   0.00006   0.00083  -0.00164  -0.00081   0.00624
   D26        3.13881  -0.00008   0.00073  -0.00000   0.00072   3.13953
   D27        0.01424   0.00020  -0.00226   0.00152  -0.00074   0.01350
   D28       -3.12297   0.00001   0.00438  -0.00530  -0.00091  -3.12389
   D29       -3.13717   0.00006  -0.00237   0.00316   0.00079  -3.13638
   D30        0.00880  -0.00013   0.00427  -0.00366   0.00062   0.00942
   D31       -1.13945  -0.00130  -0.04294  -0.01509  -0.05803  -1.19748
   D32        2.00466  -0.00109  -0.04685  -0.01158  -0.05843   1.94624
   D33        1.99761  -0.00110  -0.04982  -0.00803  -0.05785   1.93976
   D34       -1.14146  -0.00089  -0.05372  -0.00452  -0.05825  -1.19971
   D35       -0.02269  -0.00038   0.00406  -0.00237   0.00168  -0.02100
   D36        3.12006  -0.00003   0.00208  -0.00131   0.00076   3.12082
   D37        3.11650  -0.00057   0.00779  -0.00573   0.00206   3.11856
   D38       -0.02394  -0.00022   0.00581  -0.00467   0.00114  -0.02280
   D39       -3.12352   0.00003  -0.00126   0.00100  -0.00027  -3.12379
   D40        0.00261  -0.00013   0.00003   0.00067   0.00069   0.00330
   D41        0.02052   0.00023  -0.00506   0.00441  -0.00065   0.01987
   D42       -3.13653   0.00006  -0.00378   0.00408   0.00031  -3.13622
   D43       -0.10674   0.00005   0.01225  -0.00342   0.00882  -0.09792
   D44        3.03373  -0.00030   0.01418  -0.00446   0.00972   3.04345
   D45        0.01257   0.00008  -0.00308   0.00228  -0.00080   0.01177
   D46       -3.14068  -0.00003  -0.00074   0.00073  -0.00002  -3.14070
   D47       -3.12790   0.00042  -0.00501   0.00331  -0.00170  -3.12960
   D48        0.00204   0.00031  -0.00268   0.00176  -0.00092   0.00112
   D49        0.00341   0.00008  -0.00071   0.00063  -0.00008   0.00334
   D50        3.13804  -0.00002   0.00042  -0.00014   0.00028   3.13831
   D51       -3.12615   0.00019  -0.00311   0.00223  -0.00089  -3.12704
   D52        0.00847   0.00009  -0.00199   0.00145  -0.00053   0.00793
   D53       -0.00709  -0.00008   0.00152  -0.00096   0.00056  -0.00653
   D54        3.13754  -0.00007   0.00140  -0.00200  -0.00060   3.13694
   D55        3.14147   0.00003   0.00039  -0.00019   0.00021  -3.14151
   D56        0.00291   0.00003   0.00028  -0.00123  -0.00096   0.00196
   D57       -0.00529  -0.00009   0.00147  -0.00165  -0.00018  -0.00547
   D58       -3.13126   0.00008   0.00017  -0.00131  -0.00115  -3.13241
   D59        3.13336  -0.00009   0.00159  -0.00064   0.00095   3.13430
   D60        0.00738   0.00007   0.00028  -0.00030  -0.00002   0.00736
         Item               Value     Threshold  Converged?
 Maximum Force            0.001295     0.000450     NO 
 RMS     Force            0.000351     0.000300     NO 
 Maximum Displacement     0.135468     0.001800     NO 
 RMS     Displacement     0.041360     0.001200     NO 
 Predicted change in Energy=-1.158037D-04
 GradGradGradGradGradGradGradGradGradGradGradGradGradGradGradGradGradGrad

                          Input orientation:                          
 ---------------------------------------------------------------------
 Center     Atomic      Atomic             Coordinates (Angstroms)
 Number     Number       Type             X           Y           Z
 ---------------------------------------------------------------------
      1          6           0       -0.738207    1.541055   -2.093801
      2          6           0       -1.480332    0.748025   -1.043627
      3          6           0       -2.890653    0.721594   -1.018941
      4          6           0       -3.588428    0.020747   -0.022098
      5          6           0       -2.890647   -0.672978    0.978369
      6          6           0       -1.491761   -0.652865    0.949182
      7          9           0       -0.814039   -1.323949    1.900773
      8          6           0       -0.759411    0.033946   -0.042485
      9          6           0        0.728058   -0.004633   -0.027041
     10          6           0        1.439335   -0.701488   -1.039192
     11          8           0        0.776383   -1.365963   -2.026146
     12          6           0        2.848091   -0.721481   -1.045127
     13          6           0        3.553000   -0.057259   -0.031854
     14          6           0        2.878830    0.627150    0.995416
     15          6           0        1.479913    0.635317    0.976386
     16          9           0        0.812494    1.295056    1.946509
     17          1           0       -1.435357    2.149811   -2.701269
     18          1           0        0.007355    2.216861   -1.626359
     19          1           0       -0.171497    0.877656   -2.780978
     20          1           0       -3.448167    1.276272   -1.789951
     21          1           0       -4.689562    0.018358   -0.019312
     22          1           0       -3.404489   -1.228205    1.776564
     23          1           0       -0.182349   -1.322977   -1.815682
     24          1           0        3.365106   -1.270676   -1.845063
     25          1           0        4.653929   -0.076554   -0.036332
     26          1           0        3.412234    1.150493    1.801354
 ---------------------------------------------------------------------
                    Distance matrix (angstroms):
                    1          2          3          4          5
     1  C    0.000000
     2  C    1.510798   0.000000
     3  C    2.541626   1.410784   0.000000
     4  C    3.837584   2.452860   1.404199   0.000000
     5  C    4.355820   2.845471   2.435996   1.403241   0.000000
     6  C    3.826340   2.435962   2.778407   2.406897   1.399335
     7  F    4.916362   3.661491   4.125688   3.633576   2.363661
     8  C    2.545530   1.425455   2.443055   2.829121   2.466587
     9  C    2.968262   2.544981   3.821824   4.316563   3.814782
    10  C    3.298922   3.259688   4.557891   5.180204   4.777041
    11  O    3.278614   3.244542   4.338146   4.999075   4.791080
    12  C    4.368103   4.571072   5.917460   6.559441   6.085228
    13  C    5.022021   5.196787   6.565182   7.141861   6.551354
    14  C    4.843702   4.814001   6.111750   6.574838   5.914177
    15  C    3.894415   3.585555   4.805270   5.202187   4.562174
    16  F    4.334662   3.807520   4.778708   4.986722   4.303918
    17  H    1.107077   2.171360   2.643467   4.043092   4.860632
    18  H    1.109540   2.170316   3.317112   4.508462   4.851205
    19  H    1.110617   2.179046   3.243907   4.474498   4.891925
    20  H    2.739765   2.169889   1.101338   2.172861   3.431326
    21  H    4.715433   3.446852   2.174827   1.101140   2.170117
    22  H    5.455051   3.944787   3.446824   2.197476   1.099739
    23  H    2.930700   2.563178   3.485682   4.077244   3.945137
    24  H    4.980450   5.309965   6.617109   7.303603   6.889373
    25  H    5.993744   6.270864   7.650050   8.242944   7.635834
    26  H    5.705343   5.673897   6.918410   7.321924   6.612765
                    6          7          8          9         10
     6  C    0.000000
     7  F    1.347288   0.000000
     8  C    1.411188   2.371311   0.000000
     9  C    2.510142   2.799129   1.488049   0.000000
    10  C    3.542220   3.756135   2.523643   1.419850   0.000000
    11  O    3.808617   4.236968   2.872859   2.419086   1.362025
    12  C    4.776640   4.738405   3.819690   2.458640   1.408910
    13  C    5.173663   4.940706   4.313388   2.825436   2.428444
    14  C    4.554409   4.273610   3.829612   2.463817   2.824368
    15  C    3.238981   3.155222   2.532650   1.407724   2.418935
    16  F    3.177837   3.083324   2.831498   2.364576   3.646029
    17  H    4.602605   5.799296   3.464523   4.058754   4.376787
    18  H    4.137160   5.064848   2.803873   2.830595   3.303346
    19  H    4.242604   5.213321   2.925206   3.028498   2.849964
    20  H    3.879684   5.226971   3.438956   4.710564   5.325678
    21  H    3.407998   4.528597   3.930250   5.417674   6.254736
    22  H    2.161968   2.595193   3.449406   4.672051   5.627482
    23  H    3.131787   3.769758   2.306181   2.401272   1.902379
    24  H    5.637256   5.612430   4.686467   3.444139   2.163792
    25  H    6.250830   5.933552   5.414471   3.926541   3.424891
    26  H    5.294097   4.898380   4.695641   3.447049   3.923119
                   11         12         13         14         15
    11  O    0.000000
    12  C    2.381119   0.000000
    13  C    3.660534   1.401717   0.000000
    14  C    4.186003   2.446133   1.406486   0.000000
    15  C    3.676312   2.792727   2.407052   1.399071   0.000000
    16  F    4.781664   4.142458   3.640473   2.370743   1.349756
    17  H    4.208117   5.416184   6.072943   5.881853   4.931292
    18  H    3.686172   4.128131   4.503961   4.200745   3.382897
    19  H    2.549916   3.832536   4.722671   4.860905   4.111407
    20  H    4.988388   6.647454   7.340677   6.943380   5.687654
    21  H    5.985005   7.643027   8.242918   7.660343   6.279687
    22  H    5.653253   6.878478   7.283415   6.597927   5.288703
    23  H    0.982501   3.184198   4.328616   4.590870   3.793899
    24  H    2.596798   1.099462   2.189843   3.450584   3.891958
    25  H    4.545030   2.166714   1.101107   2.170410   3.406866
    26  H    5.284886   3.453259   2.199802   1.099065   2.163295
                   16         17         18         19         20
    16  F    0.000000
    17  H    5.233095   0.000000
    18  H    3.776686   1.800373   0.000000
    19  H    4.846812   1.795014   1.777246   0.000000
    20  H    5.666985   2.375916   3.584982   3.446388   0.000000
    21  H    5.980554   4.725023   5.429277   5.364522   2.501714
    22  H    4.917182   5.944701   5.923601   5.971438   4.358251
    23  H    4.690191   3.796650   3.549970   2.403060   4.174006
    24  H    5.241643   5.956280   4.846157   4.242503   7.273972
    25  H    4.535371   7.009849   5.420202   5.632791   8.399361
    26  H    2.607799   6.691143   4.947683   5.823687   7.744572
                   21         22         23         24         25
    21  H    0.000000
    22  H    2.535844   0.000000
    23  H    5.033994   4.826531   0.000000
    24  H    8.358986   7.677591   3.547962   0.000000
    25  H    9.343988   8.339724   5.301814   2.521606   0.000000
    26  H    8.380671   7.219871   5.667630   4.377286   2.534668
                   26
    26  H    0.000000
 Symmetry turned off by external request.
 Stoichiometry    C13H10F2O
 Framework group  C1[X(C13H10F2O)]
 Deg. of freedom    72
 Full point group                 C1      NOp   1
 Rotational constants (GHZ):           0.8752097           0.4425461           0.3755907
 Standard basis: def2SVP (5D, 7F)
   274 basis functions,   470 primitive gaussians,   290 cartesian basis functions
    57 alpha electrons       57 beta electrons
       nuclear repulsion energy      1079.6553916240 Hartrees.
 NAtoms=   26 NActive=   26 NUniq=   26 SFac= 1.00D+00 NAtFMM=   60 NAOKFM=F Big=F
 Integral buffers will be    131072 words long.
 Raffenetti 2 integral format.
 Two-electron integral symmetry is turned off.
 Nuclear repulsion after empirical dispersion term =     1079.6021961549 Hartrees.
 One-electron integrals computed using PRISM.
   1 Symmetry operations used in ECPInt.
 ECPInt:  NShTT=    8001 NPrTT=   29641 LenC2=    7679 LenP2D=   20635.
 LDataN:  DoStor=T MaxTD1= 4 Len=   56
 NBasis=   274 RedAO= T EigKep=  2.31D-04  NBF=   274
 NBsUse=   274 1.00D-06 EigRej= -1.00D+00 NBFU=   274
 Initial guess from the checkpoint file:  "path/to/scratch/gaussian_tmp/Gau-2666754.chk"
 B after Tr=    -0.000416   -0.005113   -0.010120
         Rot=    0.999996    0.002731    0.000043   -0.000282 Ang=   0.31 deg.
 ExpMin= 1.22D-01 ExpMax= 2.89D+03 ExpMxC= 4.35D+02 IAcc=3 IRadAn=         5 AccDes= 0.00D+00
 Harris functional with IExCor=  404 and IRadAn=       5 diagonalized for initial guess.
 HarFok:  IExCor=  404 AccDes= 0.00D+00 IRadAn=         5 IDoV= 1 UseB2=F ITyADJ=14
 ICtDFT=  3500011 ScaDFX=  1.000000  1.000000  1.000000  1.000000
 FoFCou: FMM=F IPFlag=           0 FMFlag=      100000 FMFlg1=           0
         NFxFlg=           0 DoJE=T BraDBF=F KetDBF=T FulRan=T
         wScrn=  0.000000 ICntrl=       500 IOpCl=  0 I1Cent=   200000004 NGrid=           0
         NMat0=    1 NMatS0=      1 NMatT0=    0 NMatD0=    1 NMtDS0=    0 NMtDT0=    0
 Symmetry not used in FoFCou.
 Requested convergence on RMS density matrix=1.00D-08 within 128 cycles.
 Requested convergence on MAX density matrix=1.00D-06.
 Requested convergence on             energy=1.00D-06.
 No special actions if energy rises.
 Integral accuracy reduced to 1.0D-05 until final iterations.
 Initial convergence to 1.0D-05 achieved.  Increase integral accuracy.
 SCF Done:  E(RB-P86) =  -775.800290778     A.U. after   12 cycles
            NFock= 12  Conv=0.89D-08     -V/T= 2.0105
   1 Symmetry operations used in ECPInt.
 ECPInt:  NShTT=    8001 NPrTT=   29641 LenC2=    7679 LenP2D=   20635.
 LDataN:  DoStor=T MaxTD1= 5 Len=  102
 Calling FoFJK, ICntrl=      2527 FMM=F ISym2X=0 I1Cent= 0 IOpClX= 0 NMat=1 NMatS=1 NMatT=0.
 -------------------------------------------------------------------
 Center     Atomic                   Forces (Hartrees/Bohr)
 Number     Number              X              Y              Z
 -------------------------------------------------------------------
      1        6           0.000057782   -0.000050228   -0.000035745
      2        6          -0.000016400   -0.000035727    0.000067351
      3        6           0.000021031   -0.000001789    0.000001503
      4        6           0.000022441   -0.000001294    0.000003996
      5        6           0.000015776    0.000001407   -0.000011742
      6        6          -0.000033049    0.000035409   -0.000069445
      7        9          -0.000013757    0.000021640   -0.000022244
      8        6          -0.000072846   -0.000013239    0.000013324
      9        6           0.000093249    0.000013110    0.000035949
     10        6           0.000033207    0.000038242    0.000109587
     11        8          -0.000109075    0.000077503   -0.000006735
     12        6          -0.000022929    0.000004479    0.000003650
     13        6          -0.000019734    0.000003107    0.000004078
     14        6          -0.000016744   -0.000001046   -0.000012573
     15        6           0.000033885   -0.000033610   -0.000076790
     16        9           0.000009572   -0.000023329   -0.000020105
     17        1           0.000042362   -0.000034379    0.000030551
     18        1          -0.000045611   -0.000034750   -0.000026693
     19        1          -0.000053868   -0.000001657    0.000051875
     20        1           0.000035877   -0.000037776    0.000048762
     21        1           0.000074394   -0.000000719    0.000000823
     22        1           0.000035373    0.000038824   -0.000053365
     23        1           0.000075111    0.000034647   -0.000037769
     24        1          -0.000033893    0.000036374    0.000054533
     25        1          -0.000075536    0.000001430    0.000000956
     26        1          -0.000036618   -0.000036627   -0.000053732
 -------------------------------------------------------------------
 Cartesian Forces:  Max     0.000109587 RMS     0.000041849

 GradGradGradGradGradGradGradGradGradGradGradGradGradGradGradGradGradGrad
 Berny optimization.
 Using GEDIIS/GDIIS optimizer.
 FormGI is forming the generalized inverse of G from B-inverse, IUseBI=4.
 Internal  Forces:  Max     0.000185756 RMS     0.000055458
 Search for a local minimum.
 Step number   7 out of a maximum of  140
 All quantities printed in internal units (Hartrees-Bohrs-Radians)
 Mixed Optimization -- En-DIIS/RFO-DIIS
 Swapping is turned off.
 Update second derivatives using D2CorX and points    1    2    3    4    5
                                                      6    7
 DE= -9.34D-05 DEPred=-1.16D-04 R= 8.07D-01
 TightC=F SS=  1.41D+00  RLast= 1.19D-01 DXNew= 2.0000D-01 3.5590D-01
 Trust test= 8.07D-01 RLast= 1.19D-01 DXMaxT set to 2.00D-01
 ITU=  1 -1  1  1  1  1  0
     Eigenvalues ---    0.00127   0.00870   0.01167   0.01311   0.01616
     Eigenvalues ---    0.01658   0.01703   0.01731   0.01748   0.01962
     Eigenvalues ---    0.02107   0.02218   0.02282   0.02328   0.02393
     Eigenvalues ---    0.02670   0.02832   0.02975   0.03385   0.03445
     Eigenvalues ---    0.04393   0.05262   0.05384   0.09957   0.10058
     Eigenvalues ---    0.10402   0.11117   0.11550   0.11567   0.11748
     Eigenvalues ---    0.13866   0.14199   0.16562   0.17289   0.17966
     Eigenvalues ---    0.18012   0.18095   0.18162   0.18576   0.18926
     Eigenvalues ---    0.19221   0.21130   0.22325   0.24068   0.24800
     Eigenvalues ---    0.31800   0.33776   0.35002   0.35275   0.35872
     Eigenvalues ---    0.36228   0.36691   0.37303   0.37440   0.37532
     Eigenvalues ---    0.37735   0.37922   0.38441   0.38978   0.39299
     Eigenvalues ---    0.41291   0.45036   0.46193   0.46544   0.47819
     Eigenvalues ---    0.49156   0.49435   0.49973   0.50481   0.51663
     Eigenvalues ---    0.54119   0.64233
 En-DIIS/RFO-DIIS/Sim-DIIS IScMMF=       -3 using points:     7    6    5    4
 RFO step:  Lambda=-2.90793527D-06.
 DidBck=F Rises=F RFO-DIIS coefs:    0.82398    0.12505    0.01711    0.03386
 Iteration  1 RMS(Cart)=  0.00173607 RMS(Int)=  0.00000397
 Iteration  2 RMS(Cart)=  0.00000407 RMS(Int)=  0.00000081
 Iteration  3 RMS(Cart)=  0.00000000 RMS(Int)=  0.00000081
 Variable       Old X    -DE/DX   Delta X   Delta X   Delta X     New X
                                 (Linear)    (Quad)   (Total)
    R1        2.85499  -0.00008  -0.00003  -0.00004  -0.00007   2.85492
    R2        2.09207  -0.00006  -0.00009  -0.00006  -0.00015   2.09192
    R3        2.09673  -0.00006  -0.00014  -0.00007  -0.00021   2.09651
    R4        2.09876  -0.00006  -0.00002  -0.00016  -0.00018   2.09858
    R5        2.66600  -0.00011  -0.00011  -0.00003  -0.00014   2.66586
    R6        2.69372  -0.00019  -0.00010  -0.00008  -0.00018   2.69354
    R7        2.65355  -0.00008  -0.00014  -0.00005  -0.00019   2.65336
    R8        2.08123  -0.00007  -0.00009  -0.00008  -0.00018   2.08105
    R9        2.65174  -0.00008  -0.00013  -0.00002  -0.00015   2.65159
   R10        2.08085  -0.00007  -0.00010  -0.00008  -0.00018   2.08067
   R11        2.64436  -0.00010  -0.00015  -0.00006  -0.00021   2.64415
   R12        2.07821  -0.00007  -0.00009  -0.00009  -0.00018   2.07802
   R13        2.54601  -0.00003  -0.00005   0.00000  -0.00005   2.54596
   R14        2.66676  -0.00012  -0.00010  -0.00003  -0.00013   2.66662
   R15        2.81201  -0.00007  -0.00003  -0.00008  -0.00010   2.81190
   R16        2.68313  -0.00018  -0.00008  -0.00011  -0.00020   2.68293
   R17        2.66021  -0.00013  -0.00014  -0.00004  -0.00018   2.66003
   R18        2.57385  -0.00001  -0.00001   0.00002   0.00001   2.57386
   R19        2.66245  -0.00011  -0.00013  -0.00006  -0.00019   2.66227
   R20        1.85666  -0.00008  -0.00011  -0.00005  -0.00016   1.85650
   R21        2.64886  -0.00008  -0.00014  -0.00003  -0.00016   2.64870
   R22        2.07768  -0.00007  -0.00009  -0.00009  -0.00018   2.07750
   R23        2.65787  -0.00008  -0.00014  -0.00002  -0.00016   2.65771
   R24        2.08079  -0.00008  -0.00010  -0.00008  -0.00018   2.08061
   R25        2.64386  -0.00010  -0.00014  -0.00005  -0.00019   2.64367
   R26        2.07693  -0.00007  -0.00009  -0.00009  -0.00018   2.07675
   R27        2.55067  -0.00003  -0.00006   0.00001  -0.00006   2.55061
    A1        1.93984   0.00002   0.00008  -0.00012  -0.00004   1.93980
    A2        1.93579   0.00001   0.00020   0.00004   0.00024   1.93603
    A3        1.94679  -0.00007  -0.00013  -0.00006  -0.00019   1.94660
    A4        1.89588  -0.00000   0.00015  -0.00013   0.00002   1.89590
    A5        1.88628   0.00002  -0.00010  -0.00005  -0.00015   1.88613
    A6        1.85627   0.00003  -0.00021   0.00034   0.00013   1.85640
    A7        2.10953   0.00007  -0.00013  -0.00013  -0.00025   2.10928
    A8        2.09754  -0.00009   0.00013   0.00010   0.00024   2.09778
    A9        2.07591   0.00002   0.00000   0.00003   0.00003   2.07594
   A10        2.11593  -0.00002   0.00001   0.00001   0.00002   2.11595
   A11        2.07643   0.00001  -0.00001  -0.00000  -0.00001   2.07642
   A12        2.09071   0.00001   0.00001  -0.00001  -0.00000   2.09070
   A13        2.10109  -0.00000  -0.00002  -0.00001  -0.00003   2.10105
   A14        2.09416   0.00000   0.00002   0.00001   0.00003   2.09419
   A15        2.08792  -0.00000   0.00000  -0.00000   0.00000   2.08793
   A16        2.06591  -0.00001   0.00004  -0.00004  -0.00000   2.06590
   A17        2.13498   0.00000   0.00001   0.00001   0.00002   2.13500
   A18        2.08230   0.00000  -0.00005   0.00003  -0.00002   2.08228
   A19        2.07256   0.00001  -0.00001  -0.00004  -0.00005   2.07252
   A20        2.14176  -0.00001  -0.00001   0.00007   0.00006   2.14183
   A21        2.06883   0.00000   0.00002  -0.00003  -0.00002   2.06881
   A22        2.06563   0.00002  -0.00001  -0.00006  -0.00007   2.06556
   A23        2.12448  -0.00010   0.00003   0.00013   0.00016   2.12464
   A24        2.09306   0.00008  -0.00002  -0.00007  -0.00009   2.09298
   A25        2.10143  -0.00012  -0.00014  -0.00001  -0.00015   2.10128
   A26        2.12880   0.00009   0.00011   0.00008   0.00019   2.12899
   A27        2.05295   0.00003   0.00003  -0.00007  -0.00004   2.05291
   A28        2.10849  -0.00007   0.00006  -0.00005   0.00001   2.10850
   A29        2.10699   0.00001  -0.00003   0.00008   0.00005   2.10704
   A30        2.06771   0.00005  -0.00003  -0.00004  -0.00007   2.06764
   A31        1.87381  -0.00000  -0.00005   0.00006   0.00001   1.87382
   A32        2.08641  -0.00002   0.00001  -0.00004  -0.00002   2.08638
   A33        2.07184   0.00001  -0.00003   0.00004   0.00001   2.07186
   A34        2.12488   0.00001   0.00002  -0.00001   0.00001   2.12489
   A35        2.11474  -0.00000  -0.00001  -0.00001  -0.00002   2.11472
   A36        2.08468   0.00000   0.00001   0.00000   0.00001   2.08469
   A37        2.08375   0.00000   0.00000   0.00000   0.00001   2.08375
   A38        2.06256  -0.00001   0.00004  -0.00003   0.00001   2.06257
   A39        2.13490   0.00000   0.00001   0.00000   0.00001   2.13491
   A40        2.08572   0.00000  -0.00004   0.00003  -0.00002   2.08570
   A41        2.14251  -0.00001  -0.00004   0.00005   0.00002   2.14253
   A42        2.06057  -0.00000   0.00004  -0.00003   0.00001   2.06057
   A43        2.08002   0.00001  -0.00000  -0.00002  -0.00002   2.07999
    D1        0.12135   0.00001   0.00573  -0.00006   0.00567   0.12702
    D2       -2.99822  -0.00003   0.00470   0.00010   0.00480  -2.99342
    D3        2.23244   0.00003   0.00610  -0.00028   0.00582   2.23826
    D4       -0.88713  -0.00001   0.00508  -0.00012   0.00496  -0.88218
    D5       -1.98503   0.00003   0.00589   0.00013   0.00602  -1.97901
    D6        1.17859  -0.00001   0.00486   0.00030   0.00515   1.18374
    D7       -3.10704  -0.00005  -0.00101  -0.00002  -0.00103  -3.10807
    D8        0.01774  -0.00004  -0.00101   0.00011  -0.00090   0.01684
    D9        0.01280  -0.00001   0.00001  -0.00018  -0.00017   0.01263
   D10        3.13758   0.00000   0.00000  -0.00005  -0.00004   3.13754
   D11        3.10073   0.00008   0.00111   0.00011   0.00122   3.10195
   D12       -0.04515   0.00005   0.00034   0.00027   0.00061  -0.04454
   D13       -0.01926   0.00003   0.00010   0.00028   0.00038  -0.01889
   D14        3.11804   0.00001  -0.00067   0.00043  -0.00024   3.11781
   D15        0.00038  -0.00001  -0.00009  -0.00000  -0.00009   0.00029
   D16        3.13581   0.00000  -0.00005   0.00003  -0.00002   3.13579
   D17       -3.12427  -0.00003  -0.00008  -0.00014  -0.00022  -3.12449
   D18        0.01116  -0.00001  -0.00004  -0.00011  -0.00015   0.01101
   D19       -0.00662   0.00001   0.00005   0.00009   0.00014  -0.00648
   D20        3.13661   0.00001   0.00009   0.00001   0.00010   3.13671
   D21        3.14112  -0.00000   0.00001   0.00006   0.00007   3.14119
   D22        0.00116  -0.00001   0.00005  -0.00002   0.00003   0.00119
   D23       -3.13377  -0.00001   0.00015  -0.00006   0.00008  -3.13368
   D24       -0.00047   0.00001   0.00006   0.00001   0.00008  -0.00040
   D25        0.00624  -0.00001   0.00011   0.00001   0.00012   0.00636
   D26        3.13953   0.00001   0.00002   0.00009   0.00012   3.13965
   D27        0.01350  -0.00003  -0.00014  -0.00020  -0.00034   0.01316
   D28       -3.12389  -0.00001   0.00061  -0.00035   0.00026  -3.12363
   D29       -3.13638  -0.00001  -0.00023  -0.00012  -0.00035  -3.13672
   D30        0.00942   0.00001   0.00053  -0.00027   0.00026   0.00967
   D31       -1.19748   0.00014   0.00065  -0.00023   0.00042  -1.19706
   D32        1.94624   0.00012   0.00012   0.00022   0.00034   1.94657
   D33        1.93976   0.00011  -0.00013  -0.00007  -0.00020   1.93956
   D34       -1.19971   0.00009  -0.00066   0.00038  -0.00028  -1.19999
   D35       -0.02100   0.00007   0.00014   0.00045   0.00059  -0.02041
   D36        3.12082   0.00001  -0.00001   0.00035   0.00033   3.12115
   D37        3.11856   0.00008   0.00065   0.00002   0.00067   3.11923
   D38       -0.02280   0.00003   0.00050  -0.00009   0.00041  -0.02239
   D39       -3.12379  -0.00001   0.00008  -0.00033  -0.00025  -3.12404
   D40        0.00330   0.00001   0.00014  -0.00031  -0.00018   0.00313
   D41        0.01987  -0.00003  -0.00044   0.00011  -0.00033   0.01954
   D42       -3.13622  -0.00001  -0.00038   0.00013  -0.00026  -3.13648
   D43       -0.09792   0.00001   0.00051   0.00063   0.00113  -0.09678
   D44        3.04345   0.00006   0.00066   0.00073   0.00139   3.04484
   D45        0.01177  -0.00001  -0.00025   0.00004  -0.00021   0.01156
   D46       -3.14070   0.00000  -0.00007   0.00002  -0.00005  -3.14075
   D47       -3.12960  -0.00006  -0.00040  -0.00006  -0.00047  -3.13006
   D48        0.00112  -0.00005  -0.00022  -0.00008  -0.00031   0.00082
   D49        0.00334  -0.00001  -0.00006  -0.00002  -0.00009   0.00325
   D50        3.13831   0.00000   0.00003  -0.00000   0.00003   3.13834
   D51       -3.12704  -0.00003  -0.00025   0.00000  -0.00025  -3.12729
   D52        0.00793  -0.00001  -0.00015   0.00002  -0.00014   0.00780
   D53       -0.00653   0.00001   0.00012   0.00005   0.00017  -0.00636
   D54        3.13694   0.00001   0.00016  -0.00006   0.00011   3.13704
   D55       -3.14151  -0.00000   0.00003   0.00003   0.00005  -3.14146
   D56        0.00196  -0.00001   0.00006  -0.00008  -0.00001   0.00195
   D57       -0.00547   0.00001   0.00014  -0.00009   0.00005  -0.00542
   D58       -3.13241  -0.00001   0.00008  -0.00011  -0.00003  -3.13244
   D59        3.13430   0.00001   0.00010   0.00001   0.00011   3.13441
   D60        0.00736  -0.00001   0.00004  -0.00001   0.00003   0.00740
         Item               Value     Threshold  Converged?
 Maximum Force            0.000186     0.000450     YES
 RMS     Force            0.000055     0.000300     YES
 Maximum Displacement     0.009836     0.001800     NO 
 RMS     Displacement     0.001736     0.001200     NO 
 Predicted change in Energy=-5.675833D-07
 GradGradGradGradGradGradGradGradGradGradGradGradGradGradGradGradGradGrad

                          Input orientation:                          
 ---------------------------------------------------------------------
 Center     Atomic      Atomic             Coordinates (Angstroms)
 Number     Number       Type             X           Y           Z
 ---------------------------------------------------------------------
      1          6           0       -0.738550    1.540330   -2.094469
      2          6           0       -1.480245    0.748112   -1.043434
      3          6           0       -2.890489    0.721353   -1.018885
      4          6           0       -3.588168    0.020411   -0.022186
      5          6           0       -2.890345   -0.673190    0.978228
      6          6           0       -1.491573   -0.652690    0.949199
      7          9           0       -0.813836   -1.323775    1.900742
      8          6           0       -0.759266    0.034445   -0.042175
      9          6           0        0.728147   -0.004131   -0.026589
     10          6           0        1.439286   -0.700869   -1.038772
     11          8           0        0.776269   -1.364602   -2.026189
     12          6           0        2.847937   -0.721351   -1.044585
     13          6           0        3.552920   -0.057486   -0.031248
     14          6           0        2.878894    0.627110    0.995876
     15          6           0        1.480079    0.635655    0.976750
     16          9           0        0.812815    1.295586    1.946808
     17          1           0       -1.435382    2.152549   -2.698670
     18          1           0        0.010931    2.212580   -1.628435
     19          1           0       -0.176702    0.876003   -2.784583
     20          1           0       -3.447998    1.275750   -1.789968
     21          1           0       -4.689205    0.017775   -0.019487
     22          1           0       -3.404058   -1.228571    1.776266
     23          1           0       -0.182498   -1.320332   -1.816549
     24          1           0        3.364799   -1.270484   -1.844531
     25          1           0        4.653746   -0.077120   -0.035618
     26          1           0        3.412322    1.150254    1.801796
 ---------------------------------------------------------------------
                    Distance matrix (angstroms):
                    1          2          3          4          5
     1  C    0.000000
     2  C    1.510760   0.000000
     3  C    2.541347   1.410712   0.000000
     4  C    3.837296   2.452721   1.404096   0.000000
     5  C    4.355613   2.845277   2.435818   1.403164   0.000000
     6  C    3.826264   2.435766   2.778185   2.406733   1.399223
     7  F    4.916348   3.661282   4.125440   3.633374   2.363511
     8  C    2.545590   1.425359   2.442931   2.829008   2.466469
     9  C    2.968617   2.544963   3.821715   4.316388   3.814549
    10  C    3.298551   3.259330   4.557419   5.179671   4.776480
    11  O    3.276884   3.243643   4.337163   4.998260   4.790473
    12  C    4.368106   4.570829   5.917059   6.558885   6.084569
    13  C    5.022610   5.196754   6.565024   7.141519   6.550862
    14  C    4.844595   4.814096   6.111786   6.574757   5.913985
    15  C    3.895271   3.585709   4.805390   5.202262   4.562202
    16  F    4.335729   3.807807   4.779073   4.987149   4.304372
    17  H    1.106999   2.171236   2.643358   4.042781   4.860175
    18  H    1.109427   2.170368   3.318667   4.509896   4.851779
    19  H    1.110523   2.178803   3.241334   4.472246   4.891074
    20  H    2.739312   2.169739   1.101246   2.172689   3.431072
    21  H    4.715019   3.446634   2.174672   1.101043   2.169969
    22  H    5.454754   3.944495   3.446567   2.197335   1.099642
    23  H    2.927425   2.561310   3.483957   4.076263   3.944871
    24  H    4.980021   5.309513   6.616474   7.302815   6.888509
    25  H    5.994319   6.270769   7.649827   8.242502   7.635214
    26  H    5.706380   5.673998   6.918498   7.321907   6.612626
                    6          7          8          9         10
     6  C    0.000000
     7  F    1.347263   0.000000
     8  C    1.411117   2.371216   0.000000
     9  C    2.509970   2.798889   1.487995   0.000000
    10  C    3.541791   3.755704   2.523396   1.419745   0.000000
    11  O    3.808262   4.236848   2.872544   2.419007   1.362030
    12  C    4.776111   4.737768   3.819420   2.458502   1.408812
    13  C    5.173244   4.940104   4.313180   2.825280   2.428270
    14  C    4.554235   4.273288   3.829493   2.463659   2.824145
    15  C    3.239029   3.155182   2.532653   1.407629   2.418737
    16  F    3.178239   3.083694   2.831602   2.364472   3.645818
    17  H    4.602116   5.798771   3.464169   4.058589   4.377326
    18  H    4.136603   5.063708   2.802444   2.827387   3.297891
    19  H    4.243456   5.215097   2.927183   3.033137   2.854086
    20  H    3.879370   5.226632   3.438734   4.710391   5.325116
    21  H    3.407745   4.528303   3.930040   5.417401   6.254103
    22  H    2.161777   2.594959   3.449183   4.671687   5.626801
    23  H    3.131898   3.770524   2.305750   2.401169   1.902329
    24  H    5.636572   5.611675   4.686069   3.443907   2.163633
    25  H    6.250287   5.932798   5.414166   3.926287   3.424636
    26  H    5.293932   4.898063   4.695467   3.446794   3.922799
                   11         12         13         14         15
    11  O    0.000000
    12  C    2.380993   0.000000
    13  C    3.660346   1.401632   0.000000
    14  C    4.185789   2.445974   1.406402   0.000000
    15  C    3.676142   2.792543   2.406901   1.398972   0.000000
    16  F    4.781489   4.142245   3.640286   2.370615   1.349727
    17  H    4.208798   5.416837   6.073101   5.881294   4.930476
    18  H    3.679698   4.122795   4.499988   4.198325   3.381135
    19  H    2.550221   3.837653   4.728884   4.867288   4.117077
    20  H    4.987152   6.647015   7.340536   6.943430   5.687741
    21  H    5.984081   7.642359   8.242477   7.660182   6.279676
    22  H    5.652637   6.877639   7.282725   6.597579   5.288607
    23  H    0.982417   3.184061   4.328444   4.590685   3.793754
    24  H    2.596602   1.099366   2.189692   3.450345   3.891679
    25  H    4.544756   2.166563   1.101010   2.170257   3.406625
    26  H    5.284576   3.453017   2.199648   1.098968   2.163117
                   16         17         18         19         20
    16  F    0.000000
    17  H    5.231562   0.000000
    18  H    3.777070   1.800230   0.000000
    19  H    4.851933   1.794777   1.777167   0.000000
    20  H    5.667311   2.375950   3.587190   3.442445   0.000000
    21  H    5.980915   4.724686   5.431129   5.361436   2.501540
    22  H    4.917567   5.944133   5.924159   5.970461   4.357933
    23  H    4.690046   3.795887   3.543200   2.400211   4.171790
    24  H    5.241335   5.957218   4.840130   4.246567   7.273271
    25  H    4.535095   7.010046   5.416227   5.639014   8.399181
    26  H    2.607602   6.690218   4.946158   5.830195   7.744708
                   21         22         23         24         25
    21  H    0.000000
    22  H    2.535687   0.000000
    23  H    5.032929   4.826509   0.000000
    24  H    8.358073   7.676546   3.547757   0.000000
    25  H    9.343447   8.338883   5.301561   2.521442   0.000000
    26  H    8.380592   7.219591   5.667358   4.376978   2.534496
                   26
    26  H    0.000000
 Symmetry turned off by external request.
 Stoichiometry    C13H10F2O
 Framework group  C1[X(C13H10F2O)]
 Deg. of freedom    72
 Full point group                 C1      NOp   1
 Rotational constants (GHZ):           0.8752707           0.4426133           0.3755966
 Standard basis: def2SVP (5D, 7F)
   274 basis functions,   470 primitive gaussians,   290 cartesian basis functions
    57 alpha electrons       57 beta electrons
       nuclear repulsion energy      1079.7086233630 Hartrees.
 NAtoms=   26 NActive=   26 NUniq=   26 SFac= 1.00D+00 NAtFMM=   60 NAOKFM=F Big=F
 Integral buffers will be    131072 words long.
 Raffenetti 2 integral format.
 Two-electron integral symmetry is turned off.
 Nuclear repulsion after empirical dispersion term =     1079.6554241818 Hartrees.
 One-electron integrals computed using PRISM.
   1 Symmetry operations used in ECPInt.
 ECPInt:  NShTT=    8001 NPrTT=   29641 LenC2=    7678 LenP2D=   20635.
 LDataN:  DoStor=T MaxTD1= 4 Len=   56
 NBasis=   274 RedAO= T EigKep=  2.31D-04  NBF=   274
 NBsUse=   274 1.00D-06 EigRej= -1.00D+00 NBFU=   274
 Initial guess from the checkpoint file:  "path/to/scratch/gaussian_tmp/Gau-2666754.chk"
 B after Tr=     0.000125    0.000299    0.000240
         Rot=    1.000000   -0.000002    0.000014   -0.000022 Ang=  -0.00 deg.
 Requested convergence on RMS density matrix=1.00D-08 within 128 cycles.
 Requested convergence on MAX density matrix=1.00D-06.
 Requested convergence on             energy=1.00D-06.
 No special actions if energy rises.
 SCF Done:  E(RB-P86) =  -775.800291307     A.U. after    8 cycles
            NFock=  8  Conv=0.66D-08     -V/T= 2.0105
   1 Symmetry operations used in ECPInt.
 ECPInt:  NShTT=    8001 NPrTT=   29641 LenC2=    7678 LenP2D=   20635.
 LDataN:  DoStor=T MaxTD1= 5 Len=  102
 Calling FoFJK, ICntrl=      2527 FMM=F ISym2X=0 I1Cent= 0 IOpClX= 0 NMat=1 NMatS=1 NMatT=0.
 -------------------------------------------------------------------
 Center     Atomic                   Forces (Hartrees/Bohr)
 Number     Number              X              Y              Z
 -------------------------------------------------------------------
      1        6           0.000028934   -0.000028493    0.000008266
      2        6          -0.000003200   -0.000013157    0.000010147
      3        6           0.000002916    0.000001477   -0.000002012
      4        6           0.000003779   -0.000002457    0.000004606
      5        6          -0.000002984   -0.000001720    0.000000627
      6        6           0.000004332    0.000020035   -0.000015737
      7        9           0.000006095    0.000012140    0.000002935
      8        6          -0.000039333   -0.000017110    0.000008344
      9        6           0.000044312    0.000018280    0.000005759
     10        6          -0.000005797    0.000019577    0.000007447
     11        8          -0.000043831    0.000061516   -0.000019339
     12        6          -0.000001296   -0.000001174   -0.000000531
     13        6          -0.000003361    0.000000638    0.000003367
     14        6           0.000003934    0.000003241    0.000000413
     15        6          -0.000007102   -0.000017186   -0.000018876
     16        9          -0.000010168   -0.000011065    0.000005095
     17        1           0.000008494   -0.000012606    0.000000132
     18        1          -0.000003465   -0.000009106   -0.000004188
     19        1           0.000011280   -0.000031813    0.000010401
     20        1           0.000004958   -0.000006070    0.000007636
     21        1           0.000011101   -0.000000461   -0.000000166
     22        1           0.000004290    0.000005679   -0.000008309
     23        1           0.000007014    0.000008085   -0.000006602
     24        1          -0.000004655    0.000005735    0.000008360
     25        1          -0.000011122    0.000000867    0.000000387
     26        1          -0.000005125   -0.000004854   -0.000008161
 -------------------------------------------------------------------
 Cartesian Forces:  Max     0.000061516 RMS     0.000014854

 GradGradGradGradGradGradGradGradGradGradGradGradGradGradGradGradGradGrad
 Berny optimization.
 Using GEDIIS/GDIIS optimizer.
 FormGI is forming the generalized inverse of G from B-inverse, IUseBI=4.
 Internal  Forces:  Max     0.000134558 RMS     0.000035834
 Search for a local minimum.
 Step number   8 out of a maximum of  140
 All quantities printed in internal units (Hartrees-Bohrs-Radians)
 Mixed Optimization -- En-DIIS/RFO-DIIS
 Swapping is turned off.
 Update second derivatives using D2CorX and points    1    2    3    4    5
                                                      6    7    8
 DE= -5.29D-07 DEPred=-5.68D-07 R= 9.33D-01
 Trust test= 9.33D-01 RLast= 1.37D-02 DXMaxT set to 2.00D-01
 ITU=  0  1 -1  1  1  1  1  0
     Eigenvalues ---    0.00139   0.00892   0.01166   0.01327   0.01611
     Eigenvalues ---    0.01668   0.01705   0.01731   0.01746   0.01973
     Eigenvalues ---    0.02106   0.02217   0.02279   0.02326   0.02387
     Eigenvalues ---    0.02678   0.02832   0.02978   0.03386   0.03469
     Eigenvalues ---    0.04554   0.05243   0.05391   0.09957   0.10058
     Eigenvalues ---    0.10400   0.11113   0.11541   0.11555   0.11744
     Eigenvalues ---    0.13883   0.14209   0.16477   0.17376   0.17911
     Eigenvalues ---    0.17988   0.18106   0.18157   0.18455   0.18897
     Eigenvalues ---    0.19249   0.21140   0.22350   0.24187   0.24952
     Eigenvalues ---    0.31828   0.33638   0.34381   0.35226   0.35382
     Eigenvalues ---    0.36009   0.36650   0.36873   0.37311   0.37464
     Eigenvalues ---    0.37533   0.37794   0.37938   0.38443   0.39039
     Eigenvalues ---    0.40996   0.44848   0.46095   0.46688   0.47703
     Eigenvalues ---    0.49194   0.49420   0.49870   0.50221   0.51478
     Eigenvalues ---    0.52849   0.54221
 En-DIIS/RFO-DIIS/Sim-DIIS IScMMF=       -3 using points:     8    7    6    5    4
 RFO step:  Lambda=-1.88779341D-06.
 DidBck=F Rises=F RFO-DIIS coefs:    0.91795    0.00466    0.08801   -0.02033    0.00971
 Iteration  1 RMS(Cart)=  0.00265802 RMS(Int)=  0.00000154
 Iteration  2 RMS(Cart)=  0.00000262 RMS(Int)=  0.00000013
 Iteration  3 RMS(Cart)=  0.00000000 RMS(Int)=  0.00000013
 Variable       Old X    -DE/DX   Delta X   Delta X   Delta X     New X
                                 (Linear)    (Quad)   (Total)
    R1        2.85492  -0.00003   0.00003  -0.00002   0.00001   2.85493
    R2        2.09192  -0.00001  -0.00001  -0.00003  -0.00004   2.09189
    R3        2.09651  -0.00001   0.00000  -0.00003  -0.00003   2.09649
    R4        2.09858   0.00002   0.00000  -0.00003  -0.00002   2.09856
    R5        2.66586  -0.00002   0.00001  -0.00002  -0.00001   2.66585
    R6        2.69354  -0.00011   0.00004  -0.00003   0.00002   2.69355
    R7        2.65336   0.00000  -0.00003  -0.00001  -0.00004   2.65332
    R8        2.08105  -0.00001  -0.00000  -0.00003  -0.00003   2.08102
    R9        2.65159   0.00000  -0.00000  -0.00001  -0.00001   2.65158
   R10        2.08067  -0.00001  -0.00001  -0.00003  -0.00003   2.08064
   R11        2.64415  -0.00000  -0.00004  -0.00002  -0.00006   2.64409
   R12        2.07802  -0.00001  -0.00000  -0.00003  -0.00003   2.07799
   R13        2.54596  -0.00000  -0.00000   0.00000  -0.00000   2.54596
   R14        2.66662  -0.00004   0.00001  -0.00003  -0.00002   2.66661
   R15        2.81190  -0.00004  -0.00007  -0.00003  -0.00010   2.81181
   R16        2.68293  -0.00007   0.00003  -0.00003  -0.00001   2.68292
   R17        2.66003  -0.00004   0.00003  -0.00002   0.00001   2.66005
   R18        2.57386   0.00000   0.00004   0.00001   0.00005   2.57391
   R19        2.66227  -0.00001  -0.00002  -0.00002  -0.00004   2.66223
   R20        1.85650  -0.00001  -0.00001  -0.00002  -0.00003   1.85647
   R21        2.64870   0.00000  -0.00002  -0.00001  -0.00003   2.64867
   R22        2.07750  -0.00001  -0.00001  -0.00003  -0.00003   2.07747
   R23        2.65771  -0.00000  -0.00001  -0.00001  -0.00002   2.65769
   R24        2.08061  -0.00001  -0.00001  -0.00003  -0.00003   2.08057
   R25        2.64367  -0.00001  -0.00003  -0.00002  -0.00004   2.64363
   R26        2.07675  -0.00001  -0.00000  -0.00003  -0.00003   2.07672
   R27        2.55061   0.00000  -0.00003   0.00000  -0.00002   2.55059
    A1        1.93980   0.00001  -0.00003   0.00000  -0.00003   1.93977
    A2        1.93603   0.00001  -0.00001  -0.00001  -0.00002   1.93601
    A3        1.94660  -0.00004   0.00009  -0.00005   0.00004   1.94664
    A4        1.89590   0.00000   0.00002   0.00001   0.00003   1.89593
    A5        1.88613   0.00001  -0.00000   0.00003   0.00003   1.88615
    A6        1.85640   0.00001  -0.00007   0.00002  -0.00005   1.85635
    A7        2.10928   0.00011  -0.00008   0.00003  -0.00004   2.10923
    A8        2.09778  -0.00013   0.00009  -0.00004   0.00005   2.09783
    A9        2.07594   0.00002  -0.00002   0.00001  -0.00001   2.07593
   A10        2.11595  -0.00003   0.00002  -0.00001   0.00001   2.11596
   A11        2.07642   0.00001  -0.00002   0.00001  -0.00001   2.07640
   A12        2.09070   0.00001  -0.00000   0.00000   0.00000   2.09070
   A13        2.10105   0.00000  -0.00002   0.00000  -0.00001   2.10104
   A14        2.09419  -0.00000   0.00001  -0.00000   0.00001   2.09419
   A15        2.08793  -0.00000   0.00001  -0.00000   0.00001   2.08793
   A16        2.06590  -0.00001   0.00002  -0.00001   0.00001   2.06592
   A17        2.13500   0.00000  -0.00001  -0.00000  -0.00001   2.13499
   A18        2.08228   0.00000  -0.00001   0.00001  -0.00000   2.08227
   A19        2.07252   0.00002  -0.00001  -0.00000  -0.00001   2.07250
   A20        2.14183  -0.00002   0.00001   0.00001   0.00002   2.14184
   A21        2.06881   0.00000   0.00000  -0.00001  -0.00000   2.06881
   A22        2.06556   0.00004  -0.00002  -0.00000  -0.00002   2.06554
   A23        2.12464  -0.00013  -0.00000  -0.00005  -0.00005   2.12459
   A24        2.09298   0.00010   0.00002   0.00005   0.00007   2.09305
   A25        2.10128  -0.00009   0.00012  -0.00002   0.00010   2.10138
   A26        2.12899   0.00005  -0.00008   0.00003  -0.00004   2.12895
   A27        2.05291   0.00004  -0.00005  -0.00001  -0.00006   2.05285
   A28        2.10850  -0.00005   0.00006  -0.00001   0.00005   2.10855
   A29        2.10704  -0.00000   0.00002   0.00002   0.00003   2.10707
   A30        2.06764   0.00006  -0.00007  -0.00001  -0.00008   2.06756
   A31        1.87382  -0.00000   0.00003   0.00002   0.00005   1.87387
   A32        2.08638  -0.00001   0.00001  -0.00001   0.00000   2.08639
   A33        2.07186   0.00001  -0.00002   0.00001  -0.00001   2.07185
   A34        2.12489   0.00001   0.00000  -0.00000   0.00000   2.12489
   A35        2.11472   0.00000  -0.00002   0.00000  -0.00002   2.11471
   A36        2.08469  -0.00000   0.00001   0.00000   0.00001   2.08470
   A37        2.08375  -0.00000   0.00001  -0.00000   0.00001   2.08376
   A38        2.06257  -0.00001   0.00002  -0.00001   0.00001   2.06258
   A39        2.13491   0.00000  -0.00000  -0.00000  -0.00000   2.13491
   A40        2.08570   0.00000  -0.00001   0.00001  -0.00001   2.08570
   A41        2.14253  -0.00002   0.00001   0.00001   0.00003   2.14256
   A42        2.06057  -0.00000   0.00000  -0.00001  -0.00000   2.06057
   A43        2.07999   0.00002  -0.00002  -0.00000  -0.00002   2.07997
    D1        0.12702   0.00000   0.00059   0.00000   0.00060   0.12762
    D2       -2.99342  -0.00003   0.00074  -0.00002   0.00072  -2.99270
    D3        2.23826   0.00002   0.00059   0.00001   0.00061   2.23887
    D4       -0.88218  -0.00001   0.00074  -0.00002   0.00072  -0.88145
    D5       -1.97901   0.00000   0.00056  -0.00000   0.00055  -1.97845
    D6        1.18374  -0.00003   0.00070  -0.00003   0.00067   1.18441
    D7       -3.10807  -0.00003   0.00028  -0.00006   0.00022  -3.10785
    D8        0.01684  -0.00003   0.00015  -0.00003   0.00012   0.01696
    D9        0.01263  -0.00001   0.00014  -0.00003   0.00011   0.01273
   D10        3.13754   0.00000   0.00001  -0.00000   0.00000   3.13754
   D11        3.10195   0.00005  -0.00033   0.00008  -0.00025   3.10170
   D12       -0.04454   0.00003  -0.00020   0.00009  -0.00011  -0.04465
   D13       -0.01889   0.00002  -0.00019   0.00005  -0.00013  -0.01902
   D14        3.11781   0.00000  -0.00005   0.00006   0.00000   3.11781
   D15        0.00029  -0.00001  -0.00000  -0.00001  -0.00001   0.00028
   D16        3.13579   0.00000  -0.00005   0.00000  -0.00005   3.13574
   D17       -3.12449  -0.00002   0.00013  -0.00003   0.00010  -3.12440
   D18        0.01101  -0.00001   0.00008  -0.00002   0.00006   0.01107
   D19       -0.00648   0.00001  -0.00008   0.00002  -0.00006  -0.00654
   D20        3.13671   0.00000   0.00000  -0.00000  -0.00000   3.13671
   D21        3.14119  -0.00000  -0.00003   0.00001  -0.00002   3.14116
   D22        0.00119  -0.00000   0.00005  -0.00001   0.00004   0.00123
   D23       -3.13368  -0.00001   0.00008  -0.00002   0.00006  -3.13362
   D24       -0.00040   0.00001   0.00002   0.00000   0.00003  -0.00037
   D25        0.00636  -0.00001   0.00001   0.00000   0.00001   0.00637
   D26        3.13965   0.00001  -0.00006   0.00003  -0.00003   3.13962
   D27        0.01316  -0.00002   0.00011  -0.00004   0.00007   0.01323
   D28       -3.12363  -0.00000  -0.00002  -0.00005  -0.00006  -3.12369
   D29       -3.13672  -0.00000   0.00005  -0.00002   0.00003  -3.13669
   D30        0.00967   0.00001  -0.00008  -0.00002  -0.00010   0.00957
   D31       -1.19706   0.00012   0.00366   0.00003   0.00369  -1.19337
   D32        1.94657   0.00010   0.00370  -0.00003   0.00368   1.95025
   D33        1.93956   0.00010   0.00379   0.00004   0.00383   1.94340
   D34       -1.19999   0.00009   0.00384  -0.00002   0.00382  -1.19617
   D35       -0.02041   0.00003  -0.00024  -0.00003  -0.00027  -0.02068
   D36        3.12115   0.00000  -0.00015  -0.00006  -0.00020   3.12095
   D37        3.11923   0.00005  -0.00028   0.00003  -0.00025   3.11898
   D38       -0.02239   0.00002  -0.00019  -0.00000  -0.00019  -0.02258
   D39       -3.12404  -0.00000   0.00011   0.00006   0.00017  -3.12387
   D40        0.00313   0.00002   0.00003   0.00006   0.00009   0.00322
   D41        0.01954  -0.00002   0.00015   0.00001   0.00016   0.01969
   D42       -3.13648  -0.00000   0.00007   0.00000   0.00008  -3.13640
   D43       -0.09678  -0.00001  -0.00074  -0.00003  -0.00077  -0.09756
   D44        3.04484   0.00002  -0.00083  -0.00001  -0.00084   3.04400
   D45        0.01156  -0.00001   0.00011   0.00000   0.00011   0.01166
   D46       -3.14075   0.00000   0.00002  -0.00001   0.00001  -3.14074
   D47       -3.13006  -0.00004   0.00019  -0.00003   0.00017  -3.12990
   D48        0.00082  -0.00003   0.00011  -0.00003   0.00007   0.00089
   D49        0.00325  -0.00001   0.00002  -0.00001   0.00002   0.00327
   D50        3.13834   0.00000  -0.00002   0.00000  -0.00002   3.13832
   D51       -3.12729  -0.00002   0.00011   0.00000   0.00011  -3.12718
   D52        0.00780  -0.00001   0.00007   0.00001   0.00008   0.00788
   D53       -0.00636   0.00001  -0.00006   0.00001  -0.00005  -0.00641
   D54        3.13704   0.00001  -0.00001  -0.00001  -0.00002   3.13702
   D55       -3.14146  -0.00000  -0.00002   0.00001  -0.00002  -3.14147
   D56        0.00195  -0.00000   0.00003  -0.00002   0.00002   0.00196
   D57       -0.00542   0.00001  -0.00003  -0.00001  -0.00004  -0.00546
   D58       -3.13244  -0.00001   0.00005  -0.00001   0.00004  -3.13240
   D59        3.13441   0.00001  -0.00008   0.00001  -0.00007   3.13434
   D60        0.00740  -0.00001  -0.00000   0.00001   0.00001   0.00741
         Item               Value     Threshold  Converged?
 Maximum Force            0.000135     0.000450     YES
 RMS     Force            0.000036     0.000300     YES
 Maximum Displacement     0.008794     0.001800     NO 
 RMS     Displacement     0.002658     0.001200     NO 
 Predicted change in Energy=-8.807025D-07
 GradGradGradGradGradGradGradGradGradGradGradGradGradGradGradGradGradGrad

                          Input orientation:                          
 ---------------------------------------------------------------------
 Center     Atomic      Atomic             Coordinates (Angstroms)
 Number     Number       Type             X           Y           Z
 ---------------------------------------------------------------------
      1          6           0       -0.738542    1.537766   -2.096109
      2          6           0       -1.480214    0.746898   -1.044032
      3          6           0       -2.890455    0.720293   -1.019400
      4          6           0       -3.588166    0.020887   -0.021675
      5          6           0       -2.890372   -0.671312    0.979723
      6          6           0       -1.491630   -0.651047    0.950587
      7          9           0       -0.813946   -1.320872    1.903054
      8          6           0       -0.759269    0.034524   -0.041818
      9          6           0        0.728093   -0.004114   -0.026281
     10          6           0        1.439373   -0.698460   -1.040002
     11          8           0        0.776534   -1.360203   -2.028908
     12          6           0        2.848005   -0.718696   -1.045880
     13          6           0        3.552890   -0.057091   -0.031015
     14          6           0        2.878754    0.624964    0.997710
     15          6           0        1.479960    0.633354    0.978592
     16          9           0        0.812627    1.290932    1.950183
     17          1           0       -1.435326    2.149722   -2.700597
     18          1           0        0.011428    2.210077   -1.630987
     19          1           0       -0.177231    0.872565   -2.785797
     20          1           0       -3.447920    1.273683   -1.791214
     21          1           0       -4.689185    0.018386   -0.018917
     22          1           0       -3.404106   -1.225468    1.778574
     23          1           0       -0.182192   -1.317283   -1.818861
     24          1           0        3.364932   -1.265941   -1.847051
     25          1           0        4.653700   -0.076545   -0.035429
     26          1           0        3.412086    1.146290    1.804845
 ---------------------------------------------------------------------
                    Distance matrix (angstroms):
                    1          2          3          4          5
     1  C    0.000000
     2  C    1.510766   0.000000
     3  C    2.541317   1.410707   0.000000
     4  C    3.837259   2.452706   1.404075   0.000000
     5  C    4.355587   2.845251   2.435787   1.403158   0.000000
     6  C    3.826277   2.435752   2.778153   2.406710   1.399193
     7  F    4.916381   3.661271   4.125407   3.633345   2.363475
     8  C    2.545638   1.425367   2.442929   2.829002   2.466445
     9  C    2.968602   2.544888   3.821641   4.316334   3.814510
    10  C    3.295358   3.257770   4.556391   5.179827   4.777732
    11  O    3.270810   3.240797   4.335248   4.998700   4.792978
    12  C    4.365538   4.569623   5.916191   6.558985   6.085580
    13  C    5.022407   5.196608   6.564901   7.141488   6.550914
    14  C    4.846622   4.814995   6.112412   6.574580   5.912991
    15  C    3.897884   3.586995   4.806252   5.202072   4.560917
    16  F    4.340453   3.810304   4.780886   4.986805   4.301674
    17  H    1.106980   2.171206   2.643310   4.042683   4.860056
    18  H    1.109412   2.170347   3.318798   4.509936   4.851665
    19  H    1.110511   2.178831   3.241131   4.472159   4.891200
    20  H    2.739239   2.169712   1.101228   2.172657   3.431029
    21  H    4.714957   3.446605   2.174643   1.101025   2.169953
    22  H    5.454710   3.944451   3.446518   2.197311   1.099625
    23  H    2.921934   2.558528   3.482175   4.076916   3.947606
    24  H    4.976073   5.307712   6.615134   7.302979   6.890070
    25  H    5.994053   6.270586   7.649668   8.242454   7.635267
    26  H    5.709501   5.675405   6.919527   7.321628   6.611012
                    6          7          8          9         10
     6  C    0.000000
     7  F    1.347262   0.000000
     8  C    1.411109   2.371206   0.000000
     9  C    2.509972   2.798941   1.487945   0.000000
    10  C    3.543370   3.758514   2.523423   1.419742   0.000000
    11  O    3.811149   4.241639   2.872713   2.419057   1.362055
    12  C    4.777330   4.740118   3.819412   2.458503   1.408790
    13  C    5.173345   4.940346   4.313145   2.825297   2.428242
    14  C    4.553095   4.271061   3.829418   2.463663   2.824099
    15  C    3.237409   3.152085   2.532584   1.407636   2.418697
    16  F    3.174913   3.077253   2.831517   2.364467   3.645778
    17  H    4.602023   5.798684   3.464133   4.058492   4.374199
    18  H    4.136392   5.063427   2.802225   2.826894   3.293612
    19  H    4.243772   5.215544   2.927542   3.033662   2.851198
    20  H    3.879321   5.226582   3.438713   4.710291   5.323468
    21  H    3.407703   4.528252   3.930016   5.417330   6.254256
    22  H    2.161732   2.594903   3.449141   4.671646   5.628623
    23  H    3.135018   3.775153   2.306140   2.401327   1.902376
    24  H    5.638357   5.615099   4.686055   3.443883   2.163594
    25  H    6.250389   5.933062   5.414112   3.926286   3.424594
    26  H    5.292127   4.894475   4.695358   3.446777   3.922735
                   11         12         13         14         15
    11  O    0.000000
    12  C    2.380939   0.000000
    13  C    3.660304   1.401618   0.000000
    14  C    4.185765   2.445940   1.406390   0.000000
    15  C    3.676157   2.792502   2.406877   1.398949   0.000000
    16  F    4.781525   4.142193   3.640240   2.370569   1.349716
    17  H    4.202745   5.414133   6.072807   5.883336   4.933021
    18  H    3.672959   4.119009   4.499101   4.200498   3.384161
    19  H    2.543187   3.835554   4.729364   4.869833   4.119967
    20  H    4.983961   6.645583   7.340341   6.944475   5.689099
    21  H    5.984535   7.642459   8.242429   7.659972   6.279456
    22  H    5.656220   6.879189   7.282822   6.596072   5.286709
    23  H    0.982404   3.184007   4.328430   4.590727   3.793873
    24  H    2.596490   1.099348   2.189665   3.450298   3.891619
    25  H    4.544684   2.166541   1.100991   2.170236   3.406585
    26  H    5.284534   3.452968   2.199621   1.098950   2.163078
                   16         17         18         19         20
    16  F    0.000000
    17  H    5.236465   0.000000
    18  H    3.783058   1.800224   0.000000
    19  H    4.856373   1.794768   1.777110   0.000000
    20  H    5.670151   2.375912   3.587422   3.442020   0.000000
    21  H    5.980524   4.724573   5.431210   5.361248   2.501508
    22  H    4.913507   5.943986   5.924015   5.970590   4.357874
    23  H    4.690218   3.790505   3.537663   2.393830   4.168795
    24  H    5.241264   5.952963   4.834808   4.242802   7.271022
    25  H    4.535029   7.009681   5.415269   5.639435   8.398937
    26  H    2.607533   6.693526   4.949854   5.833705   7.746454
                   21         22         23         24         25
    21  H    0.000000
    22  H    2.535662   0.000000
    23  H    5.033568   4.830186   0.000000
    24  H    8.358252   7.678976   3.547607   0.000000
    25  H    9.343382   8.338997   5.301501   2.521420   0.000000
    26  H    8.380267   7.217090   5.667386   4.376920   2.534470
                   26
    26  H    0.000000
 Symmetry turned off by external request.
 Stoichiometry    C13H10F2O
 Framework group  C1[X(C13H10F2O)]
 Deg. of freedom    72
 Full point group                 C1      NOp   1
 Rotational constants (GHZ):           0.8752679           0.4429989           0.3753223
 Standard basis: def2SVP (5D, 7F)
   274 basis functions,   470 primitive gaussians,   290 cartesian basis functions
    57 alpha electrons       57 beta electrons
       nuclear repulsion energy      1079.7658739154 Hartrees.
 NAtoms=   26 NActive=   26 NUniq=   26 SFac= 1.00D+00 NAtFMM=   60 NAOKFM=F Big=F
 Integral buffers will be    131072 words long.
 Raffenetti 2 integral format.
 Two-electron integral symmetry is turned off.
 Nuclear repulsion after empirical dispersion term =     1079.7126698439 Hartrees.
 One-electron integrals computed using PRISM.
   1 Symmetry operations used in ECPInt.
 ECPInt:  NShTT=    8001 NPrTT=   29641 LenC2=    7678 LenP2D=   20636.
 LDataN:  DoStor=T MaxTD1= 4 Len=   56
 NBasis=   274 RedAO= T EigKep=  2.31D-04  NBF=   274
 NBsUse=   274 1.00D-06 EigRej= -1.00D+00 NBFU=   274
 Initial guess from the checkpoint file:  "path/to/scratch/gaussian_tmp/Gau-2666754.chk"
 B after Tr=    -0.000026    0.000267    0.000651
         Rot=    1.000000   -0.000183   -0.000001    0.000016 Ang=  -0.02 deg.
 Requested convergence on RMS density matrix=1.00D-08 within 128 cycles.
 Requested convergence on MAX density matrix=1.00D-06.
 Requested convergence on             energy=1.00D-06.
 No special actions if energy rises.
 SCF Done:  E(RB-P86) =  -775.800292288     A.U. after    8 cycles
            NFock=  8  Conv=0.99D-08     -V/T= 2.0105
   1 Symmetry operations used in ECPInt.
 ECPInt:  NShTT=    8001 NPrTT=   29641 LenC2=    7678 LenP2D=   20636.
 LDataN:  DoStor=T MaxTD1= 5 Len=  102
 Calling FoFJK, ICntrl=      2527 FMM=F ISym2X=0 I1Cent= 0 IOpClX= 0 NMat=1 NMatS=1 NMatT=0.
 -------------------------------------------------------------------
 Center     Atomic                   Forces (Hartrees/Bohr)
 Number     Number              X              Y              Z
 -------------------------------------------------------------------
      1        6           0.000010318   -0.000012626    0.000005327
      2        6           0.000000383   -0.000003476    0.000001071
      3        6           0.000001055    0.000000223   -0.000001554
      4        6           0.000000542   -0.000001347    0.000001825
      5        6          -0.000002237   -0.000000354   -0.000000089
      6        6           0.000005190    0.000005043   -0.000001328
      7        9           0.000003037    0.000004094    0.000001909
      8        6          -0.000013099   -0.000006732    0.000002777
      9        6           0.000014604    0.000007332    0.000002920
     10        6          -0.000004053    0.000004387   -0.000001581
     11        8          -0.000013465    0.000024156   -0.000009814
     12        6           0.000000257   -0.000000213    0.000000295
     13        6          -0.000000522    0.000000896    0.000001777
     14        6           0.000002579    0.000000849   -0.000000150
     15        6          -0.000006068   -0.000003263   -0.000002524
     16        9          -0.000004414   -0.000003398    0.000002826
     17        1           0.000001110   -0.000002891   -0.000002818
     18        1           0.000000933   -0.000000807    0.000000184
     19        1           0.000006157   -0.000016133    0.000000742
     20        1          -0.000000422   -0.000000266   -0.000000418
     21        1          -0.000000448   -0.000000483   -0.000000246
     22        1          -0.000000393   -0.000000365    0.000000214
     23        1          -0.000001993    0.000003900   -0.000001811
     24        1           0.000000395    0.000000033   -0.000000134
     25        1           0.000000488    0.000000572    0.000000295
     26        1           0.000000064    0.000000864    0.000000306
 -------------------------------------------------------------------
 Cartesian Forces:  Max     0.000024156 RMS     0.000005374

 GradGradGradGradGradGradGradGradGradGradGradGradGradGradGradGradGradGrad
 Berny optimization.
 Using GEDIIS/GDIIS optimizer.
 FormGI is forming the generalized inverse of G from B-inverse, IUseBI=4.
 Internal  Forces:  Max     0.000053325 RMS     0.000014092
 Search for a local minimum.
 Step number   9 out of a maximum of  140
 All quantities printed in internal units (Hartrees-Bohrs-Radians)
 Mixed Optimization -- En-DIIS/RFO-DIIS
 Swapping is turned off.
 Update second derivatives using D2CorX and points    1    2    3    4    5
                                                      6    7    8    9
 DE= -9.81D-07 DEPred=-8.81D-07 R= 1.11D+00
 Trust test= 1.11D+00 RLast= 7.80D-03 DXMaxT set to 2.00D-01
 ITU=  0  0  1 -1  1  1  1  1  0
     Eigenvalues ---    0.00141   0.00803   0.01166   0.01321   0.01608
     Eigenvalues ---    0.01665   0.01697   0.01731   0.01745   0.01965
     Eigenvalues ---    0.02094   0.02209   0.02276   0.02318   0.02386
     Eigenvalues ---    0.02659   0.02832   0.02959   0.03380   0.03447
     Eigenvalues ---    0.04209   0.05219   0.05394   0.09956   0.10056
     Eigenvalues ---    0.10397   0.11111   0.11541   0.11555   0.11745
     Eigenvalues ---    0.13868   0.14184   0.16503   0.17334   0.17934
     Eigenvalues ---    0.17970   0.18091   0.18145   0.18485   0.18907
     Eigenvalues ---    0.19222   0.21141   0.22292   0.24122   0.24661
     Eigenvalues ---    0.31832   0.33759   0.34961   0.35305   0.35848
     Eigenvalues ---    0.36131   0.36667   0.37296   0.37420   0.37531
     Eigenvalues ---    0.37664   0.37908   0.38228   0.38439   0.39035
     Eigenvalues ---    0.41037   0.44960   0.46112   0.46349   0.47787
     Eigenvalues ---    0.49203   0.49427   0.49961   0.50195   0.51636
     Eigenvalues ---    0.54095   0.58193
 En-DIIS/RFO-DIIS/Sim-DIIS IScMMF=       -3 using points:     9    8    7    6    5    4
 RFO step:  Lambda=-3.89847597D-07.
 DIIS inversion failure, remove point   6.
 DIIS inversion failure, remove point   5.
 DIIS inversion failure, remove point   4.
 RFO-DIIS uses    3 points instead of    6
 DidBck=F Rises=F RFO-DIIS coefs:    1.69124   -0.65718   -0.03407    0.00000    0.00000
                  RFO-DIIS coefs:    0.00000
 Iteration  1 RMS(Cart)=  0.00184189 RMS(Int)=  0.00000073
 Iteration  2 RMS(Cart)=  0.00000125 RMS(Int)=  0.00000000
 Iteration  3 RMS(Cart)=  0.00000000 RMS(Int)=  0.00000000
 Variable       Old X    -DE/DX   Delta X   Delta X   Delta X     New X
                                 (Linear)    (Quad)   (Total)
    R1        2.85493  -0.00001   0.00001   0.00001   0.00002   2.85495
    R2        2.09189  -0.00000  -0.00003   0.00002  -0.00001   2.09188
    R3        2.09649   0.00000  -0.00003   0.00002  -0.00000   2.09648
    R4        2.09856   0.00001  -0.00002   0.00003   0.00001   2.09857
    R5        2.66585  -0.00000  -0.00001   0.00002   0.00001   2.66586
    R6        2.69355  -0.00004   0.00000   0.00002   0.00003   2.69358
    R7        2.65332   0.00001  -0.00003   0.00002  -0.00001   2.65330
    R8        2.08102   0.00000  -0.00003   0.00002  -0.00000   2.08102
    R9        2.65158   0.00001  -0.00001   0.00002   0.00001   2.65159
   R10        2.08064   0.00000  -0.00003   0.00003  -0.00000   2.08063
   R11        2.64409   0.00000  -0.00005   0.00002  -0.00002   2.64407
   R12        2.07799   0.00000  -0.00003   0.00003  -0.00000   2.07799
   R13        2.54596   0.00000  -0.00000   0.00000  -0.00000   2.54595
   R14        2.66661  -0.00001  -0.00002   0.00002   0.00001   2.66662
   R15        2.81181  -0.00001  -0.00007   0.00001  -0.00006   2.81175
   R16        2.68292  -0.00002  -0.00001   0.00003   0.00002   2.68294
   R17        2.66005  -0.00001   0.00000   0.00003   0.00003   2.66008
   R18        2.57391   0.00000   0.00003  -0.00000   0.00003   2.57394
   R19        2.66223  -0.00000  -0.00003   0.00002  -0.00001   2.66221
   R20        1.85647   0.00000  -0.00002   0.00002  -0.00000   1.85647
   R21        2.64867   0.00001  -0.00002   0.00002  -0.00000   2.64867
   R22        2.07747   0.00000  -0.00003   0.00003  -0.00000   2.07746
   R23        2.65769   0.00000  -0.00002   0.00002  -0.00000   2.65769
   R24        2.08057   0.00000  -0.00003   0.00003  -0.00000   2.08057
   R25        2.64363   0.00000  -0.00004   0.00002  -0.00001   2.64362
   R26        2.07672   0.00000  -0.00003   0.00003  -0.00000   2.07671
   R27        2.55059   0.00000  -0.00002   0.00000  -0.00002   2.55058
    A1        1.93977   0.00001  -0.00002   0.00000  -0.00002   1.93975
    A2        1.93601   0.00000  -0.00001  -0.00001  -0.00001   1.93599
    A3        1.94664  -0.00002   0.00002   0.00001   0.00003   1.94667
    A4        1.89593   0.00000   0.00002  -0.00000   0.00002   1.89596
    A5        1.88615   0.00001   0.00001  -0.00001   0.00000   1.88615
    A6        1.85635   0.00000  -0.00003   0.00001  -0.00003   1.85632
    A7        2.10923   0.00004  -0.00004   0.00000  -0.00004   2.10920
    A8        2.09783  -0.00005   0.00004   0.00000   0.00004   2.09787
    A9        2.07593   0.00001  -0.00000  -0.00000  -0.00001   2.07593
   A10        2.11596  -0.00001   0.00001   0.00000   0.00001   2.11597
   A11        2.07640   0.00001  -0.00001  -0.00000  -0.00001   2.07639
   A12        2.09070   0.00001  -0.00000  -0.00000  -0.00000   2.09070
   A13        2.10104   0.00000  -0.00001  -0.00000  -0.00001   2.10103
   A14        2.09419  -0.00000   0.00001  -0.00000   0.00000   2.09420
   A15        2.08793  -0.00000   0.00000   0.00000   0.00000   2.08794
   A16        2.06592  -0.00000   0.00001   0.00001   0.00001   2.06593
   A17        2.13499   0.00000  -0.00000  -0.00000  -0.00001   2.13499
   A18        2.08227   0.00000  -0.00000  -0.00000  -0.00001   2.08227
   A19        2.07250   0.00001  -0.00001   0.00000  -0.00001   2.07250
   A20        2.14184  -0.00001   0.00001  -0.00001   0.00000   2.14185
   A21        2.06881   0.00000  -0.00000   0.00000   0.00000   2.06881
   A22        2.06554   0.00002  -0.00002   0.00000  -0.00001   2.06552
   A23        2.12459  -0.00005  -0.00003   0.00000  -0.00003   2.12456
   A24        2.09305   0.00004   0.00005  -0.00001   0.00004   2.09309
   A25        2.10138  -0.00004   0.00007  -0.00000   0.00006   2.10145
   A26        2.12895   0.00002  -0.00002  -0.00000  -0.00003   2.12892
   A27        2.05285   0.00002  -0.00004   0.00001  -0.00004   2.05281
   A28        2.10855  -0.00002   0.00003  -0.00000   0.00003   2.10858
   A29        2.10707  -0.00000   0.00003  -0.00001   0.00002   2.10709
   A30        2.06756   0.00002  -0.00006   0.00001  -0.00005   2.06751
   A31        1.87387  -0.00000   0.00004  -0.00000   0.00003   1.87390
   A32        2.08639  -0.00001   0.00000   0.00000   0.00001   2.08640
   A33        2.07185   0.00000  -0.00000  -0.00000  -0.00001   2.07184
   A34        2.12489   0.00000   0.00000   0.00000   0.00000   2.12490
   A35        2.11471   0.00000  -0.00001  -0.00000  -0.00001   2.11469
   A36        2.08470  -0.00000   0.00001  -0.00000   0.00001   2.08471
   A37        2.08376  -0.00000   0.00001   0.00000   0.00001   2.08377
   A38        2.06258  -0.00000   0.00001   0.00001   0.00001   2.06259
   A39        2.13491   0.00000  -0.00000  -0.00000  -0.00000   2.13491
   A40        2.08570   0.00000  -0.00000  -0.00000  -0.00001   2.08569
   A41        2.14256  -0.00001   0.00002  -0.00001   0.00001   2.14257
   A42        2.06057  -0.00000  -0.00000   0.00001   0.00001   2.06057
   A43        2.07997   0.00001  -0.00002   0.00000  -0.00002   2.07995
    D1        0.12762   0.00000   0.00061  -0.00000   0.00060   0.12822
    D2       -2.99270  -0.00001   0.00066   0.00001   0.00067  -2.99203
    D3        2.23887   0.00001   0.00062  -0.00001   0.00061   2.23948
    D4       -0.88145  -0.00000   0.00067   0.00001   0.00068  -0.88077
    D5       -1.97845   0.00000   0.00059   0.00000   0.00059  -1.97786
    D6        1.18441  -0.00001   0.00064   0.00002   0.00066   1.18507
    D7       -3.10785  -0.00001   0.00012   0.00003   0.00014  -3.10770
    D8        0.01696  -0.00001   0.00005   0.00001   0.00006   0.01702
    D9        0.01273  -0.00000   0.00007   0.00001   0.00008   0.01281
   D10        3.13754   0.00000   0.00000  -0.00000  -0.00000   3.13754
   D11        3.10170   0.00002  -0.00013  -0.00003  -0.00016   3.10154
   D12       -0.04465   0.00001  -0.00006  -0.00003  -0.00008  -0.04473
   D13       -0.01902   0.00001  -0.00008  -0.00001  -0.00009  -0.01911
   D14        3.11781   0.00000  -0.00000  -0.00001  -0.00002   3.11779
   D15        0.00028  -0.00000  -0.00001  -0.00000  -0.00001   0.00027
   D16        3.13574   0.00000  -0.00003  -0.00000  -0.00004   3.13571
   D17       -3.12440  -0.00001   0.00006   0.00001   0.00007  -3.12432
   D18        0.01107  -0.00000   0.00003   0.00001   0.00005   0.01111
   D19       -0.00654   0.00000  -0.00004  -0.00001  -0.00004  -0.00658
   D20        3.13671   0.00000   0.00000   0.00000   0.00001   3.13672
   D21        3.14116  -0.00000  -0.00001  -0.00000  -0.00002   3.14115
   D22        0.00123  -0.00000   0.00003   0.00000   0.00003   0.00126
   D23       -3.13362  -0.00000   0.00005   0.00001   0.00006  -3.13356
   D24       -0.00037   0.00000   0.00002   0.00000   0.00002  -0.00035
   D25        0.00637  -0.00000   0.00001   0.00001   0.00001   0.00638
   D26        3.13962   0.00000  -0.00002  -0.00000  -0.00002   3.13959
   D27        0.01323  -0.00001   0.00004   0.00001   0.00004   0.01327
   D28       -3.12369  -0.00000  -0.00004   0.00001  -0.00003  -3.12372
   D29       -3.13669  -0.00000   0.00001  -0.00000   0.00001  -3.13668
   D30        0.00957   0.00000  -0.00006  -0.00000  -0.00007   0.00951
   D31       -1.19337   0.00005   0.00257  -0.00001   0.00256  -1.19081
   D32        1.95025   0.00004   0.00255   0.00001   0.00256   1.95281
   D33        1.94340   0.00004   0.00264  -0.00001   0.00263   1.94603
   D34       -1.19617   0.00003   0.00263   0.00001   0.00264  -1.19354
   D35       -0.02068   0.00001  -0.00016   0.00001  -0.00015  -0.02083
   D36        3.12095   0.00000  -0.00013   0.00002  -0.00011   3.12084
   D37        3.11898   0.00002  -0.00015  -0.00000  -0.00015   3.11882
   D38       -0.02258   0.00001  -0.00012   0.00001  -0.00011  -0.02269
   D39       -3.12387  -0.00000   0.00011  -0.00003   0.00008  -3.12379
   D40        0.00322   0.00001   0.00006  -0.00003   0.00003   0.00325
   D41        0.01969  -0.00001   0.00010  -0.00001   0.00009   0.01978
   D42       -3.13640  -0.00000   0.00004  -0.00001   0.00003  -3.13637
   D43       -0.09756  -0.00000  -0.00050   0.00000  -0.00049  -0.09805
   D44        3.04400   0.00001  -0.00053  -0.00001  -0.00054   3.04346
   D45        0.01166  -0.00000   0.00007  -0.00000   0.00007   0.01173
   D46       -3.14074   0.00000   0.00001   0.00000   0.00001  -3.14073
   D47       -3.12990  -0.00002   0.00010   0.00001   0.00011  -3.12979
   D48        0.00089  -0.00001   0.00004   0.00001   0.00005   0.00094
   D49        0.00327  -0.00000   0.00001  -0.00000   0.00001   0.00327
   D50        3.13832   0.00000  -0.00001  -0.00000  -0.00001   3.13831
   D51       -3.12718  -0.00001   0.00007  -0.00000   0.00007  -3.12711
   D52        0.00788  -0.00000   0.00005  -0.00000   0.00005   0.00792
   D53       -0.00641   0.00000  -0.00003  -0.00000  -0.00003  -0.00644
   D54        3.13702   0.00000  -0.00001   0.00001  -0.00000   3.13702
   D55       -3.14147  -0.00000  -0.00001  -0.00000  -0.00001  -3.14148
   D56        0.00196  -0.00000   0.00001   0.00001   0.00002   0.00198
   D57       -0.00546   0.00000  -0.00003   0.00001  -0.00002  -0.00548
   D58       -3.13240  -0.00000   0.00003   0.00001   0.00004  -3.13236
   D59        3.13434   0.00000  -0.00004  -0.00000  -0.00005   3.13430
   D60        0.00741  -0.00000   0.00001  -0.00000   0.00001   0.00741
         Item               Value     Threshold  Converged?
 Maximum Force            0.000053     0.000450     YES
 RMS     Force            0.000014     0.000300     YES
 Maximum Displacement     0.005965     0.001800     NO 
 RMS     Displacement     0.001842     0.001200     NO 
 Predicted change in Energy=-1.949099D-07
 GradGradGradGradGradGradGradGradGradGradGradGradGradGradGradGradGradGrad

                          Input orientation:                          
 ---------------------------------------------------------------------
 Center     Atomic      Atomic             Coordinates (Angstroms)
 Number     Number       Type             X           Y           Z
 ---------------------------------------------------------------------
      1          6           0       -0.738571    1.536005   -2.097271
      2          6           0       -1.480206    0.746069   -1.044456
      3          6           0       -2.890451    0.719537   -1.019770
      4          6           0       -3.588177    0.021183   -0.021327
      5          6           0       -2.890386   -0.670025    0.980762
      6          6           0       -1.491655   -0.649900    0.951558
      7          9           0       -0.814000   -1.318848    1.904660
      8          6           0       -0.759266    0.034606   -0.041568
      9          6           0        0.728065   -0.004072   -0.026062
     10          6           0        1.439442   -0.696784   -1.040847
     11          8           0        0.776721   -1.357126   -2.030791
     12          6           0        2.848069   -0.716883   -1.046746
     13          6           0        3.552893   -0.056855   -0.030816
     14          6           0        2.878681    0.623468    0.999002
     15          6           0        1.479894    0.631792    0.979876
     16          9           0        0.812525    1.287776    1.952509
     17          1           0       -1.435322    2.147902   -2.701850
     18          1           0        0.011863    2.208250   -1.632807
     19          1           0       -0.177779    0.870182   -2.786789
     20          1           0       -3.447901    1.272221   -1.792098
     21          1           0       -4.689193    0.018754   -0.018532
     22          1           0       -3.404128   -1.223348    1.780182
     23          1           0       -0.181987   -1.315082   -1.820491
     24          1           0        3.365041   -1.262837   -1.848767
     25          1           0        4.653703   -0.076213   -0.035247
     26          1           0        3.411956    1.143540    1.806981
 ---------------------------------------------------------------------
                    Distance matrix (angstroms):
                    1          2          3          4          5
     1  C    0.000000
     2  C    1.510775   0.000000
     3  C    2.541302   1.410711   0.000000
     4  C    3.837249   2.452711   1.404068   0.000000
     5  C    4.355590   2.845248   2.435777   1.403162   0.000000
     6  C    3.826313   2.435761   2.778151   2.406711   1.399180
     7  F    4.916435   3.661284   4.125404   3.633341   2.363459
     8  C    2.545691   1.425383   2.442941   2.829015   2.466442
     9  C    2.968631   2.544857   3.821613   4.316318   3.814495
    10  C    3.293193   3.256713   4.555698   5.179947   4.778601
    11  O    3.266610   3.238828   4.333918   4.999001   4.794708
    12  C    4.363840   4.568829   5.915627   6.559077   6.086284
    13  C    5.022361   5.196560   6.564869   7.141502   6.550962
    14  C    4.848107   4.815666   6.112900   6.574501   5.912325
    15  C    3.899747   3.587920   4.806891   5.201980   4.560052
    16  F    4.343759   3.812068   4.782193   4.986628   4.299863
    17  H    1.106976   2.171199   2.643297   4.042637   4.859995
    18  H    1.109411   2.170345   3.318962   4.510034   4.851624
    19  H    1.110514   2.178863   3.240932   4.472067   4.891310
    20  H    2.739194   2.169707   1.101227   2.172648   3.431019
    21  H    4.714936   3.446608   2.174637   1.101023   2.169957
    22  H    5.454711   3.944447   3.446505   2.197309   1.099623
    23  H    2.918063   2.556550   3.480892   4.077343   3.949499
    24  H    4.973420   5.306508   6.614244   7.303114   6.891155
    25  H    5.993981   6.270525   7.649625   8.242467   7.635323
    26  H    5.711750   5.676435   6.920306   7.321492   6.609929
                    6          7          8          9         10
     6  C    0.000000
     7  F    1.347261   0.000000
     8  C    1.411114   2.371210   0.000000
     9  C    2.509978   2.798980   1.487914   0.000000
    10  C    3.544461   3.760449   2.523451   1.419752   0.000000
    11  O    3.813148   4.244953   2.872835   2.419103   1.362073
    12  C    4.778171   4.741720   3.819422   2.458518   1.408783
    13  C    5.173415   4.940491   4.313142   2.825325   2.428239
    14  C    4.552313   4.269508   3.829386   2.463678   2.824084
    15  C    3.236301   3.149948   2.532552   1.407652   2.418692
    16  F    3.172655   3.072843   2.831484   2.364476   3.645776
    17  H    4.601984   5.798649   3.464126   4.058458   4.372121
    18  H    4.136246   5.063215   2.802036   2.826472   3.290535
    19  H    4.244073   5.215968   2.927892   3.034219   2.849404
    20  H    3.879316   5.226576   3.438721   4.710255   5.322357
    21  H    3.407700   4.528242   3.930027   5.417312   6.254382
    22  H    2.161715   2.594875   3.449133   4.671635   5.629889
    23  H    3.137189   3.778387   2.306399   2.401441   1.902413
    24  H    5.639593   5.617449   4.686068   3.443891   2.163580
    25  H    6.250466   5.933225   5.414107   3.926312   3.424589
    26  H    5.290896   4.891994   4.695312   3.446786   3.922719
                   11         12         13         14         15
    11  O    0.000000
    12  C    2.380912   0.000000
    13  C    3.660292   1.401616   0.000000
    14  C    4.185765   2.445927   1.406388   0.000000
    15  C    3.676189   2.792494   2.406877   1.398942   0.000000
    16  F    4.781576   4.142177   3.640224   2.370544   1.349708
    17  H    4.198652   5.412375   6.072699   5.884796   4.934793
    18  H    3.668148   4.116301   4.498441   4.201975   3.386215
    19  H    2.538406   3.834356   4.729979   4.871860   4.122193
    20  H    4.981754   6.644647   7.340278   6.945268   5.690093
    21  H    5.984851   7.642559   8.242442   7.659881   6.279353
    22  H    5.658702   6.880262   7.282895   6.595048   5.285424
    23  H    0.982402   3.183986   4.328441   4.590774   3.793973
    24  H    2.596425   1.099346   2.189663   3.450286   3.891609
    25  H    4.544659   2.166541   1.100989   2.170237   3.406583
    26  H    5.284533   3.452955   2.199616   1.098948   2.163065
                   16         17         18         19         20
    16  F    0.000000
    17  H    5.239818   0.000000
    18  H    3.787192   1.800233   0.000000
    19  H    4.859633   1.794769   1.777094   0.000000
    20  H    5.672174   2.375908   3.587686   3.441619   0.000000
    21  H    5.980328   4.724526   5.431363   5.361066   2.501503
    22  H    4.910764   5.943916   5.923964   5.970713   4.357862
    23  H    4.690358   3.786806   3.533649   2.389379   4.166670
    24  H    5.241246   5.950158   4.831034   4.240428   7.269519
    25  H    4.535007   7.009542   5.414577   5.640024   8.398856
    26  H    2.607493   6.695850   4.952411   5.836406   7.747746
                   21         22         23         24         25
    21  H    0.000000
    22  H    2.535663   0.000000
    23  H    5.033993   4.832748   0.000000
    24  H    8.358404   7.680656   3.547526   0.000000
    25  H    9.343394   8.339085   5.301490   2.521424   0.000000
    26  H    8.380111   7.215391   5.667434   4.376910   2.534469
                   26
    26  H    0.000000
 Symmetry turned off by external request.
 Stoichiometry    C13H10F2O
 Framework group  C1[X(C13H10F2O)]
 Deg. of freedom    72
 Full point group                 C1      NOp   1
 Rotational constants (GHZ):           0.8752553           0.4432608           0.3751290
 Standard basis: def2SVP (5D, 7F)
   274 basis functions,   470 primitive gaussians,   290 cartesian basis functions
    57 alpha electrons       57 beta electrons
       nuclear repulsion energy      1079.7998729749 Hartrees.
 NAtoms=   26 NActive=   26 NUniq=   26 SFac= 1.00D+00 NAtFMM=   60 NAOKFM=F Big=F
 Integral buffers will be    131072 words long.
 Raffenetti 2 integral format.
 Two-electron integral symmetry is turned off.
 Nuclear repulsion after empirical dispersion term =     1079.7466658528 Hartrees.
 One-electron integrals computed using PRISM.
   1 Symmetry operations used in ECPInt.
 ECPInt:  NShTT=    8001 NPrTT=   29641 LenC2=    7678 LenP2D=   20636.
 LDataN:  DoStor=T MaxTD1= 4 Len=   56
 NBasis=   274 RedAO= T EigKep=  2.31D-04  NBF=   274
 NBsUse=   274 1.00D-06 EigRej= -1.00D+00 NBFU=   274
 Initial guess from the checkpoint file:  "path/to/scratch/gaussian_tmp/Gau-2666754.chk"
 B after Tr=    -0.000007    0.000199    0.000456
         Rot=    1.000000   -0.000124   -0.000000    0.000011 Ang=  -0.01 deg.
 Requested convergence on RMS density matrix=1.00D-08 within 128 cycles.
 Requested convergence on MAX density matrix=1.00D-06.
 Requested convergence on             energy=1.00D-06.
 No special actions if energy rises.
 SCF Done:  E(RB-P86) =  -775.800292437     A.U. after    8 cycles
            NFock=  8  Conv=0.68D-08     -V/T= 2.0105
   1 Symmetry operations used in ECPInt.
 ECPInt:  NShTT=    8001 NPrTT=   29641 LenC2=    7678 LenP2D=   20636.
 LDataN:  DoStor=T MaxTD1= 5 Len=  102
 Calling FoFJK, ICntrl=      2527 FMM=F ISym2X=0 I1Cent= 0 IOpClX= 0 NMat=1 NMatS=1 NMatT=0.
 -------------------------------------------------------------------
 Center     Atomic                   Forces (Hartrees/Bohr)
 Number     Number              X              Y              Z
 -------------------------------------------------------------------
      1        6          -0.000000949   -0.000000212    0.000000418
      2        6           0.000000665    0.000000468   -0.000001539
      3        6          -0.000000386   -0.000000140   -0.000000327
      4        6          -0.000000595   -0.000000327   -0.000000294
      5        6          -0.000000488   -0.000000288    0.000000110
      6        6           0.000001074   -0.000001344    0.000001937
      7        9           0.000000253   -0.000000177    0.000000367
      8        6           0.000002074    0.000000112   -0.000000463
      9        6          -0.000002082   -0.000000019   -0.000000459
     10        6          -0.000000762   -0.000001123   -0.000001465
     11        8           0.000002311   -0.000001109   -0.000000272
     12        6           0.000000612    0.000000141   -0.000000017
     13        6           0.000000587    0.000000461    0.000000125
     14        6           0.000000407    0.000000549    0.000000279
     15        6          -0.000001070    0.000001582    0.000002153
     16        9          -0.000000457    0.000000654    0.000000240
     17        1          -0.000001090    0.000000520   -0.000001139
     18        1           0.000000754    0.000000962    0.000000404
     19        1           0.000000772   -0.000000798   -0.000000996
     20        1          -0.000000894    0.000000288   -0.000001488
     21        1          -0.000001708   -0.000000518   -0.000000242
     22        1          -0.000000680   -0.000001048    0.000001194
     23        1          -0.000001581   -0.000000126    0.000000755
     24        1           0.000000963   -0.000000537   -0.000000884
     25        1           0.000001734    0.000000574    0.000000256
     26        1           0.000000539    0.000001456    0.000001346
 -------------------------------------------------------------------
 Cartesian Forces:  Max     0.000002311 RMS     0.000000955

 GradGradGradGradGradGradGradGradGradGradGradGradGradGradGradGradGradGrad
 Berny optimization.
 Using GEDIIS/GDIIS optimizer.
 FormGI is forming the generalized inverse of G from B-inverse, IUseBI=4.
 Internal  Forces:  Max     0.000003489 RMS     0.000000986
 Search for a local minimum.
 Step number  10 out of a maximum of  140
 All quantities printed in internal units (Hartrees-Bohrs-Radians)
 Mixed Optimization -- En-DIIS/RFO-DIIS
 Swapping is turned off.
 Update second derivatives using D2CorX and points    1    2    3    4    5
                                                      6    7    8    9   10
 DE= -1.49D-07 DEPred=-1.95D-07 R= 7.65D-01
 Trust test= 7.65D-01 RLast= 5.49D-03 DXMaxT set to 2.00D-01
 ITU=  0  0  0  1 -1  1  1  1  1  0
     Eigenvalues ---    0.00142   0.00793   0.01166   0.01318   0.01609
     Eigenvalues ---    0.01667   0.01698   0.01731   0.01745   0.01967
     Eigenvalues ---    0.02096   0.02206   0.02274   0.02316   0.02386
     Eigenvalues ---    0.02658   0.02832   0.02956   0.03379   0.03434
     Eigenvalues ---    0.04193   0.05222   0.05402   0.09956   0.10056
     Eigenvalues ---    0.10397   0.11110   0.11542   0.11555   0.11745
     Eigenvalues ---    0.13863   0.14182   0.16493   0.17308   0.17927
     Eigenvalues ---    0.17966   0.18087   0.18143   0.18495   0.18912
     Eigenvalues ---    0.19213   0.21140   0.22318   0.24165   0.24697
     Eigenvalues ---    0.31831   0.33766   0.34989   0.35311   0.35904
     Eigenvalues ---    0.36148   0.36693   0.37298   0.37420   0.37531
     Eigenvalues ---    0.37693   0.37916   0.38438   0.38485   0.39027
     Eigenvalues ---    0.41062   0.44975   0.46115   0.46317   0.47794
     Eigenvalues ---    0.49206   0.49427   0.49965   0.50224   0.51648
     Eigenvalues ---    0.54101   0.59446
 En-DIIS/RFO-DIIS/Sim-DIIS IScMMF=       -3 using points:    10    9    8    7    6    5    4
 RFO step:  Lambda=-2.80167547D-10.
 DIIS inversion failure, remove point   7.
 DIIS inversion failure, remove point   6.
 DIIS inversion failure, remove point   5.
 DIIS inversion failure, remove point   4.
 DIIS inversion failure, remove point   3.
 RFO-DIIS uses    2 points instead of    7
 DidBck=F Rises=F RFO-DIIS coefs:    0.96648    0.03352    0.00000    0.00000    0.00000
                  RFO-DIIS coefs:    0.00000    0.00000
 Iteration  1 RMS(Cart)=  0.00005327 RMS(Int)=  0.00000000
 Iteration  2 RMS(Cart)=  0.00000000 RMS(Int)=  0.00000000
 Variable       Old X    -DE/DX   Delta X   Delta X   Delta X     New X
                                 (Linear)    (Quad)   (Total)
    R1        2.85495   0.00000  -0.00000   0.00000   0.00000   2.85495
    R2        2.09188   0.00000   0.00000   0.00000   0.00000   2.09188
    R3        2.09648   0.00000   0.00000   0.00000   0.00000   2.09649
    R4        2.09857   0.00000  -0.00000   0.00000   0.00000   2.09857
    R5        2.66586   0.00000  -0.00000   0.00000   0.00000   2.66586
    R6        2.69358   0.00000  -0.00000   0.00000   0.00000   2.69359
    R7        2.65330   0.00000   0.00000   0.00000   0.00000   2.65331
    R8        2.08102   0.00000   0.00000   0.00000   0.00000   2.08102
    R9        2.65159   0.00000  -0.00000   0.00000   0.00000   2.65160
   R10        2.08063   0.00000   0.00000   0.00000   0.00000   2.08064
   R11        2.64407   0.00000   0.00000   0.00000   0.00000   2.64407
   R12        2.07799   0.00000   0.00000   0.00000   0.00000   2.07799
   R13        2.54595   0.00000   0.00000   0.00000   0.00000   2.54596
   R14        2.66662   0.00000  -0.00000   0.00000   0.00000   2.66662
   R15        2.81175   0.00000   0.00000   0.00000   0.00000   2.81175
   R16        2.68294   0.00000  -0.00000   0.00000   0.00000   2.68294
   R17        2.66008   0.00000  -0.00000   0.00000   0.00000   2.66008
   R18        2.57394   0.00000  -0.00000   0.00000  -0.00000   2.57394
   R19        2.66221   0.00000   0.00000   0.00000   0.00000   2.66222
   R20        1.85647   0.00000   0.00000   0.00000   0.00000   1.85648
   R21        2.64867   0.00000   0.00000   0.00000   0.00000   2.64867
   R22        2.07746   0.00000   0.00000   0.00000   0.00000   2.07747
   R23        2.65769   0.00000   0.00000   0.00000   0.00000   2.65769
   R24        2.08057   0.00000   0.00000   0.00000   0.00000   2.08057
   R25        2.64362   0.00000   0.00000   0.00000   0.00000   2.64362
   R26        2.07671   0.00000   0.00000   0.00000   0.00000   2.07672
   R27        2.55058   0.00000   0.00000   0.00000   0.00000   2.55058
    A1        1.93975  -0.00000   0.00000   0.00000   0.00000   1.93975
    A2        1.93599  -0.00000   0.00000  -0.00000  -0.00000   1.93599
    A3        1.94667   0.00000  -0.00000   0.00000  -0.00000   1.94667
    A4        1.89596  -0.00000  -0.00000  -0.00000  -0.00000   1.89595
    A5        1.88615  -0.00000  -0.00000   0.00000   0.00000   1.88616
    A6        1.85632  -0.00000   0.00000   0.00000   0.00000   1.85633
    A7        2.10920  -0.00000   0.00000   0.00000   0.00000   2.10920
    A8        2.09787   0.00000  -0.00000  -0.00000  -0.00000   2.09787
    A9        2.07593  -0.00000   0.00000  -0.00000   0.00000   2.07593
   A10        2.11597   0.00000  -0.00000   0.00000  -0.00000   2.11597
   A11        2.07639  -0.00000   0.00000  -0.00000   0.00000   2.07639
   A12        2.09070  -0.00000   0.00000   0.00000   0.00000   2.09070
   A13        2.10103  -0.00000   0.00000   0.00000   0.00000   2.10103
   A14        2.09420  -0.00000  -0.00000  -0.00000  -0.00000   2.09420
   A15        2.08794   0.00000  -0.00000   0.00000  -0.00000   2.08794
   A16        2.06593   0.00000  -0.00000   0.00000   0.00000   2.06593
   A17        2.13499  -0.00000   0.00000  -0.00000   0.00000   2.13499
   A18        2.08227  -0.00000   0.00000  -0.00000  -0.00000   2.08227
   A19        2.07250  -0.00000   0.00000   0.00000   0.00000   2.07250
   A20        2.14185  -0.00000  -0.00000  -0.00000  -0.00000   2.14184
   A21        2.06881   0.00000  -0.00000   0.00000   0.00000   2.06881
   A22        2.06552  -0.00000   0.00000   0.00000   0.00000   2.06552
   A23        2.12456   0.00000   0.00000  -0.00000   0.00000   2.12457
   A24        2.09309  -0.00000  -0.00000  -0.00000  -0.00000   2.09309
   A25        2.10145   0.00000  -0.00000   0.00000  -0.00000   2.10145
   A26        2.12892  -0.00000   0.00000  -0.00000  -0.00000   2.12892
   A27        2.05281  -0.00000   0.00000   0.00000   0.00000   2.05282
   A28        2.10858   0.00000  -0.00000  -0.00000  -0.00000   2.10858
   A29        2.10709  -0.00000  -0.00000  -0.00000  -0.00000   2.10709
   A30        2.06751  -0.00000   0.00000   0.00000   0.00000   2.06751
   A31        1.87390  -0.00000  -0.00000  -0.00000  -0.00000   1.87390
   A32        2.08640   0.00000  -0.00000   0.00000  -0.00000   2.08639
   A33        2.07184  -0.00000   0.00000  -0.00000   0.00000   2.07184
   A34        2.12490  -0.00000  -0.00000   0.00000   0.00000   2.12490
   A35        2.11469  -0.00000   0.00000   0.00000   0.00000   2.11469
   A36        2.08471  -0.00000  -0.00000  -0.00000  -0.00000   2.08471
   A37        2.08377   0.00000  -0.00000  -0.00000  -0.00000   2.08377
   A38        2.06259   0.00000  -0.00000   0.00000   0.00000   2.06259
   A39        2.13491  -0.00000   0.00000  -0.00000   0.00000   2.13491
   A40        2.08569  -0.00000   0.00000  -0.00000  -0.00000   2.08569
   A41        2.14257  -0.00000  -0.00000  -0.00000  -0.00000   2.14257
   A42        2.06057   0.00000  -0.00000   0.00000  -0.00000   2.06057
   A43        2.07995   0.00000   0.00000   0.00000   0.00000   2.07995
    D1        0.12822  -0.00000  -0.00002  -0.00006  -0.00008   0.12814
    D2       -2.99203   0.00000  -0.00002  -0.00005  -0.00007  -2.99210
    D3        2.23948  -0.00000  -0.00002  -0.00006  -0.00008   2.23940
    D4       -0.88077   0.00000  -0.00002  -0.00005  -0.00007  -0.88085
    D5       -1.97786  -0.00000  -0.00002  -0.00006  -0.00008  -1.97794
    D6        1.18507   0.00000  -0.00002  -0.00005  -0.00007   1.18500
    D7       -3.10770   0.00000  -0.00000   0.00001   0.00000  -3.10770
    D8        0.01702   0.00000  -0.00000   0.00001   0.00001   0.01703
    D9        0.01281   0.00000  -0.00000   0.00000  -0.00000   0.01281
   D10        3.13754  -0.00000   0.00000   0.00000   0.00000   3.13754
   D11        3.10154  -0.00000   0.00001  -0.00001  -0.00000   3.10154
   D12       -0.04473  -0.00000   0.00000  -0.00000  -0.00000  -0.04473
   D13       -0.01911  -0.00000   0.00000  -0.00000   0.00000  -0.01911
   D14        3.11779  -0.00000   0.00000   0.00001   0.00001   3.11780
   D15        0.00027   0.00000   0.00000   0.00000   0.00000   0.00027
   D16        3.13571  -0.00000   0.00000   0.00000   0.00000   3.13571
   D17       -3.12432   0.00000  -0.00000   0.00000  -0.00000  -3.12433
   D18        0.01111   0.00000  -0.00000   0.00000  -0.00000   0.01111
   D19       -0.00658  -0.00000   0.00000  -0.00000   0.00000  -0.00658
   D20        3.13672  -0.00000  -0.00000  -0.00000  -0.00000   3.13672
   D21        3.14115   0.00000   0.00000  -0.00000   0.00000   3.14115
   D22        0.00126   0.00000  -0.00000  -0.00000  -0.00000   0.00126
   D23       -3.13356   0.00000  -0.00000  -0.00000  -0.00000  -3.13356
   D24       -0.00035  -0.00000  -0.00000  -0.00000  -0.00000  -0.00035
   D25        0.00638   0.00000  -0.00000  -0.00000  -0.00000   0.00638
   D26        3.13959  -0.00000   0.00000  -0.00000   0.00000   3.13960
   D27        0.01327   0.00000  -0.00000   0.00000  -0.00000   0.01327
   D28       -3.12372   0.00000   0.00000  -0.00001  -0.00000  -3.12373
   D29       -3.13668   0.00000  -0.00000   0.00000   0.00000  -3.13668
   D30        0.00951  -0.00000   0.00000  -0.00000  -0.00000   0.00950
   D31       -1.19081  -0.00000  -0.00009   0.00001  -0.00007  -1.19088
   D32        1.95281  -0.00000  -0.00009   0.00002  -0.00007   1.95274
   D33        1.94603  -0.00000  -0.00009   0.00002  -0.00007   1.94596
   D34       -1.19354  -0.00000  -0.00009   0.00003  -0.00006  -1.19360
   D35       -0.02083  -0.00000   0.00001   0.00000   0.00001  -0.02082
   D36        3.12084  -0.00000   0.00000   0.00000   0.00001   3.12085
   D37        3.11882  -0.00000   0.00001  -0.00001  -0.00000   3.11882
   D38       -0.02269  -0.00000   0.00000  -0.00001  -0.00000  -0.02269
   D39       -3.12379   0.00000  -0.00000  -0.00000  -0.00000  -3.12379
   D40        0.00325  -0.00000  -0.00000  -0.00000  -0.00000   0.00325
   D41        0.01978   0.00000  -0.00000   0.00000   0.00000   0.01978
   D42       -3.13637   0.00000  -0.00000   0.00000   0.00000  -3.13637
   D43       -0.09805   0.00000   0.00002  -0.00000   0.00001  -0.09804
   D44        3.04346  -0.00000   0.00002  -0.00000   0.00001   3.04348
   D45        0.01173   0.00000  -0.00000   0.00000   0.00000   0.01173
   D46       -3.14073  -0.00000  -0.00000   0.00000   0.00000  -3.14073
   D47       -3.12979   0.00000  -0.00000   0.00000  -0.00000  -3.12979
   D48        0.00094   0.00000  -0.00000   0.00000  -0.00000   0.00094
   D49        0.00327   0.00000  -0.00000   0.00000   0.00000   0.00327
   D50        3.13831  -0.00000   0.00000  -0.00000   0.00000   3.13831
   D51       -3.12711   0.00000  -0.00000   0.00000  -0.00000  -3.12711
   D52        0.00792   0.00000  -0.00000   0.00000  -0.00000   0.00792
   D53       -0.00644  -0.00000   0.00000  -0.00000  -0.00000  -0.00644
   D54        3.13702  -0.00000   0.00000  -0.00000  -0.00000   3.13702
   D55       -3.14148   0.00000   0.00000  -0.00000  -0.00000  -3.14148
   D56        0.00198   0.00000  -0.00000  -0.00000  -0.00000   0.00198
   D57       -0.00548  -0.00000   0.00000  -0.00000  -0.00000  -0.00548
   D58       -3.13236   0.00000  -0.00000  -0.00000  -0.00000  -3.13236
   D59        3.13430  -0.00000   0.00000  -0.00000   0.00000   3.13430
   D60        0.00741   0.00000  -0.00000  -0.00000  -0.00000   0.00741
         Item               Value     Threshold  Converged?
 Maximum Force            0.000003     0.000450     YES
 RMS     Force            0.000001     0.000300     YES
 Maximum Displacement     0.000184     0.001800     YES
 RMS     Displacement     0.000053     0.001200     YES
 Predicted change in Energy=-2.512898D-10
 Optimization completed.
    -- Stationary point found.
                           ----------------------------
                           !   Optimized Parameters   !
                           ! (Angstroms and Degrees)  !
 --------------------------                            --------------------------
 ! Name  Definition              Value          Derivative Info.                !
 --------------------------------------------------------------------------------
 ! R1    R(1,2)                  1.5108         -DE/DX =    0.0                 !
 ! R2    R(1,17)                 1.107          -DE/DX =    0.0                 !
 ! R3    R(1,18)                 1.1094         -DE/DX =    0.0                 !
 ! R4    R(1,19)                 1.1105         -DE/DX =    0.0                 !
 ! R5    R(2,3)                  1.4107         -DE/DX =    0.0                 !
 ! R6    R(2,8)                  1.4254         -DE/DX =    0.0                 !
 ! R7    R(3,4)                  1.4041         -DE/DX =    0.0                 !
 ! R8    R(3,20)                 1.1012         -DE/DX =    0.0                 !
 ! R9    R(4,5)                  1.4032         -DE/DX =    0.0                 !
 ! R10   R(4,21)                 1.101          -DE/DX =    0.0                 !
 ! R11   R(5,6)                  1.3992         -DE/DX =    0.0                 !
 ! R12   R(5,22)                 1.0996         -DE/DX =    0.0                 !
 ! R13   R(6,7)                  1.3473         -DE/DX =    0.0                 !
 ! R14   R(6,8)                  1.4111         -DE/DX =    0.0                 !
 ! R15   R(8,9)                  1.4879         -DE/DX =    0.0                 !
 ! R16   R(9,10)                 1.4198         -DE/DX =    0.0                 !
 ! R17   R(9,15)                 1.4077         -DE/DX =    0.0                 !
 ! R18   R(10,11)                1.3621         -DE/DX =    0.0                 !
 ! R19   R(10,12)                1.4088         -DE/DX =    0.0                 !
 ! R20   R(11,23)                0.9824         -DE/DX =    0.0                 !
 ! R21   R(12,13)                1.4016         -DE/DX =    0.0                 !
 ! R22   R(12,24)                1.0993         -DE/DX =    0.0                 !
 ! R23   R(13,14)                1.4064         -DE/DX =    0.0                 !
 ! R24   R(13,25)                1.101          -DE/DX =    0.0                 !
 ! R25   R(14,15)                1.3989         -DE/DX =    0.0                 !
 ! R26   R(14,26)                1.0989         -DE/DX =    0.0                 !
 ! R27   R(15,16)                1.3497         -DE/DX =    0.0                 !
 ! A1    A(2,1,17)             111.1396         -DE/DX =    0.0                 !
 ! A2    A(2,1,18)             110.9243         -DE/DX =    0.0                 !
 ! A3    A(2,1,19)             111.5362         -DE/DX =    0.0                 !
 ! A4    A(17,1,18)            108.6303         -DE/DX =    0.0                 !
 ! A5    A(17,1,19)            108.0687         -DE/DX =    0.0                 !
 ! A6    A(18,1,19)            106.3595         -DE/DX =    0.0                 !
 ! A7    A(1,2,3)              120.848          -DE/DX =    0.0                 !
 ! A8    A(1,2,8)              120.1991         -DE/DX =    0.0                 !
 ! A9    A(3,2,8)              118.9417         -DE/DX =    0.0                 !
 ! A10   A(2,3,4)              121.2361         -DE/DX =    0.0                 !
 ! A11   A(2,3,20)             118.9685         -DE/DX =    0.0                 !
 ! A12   A(4,3,20)             119.7884         -DE/DX =    0.0                 !
 ! A13   A(3,4,5)              120.3803         -DE/DX =    0.0                 !
 ! A14   A(3,4,21)             119.9888         -DE/DX =    0.0                 !
 ! A15   A(5,4,21)             119.6299         -DE/DX =    0.0                 !
 ! A16   A(4,5,6)              118.3689         -DE/DX =    0.0                 !
 ! A17   A(4,5,22)             122.3259         -DE/DX =    0.0                 !
 ! A18   A(6,5,22)             119.3051         -DE/DX =    0.0                 !
 ! A19   A(5,6,7)              118.7454         -DE/DX =    0.0                 !
 ! A20   A(5,6,8)              122.7187         -DE/DX =    0.0                 !
 ! A21   A(7,6,8)              118.5342         -DE/DX =    0.0                 !
 ! A22   A(2,8,6)              118.3458         -DE/DX =    0.0                 !
 ! A23   A(2,8,9)              121.7286         -DE/DX =    0.0                 !
 ! A24   A(6,8,9)              119.9251         -DE/DX =    0.0                 !
 ! A25   A(8,9,10)             120.4041         -DE/DX =    0.0                 !
 ! A26   A(8,9,15)             121.9782         -DE/DX =    0.0                 !
 ! A27   A(10,9,15)            117.6175         -DE/DX =    0.0                 !
 ! A28   A(9,10,11)            120.8128         -DE/DX =    0.0                 !
 ! A29   A(9,10,12)            120.7276         -DE/DX =    0.0                 !
 ! A30   A(11,10,12)           118.4597         -DE/DX =    0.0                 !
 ! A31   A(10,11,23)           107.3668         -DE/DX =    0.0                 !
 ! A32   A(10,12,13)           119.5416         -DE/DX =    0.0                 !
 ! A33   A(10,12,24)           118.7077         -DE/DX =    0.0                 !
 ! A34   A(13,12,24)           121.7476         -DE/DX =    0.0                 !
 ! A35   A(12,13,14)           121.163          -DE/DX =    0.0                 !
 ! A36   A(12,13,25)           119.4449         -DE/DX =    0.0                 !
 ! A37   A(14,13,25)           119.391          -DE/DX =    0.0                 !
 ! A38   A(13,14,15)           118.1777         -DE/DX =    0.0                 !
 ! A39   A(13,14,26)           122.3211         -DE/DX =    0.0                 !
 ! A40   A(15,14,26)           119.5011         -DE/DX =    0.0                 !
 ! A41   A(9,15,14)            122.7602         -DE/DX =    0.0                 !
 ! A42   A(9,15,16)            118.0622         -DE/DX =    0.0                 !
 ! A43   A(14,15,16)           119.1725         -DE/DX =    0.0                 !
 ! D1    D(17,1,2,3)             7.3464         -DE/DX =    0.0                 !
 ! D2    D(17,1,2,8)          -171.4308         -DE/DX =    0.0                 !
 ! D3    D(18,1,2,3)           128.3127         -DE/DX =    0.0                 !
 ! D4    D(18,1,2,8)           -50.4646         -DE/DX =    0.0                 !
 ! D5    D(19,1,2,3)          -113.3232         -DE/DX =    0.0                 !
 ! D6    D(19,1,2,8)            67.8996         -DE/DX =    0.0                 !
 ! D7    D(1,2,3,4)           -178.0584         -DE/DX =    0.0                 !
 ! D8    D(1,2,3,20)             0.9754         -DE/DX =    0.0                 !
 ! D9    D(8,2,3,4)              0.734          -DE/DX =    0.0                 !
 ! D10   D(8,2,3,20)           179.7678         -DE/DX =    0.0                 !
 ! D11   D(1,2,8,6)            177.7052         -DE/DX =    0.0                 !
 ! D12   D(1,2,8,9)             -2.5631         -DE/DX =    0.0                 !
 ! D13   D(3,2,8,6)             -1.0952         -DE/DX =    0.0                 !
 ! D14   D(3,2,8,9)            178.6365         -DE/DX =    0.0                 !
 ! D15   D(2,3,4,5)              0.0154         -DE/DX =    0.0                 !
 ! D16   D(2,3,4,21)           179.6627         -DE/DX =    0.0                 !
 ! D17   D(20,3,4,5)          -179.0106         -DE/DX =    0.0                 !
 ! D18   D(20,3,4,21)            0.6367         -DE/DX =    0.0                 !
 ! D19   D(3,4,5,6)             -0.3769         -DE/DX =    0.0                 !
 ! D20   D(3,4,5,22)           179.7207         -DE/DX =    0.0                 !
 ! D21   D(21,4,5,6)           179.9745         -DE/DX =    0.0                 !
 ! D22   D(21,4,5,22)            0.0722         -DE/DX =    0.0                 !
 ! D23   D(4,5,6,7)           -179.5396         -DE/DX =    0.0                 !
 ! D24   D(4,5,6,8)             -0.0199         -DE/DX =    0.0                 !
 ! D25   D(22,5,6,7)             0.3658         -DE/DX =    0.0                 !
 ! D26   D(22,5,6,8)           179.8855         -DE/DX =    0.0                 !
 ! D27   D(5,6,8,2)              0.7606         -DE/DX =    0.0                 !
 ! D28   D(5,6,8,9)           -178.9761         -DE/DX =    0.0                 !
 ! D29   D(7,6,8,2)           -179.7187         -DE/DX =    0.0                 !
 ! D30   D(7,6,8,9)              0.5446         -DE/DX =    0.0                 !
 ! D31   D(2,8,9,10)           -68.2283         -DE/DX =    0.0                 !
 ! D32   D(2,8,9,15)           111.8878         -DE/DX =    0.0                 !
 ! D33   D(6,8,9,10)           111.4992         -DE/DX =    0.0                 !
 ! D34   D(6,8,9,15)           -68.3847         -DE/DX =    0.0                 !
 ! D35   D(8,9,10,11)           -1.1934         -DE/DX =    0.0                 !
 ! D36   D(8,9,10,12)          178.8112         -DE/DX =    0.0                 !
 ! D37   D(15,9,10,11)         178.6954         -DE/DX =    0.0                 !
 ! D38   D(15,9,10,12)          -1.3            -DE/DX =    0.0                 !
 ! D39   D(8,9,15,14)         -178.9798         -DE/DX =    0.0                 !
 ! D40   D(8,9,15,16)            0.1862         -DE/DX =    0.0                 !
 ! D41   D(10,9,15,14)           1.1333         -DE/DX =    0.0                 !
 ! D42   D(10,9,15,16)        -179.7007         -DE/DX =    0.0                 !
 ! D43   D(9,10,11,23)          -5.6179         -DE/DX =    0.0                 !
 ! D44   D(12,10,11,23)        174.3777         -DE/DX =    0.0                 !
 ! D45   D(9,10,12,13)           0.6719         -DE/DX =    0.0                 !
 ! D46   D(9,10,12,24)        -179.9506         -DE/DX =    0.0                 !
 ! D47   D(11,10,12,13)       -179.3236         -DE/DX =    0.0                 !
 ! D48   D(11,10,12,24)          0.0539         -DE/DX =    0.0                 !
 ! D49   D(10,12,13,14)          0.1876         -DE/DX =    0.0                 !
 ! D50   D(10,12,13,25)        179.8118         -DE/DX =    0.0                 !
 ! D51   D(24,12,13,14)       -179.1703         -DE/DX =    0.0                 !
 ! D52   D(24,12,13,25)          0.4539         -DE/DX =    0.0                 !
 ! D53   D(12,13,14,15)         -0.3692         -DE/DX =    0.0                 !
 ! D54   D(12,13,14,26)        179.7381         -DE/DX =    0.0                 !
 ! D55   D(25,13,14,15)       -179.9937         -DE/DX =    0.0                 !
 ! D56   D(25,13,14,26)          0.1136         -DE/DX =    0.0                 !
 ! D57   D(13,14,15,9)          -0.3139         -DE/DX =    0.0                 !
 ! D58   D(13,14,15,16)       -179.471          -DE/DX =    0.0                 !
 ! D59   D(26,14,15,9)         179.5819         -DE/DX =    0.0                 !
 ! D60   D(26,14,15,16)          0.4248         -DE/DX =    0.0                 !
 --------------------------------------------------------------------------------
 GradGradGradGradGradGradGradGradGradGradGradGradGradGradGradGradGradGrad

                          Input orientation:                          
 ---------------------------------------------------------------------
 Center     Atomic      Atomic             Coordinates (Angstroms)
 Number     Number       Type             X           Y           Z
 ---------------------------------------------------------------------
      1          6           0       -0.738571    1.536005   -2.097271
      2          6           0       -1.480206    0.746069   -1.044456
      3          6           0       -2.890451    0.719537   -1.019770
      4          6           0       -3.588177    0.021183   -0.021327
      5          6           0       -2.890386   -0.670025    0.980762
      6          6           0       -1.491655   -0.649900    0.951558
      7          9           0       -0.814000   -1.318848    1.904660
      8          6           0       -0.759266    0.034606   -0.041568
      9          6           0        0.728065   -0.004072   -0.026062
     10          6           0        1.439442   -0.696784   -1.040847
     11          8           0        0.776721   -1.357126   -2.030791
     12          6           0        2.848069   -0.716883   -1.046746
     13          6           0        3.552893   -0.056855   -0.030816
     14          6           0        2.878681    0.623468    0.999002
     15          6           0        1.479894    0.631792    0.979876
     16          9           0        0.812525    1.287776    1.952509
     17          1           0       -1.435322    2.147902   -2.701850
     18          1           0        0.011863    2.208250   -1.632807
     19          1           0       -0.177779    0.870182   -2.786789
     20          1           0       -3.447901    1.272221   -1.792098
     21          1           0       -4.689193    0.018754   -0.018532
     22          1           0       -3.404128   -1.223348    1.780182
     23          1           0       -0.181987   -1.315082   -1.820491
     24          1           0        3.365041   -1.262837   -1.848767
     25          1           0        4.653703   -0.076213   -0.035247
     26          1           0        3.411956    1.143540    1.806981
 ---------------------------------------------------------------------
                    Distance matrix (angstroms):
                    1          2          3          4          5
     1  C    0.000000
     2  C    1.510775   0.000000
     3  C    2.541302   1.410711   0.000000
     4  C    3.837249   2.452711   1.404068   0.000000
     5  C    4.355590   2.845248   2.435777   1.403162   0.000000
     6  C    3.826313   2.435761   2.778151   2.406711   1.399180
     7  F    4.916435   3.661284   4.125404   3.633341   2.363459
     8  C    2.545691   1.425383   2.442941   2.829015   2.466442
     9  C    2.968631   2.544857   3.821613   4.316318   3.814495
    10  C    3.293193   3.256713   4.555698   5.179947   4.778601
    11  O    3.266610   3.238828   4.333918   4.999001   4.794708
    12  C    4.363840   4.568829   5.915627   6.559077   6.086284
    13  C    5.022361   5.196560   6.564869   7.141502   6.550962
    14  C    4.848107   4.815666   6.112900   6.574501   5.912325
    15  C    3.899747   3.587920   4.806891   5.201980   4.560052
    16  F    4.343759   3.812068   4.782193   4.986628   4.299863
    17  H    1.106976   2.171199   2.643297   4.042637   4.859995
    18  H    1.109411   2.170345   3.318962   4.510034   4.851624
    19  H    1.110514   2.178863   3.240932   4.472067   4.891310
    20  H    2.739194   2.169707   1.101227   2.172648   3.431019
    21  H    4.714936   3.446608   2.174637   1.101023   2.169957
    22  H    5.454711   3.944447   3.446505   2.197309   1.099623
    23  H    2.918063   2.556550   3.480892   4.077343   3.949499
    24  H    4.973420   5.306508   6.614244   7.303114   6.891155
    25  H    5.993981   6.270525   7.649625   8.242467   7.635323
    26  H    5.711750   5.676435   6.920306   7.321492   6.609929
                    6          7          8          9         10
     6  C    0.000000
     7  F    1.347261   0.000000
     8  C    1.411114   2.371210   0.000000
     9  C    2.509978   2.798980   1.487914   0.000000
    10  C    3.544461   3.760449   2.523451   1.419752   0.000000
    11  O    3.813148   4.244953   2.872835   2.419103   1.362073
    12  C    4.778171   4.741720   3.819422   2.458518   1.408783
    13  C    5.173415   4.940491   4.313142   2.825325   2.428239
    14  C    4.552313   4.269508   3.829386   2.463678   2.824084
    15  C    3.236301   3.149948   2.532552   1.407652   2.418692
    16  F    3.172655   3.072843   2.831484   2.364476   3.645776
    17  H    4.601984   5.798649   3.464126   4.058458   4.372121
    18  H    4.136246   5.063215   2.802036   2.826472   3.290535
    19  H    4.244073   5.215968   2.927892   3.034219   2.849404
    20  H    3.879316   5.226576   3.438721   4.710255   5.322357
    21  H    3.407700   4.528242   3.930027   5.417312   6.254382
    22  H    2.161715   2.594875   3.449133   4.671635   5.629889
    23  H    3.137189   3.778387   2.306399   2.401441   1.902413
    24  H    5.639593   5.617449   4.686068   3.443891   2.163580
    25  H    6.250466   5.933225   5.414107   3.926312   3.424589
    26  H    5.290896   4.891994   4.695312   3.446786   3.922719
                   11         12         13         14         15
    11  O    0.000000
    12  C    2.380912   0.000000
    13  C    3.660292   1.401616   0.000000
    14  C    4.185765   2.445927   1.406388   0.000000
    15  C    3.676189   2.792494   2.406877   1.398942   0.000000
    16  F    4.781576   4.142177   3.640224   2.370544   1.349708
    17  H    4.198652   5.412375   6.072699   5.884796   4.934793
    18  H    3.668148   4.116301   4.498441   4.201975   3.386215
    19  H    2.538406   3.834356   4.729979   4.871860   4.122193
    20  H    4.981754   6.644647   7.340278   6.945268   5.690093
    21  H    5.984851   7.642559   8.242442   7.659881   6.279353
    22  H    5.658702   6.880262   7.282895   6.595048   5.285424
    23  H    0.982402   3.183986   4.328441   4.590774   3.793973
    24  H    2.596425   1.099346   2.189663   3.450286   3.891609
    25  H    4.544659   2.166541   1.100989   2.170237   3.406583
    26  H    5.284533   3.452955   2.199616   1.098948   2.163065
                   16         17         18         19         20
    16  F    0.000000
    17  H    5.239818   0.000000
    18  H    3.787192   1.800233   0.000000
    19  H    4.859633   1.794769   1.777094   0.000000
    20  H    5.672174   2.375908   3.587686   3.441619   0.000000
    21  H    5.980328   4.724526   5.431363   5.361066   2.501503
    22  H    4.910764   5.943916   5.923964   5.970713   4.357862
    23  H    4.690358   3.786806   3.533649   2.389379   4.166670
    24  H    5.241246   5.950158   4.831034   4.240428   7.269519
    25  H    4.535007   7.009542   5.414577   5.640024   8.398856
    26  H    2.607493   6.695850   4.952411   5.836406   7.747746
                   21         22         23         24         25
    21  H    0.000000
    22  H    2.535663   0.000000
    23  H    5.033993   4.832748   0.000000
    24  H    8.358404   7.680656   3.547526   0.000000
    25  H    9.343394   8.339085   5.301490   2.521424   0.000000
    26  H    8.380111   7.215391   5.667434   4.376910   2.534469
                   26
    26  H    0.000000
 Symmetry turned off by external request.
 Stoichiometry    C13H10F2O
 Framework group  C1[X(C13H10F2O)]
 Deg. of freedom    72
 Full point group                 C1      NOp   1
 Rotational constants (GHZ):           0.8752553           0.4432608           0.3751290

 **********************************************************************

            Population analysis using the SCF Density.

 **********************************************************************

 Alpha  occ. eigenvalues --  -24.30566 -24.29993 -18.81921 -10.00641  -9.99952
 Alpha  occ. eigenvalues --   -9.98476  -9.94664  -9.94393  -9.93717  -9.93386
 Alpha  occ. eigenvalues --   -9.93225  -9.92995  -9.92909  -9.92438  -9.91950
 Alpha  occ. eigenvalues --   -9.91814  -1.11313  -1.10598  -0.97236  -0.79668
 Alpha  occ. eigenvalues --   -0.77405  -0.71837  -0.69953  -0.67002  -0.65959
 Alpha  occ. eigenvalues --   -0.62848  -0.58271  -0.55583  -0.54653  -0.54417
 Alpha  occ. eigenvalues --   -0.50532  -0.48802  -0.47401  -0.45772  -0.45155
 Alpha  occ. eigenvalues --   -0.42912  -0.42679  -0.41458  -0.40693  -0.39642
 Alpha  occ. eigenvalues --   -0.38647  -0.38308  -0.37426  -0.36774  -0.36138
 Alpha  occ. eigenvalues --   -0.34843  -0.33945  -0.33511  -0.32317  -0.31988
 Alpha  occ. eigenvalues --   -0.31493  -0.30465  -0.29475  -0.24638  -0.23038
 Alpha  occ. eigenvalues --   -0.22080  -0.20482
 Alpha virt. eigenvalues --   -0.06775  -0.04865  -0.03967  -0.03058   0.03219
 Alpha virt. eigenvalues --    0.03607   0.04726   0.06251   0.07697   0.08663
 Alpha virt. eigenvalues --    0.09239   0.10030   0.10343   0.10840   0.11444
 Alpha virt. eigenvalues --    0.12533   0.12748   0.13559   0.17634   0.19089
 Alpha virt. eigenvalues --    0.21094   0.23256   0.24106   0.24757   0.25961
 Alpha virt. eigenvalues --    0.26995   0.27744   0.29134   0.29549   0.30063
 Alpha virt. eigenvalues --    0.32795   0.34659   0.35364   0.36963   0.37460
 Alpha virt. eigenvalues --    0.39090   0.39407   0.40075   0.40888   0.41851
 Alpha virt. eigenvalues --    0.42243   0.42791   0.43554   0.46004   0.46108
 Alpha virt. eigenvalues --    0.46836   0.47947   0.49468   0.50495   0.50969
 Alpha virt. eigenvalues --    0.51787   0.52494   0.52829   0.53825   0.55462
 Alpha virt. eigenvalues --    0.56811   0.57345   0.58900   0.59278   0.59712
 Alpha virt. eigenvalues --    0.60499   0.61449   0.61543   0.63228   0.64116
 Alpha virt. eigenvalues --    0.64811   0.64999   0.65298   0.66738   0.67608
 Alpha virt. eigenvalues --    0.68007   0.68957   0.69911   0.70731   0.71161
 Alpha virt. eigenvalues --    0.73208   0.73923   0.76675   0.76819   0.78120
 Alpha virt. eigenvalues --    0.80167   0.80468   0.83751   0.86333   0.90992
 Alpha virt. eigenvalues --    0.93670   0.96843   0.99289   1.00805   1.02619
 Alpha virt. eigenvalues --    1.06080   1.07627   1.09069   1.10782   1.12545
 Alpha virt. eigenvalues --    1.13065   1.14422   1.17152   1.17453   1.17716
 Alpha virt. eigenvalues --    1.18244   1.20080   1.20740   1.21557   1.23806
 Alpha virt. eigenvalues --    1.25658   1.29131   1.30458   1.37377   1.37786
 Alpha virt. eigenvalues --    1.40117   1.42107   1.42570   1.44914   1.45333
 Alpha virt. eigenvalues --    1.47496   1.48778   1.51262   1.54108   1.55441
 Alpha virt. eigenvalues --    1.59540   1.60420   1.60819   1.61490   1.62631
 Alpha virt. eigenvalues --    1.62807   1.64021   1.64147   1.66147   1.67238
 Alpha virt. eigenvalues --    1.68423   1.68709   1.70722   1.71063   1.71395
 Alpha virt. eigenvalues --    1.73116   1.73608   1.75141   1.76056   1.76540
 Alpha virt. eigenvalues --    1.78043   1.79954   1.82757   1.84139   1.84508
 Alpha virt. eigenvalues --    1.85870   1.87858   1.89182   1.92188   1.94713
 Alpha virt. eigenvalues --    1.95506   1.97921   1.98732   1.99377   2.02371
 Alpha virt. eigenvalues --    2.03290   2.04393   2.05884   2.07307   2.09888
 Alpha virt. eigenvalues --    2.10581   2.10773   2.12542   2.14507   2.14816
 Alpha virt. eigenvalues --    2.17474   2.18274   2.18767   2.20986   2.22488
 Alpha virt. eigenvalues --    2.24594   2.25042   2.27531   2.33456   2.34686
 Alpha virt. eigenvalues --    2.36226   2.38053   2.44770   2.46248   2.47666
 Alpha virt. eigenvalues --    2.50521   2.51021   2.52130   2.53663   2.54470
 Alpha virt. eigenvalues --    2.60133   2.61138   2.62964   2.65366   2.67498
 Alpha virt. eigenvalues --    2.71519   2.78170   2.80502   2.81653   2.82169
 Alpha virt. eigenvalues --    2.83653   2.85154   2.88026   2.89321   2.90012
 Alpha virt. eigenvalues --    2.93554   2.98209   2.98691   3.01043   3.01949
 Alpha virt. eigenvalues --    3.03550   3.14324   3.20325   3.20895   3.28694
 Alpha virt. eigenvalues --    3.35435   3.39046   3.42465   3.45449   3.68183
 Alpha virt. eigenvalues --    3.74758   3.78012
          Condensed to atoms (all electrons):
               1          2          3          4          5          6
     1  C    4.629885   0.449618  -0.096278   0.016694  -0.001990   0.014577
     2  C    0.449618   5.241687   0.273071   0.117456  -0.149820   0.121288
     3  C   -0.096278   0.273071   5.225183   0.214039   0.117835  -0.160130
     4  C    0.016694   0.117456   0.214039   5.197707   0.149431   0.152945
     5  C   -0.001990  -0.149820   0.117835   0.149431   5.372782   0.236785
     6  C    0.014577   0.121288  -0.160130   0.152945   0.236785   5.005611
     7  F   -0.000036   0.004720  -0.000328   0.005193  -0.067898   0.415762
     8  C   -0.090971   0.183460   0.067068  -0.149497   0.020294   0.120740
     9  C   -0.021841  -0.072600   0.023812  -0.003623   0.021947  -0.100460
    10  C    0.004044  -0.013880   0.000055   0.000127  -0.000409  -0.005424
    11  O   -0.007567   0.001432  -0.000467   0.000038  -0.000033  -0.000607
    12  C   -0.000264   0.000513  -0.000008   0.000003  -0.000007  -0.000206
    13  C    0.000015   0.000053   0.000003  -0.000000   0.000004   0.000062
    14  C   -0.000131  -0.000349  -0.000007   0.000003  -0.000014   0.000769
    15  C   -0.000692  -0.003628  -0.000339   0.000066   0.000797  -0.004334
    16  F    0.000076  -0.002383  -0.000030  -0.000000  -0.000161   0.005419
    17  H    0.366513  -0.010435  -0.015359   0.000570   0.000004  -0.000305
    18  H    0.355545   0.001595   0.005395  -0.000680   0.000155  -0.000381
    19  H    0.348686   0.002237   0.001771  -0.000375   0.000035   0.000191
    20  H   -0.019694  -0.069135   0.436516  -0.075956   0.015216  -0.001880
    21  H   -0.000412   0.015220  -0.066638   0.432841  -0.070740   0.013533
    22  H    0.000032  -0.002135   0.014196  -0.073408   0.423603  -0.066087
    23  H   -0.001068   0.012463   0.000256  -0.000206   0.000003  -0.000099
    24  H    0.000008  -0.000017  -0.000000   0.000000  -0.000000   0.000005
    25  H   -0.000001  -0.000000   0.000000  -0.000000   0.000000   0.000000
    26  H   -0.000001   0.000013  -0.000000   0.000000  -0.000001  -0.000027
               7          8          9         10         11         12
     1  C   -0.000036  -0.090971  -0.021841   0.004044  -0.007567  -0.000264
     2  C    0.004720   0.183460  -0.072600  -0.013880   0.001432   0.000513
     3  C   -0.000328   0.067068   0.023812   0.000055  -0.000467  -0.000008
     4  C    0.005193  -0.149497  -0.003623   0.000127   0.000038   0.000003
     5  C   -0.067898   0.020294   0.021947  -0.000409  -0.000033  -0.000007
     6  C    0.415762   0.120740  -0.100460  -0.005424  -0.000607  -0.000206
     7  F    8.877966  -0.104714   0.015179  -0.002372   0.000001  -0.000025
     8  C   -0.104714   6.098389   0.056011  -0.060779  -0.013678   0.017632
     9  C    0.015179   0.056011   6.282086   0.072835  -0.096083   0.014067
    10  C   -0.002372  -0.060779   0.072835   5.109989   0.444682   0.255804
    11  O    0.000001  -0.013678  -0.096083   0.444682   7.559292  -0.077234
    12  C   -0.000025   0.017632   0.014067   0.255804  -0.077234   5.273304
    13  C    0.000002  -0.002343  -0.147417   0.150589   0.004728   0.202517
    14  C   -0.000198   0.022379   0.022911  -0.164868  -0.000158   0.119069
    15  C    0.005026  -0.068729   0.101079   0.165188   0.003673  -0.145526
    16  F   -0.000576   0.013704  -0.102577   0.004407  -0.000002  -0.000287
    17  H    0.000001   0.011784  -0.000114   0.000117   0.000121   0.000013
    18  H    0.000000  -0.014446   0.013576   0.000338  -0.000293  -0.000072
    19  H   -0.000000  -0.015813   0.000117  -0.002935   0.023551  -0.001824
    20  H    0.000003   0.018865  -0.000237  -0.000010  -0.000003  -0.000000
    21  H   -0.000065  -0.001505   0.000045  -0.000001   0.000000   0.000000
    22  H    0.001743   0.021585  -0.000374   0.000008   0.000001  -0.000000
    23  H    0.000065   0.017523  -0.034484  -0.008572   0.320599   0.009858
    24  H    0.000001  -0.000347   0.023774  -0.066564   0.000786   0.426852
    25  H    0.000000   0.000008  -0.002178   0.015580  -0.000081  -0.070407
    26  H    0.000002  -0.000328   0.022734  -0.002365   0.000005   0.014603
              13         14         15         16         17         18
     1  C    0.000015  -0.000131  -0.000692   0.000076   0.366513   0.355545
     2  C    0.000053  -0.000349  -0.003628  -0.002383  -0.010435   0.001595
     3  C    0.000003  -0.000007  -0.000339  -0.000030  -0.015359   0.005395
     4  C   -0.000000   0.000003   0.000066  -0.000000   0.000570  -0.000680
     5  C    0.000004  -0.000014   0.000797  -0.000161   0.000004   0.000155
     6  C    0.000062   0.000769  -0.004334   0.005419  -0.000305  -0.000381
     7  F    0.000002  -0.000198   0.005026  -0.000576   0.000001   0.000000
     8  C   -0.002343   0.022379  -0.068729   0.013704   0.011784  -0.014446
     9  C   -0.147417   0.022911   0.101079  -0.102577  -0.000114   0.013576
    10  C    0.150589  -0.164868   0.165188   0.004407   0.000117   0.000338
    11  O    0.004728  -0.000158   0.003673  -0.000002   0.000121  -0.000293
    12  C    0.202517   0.119069  -0.145526  -0.000287   0.000013  -0.000072
    13  C    5.207396   0.133276   0.159903   0.005126  -0.000001  -0.000015
    14  C    0.133276   5.414466   0.220309  -0.067180  -0.000001   0.000074
    15  C    0.159903   0.220309   4.983138   0.413132   0.000082   0.000040
    16  F    0.005126  -0.067180   0.413132   8.887080   0.000002   0.000080
    17  H   -0.000001  -0.000001   0.000082   0.000002   0.648012  -0.020703
    18  H   -0.000015   0.000074   0.000040   0.000080  -0.020703   0.620905
    19  H    0.000033   0.000147   0.000312   0.000003  -0.018295  -0.019159
    20  H   -0.000000  -0.000000  -0.000006   0.000000   0.008470   0.000252
    21  H   -0.000000   0.000000   0.000000   0.000000   0.000001   0.000010
    22  H    0.000000  -0.000001  -0.000025   0.000003  -0.000001  -0.000001
    23  H   -0.000329  -0.000145   0.000877   0.000003  -0.000021   0.000342
    24  H   -0.080704   0.015043  -0.002629   0.000003  -0.000001  -0.000025
    25  H    0.436906  -0.069810   0.014130  -0.000066   0.000000   0.000001
    26  H   -0.075332   0.426074  -0.068669   0.001554  -0.000000   0.000006
              19         20         21         22         23         24
     1  C    0.348686  -0.019694  -0.000412   0.000032  -0.001068   0.000008
     2  C    0.002237  -0.069135   0.015220  -0.002135   0.012463  -0.000017
     3  C    0.001771   0.436516  -0.066638   0.014196   0.000256  -0.000000
     4  C   -0.000375  -0.075956   0.432841  -0.073408  -0.000206   0.000000
     5  C    0.000035   0.015216  -0.070740   0.423603   0.000003  -0.000000
     6  C    0.000191  -0.001880   0.013533  -0.066087  -0.000099   0.000005
     7  F   -0.000000   0.000003  -0.000065   0.001743   0.000065   0.000001
     8  C   -0.015813   0.018865  -0.001505   0.021585   0.017523  -0.000347
     9  C    0.000117  -0.000237   0.000045  -0.000374  -0.034484   0.023774
    10  C   -0.002935  -0.000010  -0.000001   0.000008  -0.008572  -0.066564
    11  O    0.023551  -0.000003   0.000000   0.000001   0.320599   0.000786
    12  C   -0.001824  -0.000000   0.000000  -0.000000   0.009858   0.426852
    13  C    0.000033  -0.000000  -0.000000   0.000000  -0.000329  -0.080704
    14  C    0.000147  -0.000000   0.000000  -0.000001  -0.000145   0.015043
    15  C    0.000312  -0.000006   0.000000  -0.000025   0.000877  -0.002629
    16  F    0.000003   0.000000   0.000000   0.000003   0.000003   0.000003
    17  H   -0.018295   0.008470   0.000001  -0.000001  -0.000021  -0.000001
    18  H   -0.019159   0.000252   0.000010  -0.000001   0.000342  -0.000025
    19  H    0.640048   0.000541   0.000010  -0.000002  -0.003470   0.000091
    20  H    0.000541   0.706670  -0.012803  -0.000263  -0.000020   0.000000
    21  H    0.000010  -0.012803   0.689960  -0.013148  -0.000003  -0.000000
    22  H   -0.000002  -0.000263  -0.013148   0.681825  -0.000011   0.000000
    23  H   -0.003470  -0.000020  -0.000003  -0.000011   0.492999  -0.000546
    24  H    0.000091   0.000000  -0.000000   0.000000  -0.000546   0.699690
    25  H    0.000000  -0.000000  -0.000000  -0.000000   0.000020  -0.013268
    26  H   -0.000002   0.000000  -0.000000   0.000000  -0.000002  -0.000206
              25         26
     1  C   -0.000001  -0.000001
     2  C   -0.000000   0.000013
     3  C    0.000000  -0.000000
     4  C   -0.000000   0.000000
     5  C    0.000000  -0.000001
     6  C    0.000000  -0.000027
     7  F    0.000000   0.000002
     8  C    0.000008  -0.000328
     9  C   -0.002178   0.022734
    10  C    0.015580  -0.002365
    11  O   -0.000081   0.000005
    12  C   -0.070407   0.014603
    13  C    0.436906  -0.075332
    14  C   -0.069810   0.426074
    15  C    0.014130  -0.068669
    16  F   -0.000066   0.001554
    17  H    0.000000  -0.000000
    18  H    0.000001   0.000006
    19  H    0.000000  -0.000002
    20  H   -0.000000   0.000000
    21  H   -0.000000  -0.000000
    22  H   -0.000000   0.000000
    23  H    0.000020  -0.000002
    24  H   -0.013268  -0.000206
    25  H    0.688906  -0.013277
    26  H   -0.013277   0.690549
 Mulliken charges:
               1
     1  C    0.055254
     2  C   -0.100446
     3  C   -0.039614
     4  C    0.016633
     5  C   -0.067819
     6  C    0.252251
     7  F   -0.149452
     8  C   -0.146292
     9  C   -0.088185
    10  C    0.104414
    11  O   -0.162701
    12  C   -0.038372
    13  C    0.005529
    14  C   -0.071658
    15  C    0.226824
    16  F   -0.157329
    17  H    0.029544
    18  H    0.057458
    19  H    0.044099
    20  H   -0.006527
    21  H    0.013695
    22  H    0.012460
    23  H    0.193970
    24  H   -0.001945
    25  H    0.013537
    26  H    0.004668
 Sum of Mulliken charges =  -0.00000
 Mulliken charges with hydrogens summed into heavy atoms:
               1
     1  C    0.186356
     2  C   -0.100446
     3  C   -0.046141
     4  C    0.030329
     5  C   -0.055359
     6  C    0.252251
     7  F   -0.149452
     8  C   -0.146292
     9  C   -0.088185
    10  C    0.104414
    11  O    0.031269
    12  C   -0.040317
    13  C    0.019066
    14  C   -0.066990
    15  C    0.226824
    16  F   -0.157329
 Electronic spatial extent (au):  <R**2>=           3165.5930
 Charge=             -0.0000 electrons
 Dipole moment (field-independent basis, Debye):
    X=             -1.2525    Y=              0.4808    Z=             -1.2628  Tot=              1.8424
 Quadrupole moment (field-independent basis, Debye-Ang):
   XX=            -77.8290   YY=            -92.7408   ZZ=            -92.2204
   XY=              1.3943   XZ=              2.0633   YZ=             -2.2113
 Traceless Quadrupole moment (field-independent basis, Debye-Ang):
   XX=              9.7677   YY=             -5.1441   ZZ=             -4.6237
   XY=              1.3943   XZ=              2.0633   YZ=             -2.2113
 Octapole moment (field-independent basis, Debye-Ang**2):
  XXX=              3.0111  YYY=             -7.2776  ZZZ=             32.5039  XYY=             -2.3223
  XXY=             -4.3057  XXZ=             15.7445  XZZ=             -5.0755  YZZ=              1.9475
  YYZ=              8.1092  XYZ=             10.0889
 Hexadecapole moment (field-independent basis, Debye-Ang**3):
 XXXX=          -2376.7473 YYYY=           -520.6625 ZZZZ=           -988.8413 XXXY=             26.6913
 XXXZ=            -16.9032 YYYX=             31.0555 YYYZ=             21.0743 ZZZX=              3.2643
 ZZZY=             14.1582 XXYY=           -543.8893 XXZZ=           -580.9067 YYZZ=           -248.8266
 XXYZ=              6.4729 YYXZ=              4.5094 ZZXY=             11.7210
 N-N= 1.079746665853D+03 E-N=-3.970785166943D+03  KE= 7.677463528679D+02

 Test job not archived.
 1\1\GINC-SEMLSCPN042\FOpt\RBP86\def2SVP\C13H10F2O1\KTVF206\23-Jul-2026
 \0\\# opt=calcfc freq bp86 empiricaldispersion=GD3BJ def2svp IOP(1/8=2
 ) nosymm\\example\\0,1\C,-0.7385713041,1.5360050453,-2.0972714569\C,-1
 .4802056396,0.7460690997,-1.0444558615\C,-2.8904513221,0.7195371083,-1
 .0197700063\C,-3.5881765714,0.0211834264,-0.0213272178\C,-2.890385846,
 -0.6700248653,0.9807619745\C,-1.4916553878,-0.6498999486,0.9515575526\
 F,-0.8139999739,-1.3188483881,1.904659913\C,-0.7592658933,0.034606299,
 -0.0415681512\C,0.7280648575,-0.0040722346,-0.026062114\C,1.4394423119
 ,-0.6967836905,-1.0408465332\O,0.7767205729,-1.3571263651,-2.030790735
 6\C,2.8480692277,-0.7168828814,-1.046746002\C,3.5528929395,-0.05685526
 61,-0.0308160529\C,2.8786806955,0.6234681714,0.9990015463\C,1.47989423
 27,0.6317922719,0.9798763152\F,0.812525,1.2877756682,1.9525090995\H,-1
 .4353220971,2.1479019072,-2.7018502621\H,0.0118628038,2.2082499355,-1.
 6328069528\H,-0.1777791518,0.8701823344,-2.7867887335\H,-3.4479012178,
 1.2722211958,-1.7920977513\H,-4.6891933717,0.0187541326,-0.0185324772\
 H,-3.4041279487,-1.2233476484,1.7801823704\H,-0.1819873648,-1.31508239
 89,-1.8204913462\H,3.3650407279,-1.2628371101,-1.8487665083\H,4.653702
 8438,-0.0762127694,-0.0352467736\H,3.4119556992,1.1435402661,1.8069807
 155\\Version=ES64L-G16RevC.02\HF=-775.8002924\RMSD=6.831e-09\RMSF=9.54
 8e-07\Dipole=-0.4927797,0.1891613,-0.4968121\Quadrupole=7.2620499,-3.8
 244753,-3.4375745,1.0366533,1.5340107,-1.6440431\PG=C01 [X(C13H10F2O1)
 ]\\@


 WAR ES EIN GOTT DER DIESE ZEICHEN SCHRIEB?
          - LUDWIG BOLTZMANN, QUOTING GOETHE, ABOUT MAXWELL'S EQUATIONS.
 Job cpu time:       0 days  0 hours 52 minutes 21.3 seconds.
 Elapsed time:       0 days  0 hours  7 minutes  6.2 seconds.
 File lengths (MBytes):  RWF=    233 Int=      0 D2E=      0 Chk=      8 Scr=      1
 Normal termination of Gaussian 16 at Thu Jul 23 13:26:22 2026.
 Link1:  Proceeding to internal job step number  2.
 ----------------------------------------------------------------------
 #N Geom=AllCheck Guess=TCheck SCRF=Check Test GenChk RBP86/def2SVP Fre
 q
 ----------------------------------------------------------------------
 1/10=4,29=7,30=1,38=1,40=1/1,3;
 2/12=2,15=1,40=1/2;
 3/5=43,7=101,11=2,14=-4,25=1,30=1,70=2,71=2,74=404,116=1,124=41,140=1/1,2,3;
 4/5=101/1;
 5/5=2,38=6,98=1/2;
 8/6=4,10=90,11=11/1;
 11/6=1,8=1,9=11,15=111,16=1,31=1/1,2,10;
 10/6=1,31=1/2;
 6/7=2,8=2,9=2,10=2,28=1/1;
 7/8=1,10=1,25=1,30=1/1,2,3,16;
 1/10=4,30=1/3;
 99//99;
 Structure from the checkpoint file:  "path/to/scratch/gaussian_tmp/Gau-2666754.chk"
 -------
 example
 -------
 Charge =  0 Multiplicity = 1
 Redundant internal coordinates found in file.  (old form).
 C,0,-0.7385713041,1.5360050453,-2.0972714569
 C,0,-1.4802056396,0.7460690997,-1.0444558615
 C,0,-2.8904513221,0.7195371083,-1.0197700063
 C,0,-3.5881765714,0.0211834264,-0.0213272178
 C,0,-2.890385846,-0.6700248653,0.9807619745
 C,0,-1.4916553878,-0.6498999486,0.9515575526
 F,0,-0.8139999739,-1.3188483881,1.904659913
 C,0,-0.7592658933,0.034606299,-0.0415681512
 C,0,0.7280648575,-0.0040722346,-0.026062114
 C,0,1.4394423119,-0.6967836905,-1.0408465332
 O,0,0.7767205729,-1.3571263651,-2.0307907356
 C,0,2.8480692277,-0.7168828814,-1.046746002
 C,0,3.5528929395,-0.0568552661,-0.0308160529
 C,0,2.8786806955,0.6234681714,0.9990015463
 C,0,1.4798942327,0.6317922719,0.9798763152
 F,0,0.812525,1.2877756682,1.9525090995
 H,0,-1.4353220971,2.1479019072,-2.7018502621
 H,0,0.0118628038,2.2082499355,-1.6328069528
 H,0,-0.1777791518,0.8701823344,-2.7867887335
 H,0,-3.4479012178,1.2722211958,-1.7920977513
 H,0,-4.6891933717,0.0187541326,-0.0185324772
 H,0,-3.4041279487,-1.2233476484,1.7801823704
 H,0,-0.1819873648,-1.3150823989,-1.8204913462
 H,0,3.3650407279,-1.2628371101,-1.8487665083
 H,0,4.6537028438,-0.0762127694,-0.0352467736
 H,0,3.4119556992,1.1435402661,1.8069807155
 Recover connectivity data from disk.

 GradGradGradGradGradGradGradGradGradGradGradGradGradGradGradGradGradGrad
 Berny optimization.
 Initialization pass.
                           ----------------------------
                           !    Initial Parameters    !
                           ! (Angstroms and Degrees)  !
 --------------------------                            --------------------------
 ! Name  Definition              Value          Derivative Info.                !
 --------------------------------------------------------------------------------
 ! R1    R(1,2)                  1.5108         calculate D2E/DX2 analytically  !
 ! R2    R(1,17)                 1.107          calculate D2E/DX2 analytically  !
 ! R3    R(1,18)                 1.1094         calculate D2E/DX2 analytically  !
 ! R4    R(1,19)                 1.1105         calculate D2E/DX2 analytically  !
 ! R5    R(2,3)                  1.4107         calculate D2E/DX2 analytically  !
 ! R6    R(2,8)                  1.4254         calculate D2E/DX2 analytically  !
 ! R7    R(3,4)                  1.4041         calculate D2E/DX2 analytically  !
 ! R8    R(3,20)                 1.1012         calculate D2E/DX2 analytically  !
 ! R9    R(4,5)                  1.4032         calculate D2E/DX2 analytically  !
 ! R10   R(4,21)                 1.101          calculate D2E/DX2 analytically  !
 ! R11   R(5,6)                  1.3992         calculate D2E/DX2 analytically  !
 ! R12   R(5,22)                 1.0996         calculate D2E/DX2 analytically  !
 ! R13   R(6,7)                  1.3473         calculate D2E/DX2 analytically  !
 ! R14   R(6,8)                  1.4111         calculate D2E/DX2 analytically  !
 ! R15   R(8,9)                  1.4879         calculate D2E/DX2 analytically  !
 ! R16   R(9,10)                 1.4198         calculate D2E/DX2 analytically  !
 ! R17   R(9,15)                 1.4077         calculate D2E/DX2 analytically  !
 ! R18   R(10,11)                1.3621         calculate D2E/DX2 analytically  !
 ! R19   R(10,12)                1.4088         calculate D2E/DX2 analytically  !
 ! R20   R(11,23)                0.9824         calculate D2E/DX2 analytically  !
 ! R21   R(12,13)                1.4016         calculate D2E/DX2 analytically  !
 ! R22   R(12,24)                1.0993         calculate D2E/DX2 analytically  !
 ! R23   R(13,14)                1.4064         calculate D2E/DX2 analytically  !
 ! R24   R(13,25)                1.101          calculate D2E/DX2 analytically  !
 ! R25   R(14,15)                1.3989         calculate D2E/DX2 analytically  !
 ! R26   R(14,26)                1.0989         calculate D2E/DX2 analytically  !
 ! R27   R(15,16)                1.3497         calculate D2E/DX2 analytically  !
 ! A1    A(2,1,17)             111.1396         calculate D2E/DX2 analytically  !
 ! A2    A(2,1,18)             110.9243         calculate D2E/DX2 analytically  !
 ! A3    A(2,1,19)             111.5362         calculate D2E/DX2 analytically  !
 ! A4    A(17,1,18)            108.6303         calculate D2E/DX2 analytically  !
 ! A5    A(17,1,19)            108.0687         calculate D2E/DX2 analytically  !
 ! A6    A(18,1,19)            106.3595         calculate D2E/DX2 analytically  !
 ! A7    A(1,2,3)              120.848          calculate D2E/DX2 analytically  !
 ! A8    A(1,2,8)              120.1991         calculate D2E/DX2 analytically  !
 ! A9    A(3,2,8)              118.9417         calculate D2E/DX2 analytically  !
 ! A10   A(2,3,4)              121.2361         calculate D2E/DX2 analytically  !
 ! A11   A(2,3,20)             118.9685         calculate D2E/DX2 analytically  !
 ! A12   A(4,3,20)             119.7884         calculate D2E/DX2 analytically  !
 ! A13   A(3,4,5)              120.3803         calculate D2E/DX2 analytically  !
 ! A14   A(3,4,21)             119.9888         calculate D2E/DX2 analytically  !
 ! A15   A(5,4,21)             119.6299         calculate D2E/DX2 analytically  !
 ! A16   A(4,5,6)              118.3689         calculate D2E/DX2 analytically  !
 ! A17   A(4,5,22)             122.3259         calculate D2E/DX2 analytically  !
 ! A18   A(6,5,22)             119.3051         calculate D2E/DX2 analytically  !
 ! A19   A(5,6,7)              118.7454         calculate D2E/DX2 analytically  !
 ! A20   A(5,6,8)              122.7187         calculate D2E/DX2 analytically  !
 ! A21   A(7,6,8)              118.5342         calculate D2E/DX2 analytically  !
 ! A22   A(2,8,6)              118.3458         calculate D2E/DX2 analytically  !
 ! A23   A(2,8,9)              121.7286         calculate D2E/DX2 analytically  !
 ! A24   A(6,8,9)              119.9251         calculate D2E/DX2 analytically  !
 ! A25   A(8,9,10)             120.4041         calculate D2E/DX2 analytically  !
 ! A26   A(8,9,15)             121.9782         calculate D2E/DX2 analytically  !
 ! A27   A(10,9,15)            117.6175         calculate D2E/DX2 analytically  !
 ! A28   A(9,10,11)            120.8128         calculate D2E/DX2 analytically  !
 ! A29   A(9,10,12)            120.7276         calculate D2E/DX2 analytically  !
 ! A30   A(11,10,12)           118.4597         calculate D2E/DX2 analytically  !
 ! A31   A(10,11,23)           107.3668         calculate D2E/DX2 analytically  !
 ! A32   A(10,12,13)           119.5416         calculate D2E/DX2 analytically  !
 ! A33   A(10,12,24)           118.7077         calculate D2E/DX2 analytically  !
 ! A34   A(13,12,24)           121.7476         calculate D2E/DX2 analytically  !
 ! A35   A(12,13,14)           121.163          calculate D2E/DX2 analytically  !
 ! A36   A(12,13,25)           119.4449         calculate D2E/DX2 analytically  !
 ! A37   A(14,13,25)           119.391          calculate D2E/DX2 analytically  !
 ! A38   A(13,14,15)           118.1777         calculate D2E/DX2 analytically  !
 ! A39   A(13,14,26)           122.3211         calculate D2E/DX2 analytically  !
 ! A40   A(15,14,26)           119.5011         calculate D2E/DX2 analytically  !
 ! A41   A(9,15,14)            122.7602         calculate D2E/DX2 analytically  !
 ! A42   A(9,15,16)            118.0622         calculate D2E/DX2 analytically  !
 ! A43   A(14,15,16)           119.1725         calculate D2E/DX2 analytically  !
 ! D1    D(17,1,2,3)             7.3464         calculate D2E/DX2 analytically  !
 ! D2    D(17,1,2,8)          -171.4308         calculate D2E/DX2 analytically  !
 ! D3    D(18,1,2,3)           128.3127         calculate D2E/DX2 analytically  !
 ! D4    D(18,1,2,8)           -50.4646         calculate D2E/DX2 analytically  !
 ! D5    D(19,1,2,3)          -113.3232         calculate D2E/DX2 analytically  !
 ! D6    D(19,1,2,8)            67.8996         calculate D2E/DX2 analytically  !
 ! D7    D(1,2,3,4)           -178.0584         calculate D2E/DX2 analytically  !
 ! D8    D(1,2,3,20)             0.9754         calculate D2E/DX2 analytically  !
 ! D9    D(8,2,3,4)              0.734          calculate D2E/DX2 analytically  !
 ! D10   D(8,2,3,20)           179.7678         calculate D2E/DX2 analytically  !
 ! D11   D(1,2,8,6)            177.7052         calculate D2E/DX2 analytically  !
 ! D12   D(1,2,8,9)             -2.5631         calculate D2E/DX2 analytically  !
 ! D13   D(3,2,8,6)             -1.0952         calculate D2E/DX2 analytically  !
 ! D14   D(3,2,8,9)            178.6365         calculate D2E/DX2 analytically  !
 ! D15   D(2,3,4,5)              0.0154         calculate D2E/DX2 analytically  !
 ! D16   D(2,3,4,21)           179.6627         calculate D2E/DX2 analytically  !
 ! D17   D(20,3,4,5)          -179.0106         calculate D2E/DX2 analytically  !
 ! D18   D(20,3,4,21)            0.6367         calculate D2E/DX2 analytically  !
 ! D19   D(3,4,5,6)             -0.3769         calculate D2E/DX2 analytically  !
 ! D20   D(3,4,5,22)           179.7207         calculate D2E/DX2 analytically  !
 ! D21   D(21,4,5,6)           179.9745         calculate D2E/DX2 analytically  !
 ! D22   D(21,4,5,22)            0.0722         calculate D2E/DX2 analytically  !
 ! D23   D(4,5,6,7)           -179.5396         calculate D2E/DX2 analytically  !
 ! D24   D(4,5,6,8)             -0.0199         calculate D2E/DX2 analytically  !
 ! D25   D(22,5,6,7)             0.3658         calculate D2E/DX2 analytically  !
 ! D26   D(22,5,6,8)           179.8855         calculate D2E/DX2 analytically  !
 ! D27   D(5,6,8,2)              0.7606         calculate D2E/DX2 analytically  !
 ! D28   D(5,6,8,9)           -178.9761         calculate D2E/DX2 analytically  !
 ! D29   D(7,6,8,2)           -179.7187         calculate D2E/DX2 analytically  !
 ! D30   D(7,6,8,9)              0.5446         calculate D2E/DX2 analytically  !
 ! D31   D(2,8,9,10)           -68.2283         calculate D2E/DX2 analytically  !
 ! D32   D(2,8,9,15)           111.8878         calculate D2E/DX2 analytically  !
 ! D33   D(6,8,9,10)           111.4992         calculate D2E/DX2 analytically  !
 ! D34   D(6,8,9,15)           -68.3847         calculate D2E/DX2 analytically  !
 ! D35   D(8,9,10,11)           -1.1934         calculate D2E/DX2 analytically  !
 ! D36   D(8,9,10,12)          178.8112         calculate D2E/DX2 analytically  !
 ! D37   D(15,9,10,11)         178.6954         calculate D2E/DX2 analytically  !
 ! D38   D(15,9,10,12)          -1.3            calculate D2E/DX2 analytically  !
 ! D39   D(8,9,15,14)         -178.9798         calculate D2E/DX2 analytically  !
 ! D40   D(8,9,15,16)            0.1862         calculate D2E/DX2 analytically  !
 ! D41   D(10,9,15,14)           1.1333         calculate D2E/DX2 analytically  !
 ! D42   D(10,9,15,16)        -179.7007         calculate D2E/DX2 analytically  !
 ! D43   D(9,10,11,23)          -5.6179         calculate D2E/DX2 analytically  !
 ! D44   D(12,10,11,23)        174.3777         calculate D2E/DX2 analytically  !
 ! D45   D(9,10,12,13)           0.6719         calculate D2E/DX2 analytically  !
 ! D46   D(9,10,12,24)        -179.9506         calculate D2E/DX2 analytically  !
 ! D47   D(11,10,12,13)       -179.3236         calculate D2E/DX2 analytically  !
 ! D48   D(11,10,12,24)          0.0539         calculate D2E/DX2 analytically  !
 ! D49   D(10,12,13,14)          0.1876         calculate D2E/DX2 analytically  !
 ! D50   D(10,12,13,25)        179.8118         calculate D2E/DX2 analytically  !
 ! D51   D(24,12,13,14)       -179.1703         calculate D2E/DX2 analytically  !
 ! D52   D(24,12,13,25)          0.4539         calculate D2E/DX2 analytically  !
 ! D53   D(12,13,14,15)         -0.3692         calculate D2E/DX2 analytically  !
 ! D54   D(12,13,14,26)        179.7381         calculate D2E/DX2 analytically  !
 ! D55   D(25,13,14,15)       -179.9937         calculate D2E/DX2 analytically  !
 ! D56   D(25,13,14,26)          0.1136         calculate D2E/DX2 analytically  !
 ! D57   D(13,14,15,9)          -0.3139         calculate D2E/DX2 analytically  !
 ! D58   D(13,14,15,16)       -179.471          calculate D2E/DX2 analytically  !
 ! D59   D(26,14,15,9)         179.5819         calculate D2E/DX2 analytically  !
 ! D60   D(26,14,15,16)          0.4248         calculate D2E/DX2 analytically  !
 --------------------------------------------------------------------------------
 Trust Radius=3.00D-01 FncErr=1.00D-07 GrdErr=1.00D-07 EigMax=2.50D+02 EigMin=1.00D-04
 Number of steps in this run=      2 maximum allowed number of steps=      2.
 GradGradGradGradGradGradGradGradGradGradGradGradGradGradGradGradGradGrad

                          Input orientation:                          
 ---------------------------------------------------------------------
 Center     Atomic      Atomic             Coordinates (Angstroms)
 Number     Number       Type             X           Y           Z
 ---------------------------------------------------------------------
      1          6           0       -0.738571    1.536005   -2.097271
      2          6           0       -1.480206    0.746069   -1.044456
      3          6           0       -2.890451    0.719537   -1.019770
      4          6           0       -3.588177    0.021183   -0.021327
      5          6           0       -2.890386   -0.670025    0.980762
      6          6           0       -1.491655   -0.649900    0.951558
      7          9           0       -0.814000   -1.318848    1.904660
      8          6           0       -0.759266    0.034606   -0.041568
      9          6           0        0.728065   -0.004072   -0.026062
     10          6           0        1.439442   -0.696784   -1.040847
     11          8           0        0.776721   -1.357126   -2.030791
     12          6           0        2.848069   -0.716883   -1.046746
     13          6           0        3.552893   -0.056855   -0.030816
     14          6           0        2.878681    0.623468    0.999002
     15          6           0        1.479894    0.631792    0.979876
     16          9           0        0.812525    1.287776    1.952509
     17          1           0       -1.435322    2.147902   -2.701850
     18          1           0        0.011863    2.208250   -1.632807
     19          1           0       -0.177779    0.870182   -2.786789
     20          1           0       -3.447901    1.272221   -1.792098
     21          1           0       -4.689193    0.018754   -0.018532
     22          1           0       -3.404128   -1.223348    1.780182
     23          1           0       -0.181987   -1.315082   -1.820491
     24          1           0        3.365041   -1.262837   -1.848767
     25          1           0        4.653703   -0.076213   -0.035247
     26          1           0        3.411956    1.143540    1.806981
 ---------------------------------------------------------------------
                    Distance matrix (angstroms):
                    1          2          3          4          5
     1  C    0.000000
     2  C    1.510775   0.000000
     3  C    2.541302   1.410711   0.000000
     4  C    3.837249   2.452711   1.404068   0.000000
     5  C    4.355590   2.845248   2.435777   1.403162   0.000000
     6  C    3.826313   2.435761   2.778151   2.406711   1.399180
     7  F    4.916435   3.661284   4.125404   3.633341   2.363459
     8  C    2.545691   1.425383   2.442941   2.829015   2.466442
     9  C    2.968631   2.544857   3.821613   4.316318   3.814495
    10  C    3.293193   3.256713   4.555698   5.179947   4.778601
    11  O    3.266610   3.238828   4.333918   4.999001   4.794708
    12  C    4.363840   4.568829   5.915627   6.559077   6.086284
    13  C    5.022361   5.196560   6.564869   7.141502   6.550962
    14  C    4.848107   4.815666   6.112900   6.574501   5.912325
    15  C    3.899747   3.587920   4.806891   5.201980   4.560052
    16  F    4.343759   3.812068   4.782193   4.986628   4.299863
    17  H    1.106976   2.171199   2.643297   4.042637   4.859995
    18  H    1.109411   2.170345   3.318962   4.510034   4.851624
    19  H    1.110514   2.178863   3.240932   4.472067   4.891310
    20  H    2.739194   2.169707   1.101227   2.172648   3.431019
    21  H    4.714936   3.446608   2.174637   1.101023   2.169957
    22  H    5.454711   3.944447   3.446505   2.197309   1.099623
    23  H    2.918063   2.556550   3.480892   4.077343   3.949499
    24  H    4.973420   5.306508   6.614244   7.303114   6.891155
    25  H    5.993981   6.270525   7.649625   8.242467   7.635323
    26  H    5.711750   5.676435   6.920306   7.321492   6.609929
                    6          7          8          9         10
     6  C    0.000000
     7  F    1.347261   0.000000
     8  C    1.411114   2.371210   0.000000
     9  C    2.509978   2.798980   1.487914   0.000000
    10  C    3.544461   3.760449   2.523451   1.419752   0.000000
    11  O    3.813148   4.244953   2.872835   2.419103   1.362073
    12  C    4.778171   4.741720   3.819422   2.458518   1.408783
    13  C    5.173415   4.940491   4.313142   2.825325   2.428239
    14  C    4.552313   4.269508   3.829386   2.463678   2.824084
    15  C    3.236301   3.149948   2.532552   1.407652   2.418692
    16  F    3.172655   3.072843   2.831484   2.364476   3.645776
    17  H    4.601984   5.798649   3.464126   4.058458   4.372121
    18  H    4.136246   5.063215   2.802036   2.826472   3.290535
    19  H    4.244073   5.215968   2.927892   3.034219   2.849404
    20  H    3.879316   5.226576   3.438721   4.710255   5.322357
    21  H    3.407700   4.528242   3.930027   5.417312   6.254382
    22  H    2.161715   2.594875   3.449133   4.671635   5.629889
    23  H    3.137189   3.778387   2.306399   2.401441   1.902413
    24  H    5.639593   5.617449   4.686068   3.443891   2.163580
    25  H    6.250466   5.933225   5.414107   3.926312   3.424589
    26  H    5.290896   4.891994   4.695312   3.446786   3.922719
                   11         12         13         14         15
    11  O    0.000000
    12  C    2.380912   0.000000
    13  C    3.660292   1.401616   0.000000
    14  C    4.185765   2.445927   1.406388   0.000000
    15  C    3.676189   2.792494   2.406877   1.398942   0.000000
    16  F    4.781576   4.142177   3.640224   2.370544   1.349708
    17  H    4.198652   5.412375   6.072699   5.884796   4.934793
    18  H    3.668148   4.116301   4.498441   4.201975   3.386215
    19  H    2.538406   3.834356   4.729979   4.871860   4.122193
    20  H    4.981754   6.644647   7.340278   6.945268   5.690093
    21  H    5.984851   7.642559   8.242442   7.659881   6.279353
    22  H    5.658702   6.880262   7.282895   6.595048   5.285424
    23  H    0.982402   3.183986   4.328441   4.590774   3.793973
    24  H    2.596425   1.099346   2.189663   3.450286   3.891609
    25  H    4.544659   2.166541   1.100989   2.170237   3.406583
    26  H    5.284533   3.452955   2.199616   1.098948   2.163065
                   16         17         18         19         20
    16  F    0.000000
    17  H    5.239818   0.000000
    18  H    3.787192   1.800233   0.000000
    19  H    4.859633   1.794769   1.777094   0.000000
    20  H    5.672174   2.375908   3.587686   3.441619   0.000000
    21  H    5.980328   4.724526   5.431363   5.361066   2.501503
    22  H    4.910764   5.943916   5.923964   5.970713   4.357862
    23  H    4.690358   3.786806   3.533649   2.389379   4.166670
    24  H    5.241246   5.950158   4.831034   4.240428   7.269519
    25  H    4.535007   7.009542   5.414577   5.640024   8.398856
    26  H    2.607493   6.695850   4.952411   5.836406   7.747746
                   21         22         23         24         25
    21  H    0.000000
    22  H    2.535663   0.000000
    23  H    5.033993   4.832748   0.000000
    24  H    8.358404   7.680656   3.547526   0.000000
    25  H    9.343394   8.339085   5.301490   2.521424   0.000000
    26  H    8.380111   7.215391   5.667434   4.376910   2.534469
                   26
    26  H    0.000000
 Symmetry turned off by external request.
 Stoichiometry    C13H10F2O
 Framework group  C1[X(C13H10F2O)]
 Deg. of freedom    72
 Full point group                 C1      NOp   1
 Rotational constants (GHZ):           0.8752553           0.4432608           0.3751290
 Standard basis: def2SVP (5D, 7F)
   274 basis functions,   470 primitive gaussians,   290 cartesian basis functions
    57 alpha electrons       57 beta electrons
       nuclear repulsion energy      1079.7998729749 Hartrees.
 NAtoms=   26 NActive=   26 NUniq=   26 SFac= 1.00D+00 NAtFMM=   60 NAOKFM=F Big=F
 Integral buffers will be    131072 words long.
 Raffenetti 2 integral format.
 Two-electron integral symmetry is turned off.
 Nuclear repulsion after empirical dispersion term =     1079.7466658528 Hartrees.
 One-electron integrals computed using PRISM.
   1 Symmetry operations used in ECPInt.
 ECPInt:  NShTT=    8001 NPrTT=   29641 LenC2=    7678 LenP2D=   20636.
 LDataN:  DoStor=T MaxTD1= 4 Len=   56
 NBasis=   274 RedAO= T EigKep=  2.31D-04  NBF=   274
 NBsUse=   274 1.00D-06 EigRej= -1.00D+00 NBFU=   274
 Initial guess from the checkpoint file:  "path/to/scratch/gaussian_tmp/Gau-2666754.chk"
 B after Tr=     0.000000    0.000000    0.000000
         Rot=    1.000000    0.000000    0.000000    0.000000 Ang=   0.00 deg.
 Requested convergence on RMS density matrix=1.00D-08 within 128 cycles.
 Requested convergence on MAX density matrix=1.00D-06.
 Requested convergence on             energy=1.00D-06.
 No special actions if energy rises.
 SCF Done:  E(RB-P86) =  -775.800292437     A.U. after    1 cycles
            NFock=  1  Conv=0.84D-08     -V/T= 2.0105
 DoSCS=F DFT=T ScalE2(SS,OS)=  1.000000  1.000000
 Range of M.O.s used for correlation:     1   274
 NBasis=   274 NAE=    57 NBE=    57 NFC=     0 NFV=     0
 NROrb=    274 NOA=    57 NOB=    57 NVA=   217 NVB=   217

 **** Warning!!: The largest alpha MO coefficient is  0.12505635D+02

   1 Symmetry operations used in ECPInt.
 ECPInt:  NShTT=    8001 NPrTT=   29641 LenC2=    7678 LenP2D=   20636.
 LDataN:  DoStor=T MaxTD1= 5 Len=  102
 Symmetrizing basis deriv contribution to polar:
 IMax=3 JMax=2 DiffMx= 0.00D+00
 G2DrvN: will do    27 centers at a time, making    1 passes.
 Calling FoFCou, ICntrl=  3507 FMM=F I1Cent=   0 AccDes= 0.00D+00.
 End of G2Drv F.D. properties file   721 does not exist.
 End of G2Drv F.D. properties file   722 does not exist.
 End of G2Drv F.D. properties file   788 does not exist.
          IDoAtm=11111111111111111111111111
          Differentiating once with respect to electric field.
                with respect to dipole field.
          Differentiating once with respect to nuclear coordinates.
 Keep J ints in memory in canonical form, NReq=722055369.
          There are    81 degrees of freedom in the 1st order CPHF.  IDoFFX=6 NUNeed=     3.
     78 vectors produced by pass  0 Test12= 1.53D-14 1.23D-09 XBig12= 3.87D+02 9.82D+00.
 AX will form    78 AO Fock derivatives at one time.
     78 vectors produced by pass  1 Test12= 1.53D-14 1.23D-09 XBig12= 1.05D+02 1.70D+00.
     78 vectors produced by pass  2 Test12= 1.53D-14 1.23D-09 XBig12= 7.22D-01 8.55D-02.
     78 vectors produced by pass  3 Test12= 1.53D-14 1.23D-09 XBig12= 2.42D-03 4.86D-03.
     77 vectors produced by pass  4 Test12= 1.53D-14 1.23D-09 XBig12= 1.42D-06 9.10D-05.
     26 vectors produced by pass  5 Test12= 1.53D-14 1.23D-09 XBig12= 2.24D-10 1.19D-06.
      3 vectors produced by pass  6 Test12= 1.53D-14 1.23D-09 XBig12= 3.32D-14 1.02D-08.
 InvSVY:  IOpt=1 It=  1 EMax= 1.42D-14
 Solved reduced A of dimension   418 with    81 vectors.
 Isotropic polarizability for W=    0.000000      144.56 Bohr**3.
 End of Minotr F.D. properties file   721 does not exist.
 End of Minotr F.D. properties file   722 does not exist.
 End of Minotr F.D. properties file   788 does not exist.

 **********************************************************************

            Population analysis using the SCF Density.

 **********************************************************************

 Alpha  occ. eigenvalues --  -24.30566 -24.29993 -18.81921 -10.00641  -9.99952
 Alpha  occ. eigenvalues --   -9.98476  -9.94664  -9.94393  -9.93717  -9.93386
 Alpha  occ. eigenvalues --   -9.93225  -9.92995  -9.92909  -9.92438  -9.91950
 Alpha  occ. eigenvalues --   -9.91814  -1.11313  -1.10598  -0.97236  -0.79668
 Alpha  occ. eigenvalues --   -0.77405  -0.71837  -0.69953  -0.67002  -0.65959
 Alpha  occ. eigenvalues --   -0.62848  -0.58271  -0.55583  -0.54653  -0.54417
 Alpha  occ. eigenvalues --   -0.50532  -0.48802  -0.47401  -0.45772  -0.45155
 Alpha  occ. eigenvalues --   -0.42912  -0.42679  -0.41458  -0.40693  -0.39642
 Alpha  occ. eigenvalues --   -0.38647  -0.38308  -0.37426  -0.36774  -0.36138
 Alpha  occ. eigenvalues --   -0.34843  -0.33945  -0.33511  -0.32317  -0.31988
 Alpha  occ. eigenvalues --   -0.31493  -0.30465  -0.29475  -0.24638  -0.23038
 Alpha  occ. eigenvalues --   -0.22080  -0.20482
 Alpha virt. eigenvalues --   -0.06775  -0.04865  -0.03967  -0.03058   0.03219
 Alpha virt. eigenvalues --    0.03607   0.04726   0.06251   0.07697   0.08663
 Alpha virt. eigenvalues --    0.09239   0.10030   0.10343   0.10840   0.11444
 Alpha virt. eigenvalues --    0.12533   0.12748   0.13559   0.17634   0.19089
 Alpha virt. eigenvalues --    0.21094   0.23256   0.24106   0.24757   0.25961
 Alpha virt. eigenvalues --    0.26995   0.27744   0.29134   0.29549   0.30063
 Alpha virt. eigenvalues --    0.32795   0.34659   0.35364   0.36963   0.37460
 Alpha virt. eigenvalues --    0.39090   0.39407   0.40075   0.40888   0.41851
 Alpha virt. eigenvalues --    0.42243   0.42791   0.43554   0.46004   0.46108
 Alpha virt. eigenvalues --    0.46836   0.47946   0.49467   0.50495   0.50969
 Alpha virt. eigenvalues --    0.51787   0.52494   0.52829   0.53825   0.55462
 Alpha virt. eigenvalues --    0.56811   0.57345   0.58900   0.59278   0.59712
 Alpha virt. eigenvalues --    0.60499   0.61449   0.61543   0.63228   0.64116
 Alpha virt. eigenvalues --    0.64811   0.64999   0.65298   0.66738   0.67608
 Alpha virt. eigenvalues --    0.68007   0.68957   0.69911   0.70731   0.71161
 Alpha virt. eigenvalues --    0.73208   0.73923   0.76675   0.76819   0.78120
 Alpha virt. eigenvalues --    0.80167   0.80468   0.83751   0.86333   0.90992
 Alpha virt. eigenvalues --    0.93670   0.96843   0.99289   1.00805   1.02619
 Alpha virt. eigenvalues --    1.06080   1.07627   1.09069   1.10782   1.12545
 Alpha virt. eigenvalues --    1.13065   1.14422   1.17152   1.17453   1.17716
 Alpha virt. eigenvalues --    1.18244   1.20080   1.20740   1.21557   1.23806
 Alpha virt. eigenvalues --    1.25658   1.29131   1.30458   1.37377   1.37786
 Alpha virt. eigenvalues --    1.40117   1.42107   1.42570   1.44914   1.45333
 Alpha virt. eigenvalues --    1.47496   1.48778   1.51262   1.54108   1.55441
 Alpha virt. eigenvalues --    1.59540   1.60420   1.60819   1.61490   1.62631
 Alpha virt. eigenvalues --    1.62807   1.64021   1.64147   1.66147   1.67238
 Alpha virt. eigenvalues --    1.68423   1.68709   1.70722   1.71063   1.71395
 Alpha virt. eigenvalues --    1.73116   1.73608   1.75141   1.76056   1.76540
 Alpha virt. eigenvalues --    1.78043   1.79954   1.82757   1.84139   1.84508
 Alpha virt. eigenvalues --    1.85870   1.87858   1.89182   1.92188   1.94713
 Alpha virt. eigenvalues --    1.95506   1.97921   1.98732   1.99377   2.02371
 Alpha virt. eigenvalues --    2.03290   2.04393   2.05884   2.07307   2.09888
 Alpha virt. eigenvalues --    2.10581   2.10773   2.12542   2.14507   2.14816
 Alpha virt. eigenvalues --    2.17474   2.18274   2.18767   2.20986   2.22488
 Alpha virt. eigenvalues --    2.24594   2.25042   2.27531   2.33456   2.34686
 Alpha virt. eigenvalues --    2.36226   2.38053   2.44770   2.46248   2.47666
 Alpha virt. eigenvalues --    2.50521   2.51021   2.52130   2.53663   2.54470
 Alpha virt. eigenvalues --    2.60133   2.61138   2.62964   2.65366   2.67498
 Alpha virt. eigenvalues --    2.71519   2.78170   2.80502   2.81653   2.82169
 Alpha virt. eigenvalues --    2.83653   2.85154   2.88026   2.89321   2.90012
 Alpha virt. eigenvalues --    2.93554   2.98209   2.98691   3.01043   3.01949
 Alpha virt. eigenvalues --    3.03549   3.14324   3.20325   3.20895   3.28694
 Alpha virt. eigenvalues --    3.35435   3.39046   3.42465   3.45449   3.68183
 Alpha virt. eigenvalues --    3.74758   3.78012
          Condensed to atoms (all electrons):
               1          2          3          4          5          6
     1  C    4.629885   0.449618  -0.096278   0.016694  -0.001990   0.014577
     2  C    0.449618   5.241687   0.273071   0.117456  -0.149820   0.121287
     3  C   -0.096278   0.273071   5.225182   0.214039   0.117835  -0.160130
     4  C    0.016694   0.117456   0.214039   5.197705   0.149431   0.152945
     5  C   -0.001990  -0.149820   0.117835   0.149431   5.372781   0.236785
     6  C    0.014577   0.121287  -0.160130   0.152945   0.236785   5.005613
     7  F   -0.000036   0.004720  -0.000328   0.005193  -0.067898   0.415762
     8  C   -0.090971   0.183460   0.067068  -0.149497   0.020294   0.120740
     9  C   -0.021840  -0.072600   0.023812  -0.003623   0.021947  -0.100460
    10  C    0.004044  -0.013880   0.000055   0.000127  -0.000409  -0.005424
    11  O   -0.007567   0.001432  -0.000467   0.000038  -0.000033  -0.000607
    12  C   -0.000264   0.000513  -0.000008   0.000003  -0.000007  -0.000206
    13  C    0.000015   0.000053   0.000003  -0.000000   0.000004   0.000062
    14  C   -0.000131  -0.000349  -0.000007   0.000003  -0.000014   0.000769
    15  C   -0.000692  -0.003628  -0.000339   0.000066   0.000797  -0.004334
    16  F    0.000076  -0.002383  -0.000030  -0.000000  -0.000161   0.005419
    17  H    0.366513  -0.010435  -0.015359   0.000570   0.000004  -0.000305
    18  H    0.355545   0.001595   0.005395  -0.000680   0.000155  -0.000381
    19  H    0.348686   0.002237   0.001771  -0.000375   0.000035   0.000191
    20  H   -0.019694  -0.069135   0.436516  -0.075956   0.015216  -0.001880
    21  H   -0.000412   0.015220  -0.066639   0.432841  -0.070740   0.013533
    22  H    0.000032  -0.002135   0.014196  -0.073408   0.423603  -0.066087
    23  H   -0.001068   0.012463   0.000256  -0.000206   0.000003  -0.000099
    24  H    0.000008  -0.000017  -0.000000   0.000000  -0.000000   0.000005
    25  H   -0.000001  -0.000000   0.000000  -0.000000   0.000000   0.000000
    26  H   -0.000001   0.000013  -0.000000   0.000000  -0.000001  -0.000027
               7          8          9         10         11         12
     1  C   -0.000036  -0.090971  -0.021840   0.004044  -0.007567  -0.000264
     2  C    0.004720   0.183460  -0.072600  -0.013880   0.001432   0.000513
     3  C   -0.000328   0.067068   0.023812   0.000055  -0.000467  -0.000008
     4  C    0.005193  -0.149497  -0.003623   0.000127   0.000038   0.000003
     5  C   -0.067898   0.020294   0.021947  -0.000409  -0.000033  -0.000007
     6  C    0.415762   0.120740  -0.100460  -0.005424  -0.000607  -0.000206
     7  F    8.877966  -0.104715   0.015179  -0.002372   0.000001  -0.000025
     8  C   -0.104715   6.098392   0.056011  -0.060779  -0.013678   0.017632
     9  C    0.015179   0.056011   6.282087   0.072835  -0.096083   0.014067
    10  C   -0.002372  -0.060779   0.072835   5.109990   0.444682   0.255804
    11  O    0.000001  -0.013678  -0.096083   0.444682   7.559292  -0.077234
    12  C   -0.000025   0.017632   0.014067   0.255804  -0.077234   5.273302
    13  C    0.000002  -0.002343  -0.147417   0.150589   0.004728   0.202517
    14  C   -0.000198   0.022379   0.022911  -0.164868  -0.000158   0.119069
    15  C    0.005026  -0.068729   0.101079   0.165188   0.003673  -0.145526
    16  F   -0.000576   0.013704  -0.102577   0.004407  -0.000002  -0.000287
    17  H    0.000001   0.011785  -0.000114   0.000117   0.000121   0.000013
    18  H    0.000000  -0.014446   0.013576   0.000338  -0.000293  -0.000072
    19  H   -0.000000  -0.015813   0.000117  -0.002935   0.023551  -0.001824
    20  H    0.000003   0.018865  -0.000237  -0.000010  -0.000003  -0.000000
    21  H   -0.000065  -0.001505   0.000045  -0.000001   0.000000   0.000000
    22  H    0.001743   0.021585  -0.000374   0.000008   0.000001  -0.000000
    23  H    0.000065   0.017523  -0.034484  -0.008572   0.320599   0.009858
    24  H    0.000001  -0.000347   0.023774  -0.066564   0.000786   0.426852
    25  H    0.000000   0.000008  -0.002178   0.015580  -0.000081  -0.070407
    26  H    0.000002  -0.000328   0.022734  -0.002365   0.000005   0.014603
              13         14         15         16         17         18
     1  C    0.000015  -0.000131  -0.000692   0.000076   0.366513   0.355545
     2  C    0.000053  -0.000349  -0.003628  -0.002383  -0.010435   0.001595
     3  C    0.000003  -0.000007  -0.000339  -0.000030  -0.015359   0.005395
     4  C   -0.000000   0.000003   0.000066  -0.000000   0.000570  -0.000680
     5  C    0.000004  -0.000014   0.000797  -0.000161   0.000004   0.000155
     6  C    0.000062   0.000769  -0.004334   0.005419  -0.000305  -0.000381
     7  F    0.000002  -0.000198   0.005026  -0.000576   0.000001   0.000000
     8  C   -0.002343   0.022379  -0.068729   0.013704   0.011785  -0.014446
     9  C   -0.147417   0.022911   0.101079  -0.102577  -0.000114   0.013576
    10  C    0.150589  -0.164868   0.165188   0.004407   0.000117   0.000338
    11  O    0.004728  -0.000158   0.003673  -0.000002   0.000121  -0.000293
    12  C    0.202517   0.119069  -0.145526  -0.000287   0.000013  -0.000072
    13  C    5.207394   0.133276   0.159903   0.005126  -0.000001  -0.000015
    14  C    0.133276   5.414465   0.220309  -0.067180  -0.000001   0.000074
    15  C    0.159903   0.220309   4.983140   0.413132   0.000082   0.000040
    16  F    0.005126  -0.067180   0.413132   8.887080   0.000002   0.000080
    17  H   -0.000001  -0.000001   0.000082   0.000002   0.648012  -0.020703
    18  H   -0.000015   0.000074   0.000040   0.000080  -0.020703   0.620905
    19  H    0.000033   0.000147   0.000312   0.000003  -0.018295  -0.019159
    20  H   -0.000000  -0.000000  -0.000006   0.000000   0.008470   0.000252
    21  H   -0.000000   0.000000   0.000000   0.000000   0.000001   0.000010
    22  H    0.000000  -0.000001  -0.000025   0.000003  -0.000001  -0.000001
    23  H   -0.000329  -0.000145   0.000877   0.000003  -0.000021   0.000342
    24  H   -0.080704   0.015043  -0.002629   0.000003  -0.000001  -0.000025
    25  H    0.436906  -0.069810   0.014130  -0.000066   0.000000   0.000001
    26  H   -0.075332   0.426074  -0.068669   0.001554  -0.000000   0.000006
              19         20         21         22         23         24
     1  C    0.348686  -0.019694  -0.000412   0.000032  -0.001068   0.000008
     2  C    0.002237  -0.069135   0.015220  -0.002135   0.012463  -0.000017
     3  C    0.001771   0.436516  -0.066639   0.014196   0.000256  -0.000000
     4  C   -0.000375  -0.075956   0.432841  -0.073408  -0.000206   0.000000
     5  C    0.000035   0.015216  -0.070740   0.423603   0.000003  -0.000000
     6  C    0.000191  -0.001880   0.013533  -0.066087  -0.000099   0.000005
     7  F   -0.000000   0.000003  -0.000065   0.001743   0.000065   0.000001
     8  C   -0.015813   0.018865  -0.001505   0.021585   0.017523  -0.000347
     9  C    0.000117  -0.000237   0.000045  -0.000374  -0.034484   0.023774
    10  C   -0.002935  -0.000010  -0.000001   0.000008  -0.008572  -0.066564
    11  O    0.023551  -0.000003   0.000000   0.000001   0.320599   0.000786
    12  C   -0.001824  -0.000000   0.000000  -0.000000   0.009858   0.426852
    13  C    0.000033  -0.000000  -0.000000   0.000000  -0.000329  -0.080704
    14  C    0.000147  -0.000000   0.000000  -0.000001  -0.000145   0.015043
    15  C    0.000312  -0.000006   0.000000  -0.000025   0.000877  -0.002629
    16  F    0.000003   0.000000   0.000000   0.000003   0.000003   0.000003
    17  H   -0.018295   0.008470   0.000001  -0.000001  -0.000021  -0.000001
    18  H   -0.019159   0.000252   0.000010  -0.000001   0.000342  -0.000025
    19  H    0.640048   0.000541   0.000010  -0.000002  -0.003470   0.000091
    20  H    0.000541   0.706670  -0.012803  -0.000263  -0.000020   0.000000
    21  H    0.000010  -0.012803   0.689960  -0.013148  -0.000003  -0.000000
    22  H   -0.000002  -0.000263  -0.013148   0.681825  -0.000011   0.000000
    23  H   -0.003470  -0.000020  -0.000003  -0.000011   0.492999  -0.000546
    24  H    0.000091   0.000000  -0.000000   0.000000  -0.000546   0.699690
    25  H    0.000000  -0.000000  -0.000000  -0.000000   0.000020  -0.013268
    26  H   -0.000002   0.000000  -0.000000   0.000000  -0.000002  -0.000206
              25         26
     1  C   -0.000001  -0.000001
     2  C   -0.000000   0.000013
     3  C    0.000000  -0.000000
     4  C   -0.000000   0.000000
     5  C    0.000000  -0.000001
     6  C    0.000000  -0.000027
     7  F    0.000000   0.000002
     8  C    0.000008  -0.000328
     9  C   -0.002178   0.022734
    10  C    0.015580  -0.002365
    11  O   -0.000081   0.000005
    12  C   -0.070407   0.014603
    13  C    0.436906  -0.075332
    14  C   -0.069810   0.426074
    15  C    0.014130  -0.068669
    16  F   -0.000066   0.001554
    17  H    0.000000  -0.000000
    18  H    0.000001   0.000006
    19  H    0.000000  -0.000002
    20  H   -0.000000   0.000000
    21  H   -0.000000  -0.000000
    22  H   -0.000000   0.000000
    23  H    0.000020  -0.000002
    24  H   -0.013268  -0.000206
    25  H    0.688906  -0.013277
    26  H   -0.013277   0.690549
 Mulliken charges:
               1
     1  C    0.055254
     2  C   -0.100446
     3  C   -0.039613
     4  C    0.016635
     5  C   -0.067818
     6  C    0.252250
     7  F   -0.149451
     8  C   -0.146293
     9  C   -0.088185
    10  C    0.104414
    11  O   -0.162702
    12  C   -0.038370
    13  C    0.005530
    14  C   -0.071657
    15  C    0.226823
    16  F   -0.157329
    17  H    0.029544
    18  H    0.057458
    19  H    0.044099
    20  H   -0.006527
    21  H    0.013695
    22  H    0.012460
    23  H    0.193970
    24  H   -0.001945
    25  H    0.013537
    26  H    0.004668
 Sum of Mulliken charges =  -0.00000
 Mulliken charges with hydrogens summed into heavy atoms:
               1
     1  C    0.186356
     2  C   -0.100446
     3  C   -0.046140
     4  C    0.030330
     5  C   -0.055358
     6  C    0.252250
     7  F   -0.149451
     8  C   -0.146293
     9  C   -0.088185
    10  C    0.104414
    11  O    0.031269
    12  C   -0.040316
    13  C    0.019067
    14  C   -0.066989
    15  C    0.226823
    16  F   -0.157329
 APT charges:
               1
     1  C   -0.018244
     2  C    0.110889
     3  C   -0.125458
     4  C    0.041862
     5  C   -0.130769
     6  C    0.507208
     7  F   -0.468622
     8  C   -0.035411
     9  C   -0.132567
    10  C    0.501923
    11  O   -0.659177
    12  C   -0.174035
    13  C    0.091869
    14  C   -0.227805
    15  C    0.594558
    16  F   -0.467171
    17  H    0.001035
    18  H    0.015446
    19  H    0.025725
    20  H    0.022013
    21  H    0.032595
    22  H    0.052874
    23  H    0.309640
    24  H    0.044894
    25  H    0.034987
    26  H    0.051740
 Sum of APT charges =   0.00000
 APT charges with hydrogens summed into heavy atoms:
               1
     1  C    0.023962
     2  C    0.110889
     3  C   -0.103445
     4  C    0.074457
     5  C   -0.077895
     6  C    0.507208
     7  F   -0.468622
     8  C   -0.035411
     9  C   -0.132567
    10  C    0.501923
    11  O   -0.349537
    12  C   -0.129141
    13  C    0.126856
    14  C   -0.176066
    15  C    0.594558
    16  F   -0.467171
 Electronic spatial extent (au):  <R**2>=           3165.5929
 Charge=             -0.0000 electrons
 Dipole moment (field-independent basis, Debye):
    X=             -1.2525    Y=              0.4808    Z=             -1.2628  Tot=              1.8424
 Quadrupole moment (field-independent basis, Debye-Ang):
   XX=            -77.8288   YY=            -92.7408   ZZ=            -92.2204
   XY=              1.3943   XZ=              2.0633   YZ=             -2.2113
 Traceless Quadrupole moment (field-independent basis, Debye-Ang):
   XX=              9.7678   YY=             -5.1441   ZZ=             -4.6237
   XY=              1.3943   XZ=              2.0633   YZ=             -2.2113
 Octapole moment (field-independent basis, Debye-Ang**2):
  XXX=              3.0111  YYY=             -7.2776  ZZZ=             32.5039  XYY=             -2.3223
  XXY=             -4.3057  XXZ=             15.7445  XZZ=             -5.0755  YZZ=              1.9475
  YYZ=              8.1092  XYZ=             10.0889
 Hexadecapole moment (field-independent basis, Debye-Ang**3):
 XXXX=          -2376.7452 YYYY=           -520.6625 ZZZZ=           -988.8413 XXXY=             26.6912
 XXXZ=            -16.9033 YYYX=             31.0555 YYYZ=             21.0743 ZZZX=              3.2643
 ZZZY=             14.1582 XXYY=           -543.8893 XXZZ=           -580.9066 YYZZ=           -248.8266
 XXYZ=              6.4728 YYXZ=              4.5094 ZZXY=             11.7210
 N-N= 1.079746665853D+03 E-N=-3.970785188889D+03  KE= 7.677463544425D+02
  Exact polarizability:     203.305       0.145      97.902       0.396      -3.546     132.483
 Approx polarizability:     368.034      -0.206     196.078       2.622       3.953     289.488
   1 Symmetry operations used in ECPInt.
 ECPInt:  NShTT=    8001 NPrTT=   29641 LenC2=    7678 LenP2D=   20636.
 LDataN:  DoStor=T MaxTD1= 6 Len=  172
 Calling FoFJK, ICntrl=    100527 FMM=F ISym2X=0 I1Cent= 0 IOpClX= 0 NMat=1 NMatS=1 NMatT=0.
 Full mass-weighted force constant matrix:
 Low frequencies ---   -3.0615   -0.0007   -0.0004    0.0006    2.0091    6.1156
 Low frequencies ---   48.1567   64.1163   74.7776
 Diagonal vibrational polarizability:
        8.4008047      19.0852843      13.5488482
 Harmonic frequencies (cm**-1), IR intensities (KM/Mole), Raman scattering
 activities (A**4/AMU), depolarization ratios for plane and unpolarized
 incident light, reduced masses (AMU), force constants (mDyne/A),
 and normal coordinates:
                      1                      2                      3
                      A                      A                      A
 Frequencies --     48.1561                64.1156                74.7776
 Red. masses --      7.2284                 5.0050                 5.4612
 Frc consts  --      0.0099                 0.0121                 0.0180
 IR Inten    --      0.2089                 0.4148                 0.3777
  Atom  AN      X      Y      Z        X      Y      Z        X      Y      Z
     1   6     0.05   0.18   0.17     0.08  -0.13  -0.03    -0.15  -0.01  -0.09
     2   6     0.01   0.11   0.09     0.04  -0.03   0.01    -0.07   0.01  -0.03
     3   6     0.01   0.11   0.07     0.04   0.13   0.07    -0.07   0.06   0.11
     4   6     0.00  -0.00  -0.01    -0.00   0.22   0.11     0.00   0.09   0.18
     5   6    -0.01  -0.13  -0.09    -0.04   0.13   0.07     0.08   0.05   0.11
     6   6    -0.01  -0.12  -0.07    -0.04  -0.04   0.00     0.07  -0.00  -0.04
     7   9    -0.01  -0.24  -0.14    -0.07  -0.13  -0.03     0.15  -0.04  -0.12
     8   6    -0.00   0.00   0.02    -0.00  -0.11  -0.02    -0.00   0.00  -0.09
     9   6     0.00   0.01   0.02     0.00  -0.11   0.00    -0.00   0.03  -0.09
    10   6    -0.02  -0.10   0.08     0.05  -0.04  -0.00     0.06  -0.00  -0.03
    11   8    -0.05  -0.17   0.15     0.10  -0.12   0.01     0.12   0.03  -0.09
    12   6    -0.02  -0.13   0.08     0.05   0.12  -0.04     0.06  -0.08   0.12
    13   6    -0.01  -0.02  -0.01     0.01   0.21  -0.07    -0.00  -0.13   0.20
    14   6     0.01   0.12  -0.08    -0.04   0.13  -0.05    -0.07  -0.07   0.12
    15   6     0.01   0.13  -0.07    -0.05  -0.03  -0.01    -0.06   0.01  -0.03
    16   9     0.02   0.26  -0.14    -0.10  -0.10  -0.00    -0.14   0.05  -0.11
    17   1     0.07   0.14   0.12     0.13  -0.06  -0.01    -0.20  -0.12  -0.15
    18   1    -0.03   0.21   0.24     0.17  -0.20  -0.07    -0.21   0.11  -0.14
    19   1     0.14   0.21   0.21    -0.01  -0.20  -0.04    -0.07  -0.01  -0.03
    20   1     0.02   0.19   0.12     0.07   0.20   0.10    -0.13   0.07   0.16
    21   1     0.00  -0.00  -0.03    -0.00   0.37   0.16     0.00   0.13   0.30
    22   1    -0.02  -0.23  -0.17    -0.07   0.18   0.09     0.14   0.06   0.15
    23   1    -0.05  -0.09   0.14     0.10  -0.21   0.03     0.11   0.03  -0.16
    24   1    -0.04  -0.22   0.13     0.09   0.18  -0.05     0.11  -0.12   0.18
    25   1    -0.01  -0.03  -0.02     0.01   0.34  -0.10    -0.01  -0.20   0.31
    26   1     0.03   0.21  -0.15    -0.08   0.20  -0.07    -0.12  -0.09   0.17
                      4                      5                      6
                      A                      A                      A
 Frequencies --    136.3344               148.7341               164.8396
 Red. masses --      1.5030                 2.6673                 5.2244
 Frc consts  --      0.0165                 0.0348                 0.0836
 IR Inten    --      0.5014                 0.1973                 0.2125
  Atom  AN      X      Y      Z        X      Y      Z        X      Y      Z
     1   6     0.02   0.08   0.09    -0.07  -0.04  -0.12     0.03  -0.19  -0.04
     2   6     0.00  -0.02   0.00    -0.02   0.02  -0.04     0.02  -0.10   0.01
     3   6     0.00  -0.02  -0.01    -0.02   0.01  -0.02     0.02  -0.05  -0.02
     4   6    -0.00  -0.01  -0.00    -0.00   0.03   0.01    -0.03   0.06   0.03
     5   6    -0.01   0.02   0.02     0.02   0.02  -0.01    -0.07   0.05   0.04
     6   6    -0.01   0.01   0.02     0.01   0.02  -0.04    -0.06  -0.05   0.04
     7   9    -0.02   0.05   0.06     0.05  -0.05  -0.12    -0.15  -0.18   0.01
     8   6    -0.00  -0.04  -0.01    -0.00   0.07  -0.02    -0.01  -0.05   0.07
     9   6     0.00  -0.04  -0.02     0.00   0.08   0.02     0.01  -0.01   0.07
    10   6     0.02  -0.03  -0.02    -0.02   0.01   0.05     0.00   0.08  -0.00
    11   8     0.04  -0.02  -0.04    -0.06  -0.06   0.12    -0.00   0.24  -0.11
    12   6     0.02  -0.01  -0.01    -0.02   0.01   0.00    -0.00   0.03  -0.01
    13   6     0.00   0.01  -0.01     0.00   0.03  -0.02     0.03  -0.07   0.02
    14   6    -0.01   0.01  -0.02     0.03   0.01   0.00     0.05  -0.04   0.02
    15   6    -0.01  -0.02  -0.03     0.02   0.02   0.04     0.05   0.03   0.02
    16   9    -0.04  -0.03  -0.04     0.07  -0.07   0.13     0.12   0.19  -0.04
    17   1    -0.03  -0.28  -0.22    -0.14  -0.45  -0.44     0.00  -0.49  -0.31
    18   1    -0.39   0.46   0.21    -0.39   0.35  -0.16    -0.21   0.10  -0.06
    19   1     0.49   0.19   0.37     0.29  -0.06   0.19     0.32  -0.21   0.21
    20   1     0.01  -0.01  -0.01    -0.04  -0.03  -0.03     0.06  -0.09  -0.07
    21   1    -0.00  -0.01  -0.01    -0.00   0.02   0.03    -0.03   0.13   0.03
    22   1    -0.01   0.05   0.03     0.03  -0.01  -0.02    -0.09   0.08   0.05
    23   1     0.03  -0.02  -0.07    -0.05  -0.04   0.16    -0.00   0.19  -0.10
    24   1     0.03   0.00  -0.01    -0.04  -0.01   0.01    -0.03   0.07  -0.06
    25   1     0.00   0.03  -0.01     0.00   0.03  -0.05     0.03  -0.12   0.03
    26   1    -0.03   0.02  -0.02     0.04  -0.02   0.01     0.07  -0.04   0.01
                      7                      8                      9
                      A                      A                      A
 Frequencies --    211.6541               229.3658               239.2408
 Red. masses --      6.4083                 3.4010                 4.3681
 Frc consts  --      0.1691                 0.1054                 0.1473
 IR Inten    --      0.9639                 1.5093                 0.1282
  Atom  AN      X      Y      Z        X      Y      Z        X      Y      Z
     1   6    -0.27   0.07  -0.03    -0.04   0.12   0.07     0.03  -0.08  -0.05
     2   6    -0.12   0.04   0.04    -0.02  -0.07  -0.06     0.02   0.02   0.02
     3   6    -0.13   0.06   0.07    -0.02  -0.20  -0.14     0.02   0.08   0.06
     4   6    -0.15  -0.01  -0.00    -0.02   0.01   0.01     0.01  -0.00  -0.00
     5   6    -0.11  -0.05  -0.07    -0.01   0.21   0.13     0.01  -0.09  -0.06
     6   6    -0.10   0.01  -0.04    -0.01   0.04   0.01     0.01  -0.02   0.00
     7   9    -0.20   0.04   0.05    -0.01  -0.09  -0.08     0.01   0.03   0.04
     8   6    -0.03   0.00  -0.02    -0.00  -0.01  -0.02     0.00   0.00   0.02
     9   6     0.03   0.00  -0.03     0.00   0.01  -0.00    -0.00  -0.00   0.01
    10   6     0.12  -0.01   0.02     0.01  -0.02   0.02    -0.01  -0.04   0.03
    11   8     0.25  -0.09  -0.01     0.02   0.02  -0.00    -0.02   0.16  -0.11
    12   6     0.13  -0.02   0.04     0.01  -0.09   0.07    -0.02  -0.25   0.16
    13   6     0.15   0.01   0.01     0.02   0.00   0.00    -0.01  -0.01   0.00
    14   6     0.10   0.01  -0.03     0.01   0.09  -0.06    -0.00   0.25  -0.16
    15   6     0.10  -0.01  -0.04     0.01   0.03  -0.01    -0.01   0.06  -0.03
    16   9     0.20  -0.02   0.03     0.03  -0.04   0.05    -0.02  -0.12   0.08
    17   1    -0.35   0.10   0.10    -0.05   0.32   0.28     0.03  -0.15  -0.12
    18   1    -0.18   0.04  -0.14     0.02  -0.04   0.21     0.02  -0.02  -0.12
    19   1    -0.38   0.08  -0.15    -0.11   0.28  -0.14     0.04  -0.15   0.03
    20   1    -0.11   0.13   0.11    -0.02  -0.34  -0.24     0.02   0.14   0.10
    21   1    -0.15  -0.03  -0.00    -0.02   0.04   0.03     0.01  -0.01  -0.01
    22   1    -0.06  -0.11  -0.09     0.00   0.37   0.25    -0.00  -0.16  -0.11
    23   1     0.23  -0.15  -0.11     0.01   0.09  -0.06    -0.02   0.19  -0.15
    24   1     0.11  -0.05   0.05     0.00  -0.17   0.12    -0.02  -0.43   0.28
    25   1     0.15   0.01   0.02     0.02  -0.00   0.00    -0.01  -0.02   0.01
    26   1     0.06   0.03  -0.02     0.01   0.15  -0.10     0.00   0.42  -0.28
                     10                     11                     12
                      A                      A                      A
 Frequencies --    315.6303               325.5954               338.7187
 Red. masses --      6.2961                 3.7237                 5.9204
 Frc consts  --      0.3696                 0.2326                 0.4002
 IR Inten    --      4.4427                 4.8351                 1.8553
  Atom  AN      X      Y      Z        X      Y      Z        X      Y      Z
     1   6    -0.03  -0.03  -0.05     0.19  -0.13   0.13     0.06  -0.03   0.07
     2   6     0.03   0.19   0.17    -0.10   0.04   0.04    -0.02  -0.13  -0.06
     3   6     0.04  -0.03   0.00    -0.11  -0.00  -0.00    -0.01  -0.00  -0.00
     4   6     0.03  -0.13  -0.08    -0.08  -0.05   0.00     0.01   0.08   0.07
     5   6     0.04   0.09   0.05    -0.06   0.00   0.04     0.04  -0.04  -0.05
     6   6     0.04   0.18   0.16    -0.05   0.06   0.03     0.05  -0.12  -0.05
     7   9    -0.12  -0.18   0.04     0.08   0.03  -0.09    -0.12  -0.03   0.13
     8   6     0.05   0.24   0.19    -0.10   0.08   0.03     0.03  -0.09  -0.07
     9   6     0.05   0.09  -0.08    -0.08   0.08  -0.06     0.04   0.28  -0.19
    10   6     0.01   0.04  -0.07    -0.03   0.04  -0.03     0.03   0.20  -0.13
    11   8     0.03  -0.07  -0.02     0.14  -0.07  -0.08    -0.07  -0.06   0.12
    12   6     0.01   0.00  -0.02    -0.04   0.02   0.01     0.03   0.04  -0.05
    13   6     0.02  -0.03   0.01    -0.02  -0.03   0.01     0.01  -0.13   0.08
    14   6     0.05   0.01   0.00    -0.03  -0.01  -0.03     0.02   0.04  -0.03
    15   6     0.05   0.04  -0.08    -0.03   0.04  -0.05     0.01   0.22  -0.14
    16   9    -0.16  -0.12  -0.12     0.09   0.00   0.06    -0.03  -0.10   0.04
    17   1    -0.08  -0.18  -0.13     0.45  -0.03  -0.07     0.11   0.06   0.09
    18   1     0.04   0.06  -0.31     0.23  -0.26   0.26     0.02  -0.09   0.22
    19   1    -0.13  -0.22   0.05     0.22  -0.28   0.30     0.11   0.06   0.03
    20   1     0.05  -0.23  -0.15    -0.12  -0.06  -0.03    -0.01   0.09   0.06
    21   1     0.03  -0.40  -0.28    -0.08  -0.13  -0.02     0.01   0.22   0.21
    22   1     0.04  -0.04  -0.03    -0.05  -0.04   0.02     0.06   0.02   0.00
    23   1     0.03  -0.07  -0.04     0.11  -0.23  -0.20    -0.05   0.06   0.20
    24   1     0.02  -0.06   0.03    -0.06  -0.04   0.03     0.03  -0.16   0.09
    25   1     0.02  -0.12   0.04    -0.02  -0.09   0.05     0.01  -0.42   0.28
    26   1     0.06  -0.05   0.04    -0.06  -0.05   0.02     0.02  -0.17   0.10
                     13                     14                     15
                      A                      A                      A
 Frequencies --    391.9707               471.6621               479.5499
 Red. masses --      5.9326                 3.9507                 3.7251
 Frc consts  --      0.5370                 0.5178                 0.5047
 IR Inten    --      5.4515                 3.6920                 3.9446
  Atom  AN      X      Y      Z        X      Y      Z        X      Y      Z
     1   6    -0.05   0.10  -0.12    -0.11  -0.02   0.03    -0.03  -0.01   0.02
     2   6     0.10   0.02  -0.03     0.07  -0.03   0.11     0.02  -0.12  -0.04
     3   6     0.13   0.02  -0.02     0.09   0.04  -0.02     0.02  -0.07  -0.06
     4   6     0.15   0.02  -0.02    -0.02   0.04  -0.13    -0.02   0.17   0.07
     5   6     0.08  -0.01   0.01    -0.14   0.04  -0.00    -0.04  -0.11  -0.10
     6   6     0.06  -0.05   0.07    -0.10  -0.04   0.07    -0.03  -0.02   0.01
     7   9    -0.01  -0.09   0.13     0.16   0.04  -0.06     0.05   0.02  -0.00
     8   6     0.00  -0.01   0.03    -0.03  -0.11   0.08    -0.01   0.13   0.14
     9   6    -0.07   0.03  -0.02    -0.02  -0.09   0.07    -0.01   0.09   0.07
    10   6    -0.11  -0.00  -0.07    -0.00   0.09  -0.03    -0.08   0.03   0.07
    11   8     0.14  -0.17  -0.17     0.01  -0.01   0.03     0.13  -0.03  -0.01
    12   6    -0.14   0.01  -0.02    -0.00   0.11  -0.06    -0.10  -0.02   0.02
    13   6    -0.18  -0.03   0.01     0.02  -0.15   0.09     0.01  -0.01  -0.10
    14   6    -0.14   0.01  -0.01     0.02   0.09  -0.08     0.11  -0.03   0.01
    15   6    -0.11   0.07   0.02     0.01   0.08  -0.06     0.09   0.01   0.05
    16   9     0.11   0.10   0.18    -0.01  -0.04  -0.01    -0.11  -0.03  -0.05
    17   1    -0.23   0.02   0.01    -0.29  -0.14   0.12    -0.08   0.04   0.13
    18   1    -0.07   0.20  -0.24    -0.11   0.10  -0.14    -0.08  -0.01   0.11
    19   1    -0.09   0.19  -0.23    -0.16   0.01  -0.04     0.02   0.16  -0.10
    20   1     0.11   0.02  -0.01     0.22   0.09  -0.07     0.06  -0.07  -0.10
    21   1     0.15   0.04  -0.04    -0.03   0.06  -0.27    -0.02   0.41   0.20
    22   1    -0.00   0.01  -0.03    -0.29   0.12  -0.05    -0.08  -0.19  -0.18
    23   1     0.08  -0.22  -0.46     0.03  -0.19   0.13     0.05   0.19  -0.43
    24   1    -0.12  -0.01   0.01    -0.03   0.06  -0.05    -0.23  -0.03  -0.05
    25   1    -0.18  -0.09   0.05     0.02  -0.44   0.26     0.01  -0.01  -0.25
    26   1    -0.11  -0.03   0.00     0.01   0.06  -0.05     0.22  -0.06  -0.04
                     16                     17                     18
                      A                      A                      A
 Frequencies --    504.3138               509.8550               520.6025
 Red. masses --      6.1386                 5.1085                 7.6897
 Frc consts  --      0.9199                 0.7824                 1.2279
 IR Inten    --      9.1168                 3.5559                13.4666
  Atom  AN      X      Y      Z        X      Y      Z        X      Y      Z
     1   6    -0.06  -0.04   0.05     0.14   0.11  -0.15     0.09   0.13  -0.17
     2   6    -0.05  -0.05   0.01     0.10   0.03  -0.11    -0.05   0.13  -0.13
     3   6    -0.04   0.05  -0.11     0.08  -0.11   0.12    -0.05   0.09  -0.10
     4   6     0.00   0.11  -0.07     0.02  -0.07   0.17     0.11  -0.02  -0.03
     5   6     0.01   0.01  -0.10    -0.08  -0.15   0.14    -0.03  -0.03   0.10
     6   6     0.03  -0.03   0.09    -0.11   0.05  -0.04    -0.03  -0.13   0.14
     7   9     0.10  -0.06   0.08    -0.11   0.06  -0.09     0.10  -0.11   0.17
     8   6    -0.04   0.03   0.07    -0.03   0.06   0.00    -0.21  -0.03  -0.03
     9   6    -0.04   0.00  -0.12    -0.04  -0.10   0.05    -0.20   0.04   0.01
    10   6    -0.08  -0.06  -0.07    -0.06   0.01  -0.02     0.02   0.12   0.19
    11   8    -0.16  -0.06  -0.07    -0.04  -0.05  -0.00     0.13   0.13   0.20
    12   6    -0.04   0.08   0.20    -0.05   0.15   0.04     0.01  -0.00   0.05
    13   6     0.01   0.18   0.16     0.01  -0.05   0.14     0.12  -0.01  -0.07
    14   6     0.01   0.05   0.17     0.04   0.12   0.01    -0.06  -0.12  -0.14
    15   6     0.05  -0.10  -0.13     0.05  -0.00  -0.08    -0.07  -0.08  -0.11
    16   9     0.20  -0.09  -0.14     0.07  -0.07  -0.07     0.03  -0.07  -0.11
    17   1    -0.08  -0.03   0.08     0.13   0.13  -0.13     0.15   0.15  -0.22
    18   1    -0.08  -0.04   0.07     0.11   0.11  -0.10     0.11   0.10  -0.16
    19   1    -0.04   0.02   0.00     0.17   0.17  -0.19     0.08   0.08  -0.13
    20   1     0.02   0.06  -0.15    -0.05  -0.16   0.18    -0.20   0.04  -0.03
    21   1     0.00   0.13   0.01     0.02   0.06   0.09     0.10  -0.05  -0.04
    22   1    -0.12  -0.01  -0.19     0.03  -0.23   0.16    -0.24   0.08   0.05
    23   1    -0.17   0.30  -0.16    -0.07   0.31  -0.24     0.11   0.10   0.11
    24   1     0.14   0.14   0.28    -0.01   0.19   0.03    -0.23  -0.08  -0.05
    25   1     0.01   0.24   0.04     0.01  -0.25   0.18     0.12   0.06  -0.06
    26   1    -0.23   0.12   0.29    -0.06   0.15   0.05    -0.19  -0.07  -0.08
                     19                     20                     21
                      A                      A                      A
 Frequencies --    524.3162               554.9617               566.6274
 Red. masses --      1.2031                 3.6380                 4.2091
 Frc consts  --      0.1949                 0.6601                 0.7962
 IR Inten    --     65.1086                 0.7927                 2.7172
  Atom  AN      X      Y      Z        X      Y      Z        X      Y      Z
     1   6    -0.00  -0.02   0.01    -0.01  -0.00   0.00     0.00   0.00  -0.01
     2   6    -0.01  -0.01   0.01    -0.04  -0.20  -0.17     0.13  -0.13  -0.02
     3   6    -0.01   0.03   0.02    -0.05   0.09   0.02     0.15   0.02   0.14
     4   6    -0.01  -0.03  -0.03     0.00   0.01  -0.00     0.00  -0.06  -0.03
     5   6    -0.00   0.03   0.01     0.05  -0.03  -0.06    -0.14  -0.02   0.10
     6   6     0.00   0.02   0.02     0.04   0.27   0.18    -0.12   0.08   0.08
     7   9     0.01  -0.00  -0.01    -0.00  -0.07  -0.01     0.01   0.03  -0.09
     8   6     0.00  -0.03  -0.01     0.00   0.05   0.01    -0.00  -0.07   0.02
     9   6     0.01  -0.00  -0.01    -0.01  -0.07   0.03    -0.01   0.15  -0.11
    10   6     0.03  -0.02   0.00     0.03   0.00  -0.00     0.01   0.05  -0.03
    11   8     0.01  -0.04   0.05    -0.01   0.02   0.02    -0.00   0.02   0.00
    12   6     0.03  -0.00  -0.03     0.04   0.03  -0.05     0.01  -0.13   0.08
    13   6    -0.00  -0.01  -0.01     0.01  -0.06   0.03     0.00   0.16  -0.10
    14   6    -0.02  -0.01  -0.02    -0.04   0.04  -0.06    -0.03  -0.15   0.07
    15   6    -0.02   0.02  -0.00    -0.03  -0.03   0.01    -0.02   0.05  -0.06
    16   9    -0.01   0.01   0.03     0.00   0.01   0.01     0.02   0.00  -0.01
    17   1    -0.01  -0.03   0.01     0.02   0.14   0.12    -0.16  -0.03   0.14
    18   1    -0.00  -0.02   0.00    -0.13  -0.07   0.31    -0.06   0.06  -0.01
    19   1     0.01   0.01  -0.02     0.14   0.25  -0.12     0.02   0.16  -0.15
    20   1     0.01   0.06   0.03    -0.06   0.24   0.14     0.20   0.16   0.20
    21   1    -0.01  -0.09  -0.07     0.00  -0.15  -0.03     0.00  -0.05  -0.28
    22   1    -0.01   0.02  -0.01     0.06  -0.42  -0.33    -0.18  -0.10   0.02
    23   1    -0.07   0.85  -0.47     0.02  -0.17   0.19     0.01  -0.10   0.10
    24   1     0.04   0.07  -0.08     0.04   0.04  -0.05     0.01  -0.28   0.18
    25   1    -0.00   0.03   0.00     0.01  -0.11   0.13     0.01   0.33  -0.17
    26   1    -0.01  -0.02  -0.02    -0.06   0.10  -0.09    -0.06  -0.28   0.18
                     22                     23                     24
                      A                      A                      A
 Frequencies --    576.2813               602.4033               618.4912
 Red. masses --      4.1967                 4.5289                 6.2364
 Frc consts  --      0.8212                 0.9683                 1.4056
 IR Inten    --      0.0460                 0.7067                 1.2484
  Atom  AN      X      Y      Z        X      Y      Z        X      Y      Z
     1   6    -0.00   0.01   0.01     0.01   0.02  -0.02    -0.11  -0.11   0.16
     2   6     0.04   0.07   0.08    -0.01   0.01  -0.02     0.05  -0.05   0.11
     3   6     0.05  -0.15  -0.07    -0.02  -0.01  -0.03     0.12  -0.05   0.04
     4   6    -0.01   0.15   0.10    -0.01   0.02   0.01     0.12   0.00   0.02
     5   6    -0.06  -0.13  -0.05    -0.01  -0.03  -0.01     0.18   0.04  -0.08
     6   6    -0.05   0.01   0.03    -0.01   0.01   0.03     0.09   0.07  -0.12
     7   9     0.02   0.02  -0.00     0.02  -0.01   0.02    -0.13   0.07  -0.10
     8   6    -0.00   0.13   0.11    -0.02   0.01   0.01     0.07   0.01  -0.01
     9   6    -0.00  -0.03  -0.07     0.02  -0.04   0.02    -0.11  -0.01   0.01
    10   6     0.14  -0.01  -0.07     0.02  -0.30   0.18    -0.06   0.02   0.18
    11   8    -0.04   0.01   0.04    -0.02   0.07  -0.07     0.12   0.11   0.13
    12   6     0.19  -0.06  -0.08     0.03   0.03  -0.04    -0.12   0.06   0.05
    13   6     0.00   0.01   0.02     0.02   0.01  -0.01    -0.07  -0.02   0.00
    14   6    -0.18  -0.05  -0.09     0.01  -0.06   0.04    -0.17  -0.05  -0.10
    15   6    -0.14  -0.05  -0.03     0.01   0.34  -0.20    -0.09  -0.02  -0.15
    16   9     0.04   0.04   0.05    -0.02  -0.05   0.06     0.11  -0.08  -0.10
    17   1    -0.04  -0.03   0.01     0.03   0.05  -0.02    -0.21  -0.18   0.22
    18   1     0.03   0.05  -0.09     0.02  -0.00  -0.01    -0.09  -0.06   0.06
    19   1    -0.05  -0.04   0.02    -0.00   0.00  -0.01    -0.14  -0.10   0.11
    20   1     0.07  -0.35  -0.23    -0.04  -0.04  -0.04     0.20  -0.04  -0.00
    21   1    -0.01   0.34   0.14    -0.01   0.03   0.03     0.12  -0.00   0.06
    22   1    -0.09  -0.24  -0.14    -0.04  -0.06  -0.04     0.33   0.01  -0.01
    23   1    -0.00   0.15   0.21    -0.00  -0.12   0.06     0.08   0.02  -0.04
    24   1     0.28  -0.07  -0.02     0.07   0.42  -0.29    -0.28   0.13  -0.08
    25   1     0.01   0.15   0.22     0.02   0.01   0.01    -0.08  -0.00   0.03
    26   1    -0.26   0.01  -0.07     0.02  -0.52   0.34    -0.32  -0.07   0.01
                     25                     26                     27
                      A                      A                      A
 Frequencies --    707.6651               731.3183               734.1638
 Red. masses --      2.5129                 4.2714                 2.5054
 Frc consts  --      0.7415                 1.3460                 0.7956
 IR Inten    --      7.9881                 1.6481                11.0564
  Atom  AN      X      Y      Z        X      Y      Z        X      Y      Z
     1   6    -0.00  -0.01   0.00    -0.07  -0.05   0.09    -0.03  -0.04   0.03
     2   6     0.02  -0.07  -0.03    -0.03   0.06   0.03    -0.02  -0.06  -0.05
     3   6     0.04   0.03   0.04     0.05   0.02  -0.09     0.00   0.05  -0.02
     4   6     0.00  -0.06  -0.05     0.25   0.07   0.05     0.12  -0.08  -0.05
     5   6    -0.04   0.02   0.04     0.03  -0.07   0.07     0.04  -0.01   0.03
     6   6    -0.02  -0.08  -0.04    -0.04   0.07   0.06    -0.01  -0.07  -0.06
     7   9     0.01   0.00   0.01    -0.06   0.04  -0.06    -0.03   0.02  -0.02
     8   6    -0.00   0.10   0.06    -0.10  -0.13  -0.10    -0.05   0.16   0.10
     9   6     0.00   0.17  -0.11    -0.08   0.06  -0.04    -0.05  -0.08   0.05
    10   6     0.01  -0.13   0.07    -0.04  -0.01  -0.00     0.00   0.01  -0.03
    11   8    -0.01   0.02  -0.02    -0.07  -0.05  -0.07    -0.04  -0.03  -0.04
    12   6     0.03   0.03  -0.03     0.02   0.04   0.07     0.05   0.02   0.01
    13   6     0.01  -0.11   0.08     0.23  -0.05   0.03     0.13   0.06  -0.03
    14   6    -0.02   0.03  -0.03     0.09  -0.04  -0.02    -0.00  -0.01  -0.05
    15   6    -0.02  -0.08   0.04    -0.00  -0.00   0.02    -0.03   0.00  -0.01
    16   9     0.00   0.00  -0.00    -0.07   0.04   0.07    -0.03   0.03   0.03
    17   1    -0.04   0.00   0.06    -0.07  -0.08   0.05    -0.03  -0.01   0.06
    18   1    -0.04  -0.01   0.06    -0.03  -0.06   0.02    -0.08  -0.06   0.12
    19   1     0.02   0.06  -0.04    -0.12  -0.15   0.15     0.01   0.04  -0.00
    20   1     0.05   0.19   0.15    -0.06  -0.22  -0.18    -0.05   0.31   0.21
    21   1     0.00   0.11  -0.01     0.26  -0.15  -0.13     0.12   0.21   0.18
    22   1    -0.07   0.23   0.17    -0.08  -0.33  -0.19    -0.00   0.39   0.27
    23   1     0.00  -0.10   0.05    -0.07   0.02  -0.07    -0.04   0.03  -0.03
    24   1     0.05   0.47  -0.32    -0.06   0.24  -0.12     0.03  -0.28   0.20
    25   1     0.02   0.26  -0.11     0.24   0.16  -0.19     0.12  -0.22   0.21
    26   1    -0.04   0.43  -0.28     0.03   0.26  -0.18    -0.07  -0.33   0.20
                     28                     29                     30
                      A                      A                      A
 Frequencies --    766.2683               773.9387               776.5136
 Red. masses --      1.6397                 2.5587                 4.8115
 Frc consts  --      0.5673                 0.9030                 1.7094
 IR Inten    --     50.2919                14.8822                 0.1824
  Atom  AN      X      Y      Z        X      Y      Z        X      Y      Z
     1   6     0.00   0.01   0.01    -0.02   0.00   0.03     0.07   0.05  -0.04
     2   6    -0.01   0.03   0.02    -0.01   0.06   0.03     0.07   0.01   0.07
     3   6    -0.01  -0.05  -0.04     0.01  -0.05  -0.08     0.03  -0.13   0.09
     4   6    -0.00  -0.05  -0.03     0.07  -0.02  -0.02    -0.25  -0.01  -0.00
     5   6     0.01  -0.05  -0.05    -0.03  -0.09   0.01     0.03   0.04  -0.14
     6   6     0.01   0.08   0.05    -0.03   0.10   0.09     0.07   0.09   0.02
     7   9    -0.00  -0.01  -0.01    -0.01  -0.01  -0.02     0.04  -0.04   0.04
     8   6     0.00  -0.02  -0.01    -0.02  -0.08  -0.07     0.06  -0.08  -0.05
     9   6    -0.00  -0.06   0.04     0.03   0.10  -0.07    -0.06   0.06  -0.05
    10   6     0.00   0.08  -0.05     0.02  -0.10   0.07    -0.08  -0.05   0.07
    11   8     0.00  -0.01   0.01     0.02   0.03   0.01    -0.06  -0.03  -0.06
    12   6    -0.01  -0.05   0.03    -0.01   0.04  -0.07    -0.04   0.12   0.11
    13   6    -0.01  -0.03   0.02    -0.09   0.02  -0.02     0.28   0.01  -0.01
    14   6     0.00  -0.06   0.05     0.03   0.11  -0.00    -0.02  -0.03  -0.15
    15   6     0.00   0.08  -0.05     0.03  -0.09   0.08    -0.07  -0.07   0.01
    16   9    -0.00  -0.01   0.01     0.01   0.00  -0.03    -0.05   0.05   0.05
    17   1     0.01  -0.04  -0.06     0.00  -0.06  -0.06    -0.02  -0.04  -0.03
    18   1     0.05   0.02  -0.08     0.06  -0.01  -0.09     0.11   0.13  -0.22
    19   1    -0.05  -0.07   0.05    -0.10  -0.15   0.11    -0.02  -0.01  -0.06
    20   1    -0.02   0.36   0.25    -0.03   0.32   0.22     0.19   0.14   0.16
    21   1    -0.00   0.40   0.31     0.07   0.39   0.22    -0.25   0.21   0.14
    22   1     0.02   0.30   0.21    -0.11   0.18   0.14     0.21   0.12   0.03
    23   1     0.00  -0.01   0.02     0.02   0.08  -0.02    -0.07  -0.05  -0.12
    24   1    -0.00   0.21  -0.14     0.04  -0.21   0.13    -0.22  -0.07   0.11
    25   1    -0.00   0.30  -0.20    -0.10  -0.33   0.18     0.28  -0.19   0.09
    26   1     0.01   0.32  -0.21     0.10  -0.31   0.22    -0.21  -0.20   0.09
                     31                     32                     33
                      A                      A                      A
 Frequencies --    851.8255               871.4350               936.5115
 Red. masses --      1.4595                 1.3749                 1.9956
 Frc consts  --      0.6240                 0.6151                 1.0312
 IR Inten    --      0.0973                 0.7983                16.2805
  Atom  AN      X      Y      Z        X      Y      Z        X      Y      Z
     1   6     0.00  -0.00   0.00    -0.00  -0.02  -0.01     0.14   0.01  -0.01
     2   6    -0.00   0.00  -0.00     0.00  -0.00  -0.00     0.02  -0.05   0.07
     3   6    -0.00  -0.00  -0.00     0.00   0.09   0.06    -0.12   0.06  -0.08
     4   6     0.00  -0.00   0.00     0.00   0.01   0.00     0.00  -0.02   0.02
     5   6     0.00   0.00   0.00     0.00  -0.11  -0.07     0.07   0.00  -0.00
     6   6    -0.00   0.00  -0.00    -0.00   0.05   0.04    -0.01  -0.03   0.04
     7   9     0.00  -0.00   0.00    -0.00  -0.01  -0.01    -0.03   0.04  -0.06
     8   6     0.00  -0.00  -0.00    -0.00  -0.02  -0.01    -0.03  -0.07   0.09
     9   6    -0.00  -0.01   0.00     0.00   0.00  -0.01    -0.01   0.03  -0.01
    10   6    -0.00   0.07  -0.04    -0.00  -0.00   0.00     0.00  -0.01   0.00
    11   8     0.00  -0.01   0.01     0.00   0.00   0.00    -0.00   0.00  -0.00
    12   6    -0.00  -0.11   0.07    -0.00   0.00   0.00     0.02  -0.00  -0.02
    13   6    -0.00  -0.01   0.01    -0.00  -0.00  -0.00    -0.01  -0.01   0.01
    14   6     0.00   0.10  -0.07     0.00   0.00   0.00     0.00   0.01   0.00
    15   6    -0.00  -0.04   0.03     0.00  -0.00   0.00     0.00  -0.01   0.00
    16   9     0.00   0.01  -0.01    -0.00   0.00   0.00     0.00  -0.00  -0.00
    17   1     0.00  -0.00  -0.00    -0.01   0.05   0.06    -0.34  -0.23   0.28
    18   1    -0.00   0.00   0.00    -0.07  -0.02   0.10     0.05   0.38  -0.39
    19   1    -0.00  -0.00   0.00     0.07   0.09  -0.06    -0.05   0.21  -0.36
    20   1    -0.00   0.00   0.00    -0.00  -0.53  -0.38    -0.13   0.05  -0.08
    21   1     0.00   0.00   0.00     0.00  -0.02  -0.02     0.00  -0.21   0.30
    22   1     0.00  -0.00  -0.00    -0.00   0.58   0.40     0.10  -0.01   0.01
    23   1     0.00  -0.02   0.03     0.00  -0.00   0.00     0.00  -0.05   0.02
    24   1     0.01   0.59  -0.39    -0.01   0.00  -0.00     0.04  -0.05   0.02
    25   1     0.00   0.10  -0.07    -0.00  -0.01  -0.01    -0.00   0.10  -0.03
    26   1    -0.00  -0.56   0.36     0.01  -0.00   0.00     0.01  -0.04   0.03
                     34                     35                     36
                      A                      A                      A
 Frequencies --    946.5190               957.8802               995.6045
 Red. masses --      1.2842                 1.3067                 6.9027
 Frc consts  --      0.6779                 0.7064                 4.0313
 IR Inten    --      0.0271                 0.3164                 4.7348
  Atom  AN      X      Y      Z        X      Y      Z        X      Y      Z
     1   6    -0.01   0.00  -0.00    -0.00  -0.01  -0.01    -0.01  -0.01  -0.02
     2   6    -0.00   0.00  -0.01     0.00   0.01   0.01    -0.01  -0.01   0.04
     3   6     0.01  -0.00   0.01    -0.00   0.06   0.04    -0.15   0.12  -0.19
     4   6     0.00   0.00  -0.00     0.00  -0.11  -0.07     0.03  -0.00   0.00
     5   6    -0.00   0.00  -0.00     0.00   0.05   0.04    -0.15  -0.13   0.19
     6   6     0.00   0.00  -0.00    -0.00  -0.00   0.00    -0.01   0.01  -0.02
     7   9     0.00  -0.00   0.00    -0.00   0.00   0.00    -0.00   0.00  -0.00
     8   6     0.00   0.00  -0.00    -0.00  -0.01  -0.01     0.31   0.01   0.02
     9   6     0.00  -0.01   0.01     0.00  -0.00  -0.01     0.31  -0.04  -0.06
    10   6     0.00   0.00  -0.00     0.00  -0.00  -0.00     0.02  -0.04  -0.05
    11   8     0.00   0.00  -0.00     0.00   0.00   0.00     0.02   0.02   0.02
    12   6    -0.00   0.06  -0.04    -0.00   0.00   0.00    -0.19   0.15   0.22
    13   6    -0.00  -0.11   0.07    -0.00  -0.00  -0.00     0.02  -0.01  -0.01
    14   6     0.00   0.05  -0.03     0.00   0.00   0.00    -0.13  -0.12  -0.19
    15   6    -0.00   0.01  -0.00    -0.00  -0.00  -0.00    -0.01   0.01   0.00
    16   9    -0.00   0.00  -0.00    -0.00   0.00   0.00    -0.01   0.01   0.02
    17   1     0.03   0.02  -0.03    -0.00   0.03   0.03     0.07   0.08  -0.04
    18   1    -0.00  -0.03   0.03    -0.04  -0.01   0.05    -0.04  -0.03   0.06
    19   1     0.01  -0.02   0.03     0.04   0.04  -0.03     0.06   0.05  -0.02
    20   1     0.01  -0.00   0.01    -0.00  -0.37  -0.26    -0.16   0.16  -0.16
    21   1     0.00   0.02  -0.02     0.00   0.64   0.44     0.02  -0.02   0.02
    22   1    -0.01  -0.00  -0.00     0.00  -0.34  -0.23    -0.22  -0.11   0.17
    23   1    -0.00   0.01  -0.00     0.00   0.00   0.01     0.05   0.10   0.18
    24   1    -0.01  -0.38   0.25    -0.01   0.00   0.00    -0.21   0.15   0.23
    25   1     0.01   0.67  -0.44    -0.00  -0.01  -0.01    -0.00  -0.10  -0.15
    26   1    -0.00  -0.30   0.19     0.01   0.00   0.00    -0.15  -0.12  -0.19
                     37                     38                     39
                      A                      A                      A
 Frequencies --   1006.4704              1012.6991              1024.9024
 Red. masses --      2.1771                 1.9133                 2.7218
 Frc consts  --      1.2993                 1.1561                 1.6845
 IR Inten    --     18.1771                15.1244                23.7121
  Atom  AN      X      Y      Z        X      Y      Z        X      Y      Z
     1   6    -0.04   0.13   0.01     0.04   0.04   0.15     0.03  -0.12   0.03
     2   6    -0.01  -0.11  -0.03     0.02  -0.05  -0.12     0.02   0.10  -0.01
     3   6    -0.02   0.04   0.01     0.01   0.04   0.01    -0.00   0.02  -0.06
     4   6     0.02  -0.01   0.00    -0.04   0.00  -0.01    -0.04   0.00  -0.01
     5   6     0.01   0.01  -0.02    -0.03  -0.04   0.05    -0.04  -0.05   0.08
     6   6    -0.00  -0.01   0.03     0.00   0.03  -0.05     0.01   0.05  -0.06
     7   9    -0.01   0.02  -0.03     0.02  -0.03   0.05     0.02  -0.04   0.05
     8   6     0.04  -0.06   0.06    -0.01   0.09  -0.08     0.02   0.02  -0.12
     9   6     0.03   0.08   0.11    -0.01  -0.05  -0.02     0.02   0.07   0.14
    10   6    -0.02   0.04   0.05     0.01  -0.00  -0.02    -0.04   0.05   0.07
    11   8    -0.03  -0.04  -0.05     0.01   0.01   0.02    -0.05  -0.05  -0.06
    12   6     0.05  -0.02  -0.02    -0.02   0.01   0.01     0.07  -0.03  -0.05
    13   6     0.01   0.01   0.02    -0.00  -0.01  -0.01     0.02   0.01   0.02
    14   6    -0.07  -0.03  -0.05     0.03   0.01   0.02    -0.07  -0.02  -0.03
    15   6     0.01   0.04   0.07    -0.00  -0.01  -0.02     0.01   0.06   0.08
    16   9     0.03  -0.04  -0.06    -0.01   0.01   0.02     0.03  -0.05  -0.07
    17   1     0.23   0.01  -0.42    -0.26  -0.40   0.06    -0.26  -0.09   0.39
    18   1     0.29  -0.05  -0.26     0.24   0.22  -0.47    -0.21   0.08   0.13
    19   1    -0.20  -0.36   0.34    -0.38  -0.29   0.11     0.09   0.22  -0.23
    20   1    -0.01  -0.14  -0.12    -0.01  -0.13  -0.11     0.00   0.09  -0.02
    21   1     0.02  -0.05   0.11    -0.04   0.10  -0.15    -0.05   0.13  -0.15
    22   1    -0.06   0.04  -0.04     0.12  -0.07   0.13     0.18  -0.14   0.17
    23   1    -0.06  -0.07  -0.17     0.02   0.06   0.03    -0.08  -0.14  -0.23
    24   1     0.01  -0.02  -0.04    -0.01  -0.00   0.02    -0.02  -0.07  -0.09
    25   1     0.02   0.19   0.31    -0.01  -0.06  -0.11     0.03   0.27   0.39
    26   1    -0.05  -0.04  -0.06     0.02   0.01   0.02    -0.03  -0.04  -0.05
                     40                     41                     42
                      A                      A                      A
 Frequencies --   1049.7006              1070.5573              1127.2503
 Red. masses --      1.5721                 1.4481                 1.1282
 Frc consts  --      1.0206                 0.9778                 0.8446
 IR Inten    --      5.8727                 6.4105                 7.5501
  Atom  AN      X      Y      Z        X      Y      Z        X      Y      Z
     1   6     0.02  -0.01   0.01    -0.04   0.02  -0.03    -0.00  -0.00   0.00
     2   6    -0.00   0.01  -0.01     0.02  -0.02   0.02     0.00   0.00  -0.00
     3   6     0.01  -0.03   0.04     0.03   0.06  -0.08    -0.00   0.00   0.00
     4   6     0.01  -0.00   0.00    -0.08   0.01  -0.01     0.00   0.00  -0.00
     5   6     0.02   0.03  -0.04     0.04  -0.05   0.07    -0.00   0.00  -0.00
     6   6    -0.00  -0.00   0.00     0.00  -0.01   0.01    -0.00   0.01  -0.00
     7   9     0.00  -0.00   0.00    -0.01   0.01  -0.01     0.00  -0.00   0.00
     8   6    -0.05   0.01  -0.02    -0.03  -0.02   0.04     0.01  -0.01  -0.01
     9   6    -0.02   0.01   0.02    -0.05   0.00  -0.01     0.00   0.03   0.05
    10   6     0.02  -0.00  -0.01     0.00  -0.00  -0.00    -0.02   0.01   0.01
    11   8    -0.01  -0.01  -0.01     0.00   0.00   0.00    -0.00  -0.00   0.00
    12   6     0.02   0.07   0.10     0.02   0.00   0.01     0.03   0.00   0.00
    13   6    -0.08   0.01   0.01    -0.02   0.00  -0.00    -0.00  -0.03  -0.05
    14   6     0.02  -0.07  -0.11     0.03  -0.00  -0.00    -0.02  -0.01  -0.01
    15   6     0.01   0.01   0.02    -0.00  -0.01  -0.01     0.02   0.01   0.02
    16   9    -0.00  -0.01  -0.01    -0.00   0.00   0.01    -0.00  -0.01  -0.01
    17   1    -0.06  -0.05   0.07     0.13   0.11  -0.13    -0.00  -0.00   0.01
    18   1    -0.01   0.04  -0.02     0.01  -0.10   0.07    -0.00   0.00   0.00
    19   1    -0.02   0.01  -0.04     0.04  -0.03   0.09     0.00   0.00  -0.00
    20   1    -0.06  -0.06   0.08     0.41   0.19  -0.27    -0.04  -0.01   0.02
    21   1     0.02   0.01  -0.01    -0.09   0.02  -0.04     0.00   0.01  -0.02
    22   1    -0.07   0.05  -0.08     0.61  -0.22   0.33     0.00  -0.00   0.00
    23   1     0.01   0.05   0.08     0.00   0.01   0.01    -0.03  -0.08  -0.12
    24   1     0.46   0.20   0.31     0.17   0.05   0.07     0.57   0.15   0.25
    25   1    -0.10   0.05   0.07    -0.02  -0.02  -0.03    -0.01  -0.29  -0.45
    26   1     0.57  -0.25  -0.38     0.16  -0.04  -0.06    -0.45   0.13   0.19
                     43                     44                     45
                      A                      A                      A
 Frequencies --   1138.8989              1177.1836              1220.9079
 Red. masses --      1.1606                 1.7272                 1.7079
 Frc consts  --      0.8870                 1.4102                 1.5000
 IR Inten    --      0.3721               157.9933                12.1368
  Atom  AN      X      Y      Z        X      Y      Z        X      Y      Z
     1   6    -0.01  -0.01   0.02    -0.00  -0.01   0.01     0.05   0.02  -0.02
     2   6     0.03   0.02  -0.03     0.01   0.02  -0.03    -0.14  -0.06   0.08
     3   6     0.03   0.02  -0.03     0.03  -0.01   0.01    -0.03  -0.03   0.04
     4   6    -0.03  -0.03   0.05    -0.01  -0.00   0.00     0.01   0.00  -0.00
     5   6    -0.02  -0.01   0.01     0.02   0.02  -0.02     0.02  -0.04   0.06
     6   6     0.00   0.01  -0.01    -0.03  -0.01   0.02     0.11  -0.00   0.01
     7   9     0.00  -0.01   0.01     0.00   0.00  -0.00    -0.03   0.01  -0.02
     8   6     0.00   0.03  -0.05    -0.07  -0.00   0.00     0.01   0.03  -0.04
     9   6    -0.01  -0.00   0.00     0.02   0.05   0.07    -0.03  -0.01   0.02
    10   6    -0.01   0.00   0.00     0.12  -0.00   0.01     0.02   0.01   0.02
    11   8    -0.00   0.00   0.00    -0.00  -0.06  -0.10    -0.01  -0.01  -0.02
    12   6     0.01  -0.00  -0.00    -0.04   0.02   0.04     0.01   0.00   0.00
    13   6    -0.00  -0.00  -0.00    -0.01  -0.01  -0.01     0.00  -0.00  -0.00
    14   6     0.00   0.00   0.00    -0.03  -0.00  -0.00    -0.00   0.01   0.02
    15   6    -0.00  -0.00  -0.00    -0.03   0.04   0.06    -0.03   0.01   0.02
    16   9     0.00  -0.00   0.00     0.02  -0.03  -0.04     0.01  -0.01  -0.01
    17   1    -0.02  -0.02   0.03    -0.05  -0.02   0.05     0.07   0.04  -0.05
    18   1    -0.01  -0.02   0.03    -0.03  -0.01   0.04     0.01   0.14  -0.14
    19   1    -0.02  -0.02   0.03    -0.02  -0.03   0.01    -0.00   0.09  -0.14
    20   1     0.46   0.16  -0.24     0.06   0.01  -0.01     0.51   0.15  -0.21
    21   1    -0.03  -0.40   0.57    -0.01  -0.06   0.09     0.01   0.32  -0.46
    22   1    -0.39   0.10  -0.16     0.13  -0.01   0.03    -0.40   0.08  -0.12
    23   1    -0.01  -0.01  -0.04     0.15   0.43   0.65     0.01   0.03   0.07
    24   1     0.05   0.01   0.02    -0.31  -0.05  -0.08    -0.02  -0.01  -0.01
    25   1    -0.00  -0.01  -0.01    -0.02  -0.21  -0.32     0.00  -0.08  -0.13
    26   1     0.02  -0.00  -0.00    -0.13   0.03   0.05     0.09  -0.02  -0.02
                     46                     47                     48
                      A                      A                      A
 Frequencies --   1236.7110              1270.3437              1277.7026
 Red. masses --      1.9484                 3.4998                 3.6596
 Frc consts  --      1.7558                 3.3276                 3.5200
 IR Inten    --      5.1915                37.8314                18.1510
  Atom  AN      X      Y      Z        X      Y      Z        X      Y      Z
     1   6     0.02  -0.01   0.01    -0.05  -0.02   0.02     0.00  -0.02   0.03
     2   6    -0.05   0.03  -0.03     0.15   0.09  -0.12    -0.02   0.09  -0.13
     3   6     0.02  -0.02   0.03    -0.00   0.05  -0.07     0.06  -0.02   0.02
     4   6    -0.02  -0.00   0.00    -0.16  -0.01   0.02    -0.06  -0.00   0.01
     5   6     0.04   0.00  -0.00     0.05  -0.06   0.08     0.08   0.01  -0.01
     6   6     0.02  -0.04   0.05     0.21  -0.10   0.14     0.04  -0.11   0.15
     7   9    -0.01   0.01  -0.02    -0.07   0.05  -0.08    -0.04   0.04  -0.06
     8   6    -0.09   0.00  -0.01     0.09  -0.03   0.03    -0.17   0.00   0.02
     9   6     0.07   0.01   0.03    -0.11   0.02   0.03     0.22  -0.06  -0.08
    10   6    -0.03  -0.03  -0.04     0.01   0.03   0.05    -0.02  -0.03  -0.07
    11   8     0.03   0.01   0.00    -0.00  -0.02  -0.04    -0.01   0.05   0.08
    12   6    -0.07   0.00  -0.00     0.02  -0.01  -0.02     0.01   0.03   0.04
    13   6    -0.05  -0.00  -0.00    -0.02   0.00   0.01     0.06  -0.01  -0.01
    14   6     0.03  -0.05  -0.08     0.04   0.01   0.01    -0.12   0.01   0.01
    15   6     0.17  -0.03  -0.04    -0.01  -0.04  -0.06    -0.03   0.08   0.13
    16   9    -0.04   0.03   0.04    -0.01   0.01   0.02     0.04  -0.03  -0.04
    17   1    -0.03  -0.04   0.02    -0.14  -0.06   0.11    -0.12  -0.11   0.09
    18   1    -0.03   0.04   0.00    -0.02  -0.17   0.19    -0.05  -0.01   0.09
    19   1    -0.06  -0.01  -0.05     0.00  -0.14   0.18    -0.10  -0.08   0.01
    20   1     0.25   0.06  -0.08    -0.43  -0.08   0.11     0.19   0.03  -0.05
    21   1    -0.01   0.07  -0.10    -0.18   0.16  -0.23    -0.07   0.07  -0.10
    22   1     0.00   0.01  -0.02    -0.50   0.09  -0.14     0.06   0.01  -0.02
    23   1     0.07   0.13   0.21     0.03   0.10   0.14    -0.14  -0.36  -0.57
    24   1     0.10   0.05   0.08     0.08   0.00   0.01    -0.21  -0.04  -0.06
    25   1    -0.05   0.34   0.52    -0.02   0.00   0.01     0.06  -0.16  -0.25
    26   1    -0.55   0.12   0.18     0.05  -0.00   0.00     0.13  -0.07  -0.10
                     49                     50                     51
                      A                      A                      A
 Frequencies --   1318.2830              1345.5129              1353.3011
 Red. masses --      3.3327                 2.2705                 2.2135
 Frc consts  --      3.4124                 2.4218                 2.3885
 IR Inten    --     34.1831                 3.9611                 4.5287
  Atom  AN      X      Y      Z        X      Y      Z        X      Y      Z
     1   6     0.02   0.01  -0.02     0.10   0.05  -0.07     0.06   0.08  -0.11
     2   6    -0.02  -0.01  -0.00    -0.14   0.03  -0.05     0.09  -0.06   0.09
     3   6     0.00  -0.00   0.01     0.09   0.03  -0.03    -0.11  -0.03   0.04
     4   6     0.01  -0.00   0.00     0.02  -0.06   0.09     0.01   0.06  -0.09
     5   6    -0.01   0.01  -0.01    -0.10   0.03  -0.04     0.09  -0.03   0.04
     6   6    -0.01  -0.00  -0.00     0.07   0.05  -0.07    -0.09  -0.03   0.04
     7   9     0.00  -0.00   0.00     0.01  -0.00   0.01    -0.00  -0.00   0.00
     8   6    -0.02  -0.00   0.00     0.03  -0.09   0.13     0.00   0.08  -0.11
     9   6     0.04  -0.03  -0.04    -0.01   0.01   0.01    -0.00  -0.02  -0.02
    10   6     0.14   0.13   0.18    -0.01  -0.01  -0.01    -0.02   0.01   0.01
    11   8    -0.10  -0.05  -0.06     0.01   0.00   0.01     0.01  -0.00   0.00
    12   6     0.15   0.06   0.09    -0.02  -0.01  -0.02    -0.01  -0.00  -0.00
    13   6    -0.16   0.01   0.01     0.02   0.01   0.01     0.01  -0.01  -0.02
    14   6    -0.00  -0.03  -0.04     0.01   0.00   0.01    -0.01   0.01   0.01
    15   6     0.14  -0.09  -0.13    -0.03  -0.01  -0.01     0.00   0.01   0.02
    16   9    -0.04   0.04   0.06     0.00  -0.00  -0.00     0.00  -0.00  -0.00
    17   1    -0.06   0.05   0.11    -0.33  -0.15   0.22    -0.38  -0.10   0.24
    18   1    -0.08   0.06   0.06    -0.28   0.06   0.49    -0.13  -0.16   0.52
    19   1    -0.05  -0.13   0.06    -0.38  -0.47   0.07    -0.14  -0.49   0.30
    20   1     0.05   0.01  -0.01     0.05   0.01  -0.02     0.06   0.03  -0.03
    21   1     0.02  -0.00   0.01     0.02   0.04  -0.06     0.01  -0.02   0.02
    22   1     0.05  -0.01   0.02     0.06  -0.02   0.02    -0.03   0.01  -0.01
    23   1    -0.17  -0.26  -0.46     0.01   0.04   0.01     0.01   0.04   0.03
    24   1    -0.47  -0.11  -0.18     0.06   0.01   0.02     0.06   0.02   0.03
    25   1    -0.18  -0.18  -0.28     0.02   0.00   0.01     0.01   0.04   0.06
    26   1    -0.12  -0.00  -0.01     0.05  -0.01  -0.01     0.00   0.01   0.01
                     52                     53                     54
                      A                      A                      A
 Frequencies --   1379.0489              1402.3026              1410.8472
 Red. masses --      5.5979                 1.0705                 1.2292
 Frc consts  --      6.2725                 1.2403                 1.4415
 IR Inten    --     20.9279                19.8011                 3.2460
  Atom  AN      X      Y      Z        X      Y      Z        X      Y      Z
     1   6     0.00  -0.00  -0.01     0.00  -0.05  -0.01    -0.03   0.02  -0.05
     2   6     0.02   0.00  -0.00     0.00  -0.01  -0.02     0.00  -0.02   0.01
     3   6    -0.04  -0.02   0.02     0.01  -0.00   0.00     0.00   0.01  -0.02
     4   6     0.01   0.01  -0.02    -0.00   0.01  -0.01    -0.00  -0.03   0.04
     5   6     0.04  -0.00   0.01    -0.00  -0.00   0.00     0.00   0.00  -0.01
     6   6    -0.04  -0.01   0.02    -0.00  -0.01   0.02     0.02   0.04  -0.06
     7   9     0.00  -0.00  -0.00    -0.00   0.00  -0.01     0.01  -0.01   0.01
     8   6    -0.02   0.01  -0.04     0.01   0.01  -0.01    -0.05  -0.02   0.03
     9   6     0.05   0.15   0.25     0.01  -0.01  -0.01     0.00  -0.01  -0.01
    10   6     0.21  -0.09  -0.14    -0.01   0.01   0.01     0.01  -0.01  -0.02
    11   8    -0.02   0.03   0.05     0.00  -0.00  -0.00     0.00   0.00   0.01
    12   6    -0.17  -0.06  -0.09    -0.01  -0.01  -0.01    -0.00   0.01   0.01
    13   6    -0.01   0.16   0.24     0.01  -0.01  -0.01    -0.01  -0.00  -0.01
    14   6     0.19  -0.08  -0.12    -0.00   0.01   0.01     0.00  -0.01  -0.01
    15   6    -0.20  -0.09  -0.14    -0.01  -0.00  -0.00     0.01   0.02   0.03
    16   9    -0.01   0.01   0.01     0.00  -0.00  -0.00     0.00  -0.00  -0.00
    17   1    -0.04   0.04   0.08     0.23   0.55   0.32    -0.31   0.11   0.39
    18   1    -0.01   0.01  -0.00    -0.30   0.47  -0.26     0.32  -0.20  -0.26
    19   1     0.03  -0.06   0.07    -0.03  -0.30   0.23     0.53  -0.01   0.44
    20   1     0.10   0.03  -0.04    -0.03  -0.01   0.02     0.00   0.02  -0.02
    21   1     0.01   0.03  -0.04    -0.00  -0.03   0.04    -0.00   0.07  -0.11
    22   1    -0.01   0.01  -0.02     0.03  -0.01   0.02    -0.09   0.03  -0.05
    23   1    -0.13  -0.35  -0.55     0.01   0.03   0.02    -0.00  -0.00  -0.02
    24   1    -0.07  -0.02  -0.05     0.06   0.02   0.02    -0.04  -0.00  -0.00
    25   1    -0.02  -0.17  -0.25     0.01   0.02   0.03    -0.01   0.01   0.02
    26   1    -0.06   0.00  -0.00     0.02   0.00   0.00    -0.05   0.01   0.02
                     55                     56                     57
                      A                      A                      A
 Frequencies --   1447.7140              1458.6681              1471.9489
 Red. masses --      3.1297                 3.0220                 3.5279
 Frc consts  --      3.8647                 3.7884                 4.5035
 IR Inten    --     14.0360               101.4767                55.6600
  Atom  AN      X      Y      Z        X      Y      Z        X      Y      Z
     1   6    -0.01  -0.02   0.03    -0.02  -0.03   0.03     0.01   0.00  -0.02
     2   6    -0.04   0.11  -0.15     0.16   0.04  -0.06    -0.07   0.00   0.00
     3   6    -0.13  -0.06   0.08    -0.14   0.02  -0.02     0.03  -0.02   0.03
     4   6     0.09  -0.02   0.03    -0.00  -0.09   0.13     0.02   0.05  -0.07
     5   6    -0.02   0.05  -0.07     0.14   0.01  -0.02    -0.07  -0.00   0.01
     6   6    -0.12  -0.07   0.10    -0.14   0.08  -0.11     0.05  -0.04   0.06
     7   9     0.01   0.01  -0.02     0.03  -0.02   0.03    -0.01   0.01  -0.01
     8   6     0.15  -0.02   0.03    -0.01  -0.06   0.08     0.06   0.01  -0.05
     9   6     0.05   0.01   0.00    -0.04   0.03   0.01    -0.06   0.06   0.11
    10   6    -0.04   0.07   0.11    -0.06  -0.05  -0.07    -0.18  -0.09  -0.14
    11   8     0.00  -0.03  -0.04     0.02   0.02   0.02     0.05   0.03   0.03
    12   6    -0.04  -0.03  -0.05     0.07   0.01   0.02     0.14  -0.01  -0.02
    13   6     0.05  -0.01  -0.01    -0.01   0.02   0.03     0.00   0.09   0.13
    14   6    -0.04   0.04   0.06    -0.05  -0.01  -0.01    -0.15  -0.02  -0.03
    15   6    -0.05  -0.07  -0.11     0.08  -0.00   0.00     0.18  -0.04  -0.06
    16   9    -0.00   0.01   0.02    -0.01   0.00   0.01    -0.02   0.01   0.02
    17   1    -0.21  -0.10   0.19     0.20   0.10  -0.10    -0.11   0.02   0.15
    18   1     0.20  -0.13  -0.13    -0.22   0.14   0.10     0.08  -0.02  -0.08
    19   1     0.24   0.10   0.11    -0.23  -0.11  -0.06     0.14  -0.02   0.12
    20   1     0.48   0.15  -0.21     0.19   0.14  -0.20    -0.00  -0.04   0.06
    21   1     0.10   0.09  -0.13    -0.00   0.31  -0.45     0.02  -0.14   0.20
    22   1     0.26  -0.03   0.04    -0.25   0.15  -0.21     0.14  -0.07   0.10
    23   1     0.02   0.08   0.12     0.02   0.04   0.06     0.07   0.12   0.22
    24   1     0.25   0.05   0.08    -0.16  -0.06  -0.10    -0.25  -0.15  -0.22
    25   1     0.06   0.01   0.02    -0.02  -0.10  -0.15    -0.01  -0.30  -0.45
    26   1     0.23  -0.04  -0.06     0.02  -0.04  -0.06     0.18  -0.14  -0.21
                     58                     59                     60
                      A                      A                      A
 Frequencies --   1495.0041              1582.8972              1594.7956
 Red. masses --      4.7819                 7.1750                 7.2032
 Frc consts  --      6.2970                10.5920                10.7940
 IR Inten    --      8.8009                52.7818                82.2883
  Atom  AN      X      Y      Z        X      Y      Z        X      Y      Z
     1   6    -0.01   0.02  -0.02    -0.01   0.01  -0.02     0.00  -0.00   0.01
     2   6     0.03  -0.07   0.09     0.14  -0.11   0.16    -0.05   0.04  -0.06
     3   6     0.08   0.04  -0.06    -0.01   0.10  -0.14     0.02  -0.03   0.04
     4   6    -0.06  -0.01   0.02     0.07  -0.22   0.32    -0.03   0.06  -0.09
     5   6     0.06  -0.03   0.04    -0.22   0.15  -0.22     0.09  -0.05   0.07
     6   6     0.02   0.07  -0.09     0.05  -0.13   0.19    -0.05   0.04  -0.06
     7   9     0.00  -0.01   0.02    -0.01   0.02  -0.02     0.00  -0.00   0.01
     8   6    -0.22   0.00  -0.01    -0.03   0.16  -0.23     0.02  -0.04   0.10
     9   6     0.26   0.03   0.05     0.00  -0.06  -0.06     0.02  -0.16  -0.26
    10   6    -0.07   0.09   0.13    -0.05   0.04   0.05    -0.15   0.13   0.20
    11   8     0.01  -0.03  -0.05     0.01  -0.01  -0.01     0.02  -0.02  -0.04
    12   6    -0.11  -0.07  -0.11    -0.02  -0.04  -0.07    -0.03  -0.12  -0.18
    13   6     0.11   0.03   0.05    -0.00   0.08   0.12    -0.02   0.22   0.33
    14   6    -0.17   0.05   0.08     0.03  -0.04  -0.07     0.15  -0.13  -0.20
    15   6     0.02  -0.13  -0.19     0.02   0.04   0.06    -0.00   0.11   0.18
    16   9    -0.02   0.03   0.04     0.00  -0.01  -0.01     0.00  -0.01  -0.02
    17   1     0.06   0.01  -0.10     0.09   0.04  -0.10    -0.02  -0.02   0.02
    18   1    -0.01  -0.02   0.04    -0.04  -0.02   0.08     0.02   0.01  -0.03
    19   1    -0.03   0.02  -0.04    -0.06  -0.03  -0.01     0.02   0.03  -0.01
    20   1    -0.24  -0.07   0.09    -0.09   0.08  -0.12     0.02  -0.03   0.04
    21   1    -0.07   0.02  -0.03     0.07   0.24  -0.35    -0.03  -0.06   0.09
    22   1    -0.21   0.05  -0.08     0.37  -0.02   0.03    -0.13   0.02  -0.03
    23   1     0.07   0.15   0.22     0.03   0.06   0.09     0.07   0.16   0.24
    24   1     0.36   0.05   0.09     0.06  -0.03  -0.04     0.19  -0.07  -0.10
    25   1     0.13  -0.09  -0.14    -0.01  -0.10  -0.15    -0.04  -0.24  -0.36
    26   1     0.43  -0.14  -0.21    -0.08  -0.01  -0.02    -0.27  -0.00  -0.02
                     61                     62                     63
                      A                      A                      A
 Frequencies --   1616.0473              1635.3575              2963.9541
 Red. masses --      7.6215                 7.8490                 1.0380
 Frc consts  --     11.7273                12.3677                 5.3726
 IR Inten    --     23.4122                65.9638                12.2619
  Atom  AN      X      Y      Z        X      Y      Z        X      Y      Z
     1   6    -0.03  -0.01   0.01     0.00  -0.00   0.00     0.03   0.02  -0.04
     2   6     0.29   0.03  -0.04    -0.03   0.01  -0.01    -0.00  -0.00   0.00
     3   6    -0.33  -0.11   0.15     0.02   0.01  -0.01    -0.00  -0.00   0.00
     4   6     0.15   0.09  -0.12    -0.01  -0.00   0.00     0.00   0.00  -0.00
     5   6    -0.30   0.01  -0.01     0.03  -0.00   0.01    -0.00  -0.00  -0.00
     6   6     0.38   0.07  -0.11    -0.05  -0.01   0.01     0.00   0.00  -0.00
     7   9    -0.02   0.00  -0.00     0.00   0.00   0.00    -0.00   0.00  -0.00
     8   6    -0.21  -0.07   0.11     0.09   0.00   0.00     0.00  -0.00   0.00
     9   6     0.02  -0.01  -0.03    -0.27  -0.04  -0.08    -0.00  -0.00  -0.00
    10   6     0.04   0.01   0.01     0.38  -0.00   0.00     0.00   0.00   0.00
    11   8    -0.00  -0.00   0.00    -0.05   0.00   0.01     0.00  -0.00  -0.00
    12   6    -0.05  -0.02  -0.02    -0.33  -0.07  -0.11    -0.00  -0.00  -0.00
    13   6     0.02   0.02   0.02     0.14   0.04   0.07    -0.00  -0.00  -0.00
    14   6    -0.04  -0.00  -0.00    -0.28   0.03   0.03    -0.00   0.00  -0.00
    15   6     0.04   0.01   0.03     0.37   0.06   0.10     0.00  -0.00   0.00
    16   9    -0.00  -0.00  -0.00    -0.02   0.00   0.00    -0.00   0.00  -0.00
    17   1     0.12   0.06  -0.09    -0.01  -0.02  -0.00     0.31  -0.26   0.25
    18   1    -0.10   0.02   0.09     0.01   0.01  -0.01    -0.37  -0.34  -0.25
    19   1    -0.11  -0.06  -0.01    -0.00   0.03  -0.03    -0.33   0.42   0.41
    20   1     0.34   0.12  -0.17    -0.02  -0.01   0.01    -0.00   0.00  -0.01
    21   1     0.18  -0.11   0.16    -0.01   0.01  -0.01     0.00   0.00  -0.00
    22   1     0.18  -0.16   0.23    -0.02   0.02  -0.02    -0.00  -0.00   0.00
    23   1     0.00  -0.00  -0.01    -0.09  -0.20  -0.33    -0.00  -0.00  -0.00
    24   1     0.05   0.01   0.02     0.26   0.12   0.17    -0.00   0.00   0.00
    25   1     0.02  -0.02  -0.03     0.15  -0.05  -0.07     0.00  -0.00   0.00
    26   1     0.01  -0.02  -0.03     0.15  -0.13  -0.19    -0.00  -0.00  -0.00
                     64                     65                     66
                      A                      A                      A
 Frequencies --   3038.2013              3070.9065              3103.7526
 Red. masses --      1.1002                 1.1038                 1.0875
 Frc consts  --      5.9836                 6.1330                 6.1724
 IR Inten    --      2.8977                10.4693                 3.9374
  Atom  AN      X      Y      Z        X      Y      Z        X      Y      Z
     1   6    -0.00  -0.08  -0.05    -0.08   0.03  -0.04    -0.00   0.00  -0.00
     2   6     0.00   0.00  -0.00    -0.00  -0.00   0.00     0.00   0.00  -0.00
     3   6    -0.00  -0.00  -0.00     0.00  -0.00   0.00    -0.04   0.04  -0.05
     4   6    -0.00   0.00  -0.00    -0.00   0.00  -0.00     0.05  -0.00   0.00
     5   6     0.00  -0.00   0.00     0.00  -0.00   0.00    -0.01  -0.00   0.01
     6   6     0.00  -0.00  -0.00    -0.00  -0.00   0.00     0.00  -0.00   0.00
     7   9     0.00  -0.00   0.00     0.00   0.00  -0.00     0.00   0.00  -0.00
     8   6    -0.00   0.00   0.00    -0.00   0.00   0.00     0.00  -0.00   0.00
     9   6     0.00   0.00  -0.00     0.00   0.00  -0.00    -0.00   0.00  -0.00
    10   6     0.00  -0.00   0.00     0.00  -0.00  -0.00     0.00  -0.00  -0.00
    11   8     0.00  -0.00   0.00    -0.00   0.00   0.00     0.00   0.00   0.00
    12   6     0.00   0.00  -0.00    -0.00   0.00   0.00    -0.00   0.00   0.00
    13   6    -0.00  -0.00  -0.00    -0.00  -0.00  -0.00    -0.00  -0.00  -0.00
    14   6    -0.00   0.00   0.00    -0.00  -0.00  -0.00    -0.00  -0.00  -0.00
    15   6     0.00  -0.00  -0.00     0.00   0.00   0.00    -0.00   0.00   0.00
    16   9    -0.00   0.00   0.00     0.00  -0.00  -0.00     0.00  -0.00  -0.00
    17   1    -0.11   0.08  -0.10     0.55  -0.48   0.47     0.02  -0.02   0.02
    18   1     0.48   0.41   0.29     0.29   0.28   0.19     0.00   0.00   0.00
    19   1    -0.36   0.42   0.42     0.10  -0.14  -0.15     0.00  -0.00  -0.00
    20   1     0.00  -0.00   0.00    -0.01   0.02  -0.02     0.42  -0.41   0.58
    21   1     0.00   0.00   0.00     0.01   0.00  -0.00    -0.54   0.00  -0.00
    22   1    -0.00  -0.00   0.00     0.00   0.00  -0.00     0.06   0.06  -0.08
    23   1     0.00   0.00  -0.00     0.00  -0.00  -0.00    -0.00  -0.00  -0.00
    24   1    -0.00   0.00   0.00     0.00  -0.00  -0.00     0.00  -0.00  -0.00
    25   1     0.00  -0.00   0.00     0.00   0.00  -0.00     0.00  -0.00  -0.00
    26   1    -0.00  -0.00  -0.00     0.00   0.00   0.00     0.00   0.00   0.00
                     67                     68                     69
                      A                      A                      A
 Frequencies --   3113.4851              3119.1178              3135.8017
 Red. masses --      1.0880                 1.0937                 1.0935
 Frc consts  --      6.2140                 6.2689                 6.3353
 IR Inten    --      5.9014                11.8106                 3.7070
  Atom  AN      X      Y      Z        X      Y      Z        X      Y      Z
     1   6    -0.00   0.00   0.00    -0.00   0.00  -0.00    -0.00   0.00  -0.00
     2   6     0.00   0.00  -0.00     0.00   0.00  -0.00    -0.00   0.00  -0.00
     3   6     0.00   0.00  -0.00    -0.02   0.03  -0.04     0.00  -0.00   0.00
     4   6    -0.00  -0.00   0.00    -0.07  -0.00   0.00     0.00  -0.00   0.00
     5   6     0.00   0.00  -0.00     0.02   0.01  -0.02     0.00   0.00  -0.00
     6   6     0.00   0.00   0.00    -0.00   0.00  -0.00    -0.00  -0.00   0.00
     7   9    -0.00   0.00  -0.00     0.00  -0.00   0.00     0.00  -0.00   0.00
     8   6    -0.00   0.00   0.00     0.00  -0.00   0.00    -0.00  -0.00  -0.00
     9   6     0.00  -0.00  -0.00    -0.00   0.00  -0.00    -0.00   0.00   0.00
    10   6    -0.00  -0.00  -0.00     0.00  -0.00  -0.00    -0.00  -0.00  -0.00
    11   8     0.00  -0.00  -0.00     0.00   0.00   0.00     0.00   0.00   0.00
    12   6     0.01  -0.01  -0.02    -0.00   0.00   0.00     0.04  -0.04  -0.06
    13   6    -0.08   0.00   0.00     0.00  -0.00  -0.00     0.02   0.00   0.00
    14   6     0.01   0.01   0.01    -0.00  -0.00  -0.00    -0.02  -0.01  -0.02
    15   6    -0.00   0.00   0.00     0.00   0.00   0.00     0.00  -0.00  -0.00
    16   9    -0.00  -0.00  -0.00    -0.00  -0.00  -0.00    -0.00   0.00   0.00
    17   1    -0.00   0.00   0.00     0.01  -0.01   0.01     0.00  -0.00   0.00
    18   1    -0.00  -0.00  -0.00     0.00   0.00   0.00     0.00   0.00   0.00
    19   1     0.00  -0.00  -0.00     0.00  -0.00  -0.00     0.00  -0.00  -0.00
    20   1     0.00  -0.00   0.00     0.27  -0.27   0.38     0.00   0.00  -0.00
    21   1     0.00  -0.00  -0.00     0.77   0.00  -0.00    -0.00  -0.00  -0.00
    22   1    -0.00  -0.00   0.00    -0.16  -0.16   0.24    -0.01  -0.01   0.01
    23   1    -0.00   0.00   0.00    -0.00  -0.00  -0.00     0.00   0.00   0.00
    24   1    -0.15   0.15   0.23     0.00  -0.00  -0.00    -0.43   0.45   0.66
    25   1     0.92  -0.02  -0.00    -0.00   0.00   0.00    -0.23   0.00  -0.00
    26   1    -0.11  -0.11  -0.16     0.00   0.00   0.00     0.16   0.15   0.24
                     70                     71                     72
                      A                      A                      A
 Frequencies --   3137.6298              3143.0227              3581.6065
 Red. masses --      1.0961                 1.0961                 1.0649
 Frc consts  --      6.3575                 6.3795                 8.0488
 IR Inten    --      2.2445                 1.4128               134.0238
  Atom  AN      X      Y      Z        X      Y      Z        X      Y      Z
     1   6    -0.00  -0.00   0.00     0.00  -0.00   0.00     0.00   0.00  -0.00
     2   6    -0.00  -0.00   0.00    -0.00  -0.00   0.00    -0.00   0.00  -0.00
     3   6     0.00  -0.00   0.01     0.00  -0.00   0.00    -0.00   0.00  -0.00
     4   6     0.03  -0.00   0.00     0.00  -0.00   0.00     0.00   0.00  -0.00
     5   6     0.04   0.04  -0.06     0.00   0.00  -0.00     0.00  -0.00   0.00
     6   6    -0.00   0.00  -0.00    -0.00   0.00  -0.00    -0.00  -0.00   0.00
     7   9     0.00  -0.00   0.00     0.00  -0.00   0.00    -0.00   0.00  -0.00
     8   6    -0.00  -0.00   0.00    -0.00  -0.00  -0.00     0.00  -0.00  -0.00
     9   6     0.00   0.00  -0.00     0.00   0.00   0.00     0.00   0.00   0.00
    10   6     0.00   0.00   0.00     0.00   0.00   0.00    -0.00  -0.00  -0.00
    11   8    -0.00  -0.00  -0.00    -0.00   0.00   0.00    -0.06   0.00   0.01
    12   6    -0.00   0.00   0.00    -0.01   0.01   0.02     0.00   0.00   0.00
    13   6    -0.00  -0.00  -0.00    -0.03   0.00   0.00    -0.00  -0.00  -0.00
    14   6     0.00   0.00   0.00    -0.04  -0.04  -0.06     0.00   0.00   0.00
    15   6    -0.00  -0.00  -0.00     0.00  -0.00  -0.00    -0.00  -0.00  -0.00
    16   9    -0.00   0.00   0.00    -0.00   0.00   0.00    -0.00   0.00   0.00
    17   1    -0.00   0.00  -0.00    -0.00   0.00  -0.00    -0.00   0.00   0.00
    18   1     0.00   0.00   0.00    -0.00  -0.00  -0.00    -0.00  -0.00   0.00
    19   1     0.00  -0.00  -0.00    -0.00   0.00   0.00     0.00  -0.00   0.00
    20   1    -0.04   0.04  -0.06    -0.00   0.00  -0.00     0.00  -0.00   0.00
    21   1    -0.33   0.00  -0.00    -0.00  -0.00  -0.00     0.00   0.00  -0.00
    22   1    -0.44  -0.47   0.68    -0.00  -0.00   0.00     0.00   0.00  -0.00
    23   1     0.00   0.00   0.00     0.00  -0.00  -0.00     0.98  -0.02  -0.18
    24   1     0.00  -0.00  -0.01     0.12  -0.12  -0.18    -0.00   0.00   0.00
    25   1     0.00   0.00   0.00     0.31  -0.01  -0.00     0.00  -0.00  -0.00
    26   1    -0.00  -0.00  -0.01     0.45   0.43   0.67    -0.00  -0.00  -0.00

 -------------------
 - Thermochemistry -
 -------------------
 Temperature   298.150 Kelvin.  Pressure   1.00000 Atm.
 Atom     1 has atomic number  6 and mass  12.00000
 Atom     2 has atomic number  6 and mass  12.00000
 Atom     3 has atomic number  6 and mass  12.00000
 Atom     4 has atomic number  6 and mass  12.00000
 Atom     5 has atomic number  6 and mass  12.00000
 Atom     6 has atomic number  6 and mass  12.00000
 Atom     7 has atomic number  9 and mass  18.99840
 Atom     8 has atomic number  6 and mass  12.00000
 Atom     9 has atomic number  6 and mass  12.00000
 Atom    10 has atomic number  6 and mass  12.00000
 Atom    11 has atomic number  8 and mass  15.99491
 Atom    12 has atomic number  6 and mass  12.00000
 Atom    13 has atomic number  6 and mass  12.00000
 Atom    14 has atomic number  6 and mass  12.00000
 Atom    15 has atomic number  6 and mass  12.00000
 Atom    16 has atomic number  9 and mass  18.99840
 Atom    17 has atomic number  1 and mass   1.00783
 Atom    18 has atomic number  1 and mass   1.00783
 Atom    19 has atomic number  1 and mass   1.00783
 Atom    20 has atomic number  1 and mass   1.00783
 Atom    21 has atomic number  1 and mass   1.00783
 Atom    22 has atomic number  1 and mass   1.00783
 Atom    23 has atomic number  1 and mass   1.00783
 Atom    24 has atomic number  1 and mass   1.00783
 Atom    25 has atomic number  1 and mass   1.00783
 Atom    26 has atomic number  1 and mass   1.00783
 Molecular mass:   220.06997 amu.
 Principal axes and moments of inertia in atomic units:
                           1         2         3
     Eigenvalues --  2061.959844071.510674810.98826
           X            0.99998   0.00060   0.00653
           Y           -0.00652  -0.02391   0.99969
           Z           -0.00076   0.99971   0.02391
 This molecule is an asymmetric top.
 Rotational symmetry number  1.
 Warning -- assumption of classical behavior for rotation
           may cause significant error
 Rotational temperatures (Kelvin)      0.04201     0.02127     0.01800
 Rotational constants (GHZ):           0.87526     0.44326     0.37513
 Zero-point vibrational energy     503630.1 (Joules/Mol)
                                  120.37048 (Kcal/Mol)
 Warning -- explicit consideration of  24 degrees of freedom as
           vibrations may cause significant error
 Vibrational temperatures:     69.29    92.25   107.59   196.15   214.00
          (Kelvin)            237.17   304.52   330.01   344.21   454.12
                              468.46   487.34   563.96   678.62   689.97
                              725.60   733.57   749.03   754.37   798.47
                              815.25   829.14   866.72   889.87  1018.17
                             1052.20  1056.30  1102.49  1113.53  1117.23
                             1225.59  1253.80  1347.43  1361.83  1378.18
                             1432.45  1448.09  1457.05  1474.61  1510.28
                             1540.29  1621.86  1638.62  1693.70  1756.61
                             1779.35  1827.74  1838.33  1896.72  1935.89
                             1947.10  1984.14  2017.60  2029.89  2082.94
                             2098.70  2117.81  2150.98  2277.44  2294.56
                             2325.13  2352.91  4264.47  4371.29  4418.35
                             4465.61  4479.61  4487.71  4511.72  4514.35
                             4522.11  5153.13
 
 Zero-point correction=                           0.191823 (Hartree/Particle)
 Thermal correction to Energy=                    0.205478
 Thermal correction to Enthalpy=                  0.206422
 Thermal correction to Gibbs Free Energy=         0.151542
 Sum of electronic and zero-point Energies=           -775.608470
 Sum of electronic and thermal Energies=              -775.594814
 Sum of electronic and thermal Enthalpies=            -775.593870
 Sum of electronic and thermal Free Energies=         -775.648750
 
                     E (Thermal)             CV                S
                      KCal/Mol        Cal/Mol-Kelvin    Cal/Mol-Kelvin
 Total                  128.939             53.793            115.505
 Electronic               0.000              0.000              0.000
 Translational            0.889              2.981             42.069
 Rotational               0.889              2.981             32.068
 Vibrational            127.162             47.831             41.367
 Vibration     1          0.595              1.978              4.892
 Vibration     2          0.597              1.971              4.326
 Vibration     3          0.599              1.966              4.023
 Vibration     4          0.614              1.917              2.855
 Vibration     5          0.618              1.904              2.688
 Vibration     6          0.623              1.886              2.494
 Vibration     7          0.643              1.823              2.029
 Vibration     8          0.652              1.796              1.884
 Vibration     9          0.657              1.780              1.809
 Vibration    10          0.703              1.644              1.333
 Vibration    11          0.710              1.624              1.282
 Vibration    12          0.719              1.598              1.218
 Vibration    13          0.759              1.487              0.993
 Vibration    14          0.829              1.313              0.733
 Vibration    15          0.836              1.295              0.711
 Vibration    16          0.860              1.240              0.647
 Vibration    17          0.865              1.228              0.634
 Vibration    18          0.876              1.204              0.609
 Vibration    19          0.879              1.196              0.600
 Vibration    20          0.910              1.129              0.534
 Vibration    21          0.923              1.103              0.511
 Vibration    22          0.933              1.083              0.492
 Vibration    23          0.961              1.027              0.446
 Vibration    24          0.978              0.993              0.419
                       Q            Log10(Q)             Ln(Q)
 Total Bot       0.197451D-69        -69.704541       -160.500636
 Total V=0       0.337006D+19         18.527638         42.661463
 Vib (Bot)       0.676369D-84        -84.169816       -193.808164
 Vib (Bot)    1  0.429351D+01          0.632813          1.457106
 Vib (Bot)    2  0.321919D+01          0.507747          1.169131
 Vib (Bot)    3  0.275623D+01          0.440316          1.013865
 Vib (Bot)    4  0.149290D+01          0.174031          0.400722
 Vib (Bot)    5  0.136379D+01          0.134748          0.310270
 Vib (Bot)    6  0.122459D+01          0.087989          0.202603
 Vib (Bot)    7  0.937775D+00         -0.027901         -0.064245
 Vib (Bot)    8  0.858945D+00         -0.066034         -0.152050
 Vib (Bot)    9  0.819878D+00         -0.086251         -0.198599
 Vib (Bot)   10  0.597125D+00         -0.223935         -0.515629
 Vib (Bot)   11  0.575406D+00         -0.240025         -0.552679
 Vib (Bot)   12  0.548641D+00         -0.260712         -0.600311
 Vib (Bot)   13  0.457374D+00         -0.339728         -0.782253
 Vib (Bot)   14  0.357115D+00         -0.447192         -1.029697
 Vib (Bot)   15  0.348891D+00         -0.457310         -1.052995
 Vib (Bot)   16  0.324644D+00         -0.488592         -1.125026
 Vib (Bot)   17  0.319522D+00         -0.495499         -1.140930
 Vib (Bot)   18  0.309880D+00         -0.508806         -1.171570
 Vib (Bot)   19  0.306635D+00         -0.513378         -1.182096
 Vib (Bot)   20  0.281432D+00         -0.550627         -1.267865
 Vib (Bot)   21  0.272520D+00         -0.564601         -1.300042
 Vib (Bot)   22  0.265407D+00         -0.576088         -1.326491
 Vib (Bot)   23  0.247260D+00         -0.606846         -1.397315
 Vib (Bot)   24  0.236823D+00         -0.625575         -1.440440
 Vib (V=0)       0.115442D+05          4.062362          9.353935
 Vib (V=0)    1  0.482253D+01          0.683275          1.573299
 Vib (V=0)    2  0.375779D+01          0.574933          1.323831
 Vib (V=0)    3  0.330122D+01          0.518674          1.194292
 Vib (V=0)    4  0.207441D+01          0.316894          0.729675
 Vib (V=0)    5  0.195256D+01          0.290604          0.669141
 Vib (V=0)    6  0.182273D+01          0.260722          0.600335
 Vib (V=0)    7  0.156274D+01          0.193888          0.446442
 Vib (V=0)    8  0.149387D+01          0.174314          0.401373
 Vib (V=0)    9  0.146031D+01          0.164446          0.378651
 Vib (V=0)   10  0.127882D+01          0.106809          0.245936
 Vib (V=0)   11  0.126229D+01          0.101161          0.232931
 Vib (V=0)   12  0.124230D+01          0.094226          0.216963
 Vib (V=0)   13  0.117764D+01          0.071011          0.163509
 Vib (V=0)   14  0.111444D+01          0.047055          0.108348
 Vib (V=0)   15  0.110969D+01          0.045203          0.104083
 Vib (V=0)   16  0.109615D+01          0.039870          0.091803
 Vib (V=0)   17  0.109338D+01          0.038769          0.089270
 Vib (V=0)   18  0.108824D+01          0.036724          0.084561
 Vib (V=0)   19  0.108654D+01          0.036044          0.082995
 Vib (V=0)   20  0.107376D+01          0.030908          0.071169
 Vib (V=0)   21  0.106944D+01          0.029158          0.067140
 Vib (V=0)   22  0.106607D+01          0.027788          0.063984
 Vib (V=0)   23  0.105780D+01          0.024402          0.056188
 Vib (V=0)   24  0.105325D+01          0.022531          0.051880
 Electronic      0.100000D+01          0.000000          0.000000
 Translational   0.128320D+09          8.108295         18.670039
 Rotational      0.227500D+07          6.356981         14.637489
 -------------------------------------------------------------------
 Center     Atomic                   Forces (Hartrees/Bohr)
 Number     Number              X              Y              Z
 -------------------------------------------------------------------
      1        6          -0.000000937   -0.000000192    0.000000400
      2        6           0.000000398    0.000000593   -0.000001725
      3        6          -0.000000483   -0.000000197   -0.000000250
      4        6          -0.000000584   -0.000000325   -0.000000303
      5        6          -0.000000673   -0.000000235    0.000000044
      6        6           0.000000793   -0.000001408    0.000001984
      7        9           0.000000404   -0.000000318    0.000000552
      8        6           0.000002332    0.000000277   -0.000000488
      9        6          -0.000002305   -0.000000171   -0.000000570
     10        6          -0.000000462   -0.000001099   -0.000001413
     11        8           0.000002359   -0.000001236   -0.000000475
     12        6           0.000000746    0.000000184    0.000000050
     13        6           0.000000557    0.000000430    0.000000079
     14        6           0.000000554    0.000000490    0.000000194
     15        6          -0.000000788    0.000001583    0.000002147
     16        9          -0.000000615    0.000000810    0.000000457
     17        1          -0.000001087    0.000000514   -0.000001132
     18        1           0.000000790    0.000000997    0.000000433
     19        1           0.000000799   -0.000000829   -0.000001033
     20        1          -0.000000841    0.000000253   -0.000001439
     21        1          -0.000001566   -0.000000520   -0.000000239
     22        1          -0.000000641   -0.000001019    0.000001153
     23        1          -0.000001764   -0.000000112    0.000000806
     24        1           0.000000912   -0.000000489   -0.000000814
     25        1           0.000001591    0.000000579    0.000000260
     26        1           0.000000511    0.000001439    0.000001322
 -------------------------------------------------------------------
 Cartesian Forces:  Max     0.000002359 RMS     0.000000972
 FormGI is forming the generalized inverse of G from B-inverse, IUseBI=4.

 GradGradGradGradGradGradGradGradGradGradGradGradGradGradGradGradGradGrad
 Berny optimization.
 Internal  Forces:  Max     0.000003724 RMS     0.000001007
 Search for a local minimum.
 Step number   1 out of a maximum of    2
 All quantities printed in internal units (Hartrees-Bohrs-Radians)
 Second derivative matrix not updated -- analytic derivatives used.
 ITU=  0
     Eigenvalues ---    0.00133   0.00872   0.01163   0.01300   0.01580
     Eigenvalues ---    0.01647   0.01651   0.01678   0.01698   0.01963
     Eigenvalues ---    0.02044   0.02163   0.02207   0.02243   0.02321
     Eigenvalues ---    0.02587   0.02715   0.02859   0.03299   0.03391
     Eigenvalues ---    0.04245   0.05187   0.05366   0.09771   0.09882
     Eigenvalues ---    0.10204   0.10875   0.11306   0.11324   0.11508
     Eigenvalues ---    0.13665   0.14010   0.16777   0.17052   0.17434
     Eigenvalues ---    0.17612   0.17729   0.17809   0.18099   0.18424
     Eigenvalues ---    0.18783   0.20144   0.21172   0.23151   0.23712
     Eigenvalues ---    0.30242   0.31941   0.32187   0.32272   0.32810
     Eigenvalues ---    0.33028   0.33818   0.34147   0.34286   0.34328
     Eigenvalues ---    0.34570   0.34694   0.34826   0.36463   0.37443
     Eigenvalues ---    0.39426   0.42153   0.43317   0.43909   0.44957
     Eigenvalues ---    0.45422   0.45498   0.45815   0.46496   0.47773
     Eigenvalues ---    0.49882   0.50713
 Angle between quadratic step and forces=  79.14 degrees.
 Linear search not attempted -- first point.
 Iteration  1 RMS(Cart)=  0.00005608 RMS(Int)=  0.00000000
 Iteration  2 RMS(Cart)=  0.00000000 RMS(Int)=  0.00000000
 Variable       Old X    -DE/DX   Delta X   Delta X   Delta X     New X
                                 (Linear)    (Quad)   (Total)
    R1        2.85495   0.00000   0.00000   0.00000   0.00000   2.85495
    R2        2.09188   0.00000   0.00000   0.00000   0.00000   2.09189
    R3        2.09648   0.00000   0.00000   0.00001   0.00001   2.09649
    R4        2.09857   0.00000   0.00000   0.00000   0.00000   2.09857
    R5        2.66586   0.00000   0.00000   0.00000   0.00000   2.66586
    R6        2.69358   0.00000   0.00000   0.00000   0.00000   2.69359
    R7        2.65330   0.00000   0.00000   0.00000   0.00000   2.65331
    R8        2.08102   0.00000   0.00000   0.00000   0.00000   2.08102
    R9        2.65159   0.00000   0.00000   0.00000   0.00000   2.65160
   R10        2.08063   0.00000   0.00000   0.00000   0.00000   2.08064
   R11        2.64407   0.00000   0.00000   0.00001   0.00001   2.64407
   R12        2.07799   0.00000   0.00000   0.00000   0.00000   2.07799
   R13        2.54595   0.00000   0.00000   0.00000   0.00000   2.54596
   R14        2.66662   0.00000   0.00000   0.00001   0.00001   2.66662
   R15        2.81175   0.00000   0.00000   0.00000   0.00000   2.81175
   R16        2.68294   0.00000   0.00000   0.00000   0.00000   2.68295
   R17        2.66008   0.00000   0.00000   0.00001   0.00001   2.66008
   R18        2.57394   0.00000   0.00000  -0.00000  -0.00000   2.57394
   R19        2.66221   0.00000   0.00000   0.00000   0.00000   2.66222
   R20        1.85647   0.00000   0.00000   0.00001   0.00001   1.85648
   R21        2.64867   0.00000   0.00000   0.00000   0.00000   2.64867
   R22        2.07746   0.00000   0.00000   0.00000   0.00000   2.07747
   R23        2.65769   0.00000   0.00000   0.00000   0.00000   2.65769
   R24        2.08057   0.00000   0.00000   0.00000   0.00000   2.08057
   R25        2.64362   0.00000   0.00000   0.00001   0.00001   2.64362
   R26        2.07671   0.00000   0.00000   0.00000   0.00000   2.07672
   R27        2.55058   0.00000   0.00000   0.00000   0.00000   2.55058
    A1        1.93975  -0.00000   0.00000   0.00000   0.00000   1.93975
    A2        1.93599  -0.00000   0.00000  -0.00000  -0.00000   1.93599
    A3        1.94667   0.00000   0.00000  -0.00000  -0.00000   1.94667
    A4        1.89596  -0.00000   0.00000  -0.00000  -0.00000   1.89595
    A5        1.88615  -0.00000   0.00000   0.00000   0.00000   1.88616
    A6        1.85632  -0.00000   0.00000   0.00000   0.00000   1.85633
    A7        2.10920  -0.00000   0.00000   0.00000   0.00000   2.10920
    A8        2.09787   0.00000   0.00000  -0.00000  -0.00000   2.09787
    A9        2.07593  -0.00000   0.00000   0.00000   0.00000   2.07593
   A10        2.11597   0.00000   0.00000   0.00000   0.00000   2.11597
   A11        2.07639  -0.00000   0.00000  -0.00000  -0.00000   2.07639
   A12        2.09070  -0.00000   0.00000   0.00000   0.00000   2.09070
   A13        2.10103   0.00000   0.00000   0.00000   0.00000   2.10103
   A14        2.09420  -0.00000   0.00000  -0.00000  -0.00000   2.09420
   A15        2.08794  -0.00000   0.00000  -0.00000  -0.00000   2.08794
   A16        2.06593   0.00000   0.00000   0.00000   0.00000   2.06593
   A17        2.13499  -0.00000   0.00000   0.00000   0.00000   2.13499
   A18        2.08227  -0.00000   0.00000  -0.00000  -0.00000   2.08227
   A19        2.07250   0.00000   0.00000   0.00000   0.00000   2.07250
   A20        2.14185  -0.00000   0.00000  -0.00000  -0.00000   2.14184
   A21        2.06881   0.00000   0.00000   0.00000   0.00000   2.06881
   A22        2.06552  -0.00000   0.00000   0.00000   0.00000   2.06552
   A23        2.12456   0.00000   0.00000   0.00000   0.00000   2.12457
   A24        2.09309  -0.00000   0.00000  -0.00000  -0.00000   2.09309
   A25        2.10145   0.00000   0.00000  -0.00000  -0.00000   2.10145
   A26        2.12892  -0.00000   0.00000  -0.00000  -0.00000   2.12892
   A27        2.05281  -0.00000   0.00000   0.00000   0.00000   2.05282
   A28        2.10858   0.00000   0.00000  -0.00000  -0.00000   2.10858
   A29        2.10709  -0.00000   0.00000  -0.00000  -0.00000   2.10709
   A30        2.06751  -0.00000   0.00000   0.00000   0.00000   2.06751
   A31        1.87390  -0.00000   0.00000  -0.00000  -0.00000   1.87390
   A32        2.08640   0.00000   0.00000   0.00000   0.00000   2.08640
   A33        2.07184  -0.00000   0.00000  -0.00000  -0.00000   2.07184
   A34        2.12490  -0.00000   0.00000   0.00000   0.00000   2.12490
   A35        2.11469   0.00000   0.00000   0.00000   0.00000   2.11469
   A36        2.08471  -0.00000   0.00000  -0.00000  -0.00000   2.08471
   A37        2.08377  -0.00000   0.00000  -0.00000  -0.00000   2.08377
   A38        2.06259   0.00000   0.00000   0.00000   0.00000   2.06259
   A39        2.13491  -0.00000   0.00000   0.00000   0.00000   2.13491
   A40        2.08569  -0.00000   0.00000  -0.00000  -0.00000   2.08569
   A41        2.14257  -0.00000   0.00000  -0.00000  -0.00000   2.14257
   A42        2.06057   0.00000   0.00000   0.00000   0.00000   2.06057
   A43        2.07995   0.00000   0.00000   0.00000   0.00000   2.07995
    D1        0.12822  -0.00000   0.00000  -0.00009  -0.00009   0.12813
    D2       -2.99203   0.00000   0.00000  -0.00009  -0.00009  -2.99212
    D3        2.23948  -0.00000   0.00000  -0.00010  -0.00010   2.23938
    D4       -0.88077   0.00000   0.00000  -0.00009  -0.00009  -0.88086
    D5       -1.97786  -0.00000   0.00000  -0.00010  -0.00010  -1.97796
    D6        1.18507   0.00000   0.00000  -0.00009  -0.00009   1.18498
    D7       -3.10770   0.00000   0.00000   0.00000   0.00000  -3.10770
    D8        0.01702   0.00000   0.00000   0.00001   0.00001   0.01703
    D9        0.01281   0.00000   0.00000  -0.00000  -0.00000   0.01281
   D10        3.13754  -0.00000   0.00000   0.00000   0.00000   3.13754
   D11        3.10154  -0.00000   0.00000  -0.00000  -0.00000   3.10154
   D12       -0.04473  -0.00000   0.00000  -0.00000  -0.00000  -0.04474
   D13       -0.01911  -0.00000   0.00000   0.00000   0.00000  -0.01911
   D14        3.11779  -0.00000   0.00000   0.00000   0.00000   3.11780
   D15        0.00027   0.00000   0.00000   0.00000   0.00000   0.00027
   D16        3.13571  -0.00000   0.00000   0.00000   0.00000   3.13571
   D17       -3.12432   0.00000   0.00000  -0.00000  -0.00000  -3.12433
   D18        0.01111   0.00000   0.00000  -0.00000  -0.00000   0.01111
   D19       -0.00658  -0.00000   0.00000   0.00000   0.00000  -0.00658
   D20        3.13672  -0.00000   0.00000   0.00000   0.00000   3.13672
   D21        3.14115   0.00000   0.00000  -0.00000  -0.00000   3.14115
   D22        0.00126   0.00000   0.00000  -0.00000  -0.00000   0.00126
   D23       -3.13356   0.00000   0.00000  -0.00000  -0.00000  -3.13356
   D24       -0.00035  -0.00000   0.00000  -0.00000  -0.00000  -0.00035
   D25        0.00638   0.00000   0.00000  -0.00000  -0.00000   0.00638
   D26        3.13959  -0.00000   0.00000   0.00000   0.00000   3.13960
   D27        0.01327   0.00000   0.00000  -0.00000  -0.00000   0.01327
   D28       -3.12372   0.00000   0.00000  -0.00000  -0.00000  -3.12372
   D29       -3.13668   0.00000   0.00000  -0.00000  -0.00000  -3.13668
   D30        0.00951  -0.00000   0.00000  -0.00000  -0.00000   0.00950
   D31       -1.19081  -0.00000   0.00000  -0.00007  -0.00007  -1.19088
   D32        1.95281  -0.00000   0.00000  -0.00007  -0.00007   1.95275
   D33        1.94603  -0.00000   0.00000  -0.00007  -0.00007   1.94596
   D34       -1.19354  -0.00000   0.00000  -0.00006  -0.00006  -1.19360
   D35       -0.02083  -0.00000   0.00000   0.00001   0.00001  -0.02082
   D36        3.12084  -0.00000   0.00000   0.00001   0.00001   3.12085
   D37        3.11882  -0.00000   0.00000   0.00000   0.00000   3.11882
   D38       -0.02269  -0.00000   0.00000  -0.00000  -0.00000  -0.02269
   D39       -3.12379   0.00000   0.00000  -0.00001  -0.00001  -3.12379
   D40        0.00325  -0.00000   0.00000  -0.00000  -0.00000   0.00325
   D41        0.01978   0.00000   0.00000   0.00000   0.00000   0.01978
   D42       -3.13637   0.00000   0.00000   0.00000   0.00000  -3.13637
   D43       -0.09805   0.00000   0.00000   0.00001   0.00001  -0.09804
   D44        3.04346  -0.00000   0.00000   0.00001   0.00001   3.04348
   D45        0.01173   0.00000   0.00000  -0.00000  -0.00000   0.01173
   D46       -3.14073  -0.00000   0.00000   0.00000   0.00000  -3.14073
   D47       -3.12979   0.00000   0.00000  -0.00000  -0.00000  -3.12979
   D48        0.00094   0.00000   0.00000  -0.00000  -0.00000   0.00094
   D49        0.00327   0.00000   0.00000   0.00000   0.00000   0.00327
   D50        3.13831  -0.00000   0.00000   0.00000   0.00000   3.13831
   D51       -3.12711   0.00000   0.00000  -0.00000  -0.00000  -3.12711
   D52        0.00792   0.00000   0.00000  -0.00000  -0.00000   0.00792
   D53       -0.00644  -0.00000   0.00000  -0.00000  -0.00000  -0.00644
   D54        3.13702  -0.00000   0.00000  -0.00000  -0.00000   3.13702
   D55       -3.14148   0.00000   0.00000  -0.00000  -0.00000  -3.14148
   D56        0.00198   0.00000   0.00000  -0.00000  -0.00000   0.00198
   D57       -0.00548  -0.00000   0.00000  -0.00000  -0.00000  -0.00548
   D58       -3.13236   0.00000   0.00000  -0.00000  -0.00000  -3.13236
   D59        3.13430  -0.00000   0.00000   0.00000   0.00000   3.13430
   D60        0.00741   0.00000   0.00000  -0.00000  -0.00000   0.00741
         Item               Value     Threshold  Converged?
 Maximum Force            0.000004     0.000450     YES
 RMS     Force            0.000001     0.000300     YES
 Maximum Displacement     0.000217     0.001800     YES
 RMS     Displacement     0.000056     0.001200     YES
 Predicted change in Energy=-2.891812D-10
 Optimization completed.
    -- Stationary point found.
                           ----------------------------
                           !   Optimized Parameters   !
                           ! (Angstroms and Degrees)  !
 --------------------------                            --------------------------
 ! Name  Definition              Value          Derivative Info.                !
 --------------------------------------------------------------------------------
 ! R1    R(1,2)                  1.5108         -DE/DX =    0.0                 !
 ! R2    R(1,17)                 1.107          -DE/DX =    0.0                 !
 ! R3    R(1,18)                 1.1094         -DE/DX =    0.0                 !
 ! R4    R(1,19)                 1.1105         -DE/DX =    0.0                 !
 ! R5    R(2,3)                  1.4107         -DE/DX =    0.0                 !
 ! R6    R(2,8)                  1.4254         -DE/DX =    0.0                 !
 ! R7    R(3,4)                  1.4041         -DE/DX =    0.0                 !
 ! R8    R(3,20)                 1.1012         -DE/DX =    0.0                 !
 ! R9    R(4,5)                  1.4032         -DE/DX =    0.0                 !
 ! R10   R(4,21)                 1.101          -DE/DX =    0.0                 !
 ! R11   R(5,6)                  1.3992         -DE/DX =    0.0                 !
 ! R12   R(5,22)                 1.0996         -DE/DX =    0.0                 !
 ! R13   R(6,7)                  1.3473         -DE/DX =    0.0                 !
 ! R14   R(6,8)                  1.4111         -DE/DX =    0.0                 !
 ! R15   R(8,9)                  1.4879         -DE/DX =    0.0                 !
 ! R16   R(9,10)                 1.4198         -DE/DX =    0.0                 !
 ! R17   R(9,15)                 1.4077         -DE/DX =    0.0                 !
 ! R18   R(10,11)                1.3621         -DE/DX =    0.0                 !
 ! R19   R(10,12)                1.4088         -DE/DX =    0.0                 !
 ! R20   R(11,23)                0.9824         -DE/DX =    0.0                 !
 ! R21   R(12,13)                1.4016         -DE/DX =    0.0                 !
 ! R22   R(12,24)                1.0993         -DE/DX =    0.0                 !
 ! R23   R(13,14)                1.4064         -DE/DX =    0.0                 !
 ! R24   R(13,25)                1.101          -DE/DX =    0.0                 !
 ! R25   R(14,15)                1.3989         -DE/DX =    0.0                 !
 ! R26   R(14,26)                1.0989         -DE/DX =    0.0                 !
 ! R27   R(15,16)                1.3497         -DE/DX =    0.0                 !
 ! A1    A(2,1,17)             111.1396         -DE/DX =    0.0                 !
 ! A2    A(2,1,18)             110.9243         -DE/DX =    0.0                 !
 ! A3    A(2,1,19)             111.5362         -DE/DX =    0.0                 !
 ! A4    A(17,1,18)            108.6303         -DE/DX =    0.0                 !
 ! A5    A(17,1,19)            108.0687         -DE/DX =    0.0                 !
 ! A6    A(18,1,19)            106.3595         -DE/DX =    0.0                 !
 ! A7    A(1,2,3)              120.848          -DE/DX =    0.0                 !
 ! A8    A(1,2,8)              120.1991         -DE/DX =    0.0                 !
 ! A9    A(3,2,8)              118.9417         -DE/DX =    0.0                 !
 ! A10   A(2,3,4)              121.2361         -DE/DX =    0.0                 !
 ! A11   A(2,3,20)             118.9685         -DE/DX =    0.0                 !
 ! A12   A(4,3,20)             119.7884         -DE/DX =    0.0                 !
 ! A13   A(3,4,5)              120.3803         -DE/DX =    0.0                 !
 ! A14   A(3,4,21)             119.9888         -DE/DX =    0.0                 !
 ! A15   A(5,4,21)             119.6299         -DE/DX =    0.0                 !
 ! A16   A(4,5,6)              118.3689         -DE/DX =    0.0                 !
 ! A17   A(4,5,22)             122.3259         -DE/DX =    0.0                 !
 ! A18   A(6,5,22)             119.3051         -DE/DX =    0.0                 !
 ! A19   A(5,6,7)              118.7454         -DE/DX =    0.0                 !
 ! A20   A(5,6,8)              122.7187         -DE/DX =    0.0                 !
 ! A21   A(7,6,8)              118.5342         -DE/DX =    0.0                 !
 ! A22   A(2,8,6)              118.3458         -DE/DX =    0.0                 !
 ! A23   A(2,8,9)              121.7286         -DE/DX =    0.0                 !
 ! A24   A(6,8,9)              119.9251         -DE/DX =    0.0                 !
 ! A25   A(8,9,10)             120.4041         -DE/DX =    0.0                 !
 ! A26   A(8,9,15)             121.9782         -DE/DX =    0.0                 !
 ! A27   A(10,9,15)            117.6175         -DE/DX =    0.0                 !
 ! A28   A(9,10,11)            120.8128         -DE/DX =    0.0                 !
 ! A29   A(9,10,12)            120.7276         -DE/DX =    0.0                 !
 ! A30   A(11,10,12)           118.4597         -DE/DX =    0.0                 !
 ! A31   A(10,11,23)           107.3668         -DE/DX =    0.0                 !
 ! A32   A(10,12,13)           119.5416         -DE/DX =    0.0                 !
 ! A33   A(10,12,24)           118.7077         -DE/DX =    0.0                 !
 ! A34   A(13,12,24)           121.7476         -DE/DX =    0.0                 !
 ! A35   A(12,13,14)           121.163          -DE/DX =    0.0                 !
 ! A36   A(12,13,25)           119.4449         -DE/DX =    0.0                 !
 ! A37   A(14,13,25)           119.391          -DE/DX =    0.0                 !
 ! A38   A(13,14,15)           118.1777         -DE/DX =    0.0                 !
 ! A39   A(13,14,26)           122.3211         -DE/DX =    0.0                 !
 ! A40   A(15,14,26)           119.5011         -DE/DX =    0.0                 !
 ! A41   A(9,15,14)            122.7602         -DE/DX =    0.0                 !
 ! A42   A(9,15,16)            118.0622         -DE/DX =    0.0                 !
 ! A43   A(14,15,16)           119.1725         -DE/DX =    0.0                 !
 ! D1    D(17,1,2,3)             7.3464         -DE/DX =    0.0                 !
 ! D2    D(17,1,2,8)          -171.4308         -DE/DX =    0.0                 !
 ! D3    D(18,1,2,3)           128.3127         -DE/DX =    0.0                 !
 ! D4    D(18,1,2,8)           -50.4646         -DE/DX =    0.0                 !
 ! D5    D(19,1,2,3)          -113.3232         -DE/DX =    0.0                 !
 ! D6    D(19,1,2,8)            67.8996         -DE/DX =    0.0                 !
 ! D7    D(1,2,3,4)           -178.0584         -DE/DX =    0.0                 !
 ! D8    D(1,2,3,20)             0.9754         -DE/DX =    0.0                 !
 ! D9    D(8,2,3,4)              0.734          -DE/DX =    0.0                 !
 ! D10   D(8,2,3,20)           179.7678         -DE/DX =    0.0                 !
 ! D11   D(1,2,8,6)            177.7052         -DE/DX =    0.0                 !
 ! D12   D(1,2,8,9)             -2.5631         -DE/DX =    0.0                 !
 ! D13   D(3,2,8,6)             -1.0952         -DE/DX =    0.0                 !
 ! D14   D(3,2,8,9)            178.6365         -DE/DX =    0.0                 !
 ! D15   D(2,3,4,5)              0.0154         -DE/DX =    0.0                 !
 ! D16   D(2,3,4,21)           179.6627         -DE/DX =    0.0                 !
 ! D17   D(20,3,4,5)          -179.0106         -DE/DX =    0.0                 !
 ! D18   D(20,3,4,21)            0.6367         -DE/DX =    0.0                 !
 ! D19   D(3,4,5,6)             -0.3769         -DE/DX =    0.0                 !
 ! D20   D(3,4,5,22)           179.7207         -DE/DX =    0.0                 !
 ! D21   D(21,4,5,6)           179.9745         -DE/DX =    0.0                 !
 ! D22   D(21,4,5,22)            0.0722         -DE/DX =    0.0                 !
 ! D23   D(4,5,6,7)           -179.5396         -DE/DX =    0.0                 !
 ! D24   D(4,5,6,8)             -0.0199         -DE/DX =    0.0                 !
 ! D25   D(22,5,6,7)             0.3658         -DE/DX =    0.0                 !
 ! D26   D(22,5,6,8)           179.8855         -DE/DX =    0.0                 !
 ! D27   D(5,6,8,2)              0.7606         -DE/DX =    0.0                 !
 ! D28   D(5,6,8,9)           -178.9761         -DE/DX =    0.0                 !
 ! D29   D(7,6,8,2)           -179.7187         -DE/DX =    0.0                 !
 ! D30   D(7,6,8,9)              0.5446         -DE/DX =    0.0                 !
 ! D31   D(2,8,9,10)           -68.2283         -DE/DX =    0.0                 !
 ! D32   D(2,8,9,15)           111.8878         -DE/DX =    0.0                 !
 ! D33   D(6,8,9,10)           111.4992         -DE/DX =    0.0                 !
 ! D34   D(6,8,9,15)           -68.3847         -DE/DX =    0.0                 !
 ! D35   D(8,9,10,11)           -1.1934         -DE/DX =    0.0                 !
 ! D36   D(8,9,10,12)          178.8112         -DE/DX =    0.0                 !
 ! D37   D(15,9,10,11)         178.6954         -DE/DX =    0.0                 !
 ! D38   D(15,9,10,12)          -1.3            -DE/DX =    0.0                 !
 ! D39   D(8,9,15,14)         -178.9798         -DE/DX =    0.0                 !
 ! D40   D(8,9,15,16)            0.1862         -DE/DX =    0.0                 !
 ! D41   D(10,9,15,14)           1.1333         -DE/DX =    0.0                 !
 ! D42   D(10,9,15,16)        -179.7007         -DE/DX =    0.0                 !
 ! D43   D(9,10,11,23)          -5.6179         -DE/DX =    0.0                 !
 ! D44   D(12,10,11,23)        174.3777         -DE/DX =    0.0                 !
 ! D45   D(9,10,12,13)           0.6719         -DE/DX =    0.0                 !
 ! D46   D(9,10,12,24)        -179.9506         -DE/DX =    0.0                 !
 ! D47   D(11,10,12,13)       -179.3236         -DE/DX =    0.0                 !
 ! D48   D(11,10,12,24)          0.0539         -DE/DX =    0.0                 !
 ! D49   D(10,12,13,14)          0.1876         -DE/DX =    0.0                 !
 ! D50   D(10,12,13,25)        179.8118         -DE/DX =    0.0                 !
 ! D51   D(24,12,13,14)       -179.1703         -DE/DX =    0.0                 !
 ! D52   D(24,12,13,25)          0.4539         -DE/DX =    0.0                 !
 ! D53   D(12,13,14,15)         -0.3692         -DE/DX =    0.0                 !
 ! D54   D(12,13,14,26)        179.7381         -DE/DX =    0.0                 !
 ! D55   D(25,13,14,15)       -179.9937         -DE/DX =    0.0                 !
 ! D56   D(25,13,14,26)          0.1136         -DE/DX =    0.0                 !
 ! D57   D(13,14,15,9)          -0.3139         -DE/DX =    0.0                 !
 ! D58   D(13,14,15,16)       -179.471          -DE/DX =    0.0                 !
 ! D59   D(26,14,15,9)         179.5819         -DE/DX =    0.0                 !
 ! D60   D(26,14,15,16)          0.4248         -DE/DX =    0.0                 !
 --------------------------------------------------------------------------------
 GradGradGradGradGradGradGradGradGradGradGradGradGradGradGradGradGradGrad


 ----------------------------------------------------------------------

 Electric dipole moment (input orientation):
 (Debye = 10**-18 statcoulomb cm , SI units = C m)
                  (au)            (Debye)         (10**-30 SI)
   Tot        0.724872D+00      0.184244D+01      0.614572D+01
   x         -0.492780D+00     -0.125252D+01     -0.417796D+01
   y          0.189162D+00      0.480801D+00      0.160378D+01
   z         -0.496814D+00     -0.126278D+01     -0.421217D+01

 Dipole polarizability, Alpha (input orientation).
 (esu units = cm**3 , SI units = C**2 m**2 J**-1)
 Alpha(0;0):
               (au)            (10**-24 esu)      (10**-40 SI)
   iso        0.144563D+03      0.214220D+02      0.238352D+02
   aniso      0.932682D+02      0.138209D+02      0.153779D+02
   xx         0.203305D+03      0.301266D+02      0.335204D+02
   yx         0.144748D+00      0.214495D-01      0.238657D-01
   yy         0.979016D+02      0.145075D+02      0.161418D+02
   zx         0.395637D+00      0.586273D-01      0.652317D-01
   zy        -0.354595D+01     -0.525456D+00     -0.584648D+00
   zz         0.132483D+03      0.196319D+02      0.218435D+02

 ----------------------------------------------------------------------

 Dipole orientation:
     6          1.98684959         -1.60418322          4.42264052
     6         -0.53998042         -0.54340229          3.62225402
     6         -2.51118129         -0.22694644          5.38889522
     6         -4.88972019          0.68584131          4.64768590
     6         -5.35751444          1.30628642          2.11250232
     6         -3.39757676          1.00596779          0.36334715
     9         -3.82562780          1.61421015         -2.07154497
     6         -0.98107956          0.10877330          1.04630907
     6          1.03124215         -0.12458529         -0.90357479
     6          3.17279731          1.49048570         -0.84472957
     8          3.40424587          3.30793751          0.96316705
     6          5.10836812          1.24964708         -2.65661878
     6          4.90121842         -0.58842270         -4.55241419
     6          2.78886008         -2.19583578         -4.68458417
     6          0.89659207         -1.92326127         -2.85873184
     9         -1.13775884         -3.45969785         -2.93763096
     1          1.92962502         -2.27704283          6.40252692
     1          2.55313681         -3.20152986          3.18852550
     1          3.50935894         -0.16832050          4.26691671
     1         -2.17362541         -0.73741638          7.37789185
     1         -6.40388371          0.90787561          6.05730962
     1         -7.19918646          2.01762880          1.46422716
     1          1.82753652          3.31868915          1.94314575
     1          6.73914846          2.53234037         -2.55122305
     1          6.41286618         -0.77010156         -5.97039718
     1          2.58573296         -3.64344203         -6.15967943

 Electric dipole moment (dipole orientation):
 (Debye = 10**-18 statcoulomb cm , SI units = C m)
                  (au)            (Debye)         (10**-30 SI)
   Tot        0.724872D+00      0.184244D+01      0.614572D+01
   x          0.000000D+00      0.000000D+00      0.000000D+00
   y          0.000000D+00      0.000000D+00      0.000000D+00
   z          0.724872D+00      0.184244D+01      0.614572D+01

 Dipole polarizability, Alpha (dipole orientation).
 (esu units = cm**3 , SI units = C**2 m**2 J**-1)
 Alpha(0;0):
               (au)            (10**-24 esu)      (10**-40 SI)
   iso        0.144563D+03      0.214220D+02      0.238352D+02
   aniso      0.932682D+02      0.138209D+02      0.153779D+02
   xx         0.169546D+03      0.251241D+02      0.279543D+02
   yx        -0.428245D+01     -0.634593D+00     -0.706080D+00
   yy         0.996994D+02      0.147739D+02      0.164382D+02
   zx        -0.350057D+02     -0.518731D+01     -0.577166D+01
   zy         0.118260D+02      0.175244D+01      0.194985D+01
   zz         0.164444D+03      0.243681D+02      0.271132D+02

 ----------------------------------------------------------------------

 Test job not archived.
 1\1\GINC-SEMLSCPN042\Freq\RBP86\def2SVP\C13H10F2O1\KTVF206\23-Jul-2026
 \0\\#N Geom=AllCheck Guess=TCheck SCRF=Check Test GenChk RBP86/def2SVP
  Freq\\example\\0,1\C,-0.7385713041,1.5360050453,-2.0972714569\C,-1.48
 02056396,0.7460690997,-1.0444558615\C,-2.8904513221,0.7195371083,-1.01
 97700063\C,-3.5881765714,0.0211834264,-0.0213272178\C,-2.890385846,-0.
 6700248653,0.9807619745\C,-1.4916553878,-0.6498999486,0.9515575526\F,-
 0.8139999739,-1.3188483881,1.904659913\C,-0.7592658933,0.034606299,-0.
 0415681512\C,0.7280648575,-0.0040722346,-0.026062114\C,1.4394423119,-0
 .6967836905,-1.0408465332\O,0.7767205729,-1.3571263651,-2.0307907356\C
 ,2.8480692277,-0.7168828814,-1.046746002\C,3.5528929395,-0.0568552661,
 -0.0308160529\C,2.8786806955,0.6234681714,0.9990015463\C,1.4798942327,
 0.6317922719,0.9798763152\F,0.812525,1.2877756682,1.9525090995\H,-1.43
 53220971,2.1479019072,-2.7018502621\H,0.0118628038,2.2082499355,-1.632
 8069528\H,-0.1777791518,0.8701823344,-2.7867887335\H,-3.4479012178,1.2
 722211958,-1.7920977513\H,-4.6891933717,0.0187541326,-0.0185324772\H,-
 3.4041279487,-1.2233476484,1.7801823704\H,-0.1819873648,-1.3150823989,
 -1.8204913462\H,3.3650407279,-1.2628371101,-1.8487665083\H,4.653702843
 8,-0.0762127694,-0.0352467736\H,3.4119556992,1.1435402661,1.8069807155
 \\Version=ES64L-G16RevC.02\HF=-775.8002924\RMSD=8.377e-09\RMSF=9.722e-
 07\ZeroPoint=0.1918226\Thermal=0.2054781\ETot=-775.5948143\HTot=-775.5
 938701\GTot=-775.6487502\Dipole=-0.4927802,0.1891617,-0.4968143\Dipole
 Deriv=-0.0505339,-0.0743128,0.1195939,-0.0336279,0.0215334,-0.0004269,
 0.0496548,0.0129219,-0.0257323,0.1415286,0.1370122,-0.1718941,0.023798
 1,0.0663123,-0.165032,0.014413,-0.1746349,0.1248273,-0.1913458,-0.1213
 524,0.1551533,-0.0841307,-0.106159,-0.0215482,0.075198,-0.0149464,-0.0
 788685,0.0850179,-0.0131415,0.026203,0.043188,-0.0211141,-0.1128995,-0
 .0614085,-0.122421,0.0616819,-0.1785851,0.1287983,-0.1716763,-0.021691
 4,-0.1182657,-0.0163141,0.0453972,-0.0142953,-0.095455,0.441296,-0.254
 7347,0.328939,-0.1067951,0.3830889,-0.4194029,0.2108832,-0.4190056,0.6
 972404,-0.3888168,0.2388323,-0.3244871,0.1654321,-0.3733125,0.3951174,
 -0.2467882,0.3985439,-0.6437369,0.2036326,-0.0606243,0.0958113,0.11731
 48,-0.1302309,0.0632598,0.0120243,0.0514285,-0.1796333,-0.0207494,0.00
 71961,-0.005126,-0.084424,-0.1241233,-0.1266544,-0.1563175,-0.1136227,
 -0.2528285,0.5402505,0.2534513,0.4190236,0.2566436,0.3332762,0.3898829
 ,0.3312314,0.3938434,0.6322416,-0.6777666,-0.223789,-0.3854374,-0.1942
 029,-0.5370119,-0.3269705,-0.4077793,-0.3326654,-0.7627523,-0.26194,-0
 .176167,-0.2618054,-0.0205432,-0.1375126,0.0090551,-0.0117953,0.007185
 2,-0.1226522,0.0978875,0.0095697,0.0062996,-0.0247853,0.0103712,0.1849
 344,-0.0280939,0.1963685,0.1673489,-0.3633309,0.1361371,0.1823746,0.00
 97424,-0.1608028,-0.0136627,-0.0175583,-0.012768,-0.1592827,0.6868564,
 -0.2363384,-0.3033465,-0.0597702,0.3667531,0.4288599,-0.0135408,0.4094
 863,0.7300656,-0.4076627,0.2275429,0.319041,0.1533703,-0.3476311,-0.37
 97241,0.2369382,-0.3753114,-0.6462192,-0.0330643,0.0858009,-0.09172,0.
 0291449,0.0178515,0.0795011,-0.0293256,0.0653553,0.0183188,0.0237055,-
 0.0829999,-0.0100271,-0.0954384,0.016176,0.0213978,-0.0106304,-0.02903
 79,0.0064569,0.0510131,0.0027426,0.0721656,-0.0089716,0.0105409,-0.060
 0061,0.0867589,0.0055786,0.0156206,0.0154127,0.0284917,-0.0364199,0.04
 382,0.0514355,0.0805124,-0.0640071,0.0801766,-0.0008088,-0.0846731,-0.
 0041574,0.0052848,0.0003946,0.0994895,0.0187598,0.003262,0.0222703,0.0
 829686,0.0439119,-0.0172741,0.0264715,-0.0302314,0.0845482,0.0680969,0
 .0357837,0.0708142,0.0301612,0.3414935,0.0012922,0.0110512,-0.0855483,
 0.3214679,0.0609243,-0.0575408,0.0564979,0.2659589,0.0346319,0.0207676
 ,0.0252582,0.0286496,0.0781019,-0.0719498,0.0444618,-0.0720182,0.02194
 74,-0.0851653,0.004085,-0.0002698,0.0001416,0.1034957,-0.014764,-0.000
 3763,-0.0178823,0.0866302,0.0369956,-0.0168283,-0.0304608,-0.0214797,0
 .0917218,-0.0709466,-0.0408444,-0.0718617,0.0265014\Polar=203.3046836,
 0.1447481,97.9015612,0.3956367,-3.5459512,132.4827781\Quadrupole=7.262
 1427,-3.8245198,-3.437623,1.036645,1.5340099,-1.6440496\PG=C01 [X(C13H
 10F2O1)]\NImag=0\\0.53189702,-0.02707162,0.50745471,0.03723784,0.00572
 170,0.49921603,-0.11095105,-0.03626440,0.04573688,0.64035127,-0.029621
 91,-0.10779700,0.05291847,0.00284753,0.31113136,0.04015508,0.05688288,
 -0.13939524,0.00261544,-0.20435977,0.44696712,-0.01845486,-0.00445945,
 0.00626725,-0.31496348,-0.01866839,0.02257552,0.65157821,-0.01736869,0
 .00299697,0.00484959,0.01448726,-0.07889672,0.02260392,-0.00851158,0.3
 1564540,0.02412755,0.00439271,0.00117348,-0.02185253,0.02396724,-0.094
 35159,0.01305449,-0.27301689,0.50692500,-0.00297553,0.00088482,-0.0015
 8757,-0.02676432,-0.01621028,0.02177046,-0.16985305,-0.07103327,0.1016
 3235,0.70619162,0.00161329,0.00460367,0.00316151,-0.03824921,0.0120319
 7,-0.00853990,-0.03907173,-0.13255834,0.10474244,-0.00053520,0.2993121
 5,-0.00179890,0.00287229,0.00359052,0.05448028,-0.00928386,0.01779404,
 0.05676013,0.10576918,-0.20922178,0.00243855,-0.24659749,0.48329370,-0
 .00068679,-0.00039812,0.00065174,-0.04232035,0.01354965,-0.01753012,0.
 05208628,0.01178243,-0.01689953,-0.17153213,0.04032403,-0.05946347,0.6
 6807164,-0.00060852,-0.00080752,-0.00018732,0.01390010,-0.00471632,0.0
 0376032,-0.00967960,-0.01262006,0.02829719,0.07206711,-0.13022287,0.10
 843151,0.01067148,0.30993442,0.00098722,-0.00046838,-0.00087948,-0.019
 76050,0.00367026,-0.00790834,0.01351495,0.02807877,-0.03313087,-0.1047
 6076,0.10873565,-0.21328627,-0.01466174,-0.28270328,0.52296546,-0.0024
 9105,0.00280037,-0.00361336,0.06089457,-0.01228894,0.01580265,-0.04614
 146,-0.01593474,0.02261006,-0.02557969,0.04253456,-0.06086231,-0.32970
 443,-0.03297472,0.04767777,0.68869014,0.00163035,0.00403106,0.00253512
 ,0.01400751,-0.01858843,0.02547954,-0.01433669,-0.00706076,0.00580894,
 0.01584485,0.01017454,-0.01279182,0.00358537,-0.07846285,0.02406540,0.
 00149881,0.30671101,-0.00270298,0.00268642,0.00215825,-0.01921674,0.02
 547052,-0.03522803,0.02089292,0.00604025,-0.01175845,-0.02182284,-0.01
 367226,0.02025145,-0.00720406,0.02478703,-0.09545361,-0.00604891,-0.23
 486958,0.48010605,0.00044216,-0.00054430,0.00059706,-0.00594401,-0.000
 14959,0.00068550,0.00269053,0.00195466,-0.00296358,-0.00532217,-0.0047
 2283,0.00703353,-0.02895896,0.03000891,-0.04326512,-0.13592103,0.06284
 574,-0.08836309,0.15651321,0.00123980,-0.00027909,0.00037805,-0.004232
 33,0.00455878,0.00350500,0.00142530,-0.00130262,0.00009861,-0.00006495
 ,0.00489950,0.00297361,0.00847254,0.00211935,0.00792575,0.06245076,-0.
 11207429,0.10132665,-0.08297692,0.12097004,-0.00181232,0.00060761,-0.0
 0068733,0.00663655,0.00343359,0.00211082,-0.00196710,0.00008234,-0.001
 38348,0.00011107,0.00295649,0.00285838,-0.01215791,0.00746423,-0.00397
 086,-0.08773827,0.10212321,-0.18638542,0.11890767,-0.13973256,0.223347
 97,0.01245573,-0.00596873,0.00831833,-0.15216284,0.05809874,-0.0769981
 3,-0.02616972,0.01591258,-0.02144772,0.00053544,-0.00081006,0.00111785
 ,-0.02287914,-0.01311235,0.01868624,-0.17022393,-0.06982654,0.09799015
 ,0.01278298,0.01335969,-0.02043151,0.62468984,0.00438980,-0.00864419,0
 .01680745,0.02908878,-0.11761314,0.08099569,0.03446879,0.01221902,-0.0
 0843661,-0.00057353,-0.01865012,0.02405645,-0.03318229,0.01347766,-0.0
 0739081,-0.03544759,-0.11713391,0.08201194,-0.00601291,-0.01201920,0.0
 2680995,0.00133566,0.29848307,-0.00807926,0.01565149,-0.01863490,-0.04
 474449,0.08707737,-0.17919947,-0.04772319,-0.00752147,0.01729306,0.001
 75083,0.02326807,-0.03505360,0.04709894,-0.00842270,0.01864489,0.05344
 216,0.08123495,-0.17885099,0.00648043,0.02774061,-0.03375851,-0.010043
 61,-0.21909231,0.48258480,-0.00100505,-0.00107629,0.00174917,-0.023793
 41,0.00378278,-0.01222038,0.00227920,0.00068188,-0.00165098,-0.0003827
 4,0.00025627,-0.00024896,0.00263705,-0.00117527,0.00233797,-0.02724816
 ,-0.00319149,0.01151721,-0.00084262,0.00201712,-0.00355678,-0.22135006
 ,0.00313229,0.00020033,0.63756567,0.00137914,-0.00364454,-0.00166312,0
 .01380178,0.00434961,0.00126556,0.00112529,0.00259173,0.00479249,0.000
 02131,-0.00095800,0.00004133,-0.00100773,0.00176047,0.00406618,-0.0144
 4427,0.00679137,0.00033648,-0.00069636,-0.00259945,-0.00191079,0.00240
 762,-0.06401303,-0.00247980,0.00095458,0.28454546,-0.00113133,-0.00104
 979,-0.00138535,-0.02188693,-0.00108352,0.00373068,-0.00147566,0.00557
 395,-0.00056305,-0.00034764,-0.00018148,-0.00113803,0.00149460,0.00503
 712,-0.00118887,0.02141526,-0.00017087,0.00321537,0.00221490,-0.002562
 35,0.00022154,-0.00121414,0.00061769,-0.07909807,0.02084601,0.22844850
 ,0.50854069,0.00061765,0.00072775,0.00083187,-0.00005587,-0.00145536,0
 .00262851,-0.00143558,-0.00072387,-0.00083615,0.00012899,0.00052836,-0
 .00023410,-0.00022025,-0.00122682,0.00035570,-0.00295314,0.00113105,-0
 .00247700,0.00073501,0.00041621,0.00011769,-0.02350903,0.01238707,0.02
 100409,-0.16528975,0.03101315,0.04230888,0.70520230,0.00104566,0.00021
 911,0.00164928,-0.00153523,-0.00172952,-0.00067030,-0.00120918,0.00025
 998,-0.00053087,0.00011486,0.00034855,-0.00044295,0.00015047,-0.000562
 33,0.00065093,-0.00137089,-0.00185786,0.00121647,-0.00156206,0.0005704
 7,-0.00059633,0.00650955,0.00219991,-0.00105962,0.06409952,-0.11179405
 ,-0.08160212,0.00400731,0.30737319,-0.00033009,0.00048594,0.00135170,-
 0.00345926,-0.00145450,-0.00188227,-0.00092269,-0.00016290,-0.00108584
 ,-0.00057609,0.00056742,-0.00045982,0.00089264,-0.00064754,0.00088676,
 -0.00372696,-0.00147557,0.00199548,-0.00116240,0.00056631,-0.00062186,
 0.01619832,-0.00235430,0.00215385,0.08607584,-0.07924530,-0.17837667,0
 .01086576,0.22870115,0.49448042,-0.00036217,0.00029158,-0.00103998,0.0
 0160159,0.00114669,0.00241922,0.00190557,-0.00008540,0.00040510,-0.000
 25517,-0.00092427,0.00094885,-0.00125564,0.00028604,-0.00112098,0.0025
 0655,0.00279699,-0.00316844,0.00125365,-0.00102682,0.00152981,-0.00669
 926,0.00566184,0.00603286,0.01220313,0.00217116,0.00495999,-0.14732010
 ,-0.06144082,-0.08849573,0.59847310,0.00106773,-0.00105028,0.00012633,
 0.00086309,-0.00044870,0.00097012,0.00025962,-0.00000894,0.00021176,0.
 00011667,-0.00009524,0.00010835,0.00014034,0.00021091,-0.00026501,0.00
 000990,-0.00028921,-0.00036000,0.00030039,0.00031544,-0.00023076,-0.00
 337106,-0.00139836,0.00186083,-0.01178888,-0.01021392,-0.02886256,-0.0
 3918497,-0.11245249,-0.10448480,0.04688607,0.13843444,-0.00020651,0.00
 059746,-0.00131842,0.00168497,0.00135849,-0.00173980,0.00018417,-0.000
 29839,0.00071687,0.00038276,0.00015966,-0.00014612,0.00026234,-0.00010
 781,-0.00017525,-0.00022735,0.00001022,0.00007729,0.00081820,-0.000117
 24,0.00058163,-0.00531700,0.00132039,-0.00112448,-0.01719947,-0.030327
 60,-0.03430910,-0.04938245,-0.09868415,-0.19689250,0.00218977,0.157786
 15,0.28403320,0.00015041,-0.00005238,0.00008745,-0.00024273,-0.0001409
 3,-0.00046935,0.00034048,-0.00002237,0.00010624,-0.00008366,-0.0000897
 8,0.00009099,-0.00000401,-0.00004437,-0.00015739,-0.00022102,0.0003277
 0,0.00004612,-0.00006095,-0.00019895,0.00029442,0.00183958,0.00109321,
 0.00175046,-0.01930547,0.03017419,0.04509187,-0.31379616,-0.00347846,-
 0.00985272,-0.03512278,-0.00837061,-0.01370354,0.65703507,-0.00024663,
 -0.00006248,-0.00020531,-0.00058212,0.00004627,0.00010700,0.00001960,0
 .00001601,-0.00011114,0.00001782,0.00002958,0.00001402,0.00006770,0.00
 028607,-0.00026151,0.00118353,-0.00041453,0.00065818,-0.00009268,0.000
 01979,0.00000719,0.00109294,0.00250961,-0.00478552,0.01382250,0.009664
 40,0.00715648,0.02929378,-0.07844813,-0.02248142,-0.02868405,0.0040399
 8,-0.00445146,-0.00989313,0.29980455,-0.00001085,-0.00017297,-0.000081
 35,0.00032950,0.00073464,-0.00035767,0.00033550,0.00015581,0.00019127,
 0.00010833,-0.00017770,0.00008789,-0.00012814,0.00026309,0.00021441,0.
 00022762,-0.00009141,0.00028984,-0.00024270,-0.00004851,-0.00012235,0.
 00083314,-0.00395352,-0.00140565,0.02007612,0.00703043,0.01719706,0.04
 019074,-0.02351559,-0.09796347,-0.04303420,-0.00372317,0.00129990,-0.0
 0354165,0.28113947,0.53401860,-0.00007560,-0.00005334,-0.00003497,-0.0
 0001555,-0.00001005,0.00056171,-0.00012277,-0.00000697,-0.00017888,0.0
 0002628,0.00004372,-0.00002688,-0.00004127,-0.00003058,0.00016300,-0.0
 0009128,0.00005300,-0.00054634,-0.00001172,-0.00009419,0.00017947,0.00
 009333,0.00004443,-0.00004177,-0.00054630,-0.00013353,0.00018119,-0.02
 639021,-0.01547636,-0.02381306,-0.00336098,0.00151451,0.00304914,-0.17
 305665,-0.06933046,-0.10785894,0.70279631,-0.00003170,0.00002702,0.000
 05108,0.00005408,0.00003522,0.00005757,-0.00009099,0.00001742,-0.00002
 023,-0.00003289,0.00005336,-0.00006694,0.00006137,0.00001394,0.0001371
 2,-0.00034348,-0.00000269,0.00013778,0.00008311,0.00006484,-0.00024025
 ,0.00045940,-0.00117579,-0.00000127,-0.00145030,-0.01472489,-0.0229943
 2,-0.03888103,0.00993399,0.01188182,0.00569172,0.00230580,-0.00179733,
 -0.04034580,-0.12408510,-0.10736019,-0.00361937,0.28551684,0.00004655,
 -0.00003338,0.00013829,-0.00037219,0.00003888,0.00022691,-0.00016590,-
 0.00002289,-0.00016836,-0.00003412,0.00007464,-0.00006494,0.00010856,-
 0.00002298,0.00007393,-0.00022100,0.00019809,0.00018350,0.00018828,0.0
 0001228,-0.00015928,0.00074474,-0.00015275,-0.00149862,-0.00240500,-0.
 02297615,-0.03431863,-0.05908009,0.01274556,0.01920521,0.00842293,-0.0
 0193819,0.00130562,-0.06484405,-0.10906423,-0.21930618,0.00579987,0.24
 233953,0.49676959,-0.00001182,-0.00014116,0.00014289,-0.00081431,-0.00
 014410,-0.00009864,-0.00006081,0.00000939,-0.00010812,-0.00015214,0.00
 007090,-0.00013864,0.00029446,-0.00002161,0.00021861,-0.00106406,0.000
 71735,0.00003667,0.00067566,-0.00015175,0.00003834,0.00323194,-0.00080
 981,-0.00159113,-0.02407453,-0.03061419,-0.04755982,-0.04527508,0.0142
 1651,0.02008926,0.00368134,-0.00189199,-0.00316568,0.04943886,0.008712
 33,0.01432624,-0.16418890,0.03742323,0.05599276,0.66624508,-0.00010534
 ,-0.00001979,-0.00010955,-0.00102478,-0.00020362,0.00037794,-0.0000413
 2,0.00030656,-0.00014247,-0.00000316,0.00000511,0.00002148,-0.00001206
 ,-0.00001662,-0.00018481,0.00065628,0.00026887,-0.00005813,0.00012748,
 -0.00013437,0.00025673,-0.00099460,0.00167802,-0.00464340,-0.01187398,
 0.01295770,0.00837857,0.01538863,-0.00382671,-0.00450633,-0.00312906,-
 0.00164872,-0.00099862,-0.01088250,-0.01127175,-0.02684484,0.06725013,
 -0.12390778,-0.10582267,0.00800152,0.28839272,0.00011034,-0.00019949,-
 0.00019396,0.00011350,-0.00015505,0.00017066,0.00007369,0.00028641,0.0
 0042905,-0.00014379,-0.00008196,-0.00005025,-0.00007162,0.00017303,0.0
 0016590,-0.00076892,0.00063638,-0.00144537,0.00049600,-0.00055915,0.00
 067973,-0.00210921,-0.00389911,-0.00118613,-0.01880595,0.00713705,0.01
 724486,0.02229694,-0.00507158,-0.00730945,-0.00459083,-0.00050883,-0.0
 0263674,-0.01525866,-0.02619708,-0.03412304,0.10117694,-0.10681606,-0.
 21567340,0.02443384,0.27687649,0.53174647,0.00016811,-0.00065315,-0.00
 042100,-0.00173054,-0.00090630,0.00206808,-0.00041185,0.00129334,0.000
 25029,0.00003018,-0.00024012,0.00004293,-0.00073772,0.00066296,0.00064
 771,-0.00201339,0.00127950,-0.00546832,0.00140916,-0.00165378,0.002589
 81,-0.02536581,-0.01365968,-0.02146209,-0.17797727,-0.03637291,-0.0624
 5632,0.06871819,-0.01429405,-0.01746272,-0.00935187,0.00414926,0.00551
 631,-0.04522840,-0.01367568,-0.02228752,-0.02537823,0.04124890,0.06233
 983,-0.33072918,-0.02596895,-0.04650059,0.69026779,0.00059666,-0.00000
 724,0.00030115,0.00240966,-0.00112483,0.00003766,0.00035281,-0.0005598
 4,0.00034446,-0.00002449,-0.00001441,-0.00019869,0.00065368,0.00031488
 ,-0.00064827,0.00126053,-0.00185231,0.00123361,-0.00106828,0.00025494,
 -0.00066851,-0.00286715,0.00582650,0.00232003,-0.06950808,-0.10730860,
 -0.08487632,0.01232036,-0.02213354,-0.02428399,0.00087509,0.00656833,-
 0.00088022,-0.01124779,-0.00355961,-0.00586097,0.01512048,0.00703891,0
 .01069630,0.00829391,-0.07490391,-0.02298216,-0.00187939,0.29318828,0.
 00073287,0.00022539,0.00011530,0.00365349,-0.00063608,0.00067979,-0.00
 022226,-0.00037351,0.00035041,0.00093345,-0.00020140,0.00031661,-0.000
 51450,0.00003085,-0.00151477,0.00657964,-0.00164132,0.00375117,-0.0016
 6419,0.00145536,-0.00363379,-0.01260752,0.00052946,0.00317755,-0.10530
 625,-0.08317057,-0.18600113,0.01951967,-0.02394269,-0.04032185,0.00053
 125,-0.00144457,0.00544681,-0.01847191,-0.00597240,-0.00943787,0.02178
 198,0.01208049,0.01847406,0.00802395,-0.02458519,-0.09480266,0.0145200
 4,0.23211633,0.49296025,0.00030234,0.00008832,0.00006789,0.00123342,-0
 .00089472,0.00022577,-0.00023049,-0.00007148,0.00033029,0.00007659,0.0
 0010411,-0.00024452,0.00059330,0.00011689,-0.00042436,0.00160880,-0.00
 117230,0.00161027,-0.00119507,0.00030051,-0.00159280,-0.00076466,-0.00
 042373,-0.00138074,0.01334933,-0.00537532,-0.00713763,-0.00712334,-0.0
 0071092,-0.00145090,0.00225865,-0.00010840,0.00007930,0.00257176,0.001
 56016,0.00270072,-0.00556369,-0.00411929,-0.00679710,-0.02633275,0.028
 97171,0.04341308,-0.13253232,0.05927069,0.08574443,0.14997854,-0.00029
 341,-0.00000761,-0.00017364,0.00001474,0.00037489,-0.00005264,-0.00011
 852,-0.00002732,-0.00002494,-0.00012276,0.00006871,-0.00003984,-0.0000
 4196,-0.00014982,0.00054729,-0.00176071,0.00038675,-0.00113198,0.00032
 270,-0.00054285,0.00024060,0.00209988,-0.00262916,0.00265379,0.0127357
 4,-0.01185351,-0.02706508,-0.00394416,0.00638659,-0.00221957,-0.000151
 96,-0.00160327,-0.00190146,0.00146567,-0.00153661,-0.00004843,0.000256
 08,0.00493287,-0.00282722,0.00829307,0.00175520,-0.00809407,0.05916252
 ,-0.10795897,-0.10028857,-0.07906414,0.11581167,-0.00029122,-0.0000130
 9,-0.00006262,-0.00090307,0.00015991,0.00024471,-0.00016327,-0.0000920
 4,-0.00023076,-0.00026716,0.00025001,-0.00018696,0.00016954,-0.0003109
 5,0.00063990,-0.00292744,0.00084418,-0.00336392,0.00155738,-0.00034440
 ,0.00233975,0.00431442,0.00237737,0.00032373,0.01984818,-0.02764744,-0
 .03530584,-0.00654944,-0.00179896,0.00384341,-0.00021296,-0.00197100,-
 0.00330333,0.00223809,-0.00004129,-0.00149828,0.00007242,-0.00288695,0
 .00250264,0.01191829,-0.00743680,-0.00411751,0.08620891,-0.10114728,-0
 .19020483,-0.11685236,0.13808301,0.22919644,-0.15133142,0.09342509,-0.
 09276514,0.00984236,-0.00975146,0.00933145,0.00061362,-0.00133996,0.00
 160023,0.00023983,-0.00014841,-0.00004758,-0.00006819,-0.00005441,0.00
 001687,0.00045698,-0.00002286,0.00036158,-0.00000933,-0.00018609,0.000
 31082,-0.00181504,-0.00149508,0.00210166,-0.00045363,0.00031373,-0.000
 35714,0.00025088,0.00006349,-0.00008578,-0.00012151,0.00014257,-0.0002
 8371,0.00009327,-0.00000977,-0.00004953,-0.00001597,-0.00003074,-0.000
 01123,-0.00004843,0.00000589,0.00002626,0.00014628,0.00030513,0.000385
 39,0.00010277,-0.00013947,-0.00016167,0.16121792,0.09107877,-0.1218075
 2,0.07859915,0.01033202,-0.00926660,0.00696644,0.00146712,0.00046546,-
 0.00051034,-0.00014069,-0.00007225,-0.00011216,-0.00020167,0.00000710,
 -0.00006016,0.00089526,0.00049727,0.00018635,-0.00011533,-0.00033806,0
 .00029116,-0.00222600,-0.00059068,0.00207843,-0.00049882,0.00019744,-0
 .00023609,-0.00046842,-0.00023551,-0.00076228,0.00054032,-0.00044907,0
 .00059168,0.00010207,0.00004955,0.00000207,0.00000404,-0.00003687,-0.0
 0003454,0.00004168,0.00005056,0.00006849,0.00007255,0.00000621,0.00001
 128,0.00001210,0.00002799,0.00006528,-0.09851724,0.12846458,-0.0899751
 8,0.07778899,-0.11784562,-0.01376341,0.01070097,-0.01278170,-0.0018735
 0,-0.00080758,0.00061161,0.00014884,-0.00023354,-0.00015652,0.00014583
 ,-0.00006027,0.00012626,-0.00110817,0.00024004,0.00010199,0.00016747,0
 .00024809,-0.00060743,0.00269312,0.00247945,-0.00171754,0.00041428,0.0
 0023592,-0.00017484,-0.00033089,-0.00047644,-0.00073514,0.00046874,-0.
 00032875,0.00069980,0.00001937,0.00003645,0.00005818,-0.00003664,-0.00
 003799,-0.00004744,-0.00002904,0.00001494,0.00003708,0.00009505,0.0000
 6385,0.00021442,-0.00000445,-0.00001712,-0.00002857,0.09590684,-0.0876
 9237,0.12734851,-0.15546526,-0.10544623,-0.07842620,-0.01238807,-0.009
 10370,-0.00255919,0.00013292,-0.00169670,0.00155157,-0.00058381,0.0004
 9082,0.00069011,0.00019946,0.00007557,-0.00018859,-0.00054992,0.000019
 47,0.00043823,0.00011723,-0.00006985,0.00004477,-0.00045443,0.00173534
 ,-0.00155543,0.00080335,0.00022039,-0.00043604,0.00004334,0.00009465,0
 .00024919,-0.00020547,0.00003043,-0.00021783,-0.00001669,0.00001104,0.
 00003052,-0.00000853,0.00000165,-0.00004604,-0.00005994,-0.00009430,0.
 00006267,0.00026611,-0.00019354,-0.00055713,-0.00024904,0.00023919,0.0
 0020640,-0.01059446,-0.01144170,-0.00590909,0.16885859,-0.10587324,-0.
 13545141,-0.06619084,-0.00903774,-0.00868568,-0.00568015,0.00047469,-0
 .00129040,0.00111339,-0.00016635,0.00051485,-0.00000977,0.00009485,-0.
 00025898,0.00014332,-0.00063812,0.00051269,0.00013922,0.00025709,-0.00
 011437,0.00009331,-0.00077829,0.00071247,0.00007722,-0.00041340,-0.000
 06254,-0.00023673,-0.00000334,-0.00059119,-0.00069062,0.00052447,0.000
 12354,0.00055256,0.00020884,0.00008860,-0.00013421,-0.00003734,-0.0000
 6468,-0.00002099,0.00000688,0.00006943,0.00008741,0.00018036,0.0002938
 4,0.00063369,0.00020207,-0.00016192,-0.00027415,0.01172792,0.01126151,
 0.00725113,0.11635225,0.14380451,-0.07732571,-0.06656341,-0.08905250,0
 .01645587,0.01466676,0.00982364,0.00049000,0.00124883,-0.00201872,0.00
 057180,-0.00066097,-0.00061413,0.00022627,0.00016754,-0.00002162,0.000
 22435,-0.00081875,-0.00003789,-0.00011073,0.00000357,0.00000623,-0.000
 02902,0.00043378,0.00019235,0.00023445,0.00055880,0.00005875,-0.000394
 41,-0.00007552,0.00008478,-0.00005415,-0.00026547,0.00010584,0.0001973
 9,0.00013816,0.00001266,0.00005999,-0.00003594,-0.00003638,-0.00007950
 ,-0.00005600,-0.00001392,-0.00024766,0.00030878,-0.00018114,0.00012050
 ,-0.00023437,-0.00001978,-0.00783757,-0.00980220,-0.00645763,0.0798603
 7,0.07055416,0.09630024,-0.10252915,0.08130663,0.07847225,-0.01000065,
 0.00594442,0.01019707,-0.00003879,-0.00129245,0.00162470,-0.00043243,-
 0.00088790,-0.00065873,0.00049076,0.00008447,0.00004402,-0.00090673,-0
 .00071680,0.00022726,0.00009279,-0.00003500,0.00003932,-0.00010063,0.0
 0104198,-0.00180564,0.00059256,0.00034859,0.00024308,-0.00062945,0.000
 86995,-0.00087822,-0.00098526,0.00034790,-0.00040411,0.00009324,-0.000
 04477,0.00009149,-0.00003048,-0.00009306,0.00001319,0.00003067,0.00005
 370,0.00003478,0.00011337,-0.00028878,-0.00021736,-0.00013046,0.000132
 89,0.00012875,-0.00832844,0.00979805,0.01195197,0.01002189,-0.01264241
 ,-0.01279260,0.11244242,0.07898912,-0.13624389,-0.09524919,-0.00939348
 ,0.01269964,0.01124400,-0.00055645,-0.00113060,0.00082074,-0.00020527,
 -0.00055146,-0.00046022,-0.00015499,-0.00005016,0.00025462,-0.00019374
 ,-0.00035616,-0.00057906,0.00012376,-0.00000164,0.00006745,0.00006520,
 -0.00024005,-0.00004875,-0.00001879,0.00002679,-0.00033994,0.00216921,
 0.00067269,0.00307136,-0.00075048,-0.00084235,-0.00179861,-0.00062860,
 -0.00012404,-0.00031427,0.00011277,0.00003558,0.00010639,-0.00013806,-
 0.00015587,-0.00015083,0.00024151,-0.00013209,0.00010111,0.00001104,0.
 00000188,-0.00007183,0.00547611,-0.00894548,-0.00966229,0.00943671,-0.
 01081757,-0.00999596,-0.08407606,0.14725575,0.07840735,-0.09682107,-0.
 13732166,0.01019561,-0.01015261,-0.01261394,-0.00117449,0.00036096,-0.
 00123400,0.00025616,0.00079564,-0.00007702,0.00030528,-0.00015827,-0.0
 0009561,0.00030773,0.00065050,0.00082768,-0.00021871,0.00007304,-0.000
 16846,0.00107393,0.00095483,0.00068717,0.00005925,-0.00062035,0.000040
 55,-0.00195780,-0.00033143,-0.00264800,0.00108576,-0.00072872,0.001960
 14,0.00026781,0.00018663,0.00025008,-0.00003487,-0.00019495,-0.0002152
 3,-0.00009247,0.00015339,0.00010007,0.00009069,-0.00042920,-0.00006237
 ,-0.00023440,0.00023370,0.00031585,-0.00827683,0.01048671,0.01105500,0
 .00671229,-0.00740293,-0.00784965,-0.08757082,0.10176509,0.14795792,0.
 00075700,0.00158289,-0.00162609,-0.01106348,0.01471176,-0.02026943,-0.
 12110169,0.06853383,-0.09613037,0.00986619,-0.00833352,0.01177138,-0.0
 0072621,-0.00147533,0.00220774,-0.00099161,-0.00065191,0.00092484,0.00
 024896,0.00006722,-0.00011439,-0.00465774,-0.00078266,0.00119510,-0.00
 033594,0.00067222,-0.00115514,-0.00018847,-0.00029362,-0.00035346,0.00
 017791,0.00011046,0.00029502,0.00004173,-0.00002556,0.00007028,-0.0000
 6639,-0.00002198,-0.00005739,-0.00008127,-0.00009148,0.00001453,-0.000
 19917,0.00028533,0.00036228,0.00009927,-0.00005503,-0.00016478,0.00000
 751,-0.00080450,0.00082911,0.00021521,-0.00014568,0.00019007,0.0000030
 6,-0.00013635,0.00009366,0.12692177,-0.00107231,-0.00212331,-0.0027385
 0,-0.00119765,0.00179942,0.00105913,0.06847422,-0.10686627,0.10433460,
 0.00885897,-0.00387627,0.00850727,-0.00193688,0.00323737,0.00426641,-0
 .00074575,-0.00020008,-0.00036634,0.00015405,-0.00060062,-0.00031697,-
 0.00051771,0.00426206,0.00192932,0.00004760,0.00035779,0.00004566,-0.0
 0010516,0.00001610,0.00014816,0.00004864,-0.00004706,-0.00014866,0.000
 03518,-0.00003969,0.00000973,-0.00002384,-0.00000195,0.00000017,0.0000
 3844,-0.00000581,0.00002563,-0.00002464,0.00003169,-0.00000113,0.00005
 292,-0.00002833,-0.00007224,0.00031088,0.00026626,0.00005649,-0.000418
 17,-0.00001023,0.00024048,0.00047231,0.00022247,-0.00017957,-0.0729107
 7,0.10573740,0.00118849,-0.00222716,-0.00093151,0.00221244,0.00072493,
 0.00185432,-0.09647212,0.10377627,-0.17727436,-0.01221192,0.00920545,-
 0.01069822,0.00312977,0.00419593,0.00040773,0.00075398,-0.00040591,0.0
 0019407,-0.00017636,-0.00036931,-0.00032607,0.00029591,0.00216971,0.00
 260206,0.00021021,0.00007204,0.00018584,-0.00006102,-0.00006496,0.0000
 3679,-0.00002353,0.00002743,-0.00000740,-0.00000767,-0.00000147,0.0000
 1540,-0.00001508,-0.00000283,-0.00000166,-0.00000412,0.00000060,-0.000
 01157,0.00001446,0.00007738,0.00009486,0.00001683,-0.00004483,-0.00005
 725,-0.00024560,-0.00011685,0.00046582,-0.00021953,-0.00005332,0.00018
 990,0.00040796,0.00005386,-0.00007013,0.10178985,-0.11531885,0.1844859
 1,-0.00045840,0.00021328,-0.00030165,0.00068889,-0.00168984,0.00244545
 ,-0.01007260,0.00193518,-0.00276503,-0.32421329,-0.00058198,0.00060167
 ,-0.01032424,-0.00168073,0.00248536,0.00126986,0.00139000,-0.00198860,
 -0.00093658,0.00012376,-0.00019314,0.00073809,-0.00002412,0.00001430,-
 0.00002268,0.00000327,-0.00001858,0.00001474,-0.00004497,-0.00002549,-
 0.00001366,0.00005365,0.00000991,0.00000020,0.00000446,-0.00000391,-0.
 00001268,-0.00000247,-0.00000530,-0.00001382,-0.00000247,0.00000289,0.
 00003185,0.00006488,0.00005537,-0.00000467,-0.00002659,-0.00002499,0.0
 0003178,0.00000352,0.00000139,-0.00010617,-0.00007032,0.00012607,-0.00
 009187,-0.00008806,0.00008243,0.00074370,0.00002183,-0.00001602,0.3419
 8541,-0.00051613,0.00006505,-0.00025616,-0.00135225,0.00291151,0.00501
 345,-0.01466432,0.00386931,-0.00029737,-0.00057183,-0.04110331,0.00861
 625,0.01482641,0.00361547,0.00001510,0.00070802,0.00362586,0.00491719,
 0.00107348,-0.00023852,0.00025935,0.00012482,-0.00103820,-0.00000745,0
 .00000771,-0.00044573,-0.00040395,0.00012508,0.00005535,0.00009194,-0.
 00004698,-0.00001005,-0.00005017,-0.00000525,-0.00000634,-0.00002676,0
 .00000937,0.00000327,0.00001175,0.00000534,-0.00002444,-0.00003632,-0.
 00011469,0.00007550,0.00002482,0.00001189,-0.00002221,-0.00001051,0.00
 005120,-0.00002193,-0.00000570,-0.00008749,-0.00004680,0.00009733,-0.0
 0002542,-0.00001687,0.00009597,0.00014351,-0.00223751,-0.00224494,0.00
 055179,0.03337205,0.00078139,-0.00019141,0.00022760,0.00151879,0.00496
 986,-0.00066858,0.02127288,-0.00036255,0.00405150,0.00076578,0.0085008
 2,-0.04741764,-0.02161289,0.00010493,0.00341879,-0.00069084,0.00500817
 ,-0.00016211,-0.00162823,0.00022433,-0.00038190,-0.00017615,-0.0000917
 2,-0.00093857,0.00003107,-0.00037015,-0.00012905,0.00002837,0.00000873
 ,-0.00000776,0.00002456,-0.00003219,0.00002031,-0.00000035,0.00000808,
 -0.00000612,0.00000257,-0.00000681,0.00000621,0.00000348,-0.00000431,-
 0.00002123,-0.00002295,0.00003275,-0.00003952,-0.00003487,-0.00001422,
 0.00002777,-0.00006311,-0.00002156,-0.00000004,0.00013351,0.00009722,-
 0.00013335,0.00011864,0.00010015,-0.00007377,-0.00027343,-0.00218560,-
 0.00070772,-0.00056674,-0.01351721,0.04353473,0.00013606,-0.00001789,0
 .00001988,-0.00076057,0.00062093,-0.00082817,-0.00101962,0.00160701,-0
 .00236996,0.01118306,0.00812270,-0.01175984,-0.11549351,-0.06553241,0.
 09446522,-0.00809443,-0.01611375,0.02329390,0.00286755,0.00031770,-0.0
 0054491,-0.00490971,0.00090275,-0.00134593,-0.00033860,-0.00065573,0.0
 0107434,-0.00031760,-0.00026785,-0.00029866,0.00012016,0.00007189,0.00
 017524,0.00000813,0.00011894,0.00000967,-0.00005286,-0.00002478,-0.000
 01568,-0.00004965,0.00004080,-0.00004987,-0.00009689,0.00028587,0.0004
 0035,0.00015655,-0.00016920,-0.00020735,-0.00000428,-0.00004266,0.0000
 4983,0.00001698,0.00002978,-0.00001646,0.00001310,0.00002141,-0.000026
 31,0.00038751,0.00043321,-0.00059983,0.00076129,-0.00026281,0.00040805
 ,0.11557700,-0.00009989,-0.00042707,-0.00034445,0.00028767,-0.00053735
 ,-0.00059866,0.00207231,0.00367380,0.00404896,-0.00798398,-0.00338060,
 0.00796512,-0.06631242,-0.10692777,0.10959454,0.00173328,0.00318503,0.
 00202670,-0.00021852,-0.00239753,-0.00246393,0.00041472,0.00343858,0.0
 0179486,-0.00012025,0.00015370,-0.00003003,0.00001431,0.00002009,0.000
 02237,-0.00001817,-0.00000770,-0.00006179,-0.00001452,-0.00002305,-0.0
 0000973,0.00000410,-0.00001107,-0.00000791,-0.00003066,-0.00001398,-0.
 00000292,-0.00000500,0.00011378,0.00030380,0.00009736,-0.00007103,-0.0
 0016061,0.00005059,0.00004881,0.00001659,-0.00009196,0.00000395,0.0000
 2977,0.00010039,-0.00000195,-0.00003256,-0.00036241,0.00004169,0.00058
 162,-0.00008069,-0.00235835,-0.00231974,0.07056606,0.10544499,-0.00000
 674,-0.00026771,-0.00021703,-0.00060564,-0.00051737,-0.00018161,-0.003
 20901,0.00398595,0.00074227,0.01143089,0.00819049,-0.00971794,0.095985
 04,0.10956914,-0.18941456,-0.00242645,0.00200042,0.00167256,0.00023830
 ,-0.00244502,-0.00055917,-0.00019560,0.00148939,0.00234093,-0.00022366
 ,0.00002131,0.00013086,0.00001828,0.00007277,0.00006438,-0.00000855,-0
 .00004343,-0.00005733,-0.00001205,-0.00001537,-0.00001763,0.00000436,-
 0.00000084,0.00000778,0.00001205,0.00000131,0.00000008,-0.00001146,0.0
 0000991,0.00009025,0.00004619,-0.00001851,-0.00005594,0.00000457,-0.00
 001564,0.00005589,-0.00001545,-0.00000576,0.00002836,0.00009940,-0.000
 01688,-0.00001259,0.00056376,0.00059378,-0.00039086,0.00010542,-0.0023
 3963,-0.00060309,-0.10179352,-0.12031483,0.19608760,-0.00017291,0.0007
 9409,-0.00038877,-0.00037004,0.00076853,-0.00275473,-0.00143113,-0.000
 17495,-0.00008492,-0.00003827,0.00046117,-0.00042907,0.00056318,-0.000
 17033,0.00044670,-0.00076893,-0.00161032,0.00236388,-0.00086493,0.0007
 2950,-0.00104018,0.00504704,-0.00286028,-0.00142375,0.00250402,0.00447
 584,0.00533231,-0.03255300,-0.00454066,-0.00331908,-0.42098024,0.00871
 435,0.07543146,0.00264790,-0.00174715,-0.00208383,-0.00131368,-0.00013
 043,-0.00017714,0.00032458,0.00056361,0.00080582,-0.00067115,-0.000561
 07,-0.00106853,-0.00046957,0.00074082,0.00117954,-0.00019811,0.0000912
 4,0.00018167,-0.00001145,-0.00024679,0.00014575,0.00030424,-0.00034644
 ,0.00066772,0.00001024,-0.00001358,0.00004828,0.00001874,0.00000921,-0
 .00001569,-0.00002389,0.00000840,-0.00000827,0.44828480,-0.00015379,-0
 .00099221,-0.00005002,0.00084845,-0.00036238,-0.00027914,0.00123880,0.
 00028388,0.00010657,-0.00026892,-0.00052665,0.00060162,-0.00110047,-0.
 00013257,-0.00017044,0.00046166,0.00191065,-0.00178158,0.00078327,-0.0
 0100208,0.00120359,-0.00129996,-0.00014081,0.00027404,-0.00070390,-0.0
 0145703,-0.00047561,-0.02213192,-0.00008158,0.00500987,0.03011762,-0.0
 1944541,-0.02268339,-0.00147053,-0.00016101,-0.00388327,-0.00035862,0.
 00186251,-0.00004955,0.00032832,-0.00032509,-0.00031762,-0.00080630,-0
 .00019543,0.00006170,0.00028764,0.00007189,0.00005679,-0.00017259,0.00
 042526,0.00017854,-0.00006735,0.00017311,0.00007791,-0.00045861,-0.001
 35360,0.00123811,-0.00002210,0.00005723,-0.00004058,-0.00007140,-0.000
 02174,0.00005601,-0.00004360,0.00002346,0.00006121,-0.00483903,0.02216
 955,-0.00005734,0.00007375,0.00006983,0.00086072,-0.00225566,0.0026286
 4,-0.00007268,-0.00012695,-0.00004721,-0.00053519,-0.00027399,0.000090
 85,-0.00022124,0.00033895,-0.00048045,0.00133635,0.00151774,-0.0022409
 8,0.00042681,-0.00042350,0.00070164,-0.00168079,0.00229027,0.00199855,
 -0.00190391,-0.00071928,-0.00163996,-0.03574769,-0.00046311,0.00302982
 ,0.11391555,-0.01785886,-0.05425102,-0.00199221,-0.00390514,-0.0033692
 3,-0.00105529,-0.00020690,0.00128674,0.00041372,-0.00013158,-0.0002514
 2,-0.00083260,0.00009904,-0.00041229,0.00029008,0.00001583,0.00007669,
 0.00014240,0.00000619,-0.00022710,0.00014750,-0.00004223,-0.00034835,0
 .00065186,0.00114597,-0.00074970,-0.00016488,0.00011485,-0.00005371,-0
 .00002253,0.00005276,0.00000571,-0.00004136,-0.00003052,0.00000962,-0.
 07360476,0.02050069,0.05471452,0.00003533,0.00006552,0.00004352,-0.000
 03018,-0.00022136,0.00008750,-0.00006757,-0.00004887,-0.00003956,-0.00
 004308,0.00003446,-0.00002038,0.00000176,-0.00011350,0.00001420,-0.000
 29763,0.00019889,-0.00029925,0.00009160,-0.00003670,0.00013070,-0.0002
 0644,0.00058135,0.00115424,-0.00474163,-0.00063870,-0.00129835,-0.0087
 2416,0.01580753,0.02310699,0.00247262,-0.00002031,0.00002743,-0.115692
 22,0.06499038,0.09518410,0.01064835,-0.00820893,-0.01208085,-0.0008961
 5,-0.00141541,-0.00237752,-0.00115693,-0.00069019,-0.00105180,0.000264
 73,0.00005306,0.00009518,0.00000224,0.00000222,-0.00002473,0.00000790,
 0.00000393,-0.00001731,-0.00001071,0.00004316,-0.00002274,-0.00002498,
 0.00000586,-0.00000795,-0.00000422,0.00000940,0.00000288,-0.00003516,-
 0.00000285,0.00000316,0.00019009,-0.00008049,-0.00015398,0.11700009,-0
 .00000615,-0.00003514,0.00001369,-0.00003595,0.00002711,-0.00014692,0.
 00003089,-0.00001878,0.00001235,-0.00001451,-0.00001079,0.00001011,0.0
 0001349,-0.00001753,-0.00000238,-0.00005955,0.00006110,-0.00004690,0.0
 0004814,-0.00004318,0.00008029,-0.00001943,0.00017660,0.00006530,-0.00
 025353,0.00356158,-0.00171635,-0.00097195,0.00278869,-0.00145049,0.000
 06012,-0.00199584,0.00176663,0.06545346,-0.10408316,-0.10938717,0.0076
 7102,-0.00374401,-0.00729734,-0.00176649,0.00382073,-0.00386855,-0.000
 61288,-0.00027811,0.00043614,0.00013954,-0.00046783,0.00025409,-0.0000
 0649,-0.00000365,0.00001084,0.00000550,-0.00000614,-0.00001686,0.00004
 964,0.00004933,0.00002797,0.00000928,0.00000668,0.00000350,0.00000018,
 -0.00000108,0.00000204,0.00000305,-0.00000035,0.00000007,-0.00000497,-
 0.00043138,0.00026343,-0.07013659,0.10295143,-0.00000872,0.00001997,0.
 00000461,0.00002765,0.00004379,0.00005336,0.00001219,-0.00001202,-0.00
 000607,0.00000210,-0.00000186,0.00000913,-0.00001083,0.00000318,-0.000
 02711,0.00003564,-0.00007716,0.00005762,-0.00001658,0.00004382,-0.0000
 4328,-0.00024066,0.00003653,0.00017503,-0.00025561,-0.00169364,0.00194
 114,-0.00254311,-0.00133933,0.00208721,0.00015932,0.00184307,-0.000511
 15,0.09658541,-0.10882902,-0.19009935,0.01147318,-0.00820177,-0.010601
 23,-0.00315958,-0.00382839,0.00056705,-0.00064654,0.00042196,0.0001250
 4,0.00014065,0.00030261,-0.00018986,0.00001137,0.00000007,0.00000050,-
 0.00000304,0.00000868,-0.00001160,-0.00001530,-0.00002194,-0.00001562,
 0.00000370,-0.00000179,0.00000054,0.00000308,0.00000010,-0.00000080,0.
 00000291,-0.00000024,0.00000024,0.00004069,0.00026777,-0.00016539,-0.1
 0227068,0.11930819,0.19758938,0.00000227,0.00000675,-0.00001105,0.0000
 0487,-0.00003364,0.00002719,-0.00000259,0.00000285,0.00000761,-0.00001
 428,0.00000175,-0.00000715,0.00000232,-0.00000433,0.00000165,0.0000098
 7,0.00005904,-0.00004870,-0.00000507,-0.00002894,0.00002299,0.00001551
 ,0.00002593,0.00002515,0.00060182,-0.00006741,-0.00006830,0.00100945,-
 0.00138132,-0.00213688,-0.00096294,-0.00001342,0.00000661,-0.01050439,
 0.00189484,0.00246448,-0.32421354,0.00488719,0.00094069,-0.00994844,-0
 .00129216,-0.00235178,0.00127025,0.00140623,0.00201299,-0.00091819,0.0
 0013185,0.00018958,-0.00001494,0.00000820,-0.00000122,0.00000203,-0.00
 000923,0.00001076,0.00000549,-0.00002747,0.00002193,-0.00000656,0.0000
 0324,-0.00000427,-0.00000495,0.00000005,-0.00000043,-0.00000536,-0.000
 00078,0.00000233,-0.00000315,-0.00008461,-0.00017055,0.00080319,0.0000
 2596,0.00011982,0.34211798,0.00000495,-0.00001484,0.00001861,0.0000394
 3,0.00006304,0.00000377,0.00002726,-0.00000884,0.00001107,-0.00000523,
 -0.00001625,0.00000593,-0.00001222,-0.00000370,0.00001609,-0.00007145,
 0.00006902,-0.00007155,0.00002188,-0.00003637,0.00003308,-0.00005148,-
 0.00025199,0.00023706,-0.00001414,-0.00107571,0.00011754,-0.00083658,0
 .00356077,-0.00493162,-0.00072370,0.00012474,0.00005937,-0.01395549,0.
 00379189,-0.00006249,0.00506792,-0.04033708,-0.00841554,0.01439151,0.0
 0333112,0.00001619,0.00065933,0.00345356,-0.00461182,0.00106232,-0.000
 19613,-0.00027567,0.00000347,0.00000046,0.00000222,-0.00000020,0.00000
 359,-0.00001331,0.00001404,-0.00001698,0.00000076,0.00000642,0.0000034
 6,0.00000164,-0.00000054,0.00000127,0.00000166,-0.00000839,0.00000096,
 0.00000209,-0.00011257,-0.00022173,-0.00004167,0.00018058,-0.00253818,
 0.00234576,-0.00537817,0.03272379,-0.00001397,0.00001195,-0.00001801,-
 0.00001084,-0.00002622,-0.00000321,-0.00000698,-0.00000193,-0.00000687
 ,0.00000232,0.00001135,-0.00000105,0.00000349,-0.00000714,-0.00000594,
 -0.00000759,-0.00001892,-0.00002590,0.00002724,0.00001667,0.00001591,0
 .00002651,0.00022387,-0.00002978,-0.00001281,0.00023358,-0.00086746,-0
 .00133408,-0.00495678,-0.00066700,-0.00124434,-0.00000759,0.00019429,-
 0.02152918,0.00054302,0.00375561,0.00103937,-0.00841439,-0.04756666,0.
 02186406,-0.00039478,0.00336094,0.00073892,-0.00470476,-0.00066079,0.0
 0165182,-0.00029463,-0.00040895,-0.00000828,0.00000654,0.00000480,0.00
 000083,0.00000087,0.00000024,-0.00001147,-0.00001041,0.00001933,-0.000
 00383,-0.00000370,-0.00000211,0.00000013,-0.00000079,0.00000009,0.0000
 0296,-0.00000287,-0.00000208,-0.00021902,-0.00004436,-0.00031891,0.000
 40586,0.00230325,-0.00062530,-0.00097600,0.01331220,0.04431648,0.00000
 698,-0.00004003,-0.00000824,-0.00024553,-0.00018046,0.00013153,-0.0000
 4876,0.00011090,0.00002686,-0.00005241,0.00000885,-0.00003573,0.000012
 62,0.00003136,0.00006853,-0.00017486,0.00025704,-0.00034775,0.00015195
 ,-0.00016382,0.00019589,-0.00016101,-0.00061753,-0.00105354,-0.0048283
 1,0.00092389,0.00138060,-0.00093939,0.00062690,0.00087219,0.00034276,-
 0.00002918,-0.00000498,-0.00092552,0.00154199,0.00226282,0.01099302,0.
 00751661,0.01171569,-0.12012132,-0.06412820,-0.10003253,-0.00884057,-0
 .01517255,-0.02355568,0.00291821,0.00023971,0.00059901,-0.00000172,0.0
 0000788,-0.00001717,0.00000821,-0.00000086,-0.00000853,0.00001146,0.00
 002425,-0.00001813,-0.00003656,0.00000911,-0.00000316,-0.00000474,-0.0
 0001012,-0.00000630,-0.00002527,-0.00000707,0.00000264,-0.00002438,0.0
 0006843,0.00007202,0.00041316,0.00037820,0.00055296,0.00075934,-0.0003
 0894,-0.00038511,0.12081264,0.00003405,0.00001755,0.00003691,-0.000076
 95,-0.00005853,-0.00000251,-0.00002849,0.00000396,-0.00001266,0.000030
 91,-0.00000542,0.00000920,-0.00003300,-0.00002856,-0.00001238,0.000080
 99,0.00006785,-0.00023741,0.00005514,-0.00004891,0.00014992,-0.0000374
 3,0.00055515,-0.00020106,0.00054913,0.00319295,-0.00148838,0.00041132,
 -0.00069257,0.00060491,-0.00011662,-0.00011656,0.00010430,0.00198116,0
 .00346921,-0.00372005,-0.00797693,-0.00374967,-0.00753725,-0.06484056,
 -0.09617753,-0.10636630,0.00191730,0.00286248,-0.00114116,-0.00034898,
 -0.00256187,0.00246456,-0.00000149,-0.00000084,-0.00000244,-0.00000184
 ,-0.00000018,0.00001285,-0.00000371,0.00001665,0.00002835,-0.00001002,
 -0.00000249,0.00000064,-0.00000161,-0.00000156,0.00000272,-0.00000303,
 0.00000896,0.00000312,0.00000184,-0.00012686,0.00005994,-0.00036244,0.
 00023190,-0.00063833,-0.00013238,-0.00240989,0.00222597,0.06891365,0.0
 9555481,-0.00002356,-0.00001068,-0.00002063,0.00005391,-0.00001103,0.0
 0002676,0.00001516,-0.00001312,-0.00000310,-0.00001860,0.00000292,-0.0
 0000229,0.00000201,0.00000422,0.00000957,-0.00004563,0.00000844,0.0000
 7035,-0.00002706,0.00001029,-0.00005441,0.00019841,-0.00023307,0.00032
 233,0.00018967,-0.00141546,0.00198871,0.00076171,0.00057781,-0.0002481
 9,-0.00010002,0.00011984,0.00003093,0.00306512,-0.00367234,0.00039726,
 -0.01190246,-0.00739942,-0.01052248,-0.10148742,-0.10633359,-0.1926652
 1,0.00269672,-0.00138286,0.00147647,-0.00028368,0.00241430,-0.00047649
 ,-0.00000629,0.00000436,-0.00000030,0.00000562,-0.00001048,-0.00000632
 ,0.00000848,-0.00001058,-0.00000605,0.00000187,0.00000166,-0.00000067,
 -0.00000148,0.00000095,-0.00000144,-0.00000450,-0.00000355,-0.00000099
 ,-0.00002608,0.00008113,-0.00005690,-0.00059063,-0.00062492,-0.0003141
 1,-0.00007742,0.00223865,-0.00045767,0.10759615,0.11565653,0.20051487\
 \0.00000094,0.00000019,-0.00000040,-0.00000040,-0.00000059,0.00000172,
 0.00000048,0.00000020,0.00000025,0.00000058,0.00000033,0.00000030,0.00
 000067,0.00000023,-0.00000004,-0.00000079,0.00000141,-0.00000198,-0.00
 000040,0.00000032,-0.00000055,-0.00000233,-0.00000028,0.00000049,0.000
 00230,0.00000017,0.00000057,0.00000046,0.00000110,0.00000141,-0.000002
 36,0.00000124,0.00000047,-0.00000075,-0.00000018,-0.00000005,-0.000000
 56,-0.00000043,-0.00000008,-0.00000055,-0.00000049,-0.00000019,0.00000
 079,-0.00000158,-0.00000215,0.00000061,-0.00000081,-0.00000046,0.00000
 109,-0.00000051,0.00000113,-0.00000079,-0.00000100,-0.00000043,-0.0000
 0080,0.00000083,0.00000103,0.00000084,-0.00000025,0.00000144,0.0000015
 7,0.00000052,0.00000024,0.00000064,0.00000102,-0.00000115,0.00000176,0
 .00000011,-0.00000081,-0.00000091,0.00000049,0.00000081,-0.00000159,-0
 .00000058,-0.00000026,-0.00000051,-0.00000144,-0.00000132\\\@


 Sacred cows make the best hamburger.
                               -- Mark Twain
 Job cpu time:       0 days  0 hours 22 minutes 31.1 seconds.
 Elapsed time:       0 days  0 hours  2 minutes 54.3 seconds.
 File lengths (MBytes):  RWF=    233 Int=      0 D2E=      0 Chk=      8 Scr=      1
 Normal termination of Gaussian 16 at Thu Jul 23 13:29:17 2026.
