%mem=8000MB
%nprocshared=8
# opt=calcfc freq bp86 empiricaldispersion=GD3BJ def2svp  IOP(1/8=2) nosymm

example

0 1
C -0.7328172342 1.5565234968 -2.0654229338
C -1.4708463327 0.7540843987 -1.0296639162
C -2.8670240259 0.7358630941 -1.0022137281
C -3.5601236224 0.0272989133 -0.0266465268
C -2.8725735169 -0.6811102076 0.9510531913
C -1.4900435717 -0.6609805785 0.9133063203
F -0.8132797472 -1.3486931738 1.8556374432
C -0.7587437014 0.0280645065 -0.0526200885
C 0.7217870021 -0.0127213484 -0.0368353229
C 1.4374180489 -0.7240359565 -1.0127833415
O 0.7914794793 -1.4297108631 -1.9825840641
C 2.8308003115 -0.7366816583 -1.0186108188
C 3.5234622932 -0.0462810951 -0.0340450993
C 2.8503465586 0.6550753067 0.9632313689
C 1.4679483575 0.6470473897 0.9345003662
F 0.7946572657 1.3296443442 1.8862512148
H -1.4178219983 2.2174083183 -2.5997359317
H 0.0508780238 2.1623051664 -1.6017696505
H -0.2401173445 0.9114805095 -2.8011578686
H -3.4165542082 1.2987331467 -1.7500460239
H -4.6450990559 0.0311966073 -0.0217568995
H -3.3808733084 -1.2379119745 1.7295589577
H -0.1592569579 -1.4019875935 -1.7981207461
H 3.3472663206 -1.2977336291 -1.7884266390
H 4.6082054262 -0.0585563618 -0.0366142706
H 3.3707543606 1.1949925372 1.7448095582

