 Entering Gaussian System, Link 0=g16
 Initial command:
 /path/to/gaussian "/path/to/scratch/inp" -scrdir="/path/to/scratch/"
 Entering Link 1 = /path/to/gaussian PID=   4030843.
  
 Copyright (c) 1988-2021, Gaussian, Inc.  All Rights Reserved.
  
 This is part of the Gaussian(R) 16 program.  It is based on
 the Gaussian(R) 09 system (copyright 2009, Gaussian, Inc.),
 the Gaussian(R) 03 system (copyright 2003, Gaussian, Inc.),
 the Gaussian(R) 98 system (copyright 1998, Gaussian, Inc.),
 the Gaussian(R) 94 system (copyright 1995, Gaussian, Inc.),
 the Gaussian 92(TM) system (copyright 1992, Gaussian, Inc.),
 the Gaussian 90(TM) system (copyright 1990, Gaussian, Inc.),
 the Gaussian 88(TM) system (copyright 1988, Gaussian, Inc.),
 the Gaussian 86(TM) system (copyright 1986, Carnegie Mellon
 University), and the Gaussian 82(TM) system (copyright 1983,
 Carnegie Mellon University). Gaussian is a federally registered
 trademark of Gaussian, Inc.
  
 This software contains proprietary and confidential information,
 including trade secrets, belonging to Gaussian, Inc.
  
 This software is provided under written license and may be
 used, copied, transmitted, or stored only in accord with that
 written license.
  
 The following legend is applicable only to US Government
 contracts under FAR:
  
                    RESTRICTED RIGHTS LEGEND
  
 Use, reproduction and disclosure by the US Government is
 subject to restrictions as set forth in subparagraphs (a)
 and (c) of the Commercial Computer Software - Restricted
 Rights clause in FAR 52.227-19.
  
 Gaussian, Inc.
 340 Quinnipiac St., Bldg. 40, Wallingford CT 06492
  
  
 ---------------------------------------------------------------
 Warning -- This program may not be used in any manner that
 competes with the business of Gaussian, Inc. or will provide
 assistance to any competitor of Gaussian, Inc.  The licensee
 of this program is prohibited from giving any competitor of
 Gaussian, Inc. access to this program.  By using this program,
 the user acknowledges that Gaussian, Inc. is engaged in the
 business of creating and licensing software in the field of
 computational chemistry and represents and warrants to the
 licensee that it is not a competitor of Gaussian, Inc. and that
 it will not use this program in any manner prohibited above.
 ---------------------------------------------------------------
  

 Cite this work as:
 Gaussian 16, Revision C.02,
 M. J. Frisch, G. W. Trucks, H. B. Schlegel, G. E. Scuseria, 
 M. A. Robb, J. R. Cheeseman, G. Scalmani, V. Barone, 
 G. A. Petersson, H. Nakatsuji, X. Li, M. Caricato, A. V. Marenich, 
 J. Bloino, B. G. Janesko, R. Gomperts, B. Mennucci, H. P. Hratchian, 
 J. V. Ortiz, A. F. Izmaylov, J. L. Sonnenberg, D. Williams-Young, 
 F. Ding, F. Lipparini, F. Egidi, J. Goings, B. Peng, A. Petrone, 
 T. Henderson, D. Ranasinghe, V. G. Zakrzewski, J. Gao, N. Rega, 
 G. Zheng, W. Liang, M. Hada, M. Ehara, K. Toyota, R. Fukuda, 
 J. Hasegawa, M. Ishida, T. Nakajima, Y. Honda, O. Kitao, H. Nakai, 
 T. Vreven, K. Throssell, J. A. Montgomery, Jr., J. E. Peralta, 
 F. Ogliaro, M. J. Bearpark, J. J. Heyd, E. N. Brothers, K. N. Kudin, 
 V. N. Staroverov, T. A. Keith, R. Kobayashi, J. Normand, 
 K. Raghavachari, A. P. Rendell, J. C. Burant, S. S. Iyengar, 
 J. Tomasi, M. Cossi, J. M. Millam, M. Klene, C. Adamo, R. Cammi, 
 J. W. Ochterski, R. L. Martin, K. Morokuma, O. Farkas, 
 J. B. Foresman, and D. J. Fox, Gaussian, Inc., Wallingford CT, 2019.
 
 ******************************************
 Gaussian 16:  ES64L-G16RevC.02  7-Dec-2021
                 2-Dec-2025 
 ******************************************
 %mem=12000MB
 %nprocshared=8
 Will use up to    8 processors via shared memory.
 ---------------------------------------------------------
 # opt=modredundant bp86 def2svp empiricaldispersion=GD3BJ
 ---------------------------------------------------------
 1/18=120,19=15,26=3,38=1/1,3;
 2/9=110,12=2,17=6,18=5,40=1/2;
 3/5=43,7=101,11=2,25=1,30=1,71=1,74=404,124=41/1,2,3;
 4//1;
 5/5=2,38=5/2;
 6/7=2,8=2,9=2,10=2,28=1/1;
 7//1,2,3,16;
 1/18=20,19=15,26=3/3(2);
 2/9=110/2;
 99//99;
 2/9=110/2;
 3/5=43,7=101,11=2,25=1,30=1,71=1,74=404,124=41/1,2,3;
 4/5=5,16=3,69=1/1;
 5/5=2,38=5/2;
 7//1,2,3,16;
 1/18=20,19=15,26=3/3(-5);
 2/9=110/2;
 6/7=2,8=2,9=2,10=2,19=2,28=1/1;
 99/9=1/99;
 -------
 example
 -------
 Symbolic Z-matrix:
 Charge =  0 Multiplicity = 1
 C                    -1.13836   2.5771   -1.14228 
 C                    -1.52485   1.22161  -0.56794 
 C                    -2.90409   1.14172  -0.26529 
 C                    -3.58625  -0.05435  -0.02103 
 C                    -2.87877  -1.23935  -0.22272 
 C                    -1.51444  -1.15317  -0.49362 
 F                    -0.97195  -2.36632  -0.88038 
 C                    -0.69862   0.02189  -0.4675 
 C                     0.804    -0.09443  -0.34433 
 C                     1.49817  -1.29767   0.11119 
 O                     0.92989  -2.40028   0.65165 
 C                     2.91215  -1.38734   0.12232 
 C                     3.72693  -0.30331  -0.183 
 C                     3.11327   0.92194  -0.4647 
 C                     1.72013   0.99863  -0.48828 
 F                     1.26272   2.26304  -0.60782 
 H                    -0.67513   3.2611   -0.40658 
 H                    -0.44446   2.48414  -1.99494 
 H                    -2.06308   3.06176  -1.51214 
 H                    -3.47552   2.08296  -0.28336 
 H                    -4.65868  -0.0623    0.22325 
 H                    -3.35052  -2.23244  -0.22051 
 H                     0.06     -2.58891   0.24484 
 H                     3.32694  -2.35876   0.42619 
 H                     4.82324  -0.39646  -0.16594 
 H                     3.67762   1.8505   -0.62895 
 
 The following ModRedundant input section has been read:
 D       7       8       9      11 F                                           
 D       1       8       9      16 F                                           
 

 GradGradGradGradGradGradGradGradGradGradGradGradGradGradGradGradGradGrad
 Berny optimization.
 Initialization pass.
                           ----------------------------
                           !    Initial Parameters    !
                           ! (Angstroms and Degrees)  !
 --------------------------                            --------------------------
 ! Name  Definition              Value          Derivative Info.                !
 --------------------------------------------------------------------------------
 ! R1    R(1,2)                  1.522          estimate D2E/DX2                !
 ! R2    R(1,17)                 1.1062         estimate D2E/DX2                !
 ! R3    R(1,18)                 1.1033         estimate D2E/DX2                !
 ! R4    R(1,19)                 1.1076         estimate D2E/DX2                !
 ! R5    R(2,3)                  1.4143         estimate D2E/DX2                !
 ! R6    R(2,8)                  1.4602         estimate D2E/DX2                !
 ! R7    R(3,4)                  1.3984         estimate D2E/DX2                !
 ! R8    R(3,20)                 1.1013         estimate D2E/DX2                !
 ! R9    R(4,5)                  1.3948         estimate D2E/DX2                !
 ! R10   R(4,21)                 1.0999         estimate D2E/DX2                !
 ! R11   R(5,6)                  1.3936         estimate D2E/DX2                !
 ! R12   R(5,22)                 1.0994         estimate D2E/DX2                !
 ! R13   R(6,7)                  1.3841         estimate D2E/DX2                !
 ! R14   R(6,8)                  1.4307         estimate D2E/DX2                !
 ! R15   R(8,9)                  1.5121         estimate D2E/DX2                !
 ! R16   R(9,10)                 1.4619         estimate D2E/DX2                !
 ! R17   R(9,15)                 1.4335         estimate D2E/DX2                !
 ! R18   R(10,11)                1.3531         estimate D2E/DX2                !
 ! R19   R(10,12)                1.4169         estimate D2E/DX2                !
 ! R20   R(11,23)                0.9787         estimate D2E/DX2                !
 ! R21   R(12,13)                1.39           estimate D2E/DX2                !
 ! R22   R(12,24)                1.0991         estimate D2E/DX2                !
 ! R23   R(13,14)                1.399          estimate D2E/DX2                !
 ! R24   R(13,25)                1.1004         estimate D2E/DX2                !
 ! R25   R(14,15)                1.3954         estimate D2E/DX2                !
 ! R26   R(14,26)                1.099          estimate D2E/DX2                !
 ! R27   R(15,16)                1.3499         estimate D2E/DX2                !
 ! A1    A(2,1,17)             113.9568         estimate D2E/DX2                !
 ! A2    A(2,1,18)             112.1051         estimate D2E/DX2                !
 ! A3    A(2,1,19)             107.6797         estimate D2E/DX2                !
 ! A4    A(17,1,18)            107.6213         estimate D2E/DX2                !
 ! A5    A(17,1,19)            107.5256         estimate D2E/DX2                !
 ! A6    A(18,1,19)            107.6914         estimate D2E/DX2                !
 ! A7    A(1,2,3)              112.2525         estimate D2E/DX2                !
 ! A8    A(1,2,8)              127.8794         estimate D2E/DX2                !
 ! A9    A(3,2,8)              119.3855         estimate D2E/DX2                !
 ! A10   A(2,3,4)              124.1527         estimate D2E/DX2                !
 ! A11   A(2,3,20)             117.015          estimate D2E/DX2                !
 ! A12   A(4,3,20)             118.7354         estimate D2E/DX2                !
 ! A13   A(3,4,5)              116.9985         estimate D2E/DX2                !
 ! A14   A(3,4,21)             121.3716         estimate D2E/DX2                !
 ! A15   A(5,4,21)             121.3672         estimate D2E/DX2                !
 ! A16   A(4,5,6)              118.1729         estimate D2E/DX2                !
 ! A17   A(4,5,22)             123.3306         estimate D2E/DX2                !
 ! A18   A(6,5,22)             118.4449         estimate D2E/DX2                !
 ! A19   A(5,6,7)              112.5707         estimate D2E/DX2                !
 ! A20   A(5,6,8)              127.262          estimate D2E/DX2                !
 ! A21   A(7,6,8)              120.0987         estimate D2E/DX2                !
 ! A22   A(2,8,6)              110.5423         estimate D2E/DX2                !
 ! A23   A(2,8,9)              129.1309         estimate D2E/DX2                !
 ! A24   A(6,8,9)              120.3264         estimate D2E/DX2                !
 ! A25   A(8,9,10)             124.0937         estimate D2E/DX2                !
 ! A26   A(8,9,15)             124.628          estimate D2E/DX2                !
 ! A27   A(10,9,15)            110.8197         estimate D2E/DX2                !
 ! A28   A(9,10,11)            126.5656         estimate D2E/DX2                !
 ! A29   A(9,10,12)            121.8982         estimate D2E/DX2                !
 ! A30   A(11,10,12)           111.3725         estimate D2E/DX2                !
 ! A31   A(10,11,23)           111.3674         estimate D2E/DX2                !
 ! A32   A(10,12,13)           122.2684         estimate D2E/DX2                !
 ! A33   A(10,12,24)           115.7678         estimate D2E/DX2                !
 ! A34   A(13,12,24)           121.9224         estimate D2E/DX2                !
 ! A35   A(12,13,14)           118.0417         estimate D2E/DX2                !
 ! A36   A(12,13,25)           120.9683         estimate D2E/DX2                !
 ! A37   A(14,13,25)           120.9493         estimate D2E/DX2                !
 ! A38   A(13,14,15)           119.3048         estimate D2E/DX2                !
 ! A39   A(13,14,26)           123.0149         estimate D2E/DX2                !
 ! A40   A(15,14,26)           117.6273         estimate D2E/DX2                !
 ! A41   A(9,15,14)            126.4733         estimate D2E/DX2                !
 ! A42   A(9,15,16)            120.4356         estimate D2E/DX2                !
 ! A43   A(14,15,16)           113.0328         estimate D2E/DX2                !
 ! D1    D(17,1,2,3)           100.0237         estimate D2E/DX2                !
 ! D2    D(17,1,2,8)           -88.0952         estimate D2E/DX2                !
 ! D3    D(18,1,2,3)          -137.4279         estimate D2E/DX2                !
 ! D4    D(18,1,2,8)            34.4531         estimate D2E/DX2                !
 ! D5    D(19,1,2,3)           -19.1516         estimate D2E/DX2                !
 ! D6    D(19,1,2,8)           152.7295         estimate D2E/DX2                !
 ! D7    D(1,2,3,4)            164.736          estimate D2E/DX2                !
 ! D8    D(1,2,3,20)           -11.6309         estimate D2E/DX2                !
 ! D9    D(8,2,3,4)             -7.9139         estimate D2E/DX2                !
 ! D10   D(8,2,3,20)           175.7192         estimate D2E/DX2                !
 ! D11   D(1,2,8,6)           -152.2122         estimate D2E/DX2                !
 ! D12   D(1,2,8,9)             28.004          estimate D2E/DX2                !
 ! D13   D(3,2,8,6)             19.1603         estimate D2E/DX2                !
 ! D14   D(3,2,8,9)           -160.6236         estimate D2E/DX2                !
 ! D15   D(2,3,4,5)             -6.6058         estimate D2E/DX2                !
 ! D16   D(2,3,4,21)           179.2045         estimate D2E/DX2                !
 ! D17   D(20,3,4,5)           169.7028         estimate D2E/DX2                !
 ! D18   D(20,3,4,21)           -4.4869         estimate D2E/DX2                !
 ! D19   D(3,4,5,6)              7.5046         estimate D2E/DX2                !
 ! D20   D(3,4,5,22)          -169.8381         estimate D2E/DX2                !
 ! D21   D(21,4,5,6)          -178.3054         estimate D2E/DX2                !
 ! D22   D(21,4,5,22)            4.3518         estimate D2E/DX2                !
 ! D23   D(4,5,6,7)           -170.4329         estimate D2E/DX2                !
 ! D24   D(4,5,6,8)              6.5255         estimate D2E/DX2                !
 ! D25   D(22,5,6,7)             7.0422         estimate D2E/DX2                !
 ! D26   D(22,5,6,8)          -175.9994         estimate D2E/DX2                !
 ! D27   D(5,6,8,2)            -19.568          estimate D2E/DX2                !
 ! D28   D(5,6,8,9)            160.2378         estimate D2E/DX2                !
 ! D29   D(7,6,8,2)            157.1855         estimate D2E/DX2                !
 ! D30   D(7,6,8,9)            -23.0088         estimate D2E/DX2                !
 ! D31   D(1,8,9,16)             7.059          Frozen                          !
 ! D32   D(2,8,9,10)           162.4923         estimate D2E/DX2                !
 ! D33   D(2,8,9,15)            -9.0159         estimate D2E/DX2                !
 ! D34   D(6,8,9,10)           -17.2732         estimate D2E/DX2                !
 ! D35   D(6,8,9,15)           171.2186         estimate D2E/DX2                !
 ! D36   D(7,8,9,11)           -32.4741         Frozen                          !
 ! D37   D(8,9,10,11)           -9.4653         estimate D2E/DX2                !
 ! D38   D(8,9,10,12)          175.5958         estimate D2E/DX2                !
 ! D39   D(15,9,10,11)         163.0652         estimate D2E/DX2                !
 ! D40   D(15,9,10,12)         -11.8737         estimate D2E/DX2                !
 ! D41   D(8,9,15,14)         -175.7531         estimate D2E/DX2                !
 ! D42   D(8,9,15,16)            7.2229         estimate D2E/DX2                !
 ! D43   D(10,9,15,14)          11.7645         estimate D2E/DX2                !
 ! D44   D(10,9,15,16)        -165.2595         estimate D2E/DX2                !
 ! D45   D(9,10,11,23)          35.358          estimate D2E/DX2                !
 ! D46   D(12,10,11,23)       -149.2551         estimate D2E/DX2                !
 ! D47   D(9,10,12,13)           5.8803         estimate D2E/DX2                !
 ! D48   D(9,10,12,24)        -176.4188         estimate D2E/DX2                !
 ! D49   D(11,10,12,13)       -169.756          estimate D2E/DX2                !
 ! D50   D(11,10,12,24)          7.9449         estimate D2E/DX2                !
 ! D51   D(10,12,13,14)          2.1828         estimate D2E/DX2                !
 ! D52   D(10,12,13,25)        179.8859         estimate D2E/DX2                !
 ! D53   D(24,12,13,14)       -175.3777         estimate D2E/DX2                !
 ! D54   D(24,12,13,25)          2.3254         estimate D2E/DX2                !
 ! D55   D(12,13,14,15)         -2.827          estimate D2E/DX2                !
 ! D56   D(12,13,14,26)        174.4611         estimate D2E/DX2                !
 ! D57   D(25,13,14,15)        179.4694         estimate D2E/DX2                !
 ! D58   D(25,13,14,26)         -3.2425         estimate D2E/DX2                !
 ! D59   D(13,14,15,9)          -4.8973         estimate D2E/DX2                !
 ! D60   D(13,14,15,16)        172.3146         estimate D2E/DX2                !
 ! D61   D(26,14,15,9)         177.6692         estimate D2E/DX2                !
 ! D62   D(26,14,15,16)         -5.1188         estimate D2E/DX2                !
 --------------------------------------------------------------------------------
 Trust Radius=3.00D-01 FncErr=1.00D-07 GrdErr=1.00D-06 EigMax=2.50D+02 EigMin=1.00D-04
 Number of steps in this run=    142 maximum allowed number of steps=    156.
 GradGradGradGradGradGradGradGradGradGradGradGradGradGradGradGradGradGrad

                          Input orientation:                          
 ---------------------------------------------------------------------
 Center     Atomic      Atomic             Coordinates (Angstroms)
 Number     Number       Type             X           Y           Z
 ---------------------------------------------------------------------
      1          6           0       -1.138356    2.577101   -1.142277
      2          6           0       -1.524849    1.221609   -0.567942
      3          6           0       -2.904089    1.141719   -0.265289
      4          6           0       -3.586249   -0.054347   -0.021032
      5          6           0       -2.878769   -1.239352   -0.222724
      6          6           0       -1.514437   -1.153169   -0.493617
      7          9           0       -0.971954   -2.366322   -0.880381
      8          6           0       -0.698620    0.021891   -0.467496
      9          6           0        0.803996   -0.094433   -0.344333
     10          6           0        1.498168   -1.297671    0.111191
     11          8           0        0.929887   -2.400281    0.651646
     12          6           0        2.912147   -1.387340    0.122323
     13          6           0        3.726934   -0.303313   -0.183002
     14          6           0        3.113272    0.921936   -0.464701
     15          6           0        1.720131    0.998625   -0.488284
     16          9           0        1.262718    2.263039   -0.607824
     17          1           0       -0.675127    3.261098   -0.406584
     18          1           0       -0.444457    2.484140   -1.994942
     19          1           0       -2.063084    3.061763   -1.512143
     20          1           0       -3.475518    2.082963   -0.283357
     21          1           0       -4.658679   -0.062299    0.223245
     22          1           0       -3.350524   -2.232439   -0.220509
     23          1           0        0.059997   -2.588911    0.244839
     24          1           0        3.326937   -2.358762    0.426194
     25          1           0        4.823235   -0.396461   -0.165938
     26          1           0        3.677617    1.850501   -0.628950
 ---------------------------------------------------------------------
                    Distance matrix (angstroms):
                    1          2          3          4          5
     1  C    0.000000
     2  C    1.522037   0.000000
     3  C    2.438697   1.414314   0.000000
     4  C    3.764823   2.485265   1.398420   0.000000
     5  C    4.294174   2.829948   2.381586   1.394792   0.000000
     6  C    3.804880   2.375964   2.692541   2.392311   1.393633
     7  F    4.953152   3.643701   4.051893   3.594196   2.310523
     8  C    2.679141   1.460160   2.481732   2.922934   2.530553
     9  C    3.398020   2.684304   3.909503   4.402315   3.858547
    10  C    4.851422   3.993323   5.047002   5.235899   4.390043
    11  O    5.680680   4.542159   5.299614   5.133360   4.076535
    12  C    5.807115   5.193266   6.354131   6.635252   5.803074
    13  C    5.734810   5.482225   6.787146   7.319212   6.671811
    14  C    4.612485   4.648938   6.024675   6.784803   6.374502
    15  C    3.330201   3.253608   4.631805   5.429986   5.121420
    16  F    2.479805   2.976020   4.328622   5.406208   5.437551
    17  H    1.106199   2.215306   3.078961   4.428934   5.014369
    18  H    1.103257   2.190333   3.292960   4.495675   4.788635
    19  H    1.107619   2.137143   2.438955   3.775392   4.563719
    20  H    2.538551   2.151285   1.101271   2.156193   3.376028
    21  H    4.606925   3.477828   2.183326   1.099928   2.180005
    22  H    5.373548   3.922276   3.403858   2.199873   1.099445
    23  H    5.481589   4.206235   4.792039   4.448574   3.267456
    24  H    6.838252   6.111235   7.180334   7.300855   6.339161
    25  H    6.733192   6.563378   7.879556   8.417687   7.748197
    26  H    4.897453   5.240695   6.629742   7.534040   7.259367
                    6          7          8          9         10
     6  C    0.000000
     7  F    1.384057   0.000000
     8  C    1.430736   2.439005   0.000000
     9  C    2.553104   2.933057   1.512136   0.000000
    10  C    3.076112   2.868228   2.627166   1.461902   0.000000
    11  O    2.973489   2.442388   3.125929   2.514907   1.353065
    12  C    4.475362   4.129172   3.920645   2.516680   1.416863
    13  C    5.318901   5.178986   4.446597   2.934830   2.458189
    14  C    5.071744   5.260656   3.916709   2.525916   2.804794
    15  C    3.884929   4.327116   2.608601   1.433458   2.383613
    16  F    4.404102   5.147721   2.981490   2.416098   3.640203
    17  H    4.494193   5.655126   3.239865   3.667597   5.076778
    18  H    4.077849   5.004746   2.908670   3.306385   4.744648
    19  H    4.370819   5.572593   3.491972   4.421029   5.858532
    20  H    3.789802   5.140079   3.463104   4.801980   6.026766
    21  H    3.404430   4.485360   4.020731   5.492176   6.280562
    22  H    2.147237   2.472034   3.489355   4.674017   4.949104
    23  H    2.255109   1.542916   2.810553   2.668910   1.937395
    24  H    5.073304   4.493068   4.761439   3.476511   2.137648
    25  H    6.391093   6.162386   5.545885   4.034517   3.456161
    26  H    5.999814   6.281984   4.745665   3.481591   3.899845
                   11         12         13         14         15
    11  O    0.000000
    12  C    2.288141   0.000000
    13  C    3.594076   1.390042   0.000000
    14  C    4.129228   2.391193   1.398989   0.000000
    15  C    3.671034   2.736160   2.411534   1.395449   0.000000
    16  F    4.841859   4.071732   3.583155   2.289889   1.349911
    17  H    5.978891   5.895443   5.668611   4.452755   3.295864
    18  H    5.722833   5.544182   5.334184   4.176069   3.026915
    19  H    6.593465   6.871602   6.827493   5.698303   4.429169
    20  H    6.354628   7.280786   7.588129   6.692759   5.311549
    21  H    6.073035   7.686568   8.398906   7.864173   6.505463
    22  H    4.371584   6.328726   7.335758   7.196553   6.018556
    23  H    0.978663   3.097344   4.342054   4.706589   4.020439
    24  H    2.407987   1.099113   2.180823   3.406219   3.832772
    25  H    4.454424   2.171910   1.100383   2.179771   3.417518
    26  H    5.221024   3.410861   2.200049   1.098952   2.139446
                   16         17         18         19         20
    16  F    0.000000
    17  H    2.189032   0.000000
    18  H    2.210753   1.783186   0.000000
    19  H    3.537897   1.785615   1.785132   0.000000
    20  H    4.752745   3.040621   3.503969   2.112566   0.000000
    21  H    6.415669   5.225929   5.400405   4.416837   2.501732
    22  H    6.453010   6.113209   5.817212   5.599500   4.317669
    23  H    5.070995   5.931894   5.568387   6.286857   5.882624
    24  H    5.166356   6.949307   6.598410   7.886163   8.155107
    25  H    4.466037   6.608149   6.276280   7.822594   8.662022
    26  H    2.449974   4.581005   4.388499   5.933198   7.165250
                   21         22         23         24         25
    21  H    0.000000
    22  H    2.572488   0.000000
    23  H    5.352582   3.460531   0.000000
    24  H    8.311738   6.709893   3.280054   0.000000
    25  H    9.495779   8.377597   5.259659   2.537746   0.000000
    26  H    8.595282   8.138304   5.793018   4.353642   2.564305
                   26
    26  H    0.000000
 Stoichiometry    C13H10F2O
 Framework group  C1[X(C13H10F2O)]
 Deg. of freedom    72
 Full point group                 C1      NOp   1
 Largest Abelian subgroup         C1      NOp   1
 Largest concise Abelian subgroup C1      NOp   1
                         Standard orientation:                         
 ---------------------------------------------------------------------
 Center     Atomic      Atomic             Coordinates (Angstroms)
 Number     Number       Type             X           Y           Z
 ---------------------------------------------------------------------
      1          6           0        1.374394    2.644796    0.315222
      2          6           0        1.649122    1.191297   -0.043192
      3          6           0        3.005266    0.969254   -0.377639
      4          6           0        3.599937   -0.294511   -0.447220
      5          6           0        2.830463   -1.380249   -0.029456
      6          6           0        1.488102   -1.158140    0.272120
      7          9           0        0.889953   -2.253169    0.871073
      8          6           0        0.746356    0.050651    0.083328
      9          6           0       -0.764668    0.019513    0.034431
     10          6           0       -1.552429   -1.190757   -0.193250
     11          8           0       -1.079214   -2.402306   -0.566076
     12          6           0       -2.968244   -1.183725   -0.139209
     13          6           0       -3.699262   -0.011346    0.013619
     14          6           0       -2.998453    1.198178    0.069194
     15          6           0       -1.603642    1.181799    0.030292
     16          9           0       -1.063692    2.414544   -0.074844
     17          1           0        0.920893    3.231789   -0.505420
     18          1           0        0.716285    2.738012    1.195778
     19          1           0        2.343514    3.117951    0.567711
     20          1           0        3.634161    1.859661   -0.534047
     21          1           0        4.657352   -0.415268   -0.724947
     22          1           0        3.239146   -2.390796    0.113905
     23          1           0       -0.204791   -2.582368   -0.165147
     24          1           0       -3.456070   -2.160554   -0.265220
     25          1           0       -4.798841   -0.030511    0.051066
     26          1           0       -3.495947    2.177607    0.099428
 ---------------------------------------------------------------------
 Rotational constants (GHZ):           0.8391972           0.4685298           0.3116450
 Standard basis: def2SVP (5D, 7F)
 There are   290 symmetry adapted cartesian basis functions of A   symmetry.
 There are   274 symmetry adapted basis functions of A   symmetry.
   274 basis functions,   470 primitive gaussians,   290 cartesian basis functions
    57 alpha electrons       57 beta electrons
       nuclear repulsion energy      1068.7316362923 Hartrees.
 NAtoms=   26 NActive=   26 NUniq=   26 SFac= 1.00D+00 NAtFMM=   60 NAOKFM=F Big=F
 Integral buffers will be    131072 words long.
 Raffenetti 2 integral format.
 Two-electron integral symmetry is turned on.
 Nuclear repulsion after empirical dispersion term =     1068.6802225040 Hartrees.
 One-electron integrals computed using PRISM.
   1 Symmetry operations used in ECPInt.
 ECPInt:  NShTT=    8001 NPrTT=   29641 LenC2=    7593 LenP2D=   20272.
 LDataN:  DoStor=T MaxTD1= 4 Len=   56
 NBasis=   274 RedAO= T EigKep=  2.97D-04  NBF=   274
 NBsUse=   274 1.00D-06 EigRej= -1.00D+00 NBFU=   274
 ExpMin= 1.22D-01 ExpMax= 2.89D+03 ExpMxC= 4.35D+02 IAcc=3 IRadAn=         5 AccDes= 0.00D+00
 Harris functional with IExCor=  404 and IRadAn=       5 diagonalized for initial guess.
 HarFok:  IExCor=  404 AccDes= 0.00D+00 IRadAn=         5 IDoV= 1 UseB2=F ITyADJ=14
 ICtDFT=  3500011 ScaDFX=  1.000000  1.000000  1.000000  1.000000
 FoFCou: FMM=F IPFlag=           0 FMFlag=      100000 FMFlg1=           0
         NFxFlg=           0 DoJE=T BraDBF=F KetDBF=T FulRan=T
         wScrn=  0.000000 ICntrl=       500 IOpCl=  0 I1Cent=   200000004 NGrid=           0
         NMat0=    1 NMatS0=      1 NMatT0=    0 NMatD0=    1 NMtDS0=    0 NMtDT0=    0
 Petite list used in FoFCou.
 Requested convergence on RMS density matrix=1.00D-08 within 128 cycles.
 Requested convergence on MAX density matrix=1.00D-06.
 Requested convergence on             energy=1.00D-06.
 No special actions if energy rises.
 Integral accuracy reduced to 1.0D-05 until final iterations.
 Initial convergence to 1.0D-05 achieved.  Increase integral accuracy.
 SCF Done:  E(RB-P86) =  -775.752563965     A.U. after   16 cycles
            NFock= 16  Conv=0.46D-08     -V/T= 2.0104

 **********************************************************************

            Population analysis using the SCF Density.

 **********************************************************************

 Orbital symmetries:
       Occupied  (A) (A) (A) (A) (A) (A) (A) (A) (A) (A) (A) (A)
                 (A) (A) (A) (A) (A) (A) (A) (A) (A) (A) (A) (A)
                 (A) (A) (A) (A) (A) (A) (A) (A) (A) (A) (A) (A)
                 (A) (A) (A) (A) (A) (A) (A) (A) (A) (A) (A) (A)
                 (A) (A) (A) (A) (A) (A) (A) (A) (A)
       Virtual   (A) (A) (A) (A) (A) (A) (A) (A) (A) (A) (A) (A)
                 (A) (A) (A) (A) (A) (A) (A) (A) (A) (A) (A) (A)
                 (A) (A) (A) (A) (A) (A) (A) (A) (A) (A) (A) (A)
                 (A) (A) (A) (A) (A) (A) (A) (A) (A) (A) (A) (A)
                 (A) (A) (A) (A) (A) (A) (A) (A) (A) (A) (A) (A)
                 (A) (A) (A) (A) (A) (A) (A) (A) (A) (A) (A) (A)
                 (A) (A) (A) (A) (A) (A) (A) (A) (A) (A) (A) (A)
                 (A) (A) (A) (A) (A) (A) (A) (A) (A) (A) (A) (A)
                 (A) (A) (A) (A) (A) (A) (A) (A) (A) (A) (A) (A)
                 (A) (A) (A) (A) (A) (A) (A) (A) (A) (A) (A) (A)
                 (A) (A) (A) (A) (A) (A) (A) (A) (A) (A) (A) (A)
                 (A) (A) (A) (A) (A) (A) (A) (A) (A) (A) (A) (A)
                 (A) (A) (A) (A) (A) (A) (A) (A) (A) (A) (A) (A)
                 (A) (A) (A) (A) (A) (A) (A) (A) (A) (A) (A) (A)
                 (A) (A) (A) (A) (A) (A) (A) (A) (A) (A) (A) (A)
                 (A) (A) (A) (A) (A) (A) (A) (A) (A) (A) (A) (A)
                 (A) (A) (A) (A) (A) (A) (A) (A) (A) (A) (A) (A)
                 (A) (A) (A) (A) (A) (A) (A) (A) (A) (A) (A) (A)
                 (A)
 The electronic state is 1-A.
 Alpha  occ. eigenvalues --  -24.33259 -24.30354 -18.79948 -10.01163 -10.00335
 Alpha  occ. eigenvalues --   -9.98842  -9.96353  -9.95208  -9.94909  -9.93343
 Alpha  occ. eigenvalues --   -9.93286  -9.92718  -9.92538  -9.91724  -9.91620
 Alpha  occ. eigenvalues --   -9.91226  -1.13489  -1.11401  -0.95952  -0.79487
 Alpha  occ. eigenvalues --   -0.77256  -0.71555  -0.70196  -0.66813  -0.66215
 Alpha  occ. eigenvalues --   -0.62521  -0.58926  -0.56188  -0.55089  -0.53516
 Alpha  occ. eigenvalues --   -0.51644  -0.48636  -0.47966  -0.46108  -0.44357
 Alpha  occ. eigenvalues --   -0.43402  -0.43024  -0.42294  -0.41692  -0.40451
 Alpha  occ. eigenvalues --   -0.38877  -0.38014  -0.37740  -0.36708  -0.35979
 Alpha  occ. eigenvalues --   -0.34347  -0.33964  -0.33199  -0.32796  -0.30894
 Alpha  occ. eigenvalues --   -0.30665  -0.30281  -0.28409  -0.26697  -0.22636
 Alpha  occ. eigenvalues --   -0.20995  -0.19883
 Alpha virt. eigenvalues --   -0.08973  -0.04983  -0.03110  -0.02505   0.02564
 Alpha virt. eigenvalues --    0.03962   0.04555   0.06726   0.07627   0.08044
 Alpha virt. eigenvalues --    0.09476   0.10286   0.10737   0.11213   0.11921
 Alpha virt. eigenvalues --    0.12653   0.14428   0.15876   0.16892   0.19246
 Alpha virt. eigenvalues --    0.19634   0.21834   0.23561   0.25115   0.25823
 Alpha virt. eigenvalues --    0.26608   0.27204   0.28391   0.29181   0.30586
 Alpha virt. eigenvalues --    0.32666   0.34943   0.36062   0.36466   0.37304
 Alpha virt. eigenvalues --    0.38794   0.39774   0.40068   0.41580   0.41772
 Alpha virt. eigenvalues --    0.42361   0.42589   0.43840   0.43984   0.45835
 Alpha virt. eigenvalues --    0.46902   0.47442   0.48670   0.49928   0.51333
 Alpha virt. eigenvalues --    0.51717   0.52277   0.53092   0.54153   0.54489
 Alpha virt. eigenvalues --    0.56834   0.57051   0.58388   0.58665   0.59096
 Alpha virt. eigenvalues --    0.60403   0.61032   0.61458   0.61845   0.62682
 Alpha virt. eigenvalues --    0.63757   0.64255   0.64711   0.65482   0.66463
 Alpha virt. eigenvalues --    0.67608   0.68132   0.70114   0.71342   0.71961
 Alpha virt. eigenvalues --    0.72987   0.74026   0.75122   0.76288   0.77411
 Alpha virt. eigenvalues --    0.81871   0.82337   0.83752   0.88344   0.92295
 Alpha virt. eigenvalues --    0.93460   0.95957   0.96966   0.98894   1.01559
 Alpha virt. eigenvalues --    1.04074   1.05738   1.07515   1.09501   1.10816
 Alpha virt. eigenvalues --    1.12009   1.14354   1.16110   1.18059   1.18806
 Alpha virt. eigenvalues --    1.20966   1.22002   1.22276   1.25319   1.26797
 Alpha virt. eigenvalues --    1.28190   1.29762   1.31340   1.34937   1.35473
 Alpha virt. eigenvalues --    1.37138   1.38951   1.43148   1.45192   1.45911
 Alpha virt. eigenvalues --    1.49929   1.52551   1.54671   1.56614   1.57602
 Alpha virt. eigenvalues --    1.58491   1.60069   1.60879   1.61831   1.62671
 Alpha virt. eigenvalues --    1.63733   1.63913   1.64263   1.65248   1.66182
 Alpha virt. eigenvalues --    1.67496   1.68277   1.70973   1.71571   1.72512
 Alpha virt. eigenvalues --    1.72751   1.73750   1.74445   1.76069   1.77725
 Alpha virt. eigenvalues --    1.78536   1.81377   1.82687   1.84847   1.86230
 Alpha virt. eigenvalues --    1.86685   1.87545   1.89292   1.90195   1.92832
 Alpha virt. eigenvalues --    1.94277   1.95359   1.96951   1.98498   1.99190
 Alpha virt. eigenvalues --    2.00408   2.01900   2.05592   2.06295   2.08823
 Alpha virt. eigenvalues --    2.09363   2.09521   2.13487   2.15317   2.17097
 Alpha virt. eigenvalues --    2.17562   2.18455   2.19107   2.20158   2.23125
 Alpha virt. eigenvalues --    2.23648   2.28268   2.31350   2.33075   2.35213
 Alpha virt. eigenvalues --    2.37028   2.38025   2.43259   2.44726   2.46552
 Alpha virt. eigenvalues --    2.48677   2.49217   2.52455   2.54627   2.54820
 Alpha virt. eigenvalues --    2.58900   2.61729   2.62757   2.65155   2.67566
 Alpha virt. eigenvalues --    2.68469   2.76061   2.77686   2.81062   2.82568
 Alpha virt. eigenvalues --    2.84060   2.87776   2.88544   2.89754   2.92853
 Alpha virt. eigenvalues --    2.93956   2.97966   2.98820   3.01624   3.07419
 Alpha virt. eigenvalues --    3.10488   3.12398   3.14958   3.19922   3.29533
 Alpha virt. eigenvalues --    3.32652   3.38742   3.44056   3.48150   3.67597
 Alpha virt. eigenvalues --    3.74668   3.78999
          Condensed to atoms (all electrons):
               1          2          3          4          5          6
     1  C    4.559484   0.444624  -0.078629   0.014996  -0.000240   0.008793
     2  C    0.444624   5.177794   0.365133   0.058754  -0.117937   0.045652
     3  C   -0.078629   0.365133   5.112254   0.281696   0.088456  -0.137749
     4  C    0.014996   0.058754   0.281696   5.088889   0.223093   0.096311
     5  C   -0.000240  -0.117937   0.088456   0.223093   5.221362   0.299544
     6  C    0.008793   0.045652  -0.137749   0.096311   0.299544   5.216528
     7  F   -0.000017   0.002059  -0.000053   0.005399  -0.060365   0.299185
     8  C   -0.065530   0.291041   0.029025  -0.090451   0.000453   0.223313
     9  C   -0.019554  -0.042360   0.013806  -0.000856   0.012687  -0.067534
    10  C   -0.000416   0.006711   0.000351  -0.000267   0.001680  -0.025755
    11  O   -0.000004  -0.000058  -0.000002   0.000005  -0.001458   0.009578
    12  C    0.000007   0.000094  -0.000003   0.000002  -0.000064   0.001876
    13  C   -0.000026  -0.000033   0.000001  -0.000000   0.000003  -0.000312
    14  C    0.000313  -0.000225  -0.000010   0.000001  -0.000003   0.000226
    15  C    0.000021  -0.021148   0.000006  -0.000013  -0.000158   0.010740
    16  F    0.004945  -0.007890   0.000209   0.000001   0.000000   0.000247
    17  H    0.354446   0.003297   0.001459  -0.000420  -0.000025  -0.000199
    18  H    0.370201  -0.000253   0.006485  -0.000930   0.000260  -0.000761
    19  H    0.372695  -0.023137  -0.021044   0.002361  -0.000127  -0.000019
    20  H   -0.022660  -0.061832   0.425122  -0.067110   0.014173  -0.000649
    21  H   -0.000411   0.014294  -0.063888   0.431853  -0.070867   0.013453
    22  H    0.000020  -0.001012   0.012865  -0.064808   0.416945  -0.059455
    23  H    0.000002   0.000428  -0.000064   0.000321  -0.002526  -0.018539
    24  H    0.000000   0.000002  -0.000000   0.000000   0.000001  -0.000004
    25  H    0.000000  -0.000001   0.000000   0.000000  -0.000000   0.000001
    26  H   -0.000015   0.000031  -0.000000   0.000000  -0.000000   0.000001
               7          8          9         10         11         12
     1  C   -0.000017  -0.065530  -0.019554  -0.000416  -0.000004   0.000007
     2  C    0.002059   0.291041  -0.042360   0.006711  -0.000058   0.000094
     3  C   -0.000053   0.029025   0.013806   0.000351  -0.000002  -0.000003
     4  C    0.005399  -0.090451  -0.000856  -0.000267   0.000005   0.000002
     5  C   -0.060365   0.000453   0.012687   0.001680  -0.001458  -0.000064
     6  C    0.299185   0.223313  -0.067534  -0.025755   0.009578   0.001876
     7  F    8.990183  -0.071226   0.004461   0.000801  -0.028043  -0.000715
     8  C   -0.071226   5.456941   0.228432  -0.072265  -0.002982   0.010204
     9  C    0.004461   0.228432   5.768935   0.140763  -0.075916   0.011857
    10  C    0.000801  -0.072265   0.140763   5.182684   0.453402   0.283987
    11  O   -0.028043  -0.002982  -0.075916   0.453402   7.559560  -0.090269
    12  C   -0.000715   0.010204   0.011857   0.283987  -0.090269   5.265707
    13  C    0.000003  -0.000585  -0.105139   0.120321   0.006352   0.197960
    14  C   -0.000002   0.013507  -0.000901  -0.141179   0.000006   0.111293
    15  C    0.000081  -0.056656   0.148857   0.100249   0.001892  -0.139626
    16  F   -0.000000   0.002053  -0.075425   0.002140  -0.000001   0.000012
    17  H    0.000000  -0.003193   0.004562   0.000031   0.000000  -0.000001
    18  H   -0.000003  -0.010416   0.004634   0.000148   0.000001  -0.000005
    19  H    0.000001   0.009553  -0.000532   0.000005   0.000000  -0.000000
    20  H    0.000004   0.015150  -0.000199   0.000000   0.000000  -0.000000
    21  H   -0.000076  -0.001254   0.000023   0.000001  -0.000000  -0.000000
    22  H    0.000833   0.016868  -0.000288   0.000049   0.000007  -0.000000
    23  H    0.051585   0.005573  -0.011112  -0.026837   0.339721   0.004254
    24  H    0.000021  -0.000184   0.020088  -0.057545   0.003810   0.417784
    25  H   -0.000000   0.000014  -0.001982   0.014411  -0.000116  -0.069637
    26  H    0.000000  -0.000207   0.019732  -0.001537   0.000006   0.013893
              13         14         15         16         17         18
     1  C   -0.000026   0.000313   0.000021   0.004945   0.354446   0.370201
     2  C   -0.000033  -0.000225  -0.021148  -0.007890   0.003297  -0.000253
     3  C    0.000001  -0.000010   0.000006   0.000209   0.001459   0.006485
     4  C   -0.000000   0.000001  -0.000013   0.000001  -0.000420  -0.000930
     5  C    0.000003  -0.000003  -0.000158   0.000000  -0.000025   0.000260
     6  C   -0.000312   0.000226   0.010740   0.000247  -0.000199  -0.000761
     7  F    0.000003  -0.000002   0.000081  -0.000000   0.000000  -0.000003
     8  C   -0.000585   0.013507  -0.056656   0.002053  -0.003193  -0.010416
     9  C   -0.105139  -0.000901   0.148857  -0.075425   0.004562   0.004634
    10  C    0.120321  -0.141179   0.100249   0.002140   0.000031   0.000148
    11  O    0.006352   0.000006   0.001892  -0.000001   0.000000   0.000001
    12  C    0.197960   0.111293  -0.139626   0.000012  -0.000001  -0.000005
    13  C    5.194263   0.156443   0.119076   0.005258   0.000002   0.000037
    14  C    0.156443   5.289532   0.322646  -0.062447  -0.000245  -0.000768
    15  C    0.119076   0.322646   5.052714   0.360150  -0.002165  -0.000975
    16  F    0.005258  -0.062447   0.360150   8.926297   0.004267   0.001346
    17  H    0.000002  -0.000245  -0.002165   0.004267   0.626499  -0.018987
    18  H    0.000037  -0.000768  -0.000975   0.001346  -0.018987   0.638819
    19  H   -0.000001   0.000026   0.000191   0.001650  -0.022982  -0.028401
    20  H    0.000000  -0.000000   0.000017  -0.000006   0.001547   0.000651
    21  H    0.000000   0.000000   0.000000  -0.000000   0.000013   0.000010
    22  H    0.000000  -0.000000   0.000003  -0.000000  -0.000001  -0.000001
    23  H    0.000028  -0.000154   0.000210   0.000001   0.000001   0.000001
    24  H   -0.075157   0.014839  -0.001791   0.000004  -0.000000  -0.000000
    25  H    0.437280  -0.071485   0.014110  -0.000084   0.000000  -0.000000
    26  H   -0.070838   0.416855  -0.059894   0.001877   0.000022   0.000036
              19         20         21         22         23         24
     1  C    0.372695  -0.022660  -0.000411   0.000020   0.000002   0.000000
     2  C   -0.023137  -0.061832   0.014294  -0.001012   0.000428   0.000002
     3  C   -0.021044   0.425122  -0.063888   0.012865  -0.000064  -0.000000
     4  C    0.002361  -0.067110   0.431853  -0.064808   0.000321   0.000000
     5  C   -0.000127   0.014173  -0.070867   0.416945  -0.002526   0.000001
     6  C   -0.000019  -0.000649   0.013453  -0.059455  -0.018539  -0.000004
     7  F    0.000001   0.000004  -0.000076   0.000833   0.051585   0.000021
     8  C    0.009553   0.015150  -0.001254   0.016868   0.005573  -0.000184
     9  C   -0.000532  -0.000199   0.000023  -0.000288  -0.011112   0.020088
    10  C    0.000005   0.000000   0.000001   0.000049  -0.026837  -0.057545
    11  O    0.000000   0.000000  -0.000000   0.000007   0.339721   0.003810
    12  C   -0.000000  -0.000000  -0.000000  -0.000000   0.004254   0.417784
    13  C   -0.000001   0.000000   0.000000   0.000000   0.000028  -0.075157
    14  C    0.000026  -0.000000   0.000000  -0.000000  -0.000154   0.014839
    15  C    0.000191   0.000017   0.000000   0.000003   0.000210  -0.001791
    16  F    0.001650  -0.000006  -0.000000  -0.000000   0.000001   0.000004
    17  H   -0.022982   0.001547   0.000013  -0.000001   0.000001  -0.000000
    18  H   -0.028401   0.000651   0.000010  -0.000001   0.000001  -0.000000
    19  H    0.680081   0.006110  -0.000018  -0.000002  -0.000000  -0.000000
    20  H    0.006110   0.701193  -0.012541  -0.000370  -0.000002   0.000000
    21  H   -0.000018  -0.012541   0.689081  -0.011747   0.000002  -0.000000
    22  H   -0.000002  -0.000370  -0.011747   0.674208   0.000184  -0.000000
    23  H   -0.000000  -0.000002   0.000002   0.000184   0.471387   0.000096
    24  H   -0.000000   0.000000  -0.000000  -0.000000   0.000096   0.687095
    25  H    0.000000  -0.000000  -0.000000  -0.000000   0.000012  -0.013199
    26  H   -0.000001  -0.000000  -0.000000   0.000000  -0.000002  -0.000305
              25         26
     1  C    0.000000  -0.000015
     2  C   -0.000001   0.000031
     3  C    0.000000  -0.000000
     4  C    0.000000   0.000000
     5  C   -0.000000  -0.000000
     6  C    0.000001   0.000001
     7  F   -0.000000   0.000000
     8  C    0.000014  -0.000207
     9  C   -0.001982   0.019732
    10  C    0.014411  -0.001537
    11  O   -0.000116   0.000006
    12  C   -0.069637   0.013893
    13  C    0.437280  -0.070838
    14  C   -0.071485   0.416855
    15  C    0.014110  -0.059894
    16  F   -0.000084   0.001877
    17  H    0.000000   0.000022
    18  H   -0.000000   0.000036
    19  H    0.000000  -0.000001
    20  H   -0.000000  -0.000000
    21  H   -0.000000  -0.000000
    22  H   -0.000000   0.000000
    23  H    0.000012  -0.000002
    24  H   -0.013199  -0.000305
    25  H    0.691777  -0.012393
    26  H   -0.012393   0.686220
 Mulliken charges:
               1
     1  C    0.056956
     2  C   -0.134027
     3  C   -0.035425
     4  C    0.021176
     5  C   -0.024886
     6  C    0.085526
     7  F   -0.194117
     8  C    0.072823
     9  C    0.022958
    10  C    0.018068
    11  O   -0.175492
    12  C   -0.018609
    13  C    0.015063
    14  C   -0.048271
    15  C    0.151464
    16  F   -0.164604
    17  H    0.052072
    18  H    0.038872
    19  H    0.023593
    20  H    0.001402
    21  H    0.012072
    22  H    0.015702
    23  H    0.185431
    24  H    0.004443
    25  H    0.011291
    26  H    0.006520
 Sum of Mulliken charges =  -0.00000
 Mulliken charges with hydrogens summed into heavy atoms:
               1
     1  C    0.171493
     2  C   -0.134027
     3  C   -0.034022
     4  C    0.033248
     5  C   -0.009184
     6  C    0.085526
     7  F   -0.194117
     8  C    0.072823
     9  C    0.022958
    10  C    0.018068
    11  O    0.009938
    12  C   -0.014166
    13  C    0.026354
    14  C   -0.041751
    15  C    0.151464
    16  F   -0.164604
 Electronic spatial extent (au):  <R**2>=           3395.2535
 Charge=             -0.0000 electrons
 Dipole moment (field-independent basis, Debye):
    X=              1.4188    Y=              0.5310    Z=              0.3078  Tot=              1.5459
 Quadrupole moment (field-independent basis, Debye-Ang):
   XX=            -78.6861   YY=            -88.3583   ZZ=            -95.5106
   XY=             -2.2566   XZ=             -1.7991   YZ=             -0.4720
 Traceless Quadrupole moment (field-independent basis, Debye-Ang):
   XX=              8.8322   YY=             -0.8400   ZZ=             -7.9922
   XY=             -2.2566   XZ=             -1.7991   YZ=             -0.4720
 Octapole moment (field-independent basis, Debye-Ang**2):
  XXX=             -4.9753  YYY=             -5.9706  ZZZ=              6.0448  XYY=             11.7422
  XXY=             -2.0396  XXZ=             -4.7648  XZZ=              0.1553  YZZ=              0.8234
  YYZ=              4.0343  XYZ=              0.7851
 Hexadecapole moment (field-independent basis, Debye-Ang**3):
 XXXX=          -2599.8426 YYYY=          -1367.2065 ZZZZ=           -160.8098 XXXY=            -43.4578
 XXXZ=            -26.2359 YYYX=            -42.9318 YYYZ=            -19.4451 ZZZX=             12.8618
 ZZZY=            -12.2071 XXYY=           -664.8411 XXZZ=           -552.5898 YYZZ=           -265.0720
 XXYZ=             -3.9917 YYXZ=             -3.8675 ZZXY=             -8.4730
 N-N= 1.068680222504D+03 E-N=-3.948434363924D+03  KE= 7.677403725928D+02
   1 Symmetry operations used in ECPInt.
 ECPInt:  NShTT=    8001 NPrTT=   29641 LenC2=    7593 LenP2D=   20272.
 LDataN:  DoStor=T MaxTD1= 5 Len=  102
 Calling FoFJK, ICntrl=      2527 FMM=F ISym2X=0 I1Cent= 0 IOpClX= 0 NMat=1 NMatS=1 NMatT=0.
 ***** Axes restored to original set *****
 -------------------------------------------------------------------
 Center     Atomic                   Forces (Hartrees/Bohr)
 Number     Number              X              Y              Z
 -------------------------------------------------------------------
      1        6          -0.000067404    0.000639536    0.002474798
      2        6          -0.000111507   -0.000098558    0.000086873
      3        6           0.000027779    0.000004216    0.000009458
      4        6          -0.000013979    0.000017216   -0.000003923
      5        6          -0.000018424   -0.000014625    0.000044334
      6        6           0.000087403   -0.000151652   -0.000089017
      7        9           0.000158248    0.000492733   -0.002628622
      8        6           0.000008502   -0.000968820   -0.000837264
      9        6          -0.000121840   -0.000537903    0.001249872
     10        6          -0.000119538   -0.000094506    0.000066792
     11        8          -0.000032287    0.001084663    0.002386389
     12        6           0.000034753    0.000010787   -0.000014484
     13        6           0.000010183   -0.000011982    0.000000285
     14        6          -0.000010450    0.000048183    0.000002163
     15        6           0.000064358   -0.000131247   -0.000018139
     16        9           0.000006850   -0.000261519   -0.002832302
     17        1           0.000043543    0.000024885    0.000026231
     18        1           0.000033650   -0.000034368    0.000037569
     19        1           0.000020004   -0.000014790    0.000012098
     20        1          -0.000001621   -0.000005430   -0.000007370
     21        1           0.000003615    0.000004118    0.000005613
     22        1          -0.000002968    0.000007211   -0.000007362
     23        1           0.000007088   -0.000005027    0.000037113
     24        1          -0.000000928    0.000005447   -0.000004078
     25        1          -0.000002886   -0.000001861   -0.000001450
     26        1          -0.000002145   -0.000006707    0.000004425
 -------------------------------------------------------------------
 Cartesian Forces:  Max     0.002832302 RMS     0.000643705

 GradGradGradGradGradGradGradGradGradGradGradGradGradGradGradGradGradGrad
 Berny optimization.
 FormGI is forming the generalized inverse of G from B-inverse, IUseBI=4.
 Internal  Forces:  Max     0.004940935 RMS     0.000974820
 Search for a local minimum.
 Step number   1 out of a maximum of  142
 All quantities printed in internal units (Hartrees-Bohrs-Radians)
 Mixed Optimization -- En-DIIS/RFO-DIIS
 Second derivative matrix not updated -- first step.
 ITU=  0
     Eigenvalues ---    0.00474   0.01173   0.01212   0.01337   0.01590
     Eigenvalues ---    0.01667   0.01808   0.01828   0.01964   0.02000
     Eigenvalues ---    0.02016   0.02046   0.02126   0.02134   0.02145
     Eigenvalues ---    0.02151   0.02168   0.02172   0.02313   0.06647
     Eigenvalues ---    0.07352   0.15905   0.15975   0.15979   0.15984
     Eigenvalues ---    0.15986   0.15992   0.16000   0.16000   0.16000
     Eigenvalues ---    0.16000   0.22055   0.22078   0.22619   0.23017
     Eigenvalues ---    0.23253   0.24308   0.24541   0.24697   0.24739
     Eigenvalues ---    0.24936   0.24965   0.24989   0.30098   0.31137
     Eigenvalues ---    0.32853   0.33006   0.33325   0.33542   0.33640
     Eigenvalues ---    0.33690   0.33744   0.33780   0.33798   0.35566
     Eigenvalues ---    0.35678   0.38655   0.38810   0.41494   0.41699
     Eigenvalues ---    0.44524   0.44569   0.45205   0.45326   0.46402
     Eigenvalues ---    0.46722   0.48198   0.51645   0.54349   0.55021
     Eigenvalues --- 1000.000001000.000001000.000001000.000001000.00000
     Eigenvalues --- 1000.000001000.000001000.000001000.000001000.00000
     Eigenvalues --- 1000.000001000.000001000.000001000.000001000.00000
     Eigenvalues --- 1000.000001000.000001000.000001000.000001000.00000
     Eigenvalues --- 1000.000001000.000001000.000001000.000001000.00000
     Eigenvalues --- 1000.000001000.000001000.000001000.000001000.00000
     Eigenvalues --- 1000.000001000.000001000.000001000.000001000.00000
     Eigenvalues --- 1000.000001000.000001000.000001000.000001000.00000
     Eigenvalues --- 1000.000001000.000001000.000001000.000001000.00000
     Eigenvalues --- 1000.000001000.000001000.000001000.000001000.00000
     Eigenvalues --- 1000.000001000.000001000.000001000.000001000.00000
     Eigenvalues --- 1000.000001000.000001000.000001000.000001000.00000
     Eigenvalues --- 1000.000001000.00000
 RFO step:  Lambda=-5.27737698D-06 EMin= 4.74442593D-03
 Linear search not attempted -- first point.
 Iteration  1 RMS(Cart)=  0.00421443 RMS(Int)=  0.00000313
 Iteration  2 RMS(Cart)=  0.00000587 RMS(Int)=  0.00000011
 Iteration  3 RMS(Cart)=  0.00000000 RMS(Int)=  0.00000011
 Iteration  1 RMS(Cart)=  0.00000004 RMS(Int)=  0.00000005
 Variable       Old X    -DE/DX   Delta X   Delta X   Delta X     New X
                                 (Linear)    (Quad)   (Total)
    R1        2.87623  -0.00024   0.00000   0.00007   0.00007   2.87631
    R2        2.09041   0.00005   0.00000   0.00016   0.00016   2.09057
    R3        2.08485  -0.00001   0.00000  -0.00002  -0.00002   2.08484
    R4        2.09310  -0.00003   0.00000  -0.00008  -0.00008   2.09301
    R5        2.67267   0.00011   0.00000  -0.00013  -0.00013   2.67254
    R6        2.75930   0.00007   0.00000  -0.00058  -0.00058   2.75872
    R7        2.64263   0.00012   0.00000   0.00001   0.00001   2.64265
    R8        2.08110  -0.00000   0.00000  -0.00001  -0.00001   2.08109
    R9        2.63577  -0.00005   0.00000   0.00013   0.00013   2.63591
   R10        2.07856  -0.00000   0.00000  -0.00001  -0.00001   2.07855
   R11        2.63358  -0.00009   0.00000   0.00015   0.00015   2.63373
   R12        2.07765  -0.00001   0.00000  -0.00002  -0.00002   2.07763
   R13        2.61549   0.00018   0.00000  -0.00021  -0.00021   2.61528
   R14        2.70370  -0.00021   0.00000   0.00020   0.00020   2.70390
   R15        2.85752  -0.00010   0.00000  -0.00033  -0.00033   2.85719
   R16        2.76260  -0.00004   0.00000   0.00012   0.00012   2.76271
   R17        2.70884  -0.00006   0.00000  -0.00035  -0.00035   2.70850
   R18        2.55692   0.00003   0.00000  -0.00013  -0.00013   2.55679
   R19        2.67748   0.00000   0.00000   0.00015   0.00015   2.67764
   R20        1.84941  -0.00002   0.00000  -0.00004  -0.00004   1.84937
   R21        2.62680   0.00000   0.00000   0.00009   0.00009   2.62689
   R22        2.07702  -0.00001   0.00000  -0.00002  -0.00002   2.07700
   R23        2.64371   0.00007   0.00000   0.00006   0.00006   2.64377
   R24        2.07942  -0.00000   0.00000  -0.00001  -0.00001   2.07942
   R25        2.63702   0.00002   0.00000  -0.00009  -0.00009   2.63693
   R26        2.07672  -0.00001   0.00000  -0.00002  -0.00002   2.07670
   R27        2.55096   0.00006   0.00000   0.00028   0.00028   2.55124
    A1        1.98892   0.00001   0.00000  -0.00003  -0.00003   1.98889
    A2        1.95660  -0.00006   0.00000  -0.00046  -0.00046   1.95615
    A3        1.87937   0.00002   0.00000   0.00024   0.00024   1.87960
    A4        1.87835  -0.00000   0.00000  -0.00026  -0.00026   1.87809
    A5        1.87668   0.00001   0.00000   0.00020   0.00020   1.87688
    A6        1.87957   0.00004   0.00000   0.00036   0.00036   1.87993
    A7        1.95918  -0.00013   0.00000   0.00114   0.00114   1.96031
    A8        2.23192   0.00060   0.00000  -0.00142  -0.00142   2.23049
    A9        2.08367  -0.00039   0.00000   0.00036   0.00036   2.08403
   A10        2.16687   0.00020   0.00000  -0.00026  -0.00026   2.16662
   A11        2.04230  -0.00011   0.00000   0.00015   0.00015   2.04245
   A12        2.07232  -0.00009   0.00000   0.00012   0.00012   2.07245
   A13        2.04201   0.00002   0.00000   0.00008   0.00008   2.04209
   A14        2.11833  -0.00003   0.00000  -0.00005  -0.00005   2.11828
   A15        2.11826   0.00001   0.00000  -0.00000  -0.00000   2.11825
   A16        2.06251  -0.00020   0.00000   0.00014   0.00014   2.06264
   A17        2.15252   0.00008   0.00000  -0.00011  -0.00011   2.15242
   A18        2.06725   0.00012   0.00000  -0.00005  -0.00005   2.06720
   A19        1.96473   0.00037   0.00000  -0.00011  -0.00011   1.96462
   A20        2.22114   0.00022   0.00000  -0.00042  -0.00042   2.22072
   A21        2.09612  -0.00064   0.00000   0.00052   0.00052   2.09664
   A22        1.92933   0.00018   0.00000   0.00022   0.00022   1.92955
   A23        2.25376  -0.00076   0.00000  -0.00168  -0.00168   2.25208
   A24        2.10009   0.00058   0.00000   0.00146   0.00146   2.10155
   A25        2.16584   0.00026   0.00000   0.00173   0.00173   2.16757
   A26        2.17517  -0.00033   0.00000  -0.00200  -0.00200   2.17317
   A27        1.93417   0.00006   0.00000   0.00027   0.00027   1.93443
   A28        2.20899  -0.00013   0.00000   0.00067   0.00067   2.20965
   A29        2.12753   0.00004   0.00000  -0.00052  -0.00052   2.12701
   A30        1.94382   0.00003   0.00000  -0.00017  -0.00017   1.94365
   A31        1.94373   0.00005   0.00000   0.00029   0.00029   1.94401
   A32        2.13399  -0.00006   0.00000   0.00017   0.00017   2.13416
   A33        2.02053   0.00004   0.00000  -0.00008  -0.00008   2.02045
   A34        2.12795   0.00002   0.00000  -0.00010  -0.00010   2.12785
   A35        2.06022   0.00002   0.00000   0.00008   0.00008   2.06030
   A36        2.11130  -0.00000   0.00000  -0.00006  -0.00006   2.11124
   A37        2.11096  -0.00001   0.00000  -0.00003  -0.00003   2.11093
   A38        2.08226   0.00002   0.00000  -0.00028  -0.00028   2.08198
   A39        2.14701   0.00000   0.00000   0.00013   0.00013   2.14715
   A40        2.05298  -0.00002   0.00000   0.00016   0.00016   2.05315
   A41        2.20738  -0.00008   0.00000   0.00020   0.00020   2.20758
   A42        2.10200   0.00002   0.00000  -0.00089  -0.00089   2.10111
   A43        1.97280   0.00010   0.00000   0.00068   0.00068   1.97347
    D1        1.74574  -0.00031   0.00000  -0.00145  -0.00145   1.74430
    D2       -1.53755   0.00035   0.00000  -0.00075  -0.00075  -1.53830
    D3       -2.39857  -0.00036   0.00000  -0.00217  -0.00217  -2.40074
    D4        0.60132   0.00030   0.00000  -0.00147  -0.00147   0.59985
    D5       -0.33426  -0.00034   0.00000  -0.00184  -0.00184  -0.33610
    D6        2.66563   0.00032   0.00000  -0.00115  -0.00115   2.66448
    D7        2.87518   0.00067   0.00000   0.00104   0.00104   2.87623
    D8       -0.20300   0.00053   0.00000   0.00072   0.00072  -0.20228
    D9       -0.13812  -0.00001   0.00000   0.00058   0.00058  -0.13754
   D10        3.06688  -0.00015   0.00000   0.00026   0.00026   3.06714
   D11       -2.65660  -0.00081   0.00000  -0.00123  -0.00123  -2.65783
   D12        0.48876  -0.00081   0.00000  -0.00109  -0.00109   0.48767
   D13        0.33441  -0.00008   0.00000  -0.00045  -0.00045   0.33396
   D14       -2.80341  -0.00008   0.00000  -0.00032  -0.00032  -2.80373
   D15       -0.11529   0.00004   0.00000  -0.00011  -0.00011  -0.11540
   D16        3.12771   0.00005   0.00000  -0.00034  -0.00034   3.12737
   D17        2.96187   0.00018   0.00000   0.00021   0.00022   2.96209
   D18       -0.07831   0.00019   0.00000  -0.00001  -0.00001  -0.07832
   D19        0.13098   0.00006   0.00000  -0.00040  -0.00040   0.13058
   D20       -2.96423   0.00022   0.00000   0.00015   0.00015  -2.96409
   D21       -3.11202   0.00005   0.00000  -0.00018  -0.00018  -3.11220
   D22        0.07595   0.00020   0.00000   0.00037   0.00037   0.07633
   D23       -2.97462   0.00089   0.00000   0.00042   0.00042  -2.97419
   D24        0.11389  -0.00017   0.00000   0.00039   0.00039   0.11428
   D25        0.12291   0.00074   0.00000  -0.00010  -0.00010   0.12281
   D26       -3.07177  -0.00032   0.00000  -0.00013  -0.00013  -3.07190
   D27       -0.34153   0.00010   0.00000   0.00008   0.00008  -0.34144
   D28        2.79668   0.00009   0.00000  -0.00005  -0.00005   2.79663
   D29        2.74340  -0.00100   0.00000   0.00003   0.00003   2.74343
   D30       -0.40158  -0.00101   0.00000  -0.00010  -0.00010  -0.40168
   D31        0.12320  -0.00494   0.00000   0.00000   0.00000   0.12320
   D32        2.83603  -0.00392   0.00000   0.00006   0.00006   2.83609
   D33       -0.15736  -0.00388   0.00000   0.00008   0.00008  -0.15728
   D34       -0.30147  -0.00392   0.00000   0.00021   0.00021  -0.30126
   D35        2.98833  -0.00388   0.00000   0.00023   0.00023   2.98856
   D36       -0.56678  -0.00489   0.00000   0.00000  -0.00000  -0.56678
   D37       -0.16520  -0.00086   0.00000  -0.00065  -0.00065  -0.16585
   D38        3.06473   0.00010   0.00000  -0.00033  -0.00033   3.06440
   D39        2.84603  -0.00093   0.00000  -0.00086  -0.00086   2.84516
   D40       -0.20723   0.00004   0.00000  -0.00054  -0.00054  -0.20777
   D41       -3.06747   0.00007   0.00000   0.00019   0.00019  -3.06728
   D42        0.12606  -0.00112   0.00000   0.00029   0.00029   0.12636
   D43        0.20533   0.00009   0.00000   0.00007   0.00007   0.20540
   D44       -2.88432  -0.00110   0.00000   0.00017   0.00017  -2.88415
   D45        0.61711   0.00042   0.00000  -0.00053  -0.00053   0.61658
   D46       -2.60499  -0.00045   0.00000  -0.00085  -0.00085  -2.60584
   D47        0.10263  -0.00011   0.00000   0.00060   0.00060   0.10323
   D48       -3.07909  -0.00023   0.00000   0.00029   0.00029  -3.07880
   D49       -2.96280   0.00072   0.00000   0.00083   0.00083  -2.96197
   D50        0.13866   0.00061   0.00000   0.00053   0.00053   0.13919
   D51        0.03810   0.00004   0.00000  -0.00009  -0.00009   0.03800
   D52        3.13960   0.00008   0.00000  -0.00022  -0.00022   3.13938
   D53       -3.06092   0.00016   0.00000   0.00023   0.00023  -3.06069
   D54        0.04059   0.00020   0.00000   0.00010   0.00010   0.04069
   D55       -0.04934   0.00009   0.00000  -0.00045  -0.00045  -0.04979
   D56        3.04492   0.00025   0.00000  -0.00013  -0.00013   3.04479
   D57        3.13233   0.00005   0.00000  -0.00032  -0.00032   3.13201
   D58       -0.05659   0.00021   0.00000  -0.00001  -0.00001  -0.05660
   D59       -0.08547  -0.00016   0.00000   0.00049   0.00049  -0.08499
   D60        3.00746   0.00095   0.00000   0.00035   0.00035   3.00781
   D61        3.10091  -0.00031   0.00000   0.00019   0.00019   3.10110
   D62       -0.08934   0.00080   0.00000   0.00005   0.00005  -0.08929
         Item               Value     Threshold  Converged?
 Maximum Force            0.000496     0.000450     NO 
 RMS     Force            0.000099     0.000300     YES
 Maximum Displacement     0.014538     0.001800     NO 
 RMS     Displacement     0.004216     0.001200     NO 
 Predicted change in Energy=-2.638711D-06
 GradGradGradGradGradGradGradGradGradGradGradGradGradGradGradGradGradGrad

                          Input orientation:                          
 ---------------------------------------------------------------------
 Center     Atomic      Atomic             Coordinates (Angstroms)
 Number     Number       Type             X           Y           Z
 ---------------------------------------------------------------------
      1          6           0       -1.132907    2.574705   -1.141044
      2          6           0       -1.523998    1.220036   -0.567776
      3          6           0       -2.903484    1.142617   -0.265920
      4          6           0       -3.587550   -0.052394   -0.021785
      5          6           0       -2.881801   -1.238607   -0.222934
      6          6           0       -1.517221   -1.154779   -0.493716
      7          9           0       -0.976976   -2.368839   -0.880377
      8          6           0       -0.699799    0.019292   -0.467403
      9          6           0        0.802641   -0.096804   -0.344014
     10          6           0        1.499164   -1.298866    0.111223
     11          8           0        0.933971   -2.402538    0.652571
     12          6           0        2.913423   -1.385486    0.121162
     13          6           0        3.725837   -0.299650   -0.184285
     14          6           0        3.109598    0.924552   -0.465066
     15          6           0        1.716322    0.998045   -0.488123
     16          9           0        1.255050    2.261263   -0.607165
     17          1           0       -0.669586    3.257472   -0.404141
     18          1           0       -0.436810    2.479713   -1.991679
     19          1           0       -2.055391    3.061710   -1.513295
     20          1           0       -3.473346    2.084799   -0.284231
     21          1           0       -4.660055   -0.058628    0.222196
     22          1           0       -3.355238   -2.230884   -0.220867
     23          1           0        0.063783   -2.593104    0.247355
     24          1           0        3.330478   -2.356084    0.424529
     25          1           0        4.822327   -0.390621   -0.167892
     26          1           0        3.671896    1.854363   -0.629211
 ---------------------------------------------------------------------
                    Distance matrix (angstroms):
                    1          2          3          4          5
     1  C    0.000000
     2  C    1.522076   0.000000
     3  C    2.439602   1.414246   0.000000
     4  C    3.765589   2.485041   1.398428   0.000000
     5  C    4.294520   2.829747   2.381710   1.394863   0.000000
     6  C    3.804705   2.375979   2.692888   2.392537   1.393711
     7  F    4.952866   3.643759   4.052075   3.594189   2.310414
     8  C    2.677967   1.459852   2.481670   2.922811   2.530456
     9  C    3.393901   2.682795   3.908661   4.402225   3.859208
    10  C    4.847733   3.993172   5.048404   5.238897   4.394103
    11  O    5.679963   4.544657   5.304509   5.140242   4.084282
    12  C    5.800780   5.191733   6.354332   6.637787   5.807288
    13  C    5.725792   5.478803   6.784887   7.319370   6.674130
    14  C    4.602043   4.644144   6.020330   6.782530   6.374539
    15  C    3.321184   3.248892   4.627406   5.426965   5.120124
    16  F    2.466903   2.967965   4.319864   5.398746   5.432335
    17  H    1.106283   2.215387   3.079288   4.428986   5.014125
    18  H    1.103247   2.190037   3.294017   4.496578   4.788772
    19  H    1.107575   2.137322   2.440927   3.777533   4.565162
    20  H    2.540038   2.151318   1.101265   2.156273   3.376197
    21  H    4.607997   3.477627   2.183297   1.099924   2.180064
    22  H    5.373934   3.922070   3.403913   2.199869   1.099437
    23  H    5.483244   4.210170   4.798306   4.456442   3.276019
    24  H    6.832679   6.110585   7.181916   7.305156   6.345106
    25  H    6.723465   6.559723   7.877092   8.417944   7.750851
    26  H    4.885385   5.234831   6.623759   7.530222   7.258268
                    6          7          8          9         10
     6  C    0.000000
     7  F    1.383948   0.000000
     8  C    1.430843   2.439373   0.000000
     9  C    2.554111   2.935450   1.511962   0.000000
    10  C    3.079819   2.873914   2.628266   1.461964   0.000000
    11  O    2.979801   2.450058   3.128707   2.515321   1.352994
    12  C    4.479051   4.135852   3.921119   2.516443   1.416944
    13  C    5.321339   5.184838   4.446137   2.934575   2.458421
    14  C    5.072661   5.264884   3.915483   2.525841   2.805209
    15  C    3.884647   4.329391   2.606919   1.433274   2.383731
    16  F    4.400875   5.147274   2.977818   2.415451   3.640082
    17  H    4.493825   5.654791   3.238939   3.663637   5.072405
    18  H    4.076850   5.003521   2.906243   3.299920   4.737916
    19  H    4.371263   5.572649   3.491107   4.417213   5.855642
    20  H    3.790142   5.140247   3.463010   4.800733   6.027556
    21  H    3.404627   4.485288   4.020603   5.492095   6.283827
    22  H    2.147267   2.471864   3.489331   4.675192   4.954206
    23  H    2.262198   1.550889   2.813992   2.669671   1.937499
    24  H    5.078040   4.500790   4.762466   3.476343   2.137658
    25  H    6.393744   6.168703   5.545413   4.034255   3.456331
    26  H    6.000018   6.285740   4.743983   3.481524   3.900239
                   11         12         13         14         15
    11  O    0.000000
    12  C    2.288017   0.000000
    13  C    3.594021   1.390092   0.000000
    14  C    4.129407   2.391323   1.399021   0.000000
    15  C    3.671134   2.735964   2.411324   1.395404   0.000000
    16  F    4.841598   4.071786   3.583558   2.290488   1.350060
    17  H    5.976935   5.888204   5.658727   4.441673   3.287038
    18  H    5.719045   5.534249   5.321574   4.162460   3.015293
    19  H    6.594336   6.865720   6.818181   5.687120   4.419899
    20  H    6.359107   7.279975   7.584446   6.686855   5.306153
    21  H    6.080483   7.689495   8.399197   7.861710   6.502253
    22  H    4.380601   6.334650   7.339797   7.197952   6.018150
    23  H    0.978643   3.097533   4.342451   4.707275   4.020966
    24  H    2.407781   1.099103   2.180799   3.406280   3.832573
    25  H    4.454243   2.171917   1.100379   2.179778   3.417339
    26  H    5.221150   3.411006   2.200145   1.098940   2.139499
                   16         17         18         19         20
    16  F    0.000000
    17  H    2.176666   0.000000
    18  H    2.197041   1.783079   0.000000
    19  H    3.524316   1.785777   1.785322   0.000000
    20  H    4.742695   3.041482   3.505979   2.115550   0.000000
    21  H    6.407668   5.226151   5.401871   4.419583   2.501804
    22  H    6.448517   6.112967   5.817450   5.601029   4.317764
    23  H    5.070917   5.932244   5.567525   6.290286   5.888688
    24  H    5.166400   6.942566   6.589040   7.881322   8.155722
    25  H    4.466645   6.597386   6.262869   7.812278   8.657911
    26  H    2.450958   4.568132   4.373653   5.919552   7.157275
                   21         22         23         24         25
    21  H    0.000000
    22  H    2.572460   0.000000
    23  H    5.360863   3.469890   0.000000
    24  H    8.316722   6.717961   3.280071   0.000000
    25  H    9.496207   8.382239   5.259952   2.537641   0.000000
    26  H    8.591032   8.138587   5.793687   4.353711   2.564422
                   26
    26  H    0.000000
 Stoichiometry    C13H10F2O
 Framework group  C1[X(C13H10F2O)]
 Deg. of freedom    72
 Full point group                 C1      NOp   1
 Largest Abelian subgroup         C1      NOp   1
 Largest concise Abelian subgroup C1      NOp   1
                         Standard orientation:                         
 ---------------------------------------------------------------------
 Center     Atomic      Atomic             Coordinates (Angstroms)
 Number     Number       Type             X           Y           Z
 ---------------------------------------------------------------------
      1          6           0        1.366660    2.643643    0.315067
      2          6           0        1.646660    1.191012   -0.042952
      3          6           0        3.003307    0.972162   -0.377170
      4          6           0        3.600477   -0.290408   -0.447208
      5          6           0        2.833115   -1.377962   -0.030043
      6          6           0        1.490284   -1.158808    0.271962
      7          9           0        0.894809   -2.255290    0.870669
      8          6           0        0.746346    0.048819    0.083533
      9          6           0       -0.764490    0.017234    0.034468
     10          6           0       -1.554014   -1.191950   -0.193265
     11          8           0       -1.083502   -2.404193   -0.567003
     12          6           0       -2.969864   -1.182314   -0.138436
     13          6           0       -3.698883   -0.008640    0.014456
     14          6           0       -2.996116    1.199812    0.069438
     15          6           0       -1.601387    1.180789    0.030434
     16          9           0       -1.058214    2.412264   -0.074886
     17          1           0        0.912631    3.229237   -0.506395
     18          1           0        0.706162    2.734202    1.194099
     19          1           0        2.333615    3.119991    0.569649
     20          1           0        3.630323    1.863940   -0.533273
     21          1           0        4.658117   -0.408920   -0.725028
     22          1           0        3.243967   -2.387664    0.113008
     23          1           0       -0.208871   -2.586161   -0.167440
     24          1           0       -3.459473   -2.158273   -0.264197
     25          1           0       -4.798474   -0.026013    0.052289
     26          1           0       -3.491907    2.180095    0.099556
 ---------------------------------------------------------------------
 Rotational constants (GHZ):           0.8391762           0.4686573           0.3116964
 Standard basis: def2SVP (5D, 7F)
 There are   290 symmetry adapted cartesian basis functions of A   symmetry.
 There are   274 symmetry adapted basis functions of A   symmetry.
   274 basis functions,   470 primitive gaussians,   290 cartesian basis functions
    57 alpha electrons       57 beta electrons
       nuclear repulsion energy      1068.7823885280 Hartrees.
 NAtoms=   26 NActive=   26 NUniq=   26 SFac= 1.00D+00 NAtFMM=   60 NAOKFM=F Big=F
 Integral buffers will be    131072 words long.
 Raffenetti 2 integral format.
 Two-electron integral symmetry is turned on.
 Nuclear repulsion after empirical dispersion term =     1068.7309650918 Hartrees.
 One-electron integrals computed using PRISM.
   1 Symmetry operations used in ECPInt.
 ECPInt:  NShTT=    8001 NPrTT=   29641 LenC2=    7593 LenP2D=   20274.
 LDataN:  DoStor=T MaxTD1= 4 Len=   56
 NBasis=   274 RedAO= T EigKep=  2.97D-04  NBF=   274
 NBsUse=   274 1.00D-06 EigRej= -1.00D+00 NBFU=   274
 Initial guess from the checkpoint file:  "/scratch/gaussian_tmp/Gau-4030843.chk"
 B after Tr=    -0.000000   -0.000000    0.000000
         Rot=    1.000000   -0.000112   -0.000070   -0.000124 Ang=  -0.02 deg.
 Requested convergence on RMS density matrix=1.00D-08 within 128 cycles.
 Requested convergence on MAX density matrix=1.00D-06.
 Requested convergence on             energy=1.00D-06.
 No special actions if energy rises.
 SCF Done:  E(RB-P86) =  -775.752548322     A.U. after    9 cycles
            NFock=  9  Conv=0.69D-08     -V/T= 2.0104
   1 Symmetry operations used in ECPInt.
 ECPInt:  NShTT=    8001 NPrTT=   29641 LenC2=    7593 LenP2D=   20274.
 LDataN:  DoStor=T MaxTD1= 5 Len=  102
 Calling FoFJK, ICntrl=      2527 FMM=F ISym2X=0 I1Cent= 0 IOpClX= 0 NMat=1 NMatS=1 NMatT=0.
 ***** Axes restored to original set *****
 -------------------------------------------------------------------
 Center     Atomic                   Forces (Hartrees/Bohr)
 Number     Number              X              Y              Z
 -------------------------------------------------------------------
      1        6          -0.000590232    0.000779476    0.002331974
      2        6          -0.000040329    0.000059590    0.000061950
      3        6           0.000029454    0.000057403   -0.000006658
      4        6           0.000023772   -0.000003083   -0.000011770
      5        6          -0.000015791    0.000064956    0.000012743
      6        6           0.000193988   -0.000283340   -0.000065149
      7        9           0.000790154    0.000519455   -0.002036165
      8        6          -0.000116601   -0.001159262   -0.000753810
      9        6          -0.000100131   -0.000634394    0.001250627
     10        6           0.000017701    0.000205175   -0.000091567
     11        8          -0.000572130    0.000888939    0.002056621
     12        6          -0.000029239    0.000021575   -0.000002407
     13        6          -0.000006198    0.000002906    0.000004875
     14        6          -0.000012880    0.000051189   -0.000021238
     15        6           0.000146224   -0.000099251    0.000026500
     16        9           0.001034829   -0.000588807   -0.002544743
     17        1          -0.000215809    0.000004612   -0.000067839
     18        1          -0.000224428    0.000043918    0.000001285
     19        1          -0.000096753   -0.000033961    0.000007172
     20        1           0.000005578    0.000007747   -0.000011798
     21        1          -0.000002206   -0.000000268    0.000002035
     22        1           0.000004418   -0.000000887    0.000001055
     23        1          -0.000240290    0.000108991   -0.000146117
     24        1           0.000009132   -0.000002749   -0.000001360
     25        1          -0.000001957   -0.000004699    0.000000766
     26        1           0.000009723   -0.000005228    0.000003019
 -------------------------------------------------------------------
 Cartesian Forces:  Max     0.002544743 RMS     0.000609861

 GradGradGradGradGradGradGradGradGradGradGradGradGradGradGradGradGradGrad
 Berny optimization.
 Using GEDIIS/GDIIS optimizer.
 FormGI is forming the generalized inverse of G from B-inverse, IUseBI=4.
 Internal  Forces:  Max     0.004622505 RMS     0.001150388
 Search for a local minimum.
 Step number   2 out of a maximum of  142
 All quantities printed in internal units (Hartrees-Bohrs-Radians)
 Mixed Optimization -- En-DIIS/RFO-DIIS
 Swapping is turned off.
 Update second derivatives using D2CorX and points    1    2
 DE=  1.56D-05 DEPred=-2.64D-06 R=-5.93D+00
 Trust test=-5.93D+00 RLast= 6.71D-03 DXMaxT set to 1.50D-01
 ITU= -1  0
     Eigenvalues ---    0.00469   0.01198   0.01213   0.01331   0.01596
     Eigenvalues ---    0.01658   0.01810   0.01837   0.01960   0.01995
     Eigenvalues ---    0.02015   0.02046   0.02125   0.02133   0.02145
     Eigenvalues ---    0.02151   0.02167   0.02172   0.02296   0.06666
     Eigenvalues ---    0.07350   0.15902   0.15924   0.15976   0.15979
     Eigenvalues ---    0.15984   0.15986   0.15992   0.16000   0.16000
     Eigenvalues ---    0.16012   0.21835   0.22069   0.22167   0.23002
     Eigenvalues ---    0.23191   0.24073   0.24404   0.24668   0.24789
     Eigenvalues ---    0.24917   0.24938   0.30097   0.31059   0.32845
     Eigenvalues ---    0.32983   0.33313   0.33542   0.33640   0.33690
     Eigenvalues ---    0.33743   0.33780   0.33797   0.35256   0.35560
     Eigenvalues ---    0.38443   0.38732   0.41482   0.41679   0.44512
     Eigenvalues ---    0.44558   0.45191   0.45324   0.46400   0.46721
     Eigenvalues ---    0.48060   0.51616   0.54279   0.54791   2.21142
     Eigenvalues --- 1000.000001000.000001000.000001000.000001000.00000
     Eigenvalues --- 1000.000001000.000001000.000001000.000001000.00000
     Eigenvalues --- 1000.000001000.000001000.000001000.000001000.00000
     Eigenvalues --- 1000.000001000.000001000.000001000.000001000.00000
     Eigenvalues --- 1000.000001000.000001000.000001000.000001000.00000
     Eigenvalues --- 1000.000001000.000001000.000001000.000001000.00000
     Eigenvalues --- 1000.000001000.000001000.000001000.000001000.00000
     Eigenvalues --- 1000.000001000.000001000.000001000.000001000.00000
     Eigenvalues --- 1000.000001000.000001000.000001000.000001000.00000
     Eigenvalues --- 1000.000001000.000001000.000001000.000001000.00000
     Eigenvalues --- 1000.000001000.000001000.000001000.000001000.00000
     Eigenvalues --- 1000.000001000.000001000.000001000.000001000.00000
     Eigenvalues --- 1000.000001000.00000
 En-DIIS/RFO-DIIS/Sim-DIIS IScMMF=       -3 using points:     2    1
 RFO step:  Lambda=-3.35593493D-05.
 DidBck=T Rises=T En-DIIS coefs:    0.31662    0.68338
 Iteration  1 RMS(Cart)=  0.00383615 RMS(Int)=  0.00000238
 Iteration  2 RMS(Cart)=  0.00000467 RMS(Int)=  0.00000047
 Iteration  3 RMS(Cart)=  0.00000000 RMS(Int)=  0.00000047
 Iteration  1 RMS(Cart)=  0.00000076 RMS(Int)=  0.00000026
 Variable       Old X    -DE/DX   Delta X   Delta X   Delta X     New X
                                 (Linear)    (Quad)   (Total)
    R1        2.87631  -0.00029  -0.00005   0.00004  -0.00001   2.87630
    R2        2.09057  -0.00013  -0.00011   0.00008  -0.00003   2.09054
    R3        2.08484  -0.00015   0.00001  -0.00007  -0.00006   2.08478
    R4        2.09301   0.00006   0.00006  -0.00004   0.00001   2.09303
    R5        2.67254   0.00021   0.00009  -0.00007   0.00001   2.67255
    R6        2.75872   0.00124   0.00040  -0.00014   0.00026   2.75898
    R7        2.64265   0.00006  -0.00001   0.00001  -0.00000   2.64264
    R8        2.08109   0.00000   0.00001  -0.00001   0.00000   2.08109
    R9        2.63591  -0.00025  -0.00009   0.00006  -0.00003   2.63588
   R10        2.07855   0.00000   0.00000  -0.00000   0.00000   2.07855
   R11        2.63373  -0.00025  -0.00010   0.00008  -0.00002   2.63371
   R12        2.07763  -0.00000   0.00001  -0.00001  -0.00000   2.07763
   R13        2.61528   0.00026   0.00014  -0.00016  -0.00001   2.61527
   R14        2.70390  -0.00063  -0.00014   0.00003  -0.00010   2.70380
   R15        2.85719   0.00030   0.00022  -0.00015   0.00008   2.85727
   R16        2.76271  -0.00079  -0.00008  -0.00015  -0.00023   2.76248
   R17        2.70850   0.00057   0.00024  -0.00013   0.00011   2.70860
   R18        2.55679   0.00023   0.00009  -0.00007   0.00002   2.55680
   R19        2.67764  -0.00019  -0.00010   0.00008  -0.00003   2.67761
   R20        1.84937   0.00025   0.00003   0.00003   0.00006   1.84942
   R21        2.62689  -0.00014  -0.00006   0.00004  -0.00002   2.62687
   R22        2.07700   0.00001   0.00001  -0.00001  -0.00000   2.07700
   R23        2.64377   0.00004  -0.00004   0.00006   0.00001   2.64378
   R24        2.07942  -0.00000   0.00001  -0.00001  -0.00000   2.07941
   R25        2.63693   0.00015   0.00006  -0.00003   0.00002   2.63696
   R26        2.07670  -0.00000   0.00002  -0.00002  -0.00000   2.07669
   R27        2.55124  -0.00063  -0.00019   0.00011  -0.00008   2.55116
    A1        1.98889   0.00009   0.00002   0.00009   0.00010   1.98900
    A2        1.95615   0.00011   0.00031  -0.00024   0.00008   1.95622
    A3        1.87960  -0.00021  -0.00016  -0.00006  -0.00022   1.87938
    A4        1.87809   0.00007   0.00018  -0.00000   0.00017   1.87826
    A5        1.87688  -0.00004  -0.00014   0.00004  -0.00009   1.87678
    A6        1.87993  -0.00004  -0.00024   0.00019  -0.00006   1.87987
    A7        1.96031  -0.00177  -0.00078   0.00017  -0.00061   1.95971
    A8        2.23049   0.00267   0.00097  -0.00032   0.00065   2.23114
    A9        2.08403  -0.00084  -0.00025   0.00006  -0.00019   2.08384
   A10        2.16662   0.00050   0.00018  -0.00004   0.00014   2.16675
   A11        2.04245  -0.00027  -0.00010   0.00002  -0.00008   2.04237
   A12        2.07245  -0.00022  -0.00008   0.00001  -0.00007   2.07238
   A13        2.04209   0.00002  -0.00005   0.00005  -0.00001   2.04208
   A14        2.11828  -0.00002   0.00004  -0.00004   0.00000   2.11828
   A15        2.11825   0.00001   0.00000   0.00000   0.00000   2.11826
   A16        2.06264  -0.00031  -0.00009   0.00000  -0.00009   2.06255
   A17        2.15242   0.00015   0.00007  -0.00002   0.00005   2.15247
   A18        2.06720   0.00016   0.00004   0.00001   0.00005   2.06725
   A19        1.96462   0.00085   0.00007   0.00022   0.00030   1.96492
   A20        2.22072   0.00070   0.00029  -0.00015   0.00014   2.22086
   A21        2.09664  -0.00158  -0.00036  -0.00003  -0.00038   2.09626
   A22        1.92955  -0.00004  -0.00015   0.00012  -0.00003   1.92952
   A23        2.25208   0.00369   0.00115   0.00059   0.00174   2.25382
   A24        2.10155  -0.00366  -0.00100  -0.00071  -0.00171   2.09984
   A25        2.16757  -0.00378  -0.00118  -0.00040  -0.00158   2.16599
   A26        2.17317   0.00397   0.00136   0.00030   0.00166   2.17483
   A27        1.93443  -0.00018  -0.00018   0.00012  -0.00006   1.93437
   A28        2.20965  -0.00155  -0.00046  -0.00009  -0.00055   2.20911
   A29        2.12701   0.00066   0.00035  -0.00016   0.00019   2.12720
   A30        1.94365   0.00084   0.00012   0.00026   0.00037   1.94402
   A31        1.94401  -0.00028  -0.00019   0.00002  -0.00018   1.94384
   A32        2.13416  -0.00027  -0.00012   0.00001  -0.00010   2.13405
   A33        2.02045   0.00015   0.00006   0.00000   0.00006   2.02051
   A34        2.12785   0.00012   0.00007  -0.00002   0.00005   2.12789
   A35        2.06030  -0.00005  -0.00006   0.00003  -0.00002   2.06028
   A36        2.11124   0.00003   0.00004  -0.00003   0.00000   2.11124
   A37        2.11093   0.00003   0.00002  -0.00000   0.00002   2.11095
   A38        2.08198   0.00022   0.00019  -0.00012   0.00007   2.08205
   A39        2.14715  -0.00011  -0.00009   0.00004  -0.00005   2.14710
   A40        2.05315  -0.00011  -0.00011   0.00009  -0.00002   2.05312
   A41        2.20758  -0.00037  -0.00014   0.00005  -0.00009   2.20749
   A42        2.10111   0.00125   0.00061  -0.00023   0.00038   2.10149
   A43        1.97347  -0.00084  -0.00046   0.00017  -0.00030   1.97318
    D1        1.74430  -0.00034   0.00099  -0.00075   0.00023   1.74453
    D2       -1.53830   0.00008   0.00051  -0.00153  -0.00101  -1.53932
    D3       -2.40074  -0.00008   0.00148  -0.00088   0.00060  -2.40013
    D4        0.59985   0.00033   0.00101  -0.00165  -0.00064   0.59920
    D5       -0.33610  -0.00020   0.00126  -0.00082   0.00044  -0.33566
    D6        2.66448   0.00021   0.00079  -0.00159  -0.00081   2.66367
    D7        2.87623   0.00062  -0.00071  -0.00036  -0.00108   2.87515
    D8       -0.20228   0.00054  -0.00049  -0.00030  -0.00079  -0.20307
    D9       -0.13754  -0.00008  -0.00040   0.00037  -0.00003  -0.13757
   D10        3.06714  -0.00016  -0.00018   0.00044   0.00026   3.06740
   D11       -2.65783  -0.00054   0.00084   0.00060   0.00144  -2.65639
   D12        0.48767  -0.00035   0.00075   0.00156   0.00231   0.48998
   D13        0.33396  -0.00014   0.00031  -0.00022   0.00009   0.33405
   D14       -2.80373   0.00005   0.00022   0.00075   0.00096  -2.80276
   D15       -0.11540   0.00013   0.00008  -0.00011  -0.00004  -0.11544
   D16        3.12737   0.00010   0.00023  -0.00024  -0.00000   3.12736
   D17        2.96209   0.00021  -0.00015  -0.00018  -0.00032   2.96176
   D18       -0.07832   0.00017   0.00001  -0.00030  -0.00029  -0.07862
   D19        0.13058   0.00009   0.00028  -0.00026   0.00002   0.13060
   D20       -2.96409   0.00012  -0.00010  -0.00006  -0.00016  -2.96425
   D21       -3.11220   0.00012   0.00012  -0.00013  -0.00001  -3.11221
   D22        0.07633   0.00016  -0.00025   0.00006  -0.00019   0.07613
   D23       -2.97419   0.00052  -0.00029  -0.00065  -0.00094  -2.97513
   D24        0.11428  -0.00017  -0.00027   0.00037   0.00011   0.11439
   D25        0.12281   0.00049   0.00007  -0.00084  -0.00077   0.12204
   D26       -3.07190  -0.00020   0.00009   0.00019   0.00028  -3.07162
   D27       -0.34144   0.00009  -0.00006  -0.00012  -0.00018  -0.34162
   D28        2.79663  -0.00006   0.00003  -0.00099  -0.00095   2.79568
   D29        2.74343  -0.00057  -0.00002   0.00098   0.00096   2.74439
   D30       -0.40168  -0.00072   0.00007   0.00012   0.00019  -0.40149
   D31        0.12320  -0.00462  -0.00000   0.00000  -0.00000   0.12320
   D32        2.83609  -0.00337  -0.00004  -0.00089  -0.00093   2.83516
   D33       -0.15728  -0.00348  -0.00006  -0.00104  -0.00110  -0.15837
   D34       -0.30126  -0.00318  -0.00014   0.00015   0.00001  -0.30125
   D35        2.98856  -0.00328  -0.00016  -0.00000  -0.00016   2.98840
   D36       -0.56678  -0.00424   0.00000   0.00000  -0.00000  -0.56678
   D37       -0.16585  -0.00092   0.00044  -0.00050  -0.00006  -0.16591
   D38        3.06440  -0.00033   0.00022  -0.00062  -0.00040   3.06400
   D39        2.84516  -0.00047   0.00059  -0.00035   0.00024   2.84541
   D40       -0.20777   0.00013   0.00037  -0.00047  -0.00010  -0.20787
   D41       -3.06728  -0.00024  -0.00013   0.00019   0.00006  -3.06722
   D42        0.12636  -0.00118  -0.00020   0.00051   0.00031   0.12667
   D43        0.20540   0.00000  -0.00005   0.00010   0.00005   0.20545
   D44       -2.88415  -0.00094  -0.00012   0.00042   0.00030  -2.88385
   D45        0.61658   0.00021   0.00036  -0.00092  -0.00055   0.61603
   D46       -2.60584  -0.00032   0.00058  -0.00082  -0.00025  -2.60608
   D47        0.10323  -0.00020  -0.00041   0.00047   0.00006   0.10329
   D48       -3.07880  -0.00020  -0.00020   0.00031   0.00011  -3.07868
   D49       -2.96197   0.00043  -0.00057   0.00038  -0.00019  -2.96216
   D50        0.13919   0.00043  -0.00036   0.00022  -0.00014   0.13905
   D51        0.03800   0.00007   0.00006  -0.00004   0.00002   0.03802
   D52        3.13938   0.00014   0.00015  -0.00015   0.00000   3.13938
   D53       -3.06069   0.00008  -0.00016   0.00012  -0.00003  -3.06072
   D54        0.04069   0.00014  -0.00007   0.00002  -0.00005   0.04064
   D55       -0.04979   0.00017   0.00031  -0.00034  -0.00003  -0.04982
   D56        3.04479   0.00023   0.00009  -0.00018  -0.00009   3.04470
   D57        3.13201   0.00011   0.00022  -0.00024  -0.00001   3.13199
   D58       -0.05660   0.00017   0.00000  -0.00008  -0.00007  -0.05667
   D59       -0.08499  -0.00021  -0.00033   0.00033  -0.00000  -0.08499
   D60        3.00781   0.00073  -0.00024   0.00002  -0.00022   3.00759
   D61        3.10110  -0.00026  -0.00013   0.00018   0.00005   3.10115
   D62       -0.08929   0.00068  -0.00004  -0.00013  -0.00017  -0.08945
         Item               Value     Threshold  Converged?
 Maximum Force            0.004013     0.000450     NO 
 RMS     Force            0.000751     0.000300     NO 
 Maximum Displacement     0.011841     0.001800     NO 
 RMS     Displacement     0.003837     0.001200     NO 
 Predicted change in Energy=-1.677612D-05
 GradGradGradGradGradGradGradGradGradGradGradGradGradGradGradGradGradGrad

                          Input orientation:                          
 ---------------------------------------------------------------------
 Center     Atomic      Atomic             Coordinates (Angstroms)
 Number     Number       Type             X           Y           Z
 ---------------------------------------------------------------------
      1          6           0       -1.137489    2.576806   -1.142249
      2          6           0       -1.524795    1.221557   -0.567795
      3          6           0       -2.903968    1.141735   -0.265106
      4          6           0       -3.586036   -0.054393   -0.020858
      5          6           0       -2.878588   -1.239444   -0.222780
      6          6           0       -1.514327   -1.153307   -0.494379
      7          9           0       -0.971732   -2.366441   -0.880627
      8          6           0       -0.698658    0.021916   -0.468152
      9          6           0        0.803770   -0.094542   -0.344469
     10          6           0        1.497827   -1.297736    0.111148
     11          8           0        0.929674   -2.400132    0.652020
     12          6           0        2.911887   -1.387235    0.121735
     13          6           0        3.726526   -0.303003   -0.183438
     14          6           0        3.112746    0.922370   -0.464540
     15          6           0        1.719616    0.998618   -0.488226
     16          9           0        1.261284    2.262860   -0.607255
     17          1           0       -0.675074    3.261186   -0.406297
     18          1           0       -0.442307    2.483031   -1.993728
     19          1           0       -2.061657    3.061292   -1.513630
     20          1           0       -3.475407    2.082969   -0.283088
     21          1           0       -4.658381   -0.062348    0.223778
     22          1           0       -3.350414   -2.232487   -0.220544
     23          1           0        0.059182   -2.588327    0.246278
     24          1           0        3.326887   -2.358651    0.425303
     25          1           0        4.822829   -0.396091   -0.166574
     26          1           0        3.676932    1.851082   -0.628416
 ---------------------------------------------------------------------
                    Distance matrix (angstroms):
                    1          2          3          4          5
     1  C    0.000000
     2  C    1.522072   0.000000
     3  C    2.439110   1.414253   0.000000
     4  C    3.765118   2.485137   1.398427   0.000000
     5  C    4.294254   2.829897   2.381691   1.394848   0.000000
     6  C    3.804667   2.376022   2.692748   2.392449   1.393698
     7  F    4.952940   3.643827   4.052123   3.594350   2.310625
     8  C    2.678515   1.459989   2.481656   2.922815   2.530481
     9  C    3.397210   2.684065   3.909220   4.401901   3.858157
    10  C    4.850564   3.992999   5.046621   5.235359   4.389523
    11  O    5.680007   4.541915   5.299316   5.132922   4.076191
    12  C    5.805921   5.192821   6.353700   6.634742   5.802597
    13  C    5.733346   5.481640   6.786559   7.318592   6.671282
    14  C    4.610960   4.648329   6.024015   6.784144   6.374008
    15  C    3.328884   3.253034   4.631176   5.429291   5.120827
    16  F    2.477679   2.974576   4.327044   5.404631   5.436221
    17  H    1.106268   2.215444   3.078957   4.428920   5.014462
    18  H    1.103217   2.190064   3.293476   4.495973   4.788376
    19  H    1.107581   2.137159   2.439876   3.776188   4.563989
    20  H    2.539270   2.151273   1.101265   2.156228   3.376130
    21  H    4.607368   3.477695   2.183297   1.099924   2.180053
    22  H    5.373628   3.922230   3.403920   2.199883   1.099435
    23  H    5.480751   4.205581   4.791152   4.447449   3.266496
    24  H    6.837149   6.110887   7.180036   7.300491   6.338813
    25  H    6.731675   6.562781   7.878961   8.417067   7.747660
    26  H    4.895850   5.240032   6.628983   7.533304   7.258838
                    6          7          8          9         10
     6  C    0.000000
     7  F    1.383940   0.000000
     8  C    1.430788   2.439048   0.000000
     9  C    2.552847   2.932814   1.512002   0.000000
    10  C    3.075807   2.867834   2.627093   1.461841   0.000000
    11  O    2.973540   2.442435   3.126110   2.514873   1.353003
    12  C    4.475007   4.128689   3.920422   2.516457   1.416929
    13  C    5.318480   5.178559   4.446221   2.934602   2.458327
    14  C    5.071403   5.260454   3.916329   2.525846   2.805041
    15  C    3.884483   4.326772   2.608140   1.433331   2.383628
    16  F    4.403062   5.146992   2.980361   2.415724   3.640042
    17  H    4.494425   5.655368   3.239946   3.667658   5.076713
    18  H    4.076792   5.003665   2.906920   3.304034   4.742238
    19  H    4.370502   5.572155   3.491217   4.420056   5.857555
    20  H    3.789981   5.140300   3.463022   4.801736   6.026412
    21  H    3.404558   4.485525   4.020606   5.491724   6.279949
    22  H    2.147284   2.472201   3.489334   4.673693   4.948658
    23  H    2.254725   1.543351   2.810356   2.668775   1.937416
    24  H    5.073068   4.492620   4.761341   3.476328   2.137684
    25  H    6.390648   6.161907   5.545494   4.034280   3.456261
    26  H    5.999457   6.281814   4.745241   3.481542   3.900065
                   11         12         13         14         15
    11  O    0.000000
    12  C    2.288303   0.000000
    13  C    3.594207   1.390081   0.000000
    14  C    4.129350   2.391304   1.399028   0.000000
    15  C    3.670922   2.736029   2.411390   1.395417   0.000000
    16  F    4.841408   4.071745   3.583391   2.290239   1.350016
    17  H    5.978777   5.895161   5.668085   4.452082   3.295522
    18  H    5.720803   5.541187   5.330881   4.172827   3.023893
    19  H    6.592818   6.870221   6.825756   5.696493   4.427651
    20  H    6.354317   7.280365   7.587530   6.692061   5.310946
    21  H    6.072477   7.686006   8.398237   7.863451   6.504724
    22  H    4.371341   6.328350   7.335350   7.196186   6.018047
    23  H    0.978672   3.097750   4.342438   4.706858   4.020287
    24  H    2.408267   1.099103   2.180817   3.406284   3.832637
    25  H    4.454541   2.171909   1.100378   2.179795   3.417398
    26  H    5.221088   3.410970   2.200124   1.098939   2.139494
                   16         17         18         19         20
    16  F    0.000000
    17  H    2.187812   0.000000
    18  H    2.207488   1.783156   0.000000
    19  H    3.535667   1.785709   1.785266   0.000000
    20  H    4.751177   3.040598   3.505144   2.114246   0.000000
    21  H    6.414019   5.225859   5.401071   4.417996   2.501744
    22  H    6.451779   6.113296   5.816990   5.599737   4.317718
    23  H    5.070265   5.931424   5.566668   6.285971   5.881713
    24  H    5.166358   6.949087   6.595484   7.884899   8.154814
    25  H    4.466411   6.607578   6.272917   7.820755   8.661410
    26  H    2.450584   4.580140   4.385380   5.931240   7.164424
                   21         22         23         24         25
    21  H    0.000000
    22  H    2.572489   0.000000
    23  H    5.351306   3.459753   0.000000
    24  H    8.311324   6.709648   3.280654   0.000000
    25  H    9.495109   8.377182   5.260103   2.537677   0.000000
    26  H    8.594468   8.137904   5.793233   4.353700   2.564403
                   26
    26  H    0.000000
 Stoichiometry    C13H10F2O
 Framework group  C1[X(C13H10F2O)]
 Deg. of freedom    72
 Full point group                 C1      NOp   1
 Largest Abelian subgroup         C1      NOp   1
 Largest concise Abelian subgroup C1      NOp   1
                         Standard orientation:                         
 ---------------------------------------------------------------------
 Center     Atomic      Atomic             Coordinates (Angstroms)
 Number     Number       Type             X           Y           Z
 ---------------------------------------------------------------------
      1          6           0        1.373225    2.644621    0.315483
      2          6           0        1.648860    1.191331   -0.043233
      3          6           0        3.004959    0.969457   -0.377717
      4          6           0        3.599606   -0.294323   -0.447369
      5          6           0        2.830224   -1.380148   -0.029475
      6          6           0        1.487946   -1.158076    0.272794
      7          9           0        0.889712   -2.253243    0.871138
      8          6           0        0.746289    0.050824    0.083952
      9          6           0       -0.764578    0.019378    0.034528
     10          6           0       -1.552154   -1.190897   -0.193371
     11          8           0       -1.078999   -2.402237   -0.566730
     12          6           0       -2.968015   -1.183687   -0.138843
     13          6           0       -3.698948   -0.011194    0.013879
     14          6           0       -2.998110    1.198381    0.068953
     15          6           0       -1.603330    1.181667    0.030250
     16          9           0       -1.062565    2.414136   -0.075282
     17          1           0        0.920530    3.231936   -0.505467
     18          1           0        0.713709    2.736824    1.195043
     19          1           0        2.341814    3.117918    0.569570
     20          1           0        3.633812    1.859887   -0.534123
     21          1           0        4.656930   -0.415053   -0.725437
     22          1           0        3.239033   -2.390649    0.113779
     23          1           0       -0.203996   -2.582067   -0.166942
     24          1           0       -3.455980   -2.160464   -0.264638
     25          1           0       -4.798516   -0.030332    0.051492
     26          1           0       -3.495507    2.177854    0.098863
 ---------------------------------------------------------------------
 Rotational constants (GHZ):           0.8392296           0.4686508           0.3117129
 Standard basis: def2SVP (5D, 7F)
 There are   290 symmetry adapted cartesian basis functions of A   symmetry.
 There are   274 symmetry adapted basis functions of A   symmetry.
   274 basis functions,   470 primitive gaussians,   290 cartesian basis functions
    57 alpha electrons       57 beta electrons
       nuclear repulsion energy      1068.7984870354 Hartrees.
 NAtoms=   26 NActive=   26 NUniq=   26 SFac= 1.00D+00 NAtFMM=   60 NAOKFM=F Big=F
 Integral buffers will be    131072 words long.
 Raffenetti 2 integral format.
 Two-electron integral symmetry is turned on.
 Nuclear repulsion after empirical dispersion term =     1068.7470675712 Hartrees.
 One-electron integrals computed using PRISM.
   1 Symmetry operations used in ECPInt.
 ECPInt:  NShTT=    8001 NPrTT=   29641 LenC2=    7592 LenP2D=   20271.
 LDataN:  DoStor=T MaxTD1= 4 Len=   56
 NBasis=   274 RedAO= T EigKep=  2.97D-04  NBF=   274
 NBsUse=   274 1.00D-06 EigRej= -1.00D+00 NBFU=   274
 Initial guess from the checkpoint file:  "/scratch/gaussian_tmp/Gau-4030843.chk"
 B after Tr=     0.000000    0.000000    0.000000
         Rot=    1.000000    0.000102    0.000084    0.000115 Ang=   0.02 deg.
 Requested convergence on RMS density matrix=1.00D-08 within 128 cycles.
 Requested convergence on MAX density matrix=1.00D-06.
 Requested convergence on             energy=1.00D-06.
 No special actions if energy rises.
 SCF Done:  E(RB-P86) =  -775.752564598     A.U. after    9 cycles
            NFock=  9  Conv=0.78D-08     -V/T= 2.0104
   1 Symmetry operations used in ECPInt.
 ECPInt:  NShTT=    8001 NPrTT=   29641 LenC2=    7592 LenP2D=   20271.
 LDataN:  DoStor=T MaxTD1= 5 Len=  102
 Calling FoFJK, ICntrl=      2527 FMM=F ISym2X=0 I1Cent= 0 IOpClX= 0 NMat=1 NMatS=1 NMatT=0.
 ***** Axes restored to original set *****
 -------------------------------------------------------------------
 Center     Atomic                   Forces (Hartrees/Bohr)
 Number     Number              X              Y              Z
 -------------------------------------------------------------------
      1        6          -0.000151788    0.000642982    0.002491130
      2        6          -0.000061310   -0.000022120   -0.000000071
      3        6           0.000028784    0.000014788    0.000005826
      4        6           0.000008548   -0.000009938   -0.000001706
      5        6          -0.000004113    0.000021009   -0.000012365
      6        6           0.000011229   -0.000060640   -0.000002897
      7        9           0.000172858    0.000472410   -0.002652082
      8        6          -0.000035238   -0.001151885   -0.000723441
      9        6          -0.000141529   -0.000556307    0.001218615
     10        6          -0.000037032   -0.000042744    0.000034034
     11        8          -0.000050989    0.001055242    0.002381665
     12        6           0.000007222    0.000011669   -0.000002005
     13        6          -0.000017647   -0.000020538    0.000008531
     14        6          -0.000019015    0.000034733   -0.000016657
     15        6           0.000053331   -0.000033184    0.000007981
     16        9           0.000239822   -0.000345246   -0.002782005
     17        1          -0.000010410    0.000000027   -0.000000910
     18        1          -0.000024449    0.000003535    0.000006457
     19        1          -0.000014413   -0.000001525    0.000003556
     20        1           0.000000173    0.000005411   -0.000003458
     21        1           0.000000037   -0.000002223    0.000001484
     22        1          -0.000006581   -0.000000399    0.000000983
     23        1           0.000043142   -0.000008475    0.000033601
     24        1           0.000005696   -0.000001688    0.000001544
     25        1           0.000000030   -0.000002828   -0.000000564
     26        1           0.000003641   -0.000002070    0.000002753
 -------------------------------------------------------------------
 Cartesian Forces:  Max     0.002782005 RMS     0.000643755

 GradGradGradGradGradGradGradGradGradGradGradGradGradGradGradGradGradGrad
 Berny optimization.
 Using GEDIIS/GDIIS optimizer.
 FormGI is forming the generalized inverse of G from B-inverse, IUseBI=4.
 Internal  Forces:  Max     0.004928482 RMS     0.000966804
 Search for a local minimum.
 Step number   3 out of a maximum of  142
 All quantities printed in internal units (Hartrees-Bohrs-Radians)
 Mixed Optimization -- En-DIIS/RFO-DIIS
 Swapping is turned off.
 Update second derivatives using D2CorX and points    1    2    3
 DE= -1.63D-05 DEPred=-1.68D-05 R= 9.70D-01
 TightC=F SS=  1.41D+00  RLast= 5.75D-03 DXNew= 2.5227D-01 1.7254D-02
 Trust test= 9.70D-01 RLast= 5.75D-03 DXMaxT set to 1.50D-01
 ITU=  1 -1  0
     Eigenvalues ---    0.00468   0.00996   0.01215   0.01291   0.01598
     Eigenvalues ---    0.01708   0.01792   0.01882   0.01971   0.01999
     Eigenvalues ---    0.02024   0.02047   0.02123   0.02134   0.02144
     Eigenvalues ---    0.02156   0.02170   0.02172   0.02302   0.06727
     Eigenvalues ---    0.07351   0.15572   0.15906   0.15976   0.15979
     Eigenvalues ---    0.15985   0.15987   0.15992   0.16000   0.16009
     Eigenvalues ---    0.16062   0.20607   0.22065   0.22109   0.23051
     Eigenvalues ---    0.23181   0.24013   0.24511   0.24729   0.24804
     Eigenvalues ---    0.24901   0.28840   0.30093   0.32725   0.32917
     Eigenvalues ---    0.33232   0.33415   0.33554   0.33640   0.33690
     Eigenvalues ---    0.33748   0.33787   0.33799   0.35270   0.37894
     Eigenvalues ---    0.37976   0.41405   0.41642   0.43798   0.44547
     Eigenvalues ---    0.44978   0.45316   0.46246   0.46410   0.47461
     Eigenvalues ---    0.48384   0.52210   0.53979   0.55997   2.24748
     Eigenvalues --- 1000.000001000.000001000.000001000.000001000.00000
     Eigenvalues --- 1000.000001000.000001000.000001000.000001000.00000
     Eigenvalues --- 1000.000001000.000001000.000001000.000001000.00000
     Eigenvalues --- 1000.000001000.000001000.000001000.000001000.00000
     Eigenvalues --- 1000.000001000.000001000.000001000.000001000.00000
     Eigenvalues --- 1000.000001000.000001000.000001000.000001000.00000
     Eigenvalues --- 1000.000001000.000001000.000001000.000001000.00000
     Eigenvalues --- 1000.000001000.000001000.000001000.000001000.00000
     Eigenvalues --- 1000.000001000.000001000.000001000.000001000.00000
     Eigenvalues --- 1000.000001000.000001000.000001000.000001000.00000
     Eigenvalues --- 1000.000001000.000001000.000001000.000001000.00000
     Eigenvalues --- 1000.000001000.000001000.000001000.000001000.00000
     Eigenvalues --- 1000.000001000.00000
 En-DIIS/RFO-DIIS/Sim-DIIS IScMMF=       -3 using points:     3    2    1
 RFO step:  Lambda=-8.48145545D-07.
 DidBck=F Rises=F RFO-DIIS coefs:    1.45309   -0.48048    0.02739
 Iteration  1 RMS(Cart)=  0.00083562 RMS(Int)=  0.00000052
 Iteration  2 RMS(Cart)=  0.00000042 RMS(Int)=  0.00000048
 Iteration  1 RMS(Cart)=  0.00000149 RMS(Int)=  0.00000051
 Iteration  2 RMS(Cart)=  0.00000091 RMS(Int)=  0.00000057
 Variable       Old X    -DE/DX   Delta X   Delta X   Delta X     New X
                                 (Linear)    (Quad)   (Total)
    R1        2.87630  -0.00026  -0.00001   0.00004   0.00004   2.87634
    R2        2.09054  -0.00000  -0.00002   0.00006   0.00005   2.09059
    R3        2.08478  -0.00002  -0.00003  -0.00007  -0.00010   2.08468
    R4        2.09303   0.00001   0.00001  -0.00002  -0.00001   2.09302
    R5        2.67255   0.00012   0.00001  -0.00014  -0.00013   2.67242
    R6        2.75898   0.00034   0.00013  -0.00010   0.00004   2.75902
    R7        2.64264   0.00008  -0.00000  -0.00005  -0.00005   2.64259
    R8        2.08109   0.00000   0.00000   0.00001   0.00001   2.08110
    R9        2.63588  -0.00014  -0.00002   0.00000  -0.00002   2.63586
   R10        2.07855   0.00000   0.00000  -0.00000  -0.00000   2.07855
   R11        2.63371  -0.00014  -0.00001   0.00009   0.00007   2.63378
   R12        2.07763   0.00000  -0.00000  -0.00000  -0.00000   2.07763
   R13        2.61527   0.00021  -0.00000  -0.00022  -0.00022   2.61505
   R14        2.70380  -0.00022  -0.00005   0.00024   0.00019   2.70398
   R15        2.85727   0.00015   0.00004   0.00025   0.00029   2.85756
   R16        2.76248   0.00003  -0.00011   0.00027   0.00016   2.76264
   R17        2.70860   0.00014   0.00006  -0.00002   0.00004   2.70864
   R18        2.55680   0.00005   0.00001  -0.00015  -0.00014   2.55667
   R19        2.67761  -0.00005  -0.00002   0.00008   0.00007   2.67767
   R20        1.84942  -0.00005   0.00003  -0.00009  -0.00006   1.84936
   R21        2.62687  -0.00008  -0.00001  -0.00004  -0.00005   2.62682
   R22        2.07700   0.00000   0.00000   0.00000   0.00000   2.07700
   R23        2.64378   0.00002   0.00000  -0.00002  -0.00001   2.64377
   R24        2.07941   0.00000  -0.00000  -0.00000  -0.00000   2.07941
   R25        2.63696   0.00003   0.00001  -0.00009  -0.00007   2.63688
   R26        2.07669  -0.00000  -0.00000  -0.00001  -0.00001   2.07668
   R27        2.55116  -0.00010  -0.00005   0.00011   0.00007   2.55123
    A1        1.98900   0.00000   0.00005   0.00002   0.00007   1.98907
    A2        1.95622   0.00001   0.00005  -0.00013  -0.00008   1.95614
    A3        1.87938  -0.00002  -0.00011  -0.00006  -0.00016   1.87922
    A4        1.87826   0.00001   0.00009   0.00000   0.00009   1.87835
    A5        1.87678   0.00000  -0.00005   0.00003  -0.00002   1.87677
    A6        1.87987   0.00000  -0.00004   0.00015   0.00011   1.87998
    A7        1.95971  -0.00049  -0.00031   0.00017  -0.00014   1.95957
    A8        2.23114   0.00100   0.00033  -0.00042  -0.00008   2.23106
    A9        2.08384  -0.00042  -0.00010   0.00026   0.00016   2.08400
   A10        2.16675   0.00026   0.00007  -0.00013  -0.00006   2.16669
   A11        2.04237  -0.00014  -0.00004   0.00005   0.00001   2.04238
   A12        2.07238  -0.00011  -0.00004   0.00007   0.00003   2.07241
   A13        2.04208  -0.00000  -0.00001  -0.00005  -0.00006   2.04202
   A14        2.11828  -0.00001   0.00000   0.00001   0.00002   2.11830
   A15        2.11826   0.00001   0.00000   0.00002   0.00002   2.11828
   A16        2.06255  -0.00020  -0.00004   0.00013   0.00008   2.06264
   A17        2.15247   0.00008   0.00003  -0.00011  -0.00009   2.15238
   A18        2.06725   0.00011   0.00002  -0.00002   0.00000   2.06725
   A19        1.96492   0.00032   0.00014  -0.00025  -0.00011   1.96480
   A20        2.22086   0.00034   0.00007  -0.00017  -0.00010   2.22076
   A21        2.09626  -0.00071  -0.00019   0.00040   0.00022   2.09648
   A22        1.92952   0.00003  -0.00002  -0.00021  -0.00023   1.92929
   A23        2.25382  -0.00032   0.00083  -0.00053   0.00030   2.25412
   A24        2.09984   0.00029  -0.00081   0.00074  -0.00008   2.09976
   A25        2.16599  -0.00003  -0.00076   0.00108   0.00032   2.16630
   A26        2.17483   0.00013   0.00081  -0.00082  -0.00002   2.17482
   A27        1.93437  -0.00010  -0.00003  -0.00011  -0.00014   1.93423
   A28        2.20911  -0.00016  -0.00027   0.00071   0.00045   2.20955
   A29        2.12720   0.00016   0.00010  -0.00021  -0.00011   2.12709
   A30        1.94402  -0.00006   0.00017  -0.00050  -0.00032   1.94370
   A31        1.94384   0.00004  -0.00009   0.00032   0.00023   1.94407
   A32        2.13405  -0.00006  -0.00005   0.00017   0.00012   2.13418
   A33        2.02051   0.00004   0.00003  -0.00006  -0.00003   2.02048
   A34        2.12789   0.00002   0.00002  -0.00012  -0.00009   2.12780
   A35        2.06028  -0.00000  -0.00001   0.00000  -0.00001   2.06027
   A36        2.11124   0.00000   0.00000  -0.00002  -0.00002   2.11122
   A37        2.11095  -0.00000   0.00001   0.00002   0.00003   2.11098
   A38        2.08205   0.00008   0.00004  -0.00016  -0.00012   2.08193
   A39        2.14710  -0.00003  -0.00002   0.00005   0.00002   2.14712
   A40        2.05312  -0.00004  -0.00002   0.00012   0.00010   2.05322
   A41        2.20749  -0.00007  -0.00005   0.00028   0.00024   2.20773
   A42        2.10149   0.00026   0.00019  -0.00032  -0.00013   2.10136
   A43        1.97318  -0.00014  -0.00015   0.00005  -0.00011   1.97307
    D1        1.74453  -0.00032   0.00015  -0.00016  -0.00002   1.74451
    D2       -1.53932   0.00031  -0.00044  -0.00007  -0.00051  -1.53983
    D3       -2.40013  -0.00030   0.00033  -0.00025   0.00009  -2.40005
    D4        0.59920   0.00033  -0.00025  -0.00015  -0.00040   0.59880
    D5       -0.33566  -0.00031   0.00025  -0.00018   0.00007  -0.33559
    D6        2.66367   0.00032  -0.00033  -0.00008  -0.00042   2.66326
    D7        2.87515   0.00064  -0.00052  -0.00031  -0.00083   2.87433
    D8       -0.20307   0.00053  -0.00038  -0.00005  -0.00043  -0.20350
    D9       -0.13757  -0.00006  -0.00003  -0.00034  -0.00036  -0.13793
   D10        3.06740  -0.00017   0.00011  -0.00008   0.00003   3.06743
   D11       -2.65639  -0.00074   0.00069   0.00046   0.00115  -2.65524
   D12        0.48998  -0.00075   0.00108   0.00123   0.00231   0.49229
   D13        0.33405  -0.00006   0.00005   0.00055   0.00061   0.33466
   D14       -2.80276  -0.00007   0.00044   0.00132   0.00177  -2.80100
   D15       -0.11544   0.00004  -0.00001  -0.00013  -0.00015  -0.11559
   D16        3.12736   0.00008   0.00001   0.00008   0.00008   3.12745
   D17        2.96176   0.00016  -0.00015  -0.00039  -0.00055   2.96122
   D18       -0.07862   0.00019  -0.00013  -0.00018  -0.00032  -0.07893
   D19        0.13060   0.00010   0.00002   0.00028   0.00030   0.13089
   D20       -2.96425   0.00024  -0.00008   0.00039   0.00031  -2.96394
   D21       -3.11221   0.00007  -0.00000   0.00007   0.00007  -3.11214
   D22        0.07613   0.00020  -0.00010   0.00018   0.00008   0.07621
   D23       -2.97513   0.00089  -0.00044   0.00033  -0.00011  -2.97525
   D24        0.11439  -0.00017   0.00004  -0.00000   0.00003   0.11443
   D25        0.12204   0.00076  -0.00035   0.00022  -0.00013   0.12191
   D26       -3.07162  -0.00030   0.00013  -0.00011   0.00002  -3.07160
   D27       -0.34162   0.00008  -0.00008  -0.00035  -0.00044  -0.34206
   D28        2.79568   0.00008  -0.00043  -0.00105  -0.00148   2.79420
   D29        2.74439  -0.00102   0.00043  -0.00072  -0.00029   2.74410
   D30       -0.40149  -0.00102   0.00009  -0.00142  -0.00133  -0.40282
   D31        0.12320  -0.00493  -0.00000   0.00000  -0.00000   0.12320
   D32        2.83516  -0.00386  -0.00042   0.00024  -0.00017   2.83498
   D33       -0.15837  -0.00382  -0.00050  -0.00111  -0.00161  -0.15998
   D34       -0.30125  -0.00387  -0.00000   0.00108   0.00108  -0.30017
   D35        2.98840  -0.00383  -0.00008  -0.00028  -0.00035   2.98805
   D36       -0.56678  -0.00487  -0.00000   0.00000  -0.00000  -0.56678
   D37       -0.16591  -0.00088  -0.00001  -0.00126  -0.00127  -0.16718
   D38        3.06400   0.00006  -0.00017  -0.00130  -0.00148   3.06252
   D39        2.84541  -0.00090   0.00013  -0.00014  -0.00001   2.84540
   D40       -0.20787   0.00004  -0.00003  -0.00018  -0.00021  -0.20808
   D41       -3.06722   0.00005   0.00002   0.00125   0.00127  -3.06595
   D42        0.12667  -0.00111   0.00013   0.00106   0.00119   0.12786
   D43        0.20545   0.00009   0.00002  -0.00006  -0.00003   0.20541
   D44       -2.88385  -0.00108   0.00013  -0.00024  -0.00011  -2.88396
   D45        0.61603   0.00043  -0.00024  -0.00036  -0.00060   0.61543
   D46       -2.60608  -0.00042  -0.00009  -0.00032  -0.00041  -2.60649
   D47        0.10329  -0.00012   0.00001   0.00031   0.00032   0.10361
   D48       -3.07868  -0.00022   0.00004   0.00020   0.00025  -3.07844
   D49       -2.96216   0.00070  -0.00011   0.00022   0.00011  -2.96205
   D50        0.13905   0.00060  -0.00008   0.00011   0.00004   0.13909
   D51        0.03802   0.00005   0.00001  -0.00011  -0.00010   0.03793
   D52        3.13938   0.00008   0.00001  -0.00007  -0.00007   3.13932
   D53       -3.06072   0.00016  -0.00002   0.00000  -0.00002  -3.06074
   D54        0.04064   0.00019  -0.00003   0.00004   0.00001   0.04065
   D55       -0.04982   0.00010  -0.00000  -0.00018  -0.00018  -0.05001
   D56        3.04470   0.00024  -0.00004  -0.00001  -0.00005   3.04465
   D57        3.13199   0.00007   0.00000  -0.00021  -0.00021   3.13178
   D58       -0.05667   0.00021  -0.00003  -0.00004  -0.00008  -0.05675
   D59       -0.08499  -0.00018  -0.00002   0.00026   0.00024  -0.08475
   D60        3.00759   0.00092  -0.00011   0.00043   0.00031   3.00790
   D61        3.10115  -0.00032   0.00002   0.00010   0.00012   3.10127
   D62       -0.08945   0.00078  -0.00008   0.00026   0.00019  -0.08927
         Item               Value     Threshold  Converged?
 Maximum Force            0.000151     0.000450     YES
 RMS     Force            0.000038     0.000300     YES
 Maximum Displacement     0.002903     0.001800     NO 
 RMS     Displacement     0.000836     0.001200     YES
 Predicted change in Energy=-3.741051D-07
 GradGradGradGradGradGradGradGradGradGradGradGradGradGradGradGradGradGrad

                          Input orientation:                          
 ---------------------------------------------------------------------
 Center     Atomic      Atomic             Coordinates (Angstroms)
 Number     Number       Type             X           Y           Z
 ---------------------------------------------------------------------
      1          6           0       -1.138265    2.576834   -1.143174
      2          6           0       -1.524963    1.221749   -0.567868
      3          6           0       -2.903924    1.141931   -0.264527
      4          6           0       -3.585860   -0.054248   -0.020314
      5          6           0       -2.878518   -1.239194   -0.223158
      6          6           0       -1.514314   -1.153047   -0.495243
      7          9           0       -0.972146   -2.366024   -0.882163
      8          6           0       -0.698564    0.022231   -0.468625
      9          6           0        0.803897   -0.094385   -0.343627
     10          6           0        1.497943   -1.297833    0.111614
     11          8           0        0.930346   -2.400466    0.652408
     12          6           0        2.912034   -1.387456    0.121585
     13          6           0        3.726761   -0.303277   -0.183422
     14          6           0        3.113109    0.922302   -0.463876
     15          6           0        1.720014    0.998584   -0.487290
     16          9           0        1.261812    2.262937   -0.606061
     17          1           0       -0.675643    3.261752   -0.407814
     18          1           0       -0.443590    2.482728   -1.994965
     19          1           0       -2.062840    3.060807   -1.514199
     20          1           0       -3.475397    2.083151   -0.282313
     21          1           0       -4.658097   -0.062298    0.224786
     22          1           0       -3.350447   -2.232188   -0.221287
     23          1           0        0.059511   -2.588672    0.247490
     24          1           0        3.327046   -2.359029    0.424636
     25          1           0        4.823048   -0.396597   -0.166944
     26          1           0        3.677376    1.850994   -0.627537
 ---------------------------------------------------------------------
                    Distance matrix (angstroms):
                    1          2          3          4          5
     1  C    0.000000
     2  C    1.522093   0.000000
     3  C    2.438958   1.414185   0.000000
     4  C    3.764855   2.485012   1.398400   0.000000
     5  C    4.293830   2.829696   2.381620   1.394839   0.000000
     6  C    3.804371   2.375930   2.692799   2.392534   1.393737
     7  F    4.952531   3.643693   4.052035   3.594244   2.310473
     8  C    2.678497   1.460009   2.481732   2.922894   2.530543
     9  C    3.398040   2.684414   3.909305   4.401830   3.858145
    10  C    4.851508   3.993488   5.046817   5.235357   4.389638
    11  O    5.681265   4.542912   5.300091   5.133557   4.077083
    12  C    5.806904   5.193288   6.353916   6.634773   5.802699
    13  C    5.734512   5.482162   6.786839   7.318678   6.671373
    14  C    4.612277   4.648892   6.024339   6.784290   6.374136
    15  C    3.330287   3.253639   4.631519   5.429441   5.120929
    16  F    2.479393   2.975171   4.327430   5.404847   5.436347
    17  H    1.106294   2.215530   3.078864   4.428925   5.014506
    18  H    1.103167   2.189986   3.293234   4.495481   4.787575
    19  H    1.107577   2.137051   2.439505   3.775559   4.563127
    20  H    2.539093   2.151220   1.101269   2.156228   3.376054
    21  H    4.607119   3.477586   2.183282   1.099923   2.180055
    22  H    5.373110   3.922013   3.403811   2.199825   1.099435
    23  H    5.481885   4.206503   4.791816   4.447893   3.267202
    24  H    6.838112   6.111385   7.180296   7.300567   6.338982
    25  H    6.732873   6.563309   7.879257   8.417152   7.747726
    26  H    4.897256   5.240595   6.629332   7.533476   7.258962
                    6          7          8          9         10
     6  C    0.000000
     7  F    1.383823   0.000000
     8  C    1.430886   2.439185   0.000000
     9  C    2.553009   2.933376   1.512155   0.000000
    10  C    3.076187   2.868791   2.627525   1.461927   0.000000
    11  O    2.974814   2.444498   3.127223   2.515171   1.352931
    12  C    4.475263   4.129402   3.920712   2.516485   1.416963
    13  C    5.318666   5.179082   4.446436   2.934695   2.458418
    14  C    5.071597   5.260928   3.916504   2.525980   2.805165
    15  C    3.884644   4.327152   2.608282   1.433350   2.383597
    16  F    4.403192   5.147240   2.980390   2.415683   3.640041
    17  H    4.494603   5.655509   3.240172   3.668353   5.077804
    18  H    4.076085   5.002808   2.906677   3.305246   4.743402
    19  H    4.369864   5.571317   3.491048   4.420820   5.858343
    20  H    3.790008   5.140160   3.463077   4.801851   6.026636
    21  H    3.404636   4.485390   4.020679   5.491584   6.279823
    22  H    2.147320   2.472041   3.489422   4.673729   4.948811
    23  H    2.256013   1.545964   2.811461   2.669269   1.937476
    24  H    5.073395   4.493421   4.761707   3.476367   2.137695
    25  H    6.390787   6.162342   5.545686   4.034368   3.456320
    26  H    5.999617   6.282207   4.745364   3.481664   3.900177
                   11         12         13         14         15
    11  O    0.000000
    12  C    2.288023   0.000000
    13  C    3.593988   1.390056   0.000000
    14  C    4.129326   2.391271   1.399023   0.000000
    15  C    3.670971   2.735842   2.411267   1.395379   0.000000
    16  F    4.841584   4.071618   3.583301   2.290157   1.350053
    17  H    5.980299   5.896340   5.669298   4.453180   3.296577
    18  H    5.722051   5.542411   5.332479   4.174838   3.026045
    19  H    6.593849   6.871113   6.826968   5.697967   4.429140
    20  H    6.355084   7.280626   7.587878   6.692455   5.311365
    21  H    6.072938   7.685934   8.398246   7.863545   6.504831
    22  H    4.372282   6.328491   7.335462   7.196333   6.018158
    23  H    0.978638   3.097686   4.342515   4.707169   4.020644
    24  H    2.407856   1.099104   2.180740   3.406223   3.832457
    25  H    4.454207   2.171872   1.100376   2.179806   3.417305
    26  H    5.221048   3.410937   2.200127   1.098932   2.139518
                   16         17         18         19         20
    16  F    0.000000
    17  H    2.188759   0.000000
    18  H    2.210376   1.783193   0.000000
    19  H    3.537601   1.785716   1.785295   0.000000
    20  H    4.751661   3.040308   3.504952   2.113923   0.000000
    21  H    6.414230   5.225842   5.400603   4.417376   2.501775
    22  H    6.451909   6.113325   5.816028   5.598691   4.317579
    23  H    5.070718   5.932734   5.567837   6.286853   5.882363
    24  H    5.166246   6.950372   6.596573   7.885720   8.155119
    25  H    4.466357   6.608869   6.274525   7.822033   8.661793
    26  H    2.450532   4.581189   4.387631   5.932949   7.164861
                   21         22         23         24         25
    21  H    0.000000
    22  H    2.572421   0.000000
    23  H    5.351533   3.460440   0.000000
    24  H    8.311283   6.709860   3.280382   0.000000
    25  H    9.495121   8.377254   5.260061   2.537544   0.000000
    26  H    8.594605   8.138041   5.793552   4.353630   2.564445
                   26
    26  H    0.000000
 Stoichiometry    C13H10F2O
 Framework group  C1[X(C13H10F2O)]
 Deg. of freedom    72
 Full point group                 C1      NOp   1
 Largest Abelian subgroup         C1      NOp   1
 Largest concise Abelian subgroup C1      NOp   1
                         Standard orientation:                         
 ---------------------------------------------------------------------
 Center     Atomic      Atomic             Coordinates (Angstroms)
 Number     Number       Type             X           Y           Z
 ---------------------------------------------------------------------
      1          6           0        1.374710    2.644365    0.316651
      2          6           0        1.649371    1.191135   -0.043143
      3          6           0        3.005147    0.968941   -0.378435
      4          6           0        3.599392   -0.294989   -0.448280
      5          6           0        2.829982   -1.380469   -0.029572
      6          6           0        1.487861   -1.158076    0.273343
      7          9           0        0.889929   -2.252971    0.872215
      8          6           0        0.746341    0.051001    0.084357
      9          6           0       -0.764641    0.019512    0.033814
     10          6           0       -1.552480   -1.190757   -0.193762
     11          8           0       -1.080181   -2.402325   -0.567206
     12          6           0       -2.968344   -1.183282   -0.138459
     13          6           0       -3.699116   -0.010731    0.014353
     14          6           0       -2.998165    1.198798    0.068859
     15          6           0       -1.603439    1.181791    0.029737
     16          9           0       -1.062563    2.414239   -0.075946
     17          1           0        0.921908    3.232529   -0.503665
     18          1           0        0.715805    2.736270    1.196636
     19          1           0        2.343782    3.116834    0.570425
     20          1           0        3.634194    1.859215   -0.534973
     21          1           0        4.656528   -0.416059   -0.726912
     22          1           0        3.238718   -2.390976    0.113845
     23          1           0       -0.204870   -2.582560   -0.168357
     24          1           0       -3.456523   -2.160011   -0.263807
     25          1           0       -4.798665   -0.029814    0.052494
     26          1           0       -3.495448    2.178322    0.098752
 ---------------------------------------------------------------------
 Rotational constants (GHZ):           0.8391563           0.4685414           0.3116856
 Standard basis: def2SVP (5D, 7F)
 There are   290 symmetry adapted cartesian basis functions of A   symmetry.
 There are   274 symmetry adapted basis functions of A   symmetry.
   274 basis functions,   470 primitive gaussians,   290 cartesian basis functions
    57 alpha electrons       57 beta electrons
       nuclear repulsion energy      1068.7266384472 Hartrees.
 NAtoms=   26 NActive=   26 NUniq=   26 SFac= 1.00D+00 NAtFMM=   60 NAOKFM=F Big=F
 Integral buffers will be    131072 words long.
 Raffenetti 2 integral format.
 Two-electron integral symmetry is turned on.
 Nuclear repulsion after empirical dispersion term =     1068.6752233631 Hartrees.
 One-electron integrals computed using PRISM.
   1 Symmetry operations used in ECPInt.
 ECPInt:  NShTT=    8001 NPrTT=   29641 LenC2=    7593 LenP2D=   20272.
 LDataN:  DoStor=T MaxTD1= 4 Len=   56
 NBasis=   274 RedAO= T EigKep=  2.96D-04  NBF=   274
 NBsUse=   274 1.00D-06 EigRej= -1.00D+00 NBFU=   274
 Initial guess from the checkpoint file:  "/scratch/gaussian_tmp/Gau-4030843.chk"
 B after Tr=     0.000000   -0.000000   -0.000000
         Rot=    1.000000    0.000014   -0.000023    0.000085 Ang=   0.01 deg.
 Requested convergence on RMS density matrix=1.00D-08 within 128 cycles.
 Requested convergence on MAX density matrix=1.00D-06.
 Requested convergence on             energy=1.00D-06.
 No special actions if energy rises.
 SCF Done:  E(RB-P86) =  -775.752564406     A.U. after    8 cycles
            NFock=  8  Conv=0.57D-08     -V/T= 2.0104
   1 Symmetry operations used in ECPInt.
 ECPInt:  NShTT=    8001 NPrTT=   29641 LenC2=    7593 LenP2D=   20272.
 LDataN:  DoStor=T MaxTD1= 5 Len=  102
 Calling FoFJK, ICntrl=      2527 FMM=F ISym2X=0 I1Cent= 0 IOpClX= 0 NMat=1 NMatS=1 NMatT=0.
 ***** Axes restored to original set *****
 -------------------------------------------------------------------
 Center     Atomic                   Forces (Hartrees/Bohr)
 Number     Number              X              Y              Z
 -------------------------------------------------------------------
      1        6          -0.000089387    0.000640943    0.002583533
      2        6           0.000013525    0.000021180   -0.000029129
      3        6          -0.000002905    0.000002195   -0.000004800
      4        6          -0.000010996   -0.000024843    0.000003428
      5        6          -0.000002697    0.000035849   -0.000017151
      6        6           0.000004518   -0.000052522    0.000006062
      7        9           0.000396696    0.000456077   -0.002490680
      8        6          -0.000042222   -0.001245485   -0.000595027
      9        6          -0.000153050   -0.000605128    0.001108040
     10        6           0.000032854    0.000064284   -0.000044808
     11        8          -0.000269405    0.000979469    0.002331076
     12        6          -0.000007730    0.000013250    0.000019240
     13        6          -0.000000684   -0.000006352    0.000004805
     14        6           0.000000808   -0.000000184   -0.000004548
     15        6          -0.000017773    0.000043073    0.000000861
     16        9           0.000114610   -0.000331091   -0.002811263
     17        1           0.000004050   -0.000008432   -0.000009102
     18        1           0.000039242   -0.000000105   -0.000018222
     19        1           0.000005388    0.000009423   -0.000013196
     20        1           0.000001600    0.000004543    0.000002359
     21        1          -0.000001232   -0.000003215    0.000004388
     22        1           0.000000449   -0.000004833    0.000002280
     23        1          -0.000018022    0.000015782   -0.000030569
     24        1           0.000001674   -0.000003049    0.000003066
     25        1           0.000001470   -0.000002762   -0.000000946
     26        1          -0.000000781    0.000001932    0.000000303
 -------------------------------------------------------------------
 Cartesian Forces:  Max     0.002811263 RMS     0.000637496

 GradGradGradGradGradGradGradGradGradGradGradGradGradGradGradGradGradGrad
 Berny optimization.
 Using GEDIIS/GDIIS optimizer.
 FormGI is forming the generalized inverse of G from B-inverse, IUseBI=4.
 Internal  Forces:  Max     0.004863073 RMS     0.000949426
 Search for a local minimum.
 Step number   4 out of a maximum of  142
 All quantities printed in internal units (Hartrees-Bohrs-Radians)
 Mixed Optimization -- En-DIIS/RFO-DIIS
 Swapping is turned off.
 Update second derivatives using D2CorX and points    1    2    3    4
 DE=  1.92D-07 DEPred=-3.74D-07 R=-5.14D-01
 Trust test=-5.14D-01 RLast= 5.45D-03 DXMaxT set to 7.50D-02
 ITU= -1  1 -1  0
     Eigenvalues ---    0.00451   0.01143   0.01245   0.01579   0.01645
     Eigenvalues ---    0.01719   0.01773   0.01950   0.01998   0.02006
     Eigenvalues ---    0.02043   0.02073   0.02130   0.02134   0.02154
     Eigenvalues ---    0.02171   0.02172   0.02194   0.02287   0.06734
     Eigenvalues ---    0.07351   0.14768   0.15906   0.15976   0.15980
     Eigenvalues ---    0.15986   0.15989   0.16000   0.16002   0.16013
     Eigenvalues ---    0.16075   0.18567   0.22067   0.22134   0.23038
     Eigenvalues ---    0.23208   0.24098   0.24560   0.24763   0.24852
     Eigenvalues ---    0.25271   0.29418   0.30096   0.32872   0.32962
     Eigenvalues ---    0.33207   0.33546   0.33640   0.33690   0.33747
     Eigenvalues ---    0.33786   0.33795   0.34056   0.35266   0.37613
     Eigenvalues ---    0.38490   0.41359   0.41628   0.44295   0.44547
     Eigenvalues ---    0.45191   0.45341   0.46318   0.46537   0.47058
     Eigenvalues ---    0.51524   0.53754   0.54277   0.83625   2.23365
     Eigenvalues --- 1000.000001000.000001000.000001000.000001000.00000
     Eigenvalues --- 1000.000001000.000001000.000001000.000001000.00000
     Eigenvalues --- 1000.000001000.000001000.000001000.000001000.00000
     Eigenvalues --- 1000.000001000.000001000.000001000.000001000.00000
     Eigenvalues --- 1000.000001000.000001000.000001000.000001000.00000
     Eigenvalues --- 1000.000001000.000001000.000001000.000001000.00000
     Eigenvalues --- 1000.000001000.000001000.000001000.000001000.00000
     Eigenvalues --- 1000.000001000.000001000.000001000.000001000.00000
     Eigenvalues --- 1000.000001000.000001000.000001000.000001000.00000
     Eigenvalues --- 1000.000001000.000001000.000001000.000001000.00000
     Eigenvalues --- 1000.000001000.000001000.000001000.000001000.00000
     Eigenvalues --- 1000.000001000.000001000.000001000.000001000.00000
     Eigenvalues --- 1000.000001000.00000
 En-DIIS/RFO-DIIS/Sim-DIIS IScMMF=       -3 using points:     4    3    2    1
 RFO step:  Lambda=-1.18675668D-06.
 DidBck=T Rises=F RFO-DIIS coefs:    0.29841    0.66273   -0.03803    0.07689
 Iteration  1 RMS(Cart)=  0.00059362 RMS(Int)=  0.00000049
 Iteration  2 RMS(Cart)=  0.00000025 RMS(Int)=  0.00000048
 Iteration  1 RMS(Cart)=  0.00000132 RMS(Int)=  0.00000046
 Iteration  2 RMS(Cart)=  0.00000081 RMS(Int)=  0.00000051
 Variable       Old X    -DE/DX   Delta X   Delta X   Delta X     New X
                                 (Linear)    (Quad)   (Total)
    R1        2.87634  -0.00024  -0.00003   0.00005   0.00001   2.87635
    R2        2.09059  -0.00001  -0.00004   0.00000  -0.00004   2.09055
    R3        2.08468   0.00004   0.00007  -0.00002   0.00005   2.08473
    R4        2.09302   0.00000   0.00001   0.00001   0.00002   2.09304
    R5        2.67242   0.00018   0.00010  -0.00007   0.00003   2.67245
    R6        2.75902   0.00016   0.00001  -0.00002  -0.00001   2.75901
    R7        2.64259   0.00019   0.00003   0.00001   0.00005   2.64264
    R8        2.08110   0.00000  -0.00000   0.00001   0.00001   2.08110
    R9        2.63586  -0.00005   0.00000   0.00000   0.00000   2.63587
   R10        2.07855   0.00000   0.00000   0.00000   0.00000   2.07856
   R11        2.63378  -0.00015  -0.00006   0.00003  -0.00003   2.63375
   R12        2.07763   0.00000   0.00000   0.00001   0.00001   2.07764
   R13        2.61505   0.00028   0.00017  -0.00012   0.00005   2.61509
   R14        2.70398  -0.00044  -0.00014   0.00002  -0.00012   2.70386
   R15        2.85756  -0.00028  -0.00018   0.00002  -0.00016   2.85740
   R16        2.76264  -0.00028  -0.00011   0.00001  -0.00010   2.76254
   R17        2.70864  -0.00000  -0.00000   0.00002   0.00001   2.70865
   R18        2.55667   0.00016   0.00010  -0.00005   0.00005   2.55672
   R19        2.67767  -0.00007  -0.00006   0.00002  -0.00004   2.67763
   R20        1.84936   0.00003   0.00005  -0.00005  -0.00000   1.84936
   R21        2.62682   0.00002   0.00003  -0.00002   0.00001   2.62683
   R22        2.07700   0.00000   0.00000   0.00001   0.00001   2.07701
   R23        2.64377   0.00011   0.00000   0.00002   0.00002   2.64379
   R24        2.07941   0.00000   0.00000   0.00000   0.00000   2.07941
   R25        2.63688   0.00006   0.00006  -0.00004   0.00001   2.63690
   R26        2.07668   0.00000   0.00001  -0.00000   0.00001   2.07669
   R27        2.55123  -0.00004  -0.00007   0.00005  -0.00002   2.55121
    A1        1.98907  -0.00001  -0.00005   0.00001  -0.00004   1.98902
    A2        1.95614  -0.00000   0.00009  -0.00000   0.00009   1.95623
    A3        1.87922   0.00003   0.00011  -0.00005   0.00006   1.87927
    A4        1.87835  -0.00001  -0.00005   0.00002  -0.00003   1.87832
    A5        1.87677  -0.00000  -0.00000  -0.00001  -0.00001   1.87675
    A6        1.87998  -0.00000  -0.00010   0.00004  -0.00007   1.87992
    A7        1.95957  -0.00019   0.00003   0.00008   0.00012   1.95968
    A8        2.23106   0.00082   0.00014  -0.00013   0.00001   2.23108
    A9        2.08400  -0.00054  -0.00013   0.00005  -0.00009   2.08392
   A10        2.16669   0.00021   0.00006  -0.00007  -0.00001   2.16668
   A11        2.04238  -0.00012  -0.00001   0.00001  -0.00000   2.04237
   A12        2.07241  -0.00008  -0.00003   0.00005   0.00002   2.07243
   A13        2.04202   0.00004   0.00003   0.00000   0.00004   2.04206
   A14        2.11830  -0.00003  -0.00001   0.00001   0.00000   2.11830
   A15        2.11828  -0.00001  -0.00001  -0.00002  -0.00003   2.11825
   A16        2.06264  -0.00024  -0.00006   0.00004  -0.00002   2.06261
   A17        2.15238   0.00011   0.00007  -0.00004   0.00002   2.15240
   A18        2.06725   0.00013   0.00000   0.00001   0.00001   2.06726
   A19        1.96480   0.00060   0.00008   0.00010   0.00018   1.96498
   A20        2.22076   0.00026   0.00010  -0.00009   0.00001   2.22077
   A21        2.09648  -0.00090  -0.00018  -0.00002  -0.00020   2.09628
   A22        1.92929   0.00030   0.00014  -0.00000   0.00014   1.92943
   A23        2.25412  -0.00039  -0.00015   0.00002  -0.00013   2.25399
   A24        2.09976   0.00009   0.00001  -0.00001  -0.00000   2.09976
   A25        2.16630  -0.00034  -0.00029   0.00012  -0.00018   2.16613
   A26        2.17482   0.00017   0.00010  -0.00010  -0.00000   2.17481
   A27        1.93423   0.00016   0.00008   0.00002   0.00010   1.93433
   A28        2.20955  -0.00049  -0.00034   0.00014  -0.00020   2.20935
   A29        2.12709   0.00012   0.00011  -0.00006   0.00005   2.12714
   A30        1.94370   0.00031   0.00022  -0.00007   0.00015   1.94385
   A31        1.94407  -0.00005  -0.00018   0.00008  -0.00010   1.94397
   A32        2.13418  -0.00014  -0.00009   0.00005  -0.00005   2.13413
   A33        2.02048   0.00007   0.00003  -0.00000   0.00003   2.02050
   A34        2.12780   0.00006   0.00007  -0.00004   0.00003   2.12783
   A35        2.06027   0.00004   0.00000   0.00004   0.00004   2.06030
   A36        2.11122  -0.00001   0.00002  -0.00004  -0.00002   2.11120
   A37        2.11098  -0.00002  -0.00002   0.00001  -0.00001   2.11097
   A38        2.08193   0.00005   0.00010  -0.00008   0.00002   2.08195
   A39        2.14712  -0.00001  -0.00003   0.00002  -0.00001   2.14712
   A40        2.05322  -0.00004  -0.00008   0.00006  -0.00002   2.05320
   A41        2.20773  -0.00023  -0.00018   0.00008  -0.00010   2.20763
   A42        2.10136   0.00020   0.00014  -0.00010   0.00005   2.10140
   A43        1.97307   0.00008   0.00003   0.00002   0.00006   1.97313
    D1        1.74451  -0.00031   0.00011  -0.00019  -0.00008   1.74444
    D2       -1.53983   0.00032   0.00045  -0.00014   0.00031  -1.53952
    D3       -2.40005  -0.00033   0.00008  -0.00016  -0.00007  -2.40012
    D4        0.59880   0.00030   0.00042  -0.00011   0.00031   0.59911
    D5       -0.33559  -0.00032   0.00007  -0.00014  -0.00007  -0.33566
    D6        2.66326   0.00031   0.00041  -0.00009   0.00032   2.66357
    D7        2.87433   0.00069   0.00054  -0.00025   0.00029   2.87462
    D8       -0.20350   0.00055   0.00028  -0.00007   0.00020  -0.20330
    D9       -0.13793  -0.00000   0.00021  -0.00027  -0.00006  -0.13799
   D10        3.06743  -0.00014  -0.00005  -0.00010  -0.00015   3.06728
   D11       -2.65524  -0.00082  -0.00077   0.00023  -0.00054  -2.65578
   D12        0.49229  -0.00083  -0.00163  -0.00020  -0.00183   0.49046
   D13        0.33466  -0.00012  -0.00039   0.00028  -0.00011   0.33454
   D14       -2.80100  -0.00013  -0.00125  -0.00015  -0.00141  -2.80240
   D15       -0.11559   0.00008   0.00011   0.00002   0.00013  -0.11546
   D16        3.12745   0.00006  -0.00003   0.00006   0.00003   3.12747
   D17        2.96122   0.00022   0.00038  -0.00016   0.00022   2.96144
   D18       -0.07893   0.00020   0.00023  -0.00012   0.00012  -0.07881
   D19        0.13089   0.00005  -0.00018   0.00021   0.00003   0.13092
   D20       -2.96394   0.00017  -0.00022   0.00009  -0.00013  -2.96407
   D21       -3.11214   0.00007  -0.00003   0.00016   0.00013  -3.11201
   D22        0.07621   0.00019  -0.00008   0.00005  -0.00003   0.07618
   D23       -2.97525   0.00080   0.00008  -0.00005   0.00003  -2.97522
   D24        0.11443  -0.00020  -0.00006  -0.00020  -0.00026   0.11417
   D25        0.12191   0.00068   0.00013   0.00006   0.00018   0.12209
   D26       -3.07160  -0.00031  -0.00001  -0.00009  -0.00010  -3.07171
   D27       -0.34206   0.00012   0.00031  -0.00003   0.00027  -0.34179
   D28        2.79420   0.00013   0.00108   0.00036   0.00143   2.79563
   D29        2.74410  -0.00089   0.00016  -0.00019  -0.00002   2.74408
   D30       -0.40282  -0.00089   0.00093   0.00020   0.00114  -0.40169
   D31        0.12320  -0.00486   0.00000   0.00000   0.00000   0.12320
   D32        2.83498  -0.00376   0.00015   0.00033   0.00049   2.83547
   D33       -0.15998  -0.00374   0.00117   0.00006   0.00123  -0.15876
   D34       -0.30017  -0.00377  -0.00078  -0.00014  -0.00092  -0.30109
   D35        2.98805  -0.00375   0.00023  -0.00041  -0.00018   2.98787
   D36       -0.56678  -0.00474   0.00000   0.00000   0.00000  -0.56678
   D37       -0.16718  -0.00079   0.00094   0.00008   0.00103  -0.16616
   D38        3.06252   0.00009   0.00108  -0.00005   0.00103   3.06355
   D39        2.84540  -0.00081   0.00006   0.00031   0.00037   2.84577
   D40       -0.20808   0.00008   0.00019   0.00018   0.00037  -0.20771
   D41       -3.06595  -0.00001  -0.00091   0.00010  -0.00081  -3.06675
   D42        0.12786  -0.00116  -0.00087  -0.00001  -0.00088   0.12698
   D43        0.20541   0.00005   0.00002  -0.00015  -0.00013   0.20528
   D44       -2.88396  -0.00110   0.00005  -0.00026  -0.00021  -2.88417
   D45        0.61543   0.00041   0.00048  -0.00013   0.00035   0.61579
   D46       -2.60649  -0.00040   0.00036  -0.00001   0.00035  -2.60614
   D47        0.10361  -0.00016  -0.00027  -0.00009  -0.00036   0.10325
   D48       -3.07844  -0.00024  -0.00020   0.00001  -0.00019  -3.07863
   D49       -2.96205   0.00064  -0.00013  -0.00021  -0.00034  -2.96239
   D50        0.13909   0.00056  -0.00006  -0.00011  -0.00018   0.13891
   D51        0.03793   0.00004   0.00007  -0.00004   0.00003   0.03796
   D52        3.13932   0.00010   0.00006   0.00008   0.00014   3.13946
   D53       -3.06074   0.00013  -0.00000  -0.00014  -0.00015  -3.06089
   D54        0.04065   0.00018  -0.00001  -0.00002  -0.00004   0.04061
   D55       -0.05001   0.00013   0.00016   0.00007   0.00023  -0.04978
   D56        3.04465   0.00026   0.00005   0.00004   0.00008   3.04473
   D57        3.13178   0.00007   0.00017  -0.00005   0.00012   3.13190
   D58       -0.05675   0.00021   0.00006  -0.00008  -0.00003  -0.05677
   D59       -0.08475  -0.00016  -0.00021   0.00004  -0.00017  -0.08492
   D60        3.00790   0.00092  -0.00024   0.00014  -0.00009   3.00781
   D61        3.10127  -0.00029  -0.00010   0.00007  -0.00003   3.10124
   D62       -0.08927   0.00079  -0.00013   0.00017   0.00004  -0.08922
         Item               Value     Threshold  Converged?
 Maximum Force            0.000280     0.000450     YES
 RMS     Force            0.000070     0.000300     YES
 Maximum Displacement     0.002195     0.001800     NO 
 RMS     Displacement     0.000593     0.001200     YES
 Predicted change in Energy=-5.300024D-07
 GradGradGradGradGradGradGradGradGradGradGradGradGradGradGradGradGradGrad

                          Input orientation:                          
 ---------------------------------------------------------------------
 Center     Atomic      Atomic             Coordinates (Angstroms)
 Number     Number       Type             X           Y           Z
 ---------------------------------------------------------------------
      1          6           0       -1.137730    2.576778   -1.142520
      2          6           0       -1.524925    1.221651   -0.567627
      3          6           0       -2.904023    1.141879   -0.264819
      4          6           0       -3.586076   -0.054299   -0.020778
      5          6           0       -2.878655   -1.239292   -0.223089
      6          6           0       -1.514324   -1.153185   -0.494461
      7          9           0       -0.971729   -2.366120   -0.881001
      8          6           0       -0.698674    0.022084   -0.467855
      9          6           0        0.803790   -0.094479   -0.343868
     10          6           0        1.497893   -1.297793    0.111472
     11          8           0        0.930089   -2.400423    0.652122
     12          6           0        2.911971   -1.387276    0.121747
     13          6           0        3.726600   -0.303081   -0.183484
     14          6           0        3.112865    0.922355   -0.464442
     15          6           0        1.719759    0.998582   -0.487846
     16          9           0        1.261440    2.262843   -0.607022
     17          1           0       -0.675369    3.261451   -0.406800
     18          1           0       -0.442641    2.482799   -1.994020
     19          1           0       -2.062026    3.061019   -1.513926
     20          1           0       -3.475455    2.083124   -0.282816
     21          1           0       -4.658416   -0.062326    0.223879
     22          1           0       -3.350567   -2.232299   -0.221189
     23          1           0        0.059512   -2.588701    0.246685
     24          1           0        3.327043   -2.358750    0.425052
     25          1           0        4.822897   -0.396292   -0.166896
     26          1           0        3.677077    1.851035   -0.628384
 ---------------------------------------------------------------------
                    Distance matrix (angstroms):
                    1          2          3          4          5
     1  C    0.000000
     2  C    1.522101   0.000000
     3  C    2.439075   1.414202   0.000000
     4  C    3.765006   2.485043   1.398426   0.000000
     5  C    4.294015   2.829759   2.381672   1.394842   0.000000
     6  C    3.804527   2.375987   2.692827   2.392506   1.393720
     7  F    4.952594   3.643670   4.052098   3.594344   2.310618
     8  C    2.678508   1.460003   2.481679   2.922808   2.530474
     9  C    3.397493   2.684247   3.909311   4.401923   3.858184
    10  C    4.850908   3.993270   5.046827   5.235505   4.389707
    11  O    5.680594   4.542500   5.299915   5.133501   4.076855
    12  C    5.806218   5.193051   6.353884   6.634889   5.802771
    13  C    5.733676   5.481869   6.786728   7.318715   6.671390
    14  C    4.611341   4.648583   6.024200   6.784283   6.374110
    15  C    3.329346   3.253321   4.631375   5.429420   5.120897
    16  F    2.478171   2.974805   4.327210   5.404743   5.436244
    17  H    1.106273   2.215489   3.078903   4.428931   5.014470
    18  H    1.103192   2.190075   3.293418   4.495746   4.787935
    19  H    1.107590   2.137109   2.439739   3.775901   4.563532
    20  H    2.539240   2.151236   1.101272   2.156265   3.376121
    21  H    4.607292   3.477620   2.183307   1.099925   2.180042
    22  H    5.373334   3.922086   3.403878   2.199844   1.099440
    23  H    5.481374   4.206225   4.791806   4.448038   3.267172
    24  H    6.837464   6.111160   7.180286   7.300717   6.339081
    25  H    6.732018   6.563016   7.879141   8.417193   7.747755
    26  H    4.896265   5.240290   6.629175   7.533451   7.258926
                    6          7          8          9         10
     6  C    0.000000
     7  F    1.383848   0.000000
     8  C    1.430821   2.439010   0.000000
     9  C    2.552878   2.932803   1.512070   0.000000
    10  C    3.075958   2.867989   2.627280   1.461874   0.000000
    11  O    2.974123   2.443062   3.126621   2.515020   1.352959
    12  C    4.475108   4.128772   3.920545   2.516455   1.416943
    13  C    5.318520   5.178509   4.446307   2.934630   2.458370
    14  C    5.071453   5.260370   3.916417   2.525929   2.805150
    15  C    3.884512   4.326650   2.608211   1.433357   2.383641
    16  F    4.403043   5.146787   2.980338   2.415712   3.640093
    17  H    4.494501   5.655285   3.240026   3.667988   5.077241
    18  H    4.076464   5.003075   2.906862   3.304384   4.742535
    19  H    4.370218   5.571641   3.491149   4.420306   5.857831
    20  H    3.790056   5.140257   3.463039   4.801835   6.026629
    21  H    3.404600   4.485520   4.020594   5.491727   6.280060
    22  H    2.147313   2.472272   3.489359   4.673757   4.948892
    23  H    2.255429   1.544239   2.810981   2.669054   1.937439
    24  H    5.073235   4.492802   4.761517   3.476343   2.137697
    25  H    6.390661   6.161806   5.545571   4.034307   3.456276
    26  H    5.999493   6.281689   4.745316   3.481631   3.900173
                   11         12         13         14         15
    11  O    0.000000
    12  C    2.288148   0.000000
    13  C    3.594100   1.390060   0.000000
    14  C    4.129417   2.391312   1.399036   0.000000
    15  C    3.671014   2.735926   2.411301   1.395386   0.000000
    16  F    4.841621   4.071698   3.583345   2.290199   1.350043
    17  H    5.979601   5.895679   5.668605   4.452573   3.296025
    18  H    5.721216   5.541423   5.331204   4.173274   3.024472
    19  H    6.593320   6.870473   6.826085   5.696911   4.428136
    20  H    6.354929   7.280560   7.587715   6.692259   5.311169
    21  H    6.073012   7.686135   8.398357   7.863599   6.504859
    22  H    4.372065   6.328589   7.335502   7.196316   6.018131
    23  H    0.978638   3.097669   4.342423   4.707036   4.020518
    24  H    2.408046   1.099109   2.180765   3.406277   3.832548
    25  H    4.454357   2.171867   1.100378   2.179811   3.417331
    26  H    5.221163   3.410974   2.200137   1.098936   2.139514
                   16         17         18         19         20
    16  F    0.000000
    17  H    2.188272   0.000000
    18  H    2.208175   1.783180   0.000000
    19  H    3.536240   1.785699   1.785284   0.000000
    20  H    4.751377   3.040445   3.505127   2.114164   0.000000
    21  H    6.414164   5.225888   5.400878   4.417747   2.501818
    22  H    6.451805   6.113299   5.816452   5.599172   4.317670
    23  H    5.070595   5.932232   5.567138   6.286495   5.882373
    24  H    5.166335   6.949671   6.595682   7.885150   8.155078
    25  H    4.466395   6.608144   6.273232   7.821104   8.661616
    26  H    2.450580   4.580629   4.385905   5.931741   7.164635
                   21         22         23         24         25
    21  H    0.000000
    22  H    2.572419   0.000000
    23  H    5.351816   3.460428   0.000000
    24  H    8.311533   6.709999   3.280465   0.000000
    25  H    9.495238   8.377314   5.259995   2.537562   0.000000
    26  H    8.594635   8.138010   5.793426   4.353681   2.564441
                   26
    26  H    0.000000
 Stoichiometry    C13H10F2O
 Framework group  C1[X(C13H10F2O)]
 Deg. of freedom    72
 Full point group                 C1      NOp   1
 Largest Abelian subgroup         C1      NOp   1
 Largest concise Abelian subgroup C1      NOp   1
                         Standard orientation:                         
 ---------------------------------------------------------------------
 Center     Atomic      Atomic             Coordinates (Angstroms)
 Number     Number       Type             X           Y           Z
 ---------------------------------------------------------------------
      1          6           0        1.373842    2.644424    0.315851
      2          6           0        1.649168    1.191168   -0.043359
      3          6           0        3.005154    0.969172   -0.378005
      4          6           0        3.599637   -0.294693   -0.447493
      5          6           0        2.830181   -1.380319   -0.029237
      6          6           0        1.487855   -1.158151    0.272854
      7          9           0        0.889528   -2.253020    0.871439
      8          6           0        0.746345    0.050826    0.083681
      9          6           0       -0.764583    0.019416    0.034011
     10          6           0       -1.552352   -1.190826   -0.193607
     11          8           0       -1.079706   -2.402385   -0.566741
     12          6           0       -2.968213   -1.183379   -0.138739
     13          6           0       -3.698989   -0.010829    0.014094
     14          6           0       -2.998050    1.198702    0.069035
     15          6           0       -1.603312    1.181754    0.030024
     16          9           0       -1.062404    2.414203   -0.075346
     17          1           0        0.921281    3.232138   -0.504892
     18          1           0        0.714440    2.736479    1.195481
     19          1           0        2.342609    3.117350    0.569989
     20          1           0        3.634107    1.859545   -0.534388
     21          1           0        4.656931   -0.415617   -0.725598
     22          1           0        3.238974   -2.390790    0.114302
     23          1           0       -0.204649   -2.582470   -0.167269
     24          1           0       -3.456364   -2.160103   -0.264279
     25          1           0       -4.798548   -0.029911    0.052026
     26          1           0       -3.495353    2.178216    0.099054
 ---------------------------------------------------------------------
 Rotational constants (GHZ):           0.8392258           0.4686053           0.3116994
 Standard basis: def2SVP (5D, 7F)
 There are   290 symmetry adapted cartesian basis functions of A   symmetry.
 There are   274 symmetry adapted basis functions of A   symmetry.
   274 basis functions,   470 primitive gaussians,   290 cartesian basis functions
    57 alpha electrons       57 beta electrons
       nuclear repulsion energy      1068.7740767383 Hartrees.
 NAtoms=   26 NActive=   26 NUniq=   26 SFac= 1.00D+00 NAtFMM=   60 NAOKFM=F Big=F
 Integral buffers will be    131072 words long.
 Raffenetti 2 integral format.
 Two-electron integral symmetry is turned on.
 Nuclear repulsion after empirical dispersion term =     1068.7226591165 Hartrees.
 One-electron integrals computed using PRISM.
   1 Symmetry operations used in ECPInt.
 ECPInt:  NShTT=    8001 NPrTT=   29641 LenC2=    7593 LenP2D=   20272.
 LDataN:  DoStor=T MaxTD1= 4 Len=   56
 NBasis=   274 RedAO= T EigKep=  2.97D-04  NBF=   274
 NBsUse=   274 1.00D-06 EigRej= -1.00D+00 NBFU=   274
 Initial guess from the checkpoint file:  "/scratch/gaussian_tmp/Gau-4030843.chk"
 B after Tr=    -0.000000    0.000000   -0.000000
         Rot=    1.000000   -0.000004    0.000017   -0.000030 Ang=  -0.00 deg.
 Requested convergence on RMS density matrix=1.00D-08 within 128 cycles.
 Requested convergence on MAX density matrix=1.00D-06.
 Requested convergence on             energy=1.00D-06.
 No special actions if energy rises.
 SCF Done:  E(RB-P86) =  -775.752564856     A.U. after    8 cycles
            NFock=  8  Conv=0.39D-08     -V/T= 2.0104
   1 Symmetry operations used in ECPInt.
 ECPInt:  NShTT=    8001 NPrTT=   29641 LenC2=    7593 LenP2D=   20272.
 LDataN:  DoStor=T MaxTD1= 5 Len=  102
 Calling FoFJK, ICntrl=      2527 FMM=F ISym2X=0 I1Cent= 0 IOpClX= 0 NMat=1 NMatS=1 NMatT=0.
 ***** Axes restored to original set *****
 -------------------------------------------------------------------
 Center     Atomic                   Forces (Hartrees/Bohr)
 Number     Number              X              Y              Z
 -------------------------------------------------------------------
      1        6          -0.000155238    0.000639531    0.002528697
      2        6           0.000006077    0.000006705   -0.000002036
      3        6           0.000002027    0.000001822    0.000000372
      4        6           0.000000027   -0.000008780   -0.000002641
      5        6           0.000003347    0.000007746    0.000002866
      6        6          -0.000002029   -0.000020995    0.000001946
      7        9           0.000238680    0.000439333   -0.002603187
      8        6          -0.000031746   -0.001191253   -0.000722144
      9        6          -0.000138896   -0.000568568    0.001179277
     10        6          -0.000004011    0.000004611   -0.000003307
     11        8          -0.000119996    0.001022228    0.002390752
     12        6           0.000006777    0.000009316    0.000005364
     13        6          -0.000002847   -0.000009040    0.000001608
     14        6          -0.000005117    0.000007727   -0.000000717
     15        6           0.000003178    0.000002993    0.000000523
     16        9           0.000203507   -0.000347295   -0.002779902
     17        1           0.000000133   -0.000001756   -0.000001849
     18        1          -0.000004562    0.000000623   -0.000003550
     19        1          -0.000002729    0.000001438   -0.000001632
     20        1           0.000000331    0.000000442   -0.000000056
     21        1          -0.000000276   -0.000001793    0.000000168
     22        1          -0.000001967   -0.000000778    0.000001529
     23        1           0.000003158    0.000006309    0.000005264
     24        1           0.000000905    0.000000841    0.000001610
     25        1           0.000000851   -0.000000505    0.000001329
     26        1           0.000000418   -0.000000901   -0.000000286
 -------------------------------------------------------------------
 Cartesian Forces:  Max     0.002779902 RMS     0.000642461

 GradGradGradGradGradGradGradGradGradGradGradGradGradGradGradGradGradGrad
 Berny optimization.
 Using GEDIIS/GDIIS optimizer.
 FormGI is forming the generalized inverse of G from B-inverse, IUseBI=4.
 Internal  Forces:  Max     0.004909569 RMS     0.000960184
 Search for a local minimum.
 Step number   5 out of a maximum of  142
 All quantities printed in internal units (Hartrees-Bohrs-Radians)
 Mixed Optimization -- En-DIIS/RFO-DIIS
 Swapping is turned off.
 Update second derivatives using D2CorX and points    1    2    3    4    5
 DE= -4.50D-07 DEPred=-5.30D-07 R= 8.48D-01
 Trust test= 8.48D-01 RLast= 4.16D-03 DXMaxT set to 7.50D-02
 ITU=  0 -1  1 -1  0
     Eigenvalues ---    0.00479   0.01199   0.01311   0.01604   0.01701
     Eigenvalues ---    0.01726   0.01865   0.01956   0.02001   0.02018
     Eigenvalues ---    0.02045   0.02093   0.02128   0.02134   0.02156
     Eigenvalues ---    0.02165   0.02173   0.02198   0.02410   0.06723
     Eigenvalues ---    0.07353   0.15303   0.15904   0.15976   0.15979
     Eigenvalues ---    0.15982   0.15987   0.15992   0.16000   0.16008
     Eigenvalues ---    0.16091   0.19286   0.22067   0.22133   0.23040
     Eigenvalues ---    0.23270   0.24177   0.24556   0.24764   0.24850
     Eigenvalues ---    0.25412   0.29364   0.30065   0.32853   0.32990
     Eigenvalues ---    0.33202   0.33545   0.33640   0.33690   0.33743
     Eigenvalues ---    0.33784   0.33797   0.34068   0.35357   0.37608
     Eigenvalues ---    0.38529   0.41259   0.41750   0.44231   0.44547
     Eigenvalues ---    0.44974   0.45243   0.45612   0.46438   0.46951
     Eigenvalues ---    0.51451   0.53872   0.54287   0.85771   2.26721
     Eigenvalues --- 1000.000001000.000001000.000001000.000001000.00000
     Eigenvalues --- 1000.000001000.000001000.000001000.000001000.00000
     Eigenvalues --- 1000.000001000.000001000.000001000.000001000.00000
     Eigenvalues --- 1000.000001000.000001000.000001000.000001000.00000
     Eigenvalues --- 1000.000001000.000001000.000001000.000001000.00000
     Eigenvalues --- 1000.000001000.000001000.000001000.000001000.00000
     Eigenvalues --- 1000.000001000.000001000.000001000.000001000.00000
     Eigenvalues --- 1000.000001000.000001000.000001000.000001000.00000
     Eigenvalues --- 1000.000001000.000001000.000001000.000001000.00000
     Eigenvalues --- 1000.000001000.000001000.000001000.000001000.00000
     Eigenvalues --- 1000.000001000.000001000.000001000.000001000.00000
     Eigenvalues --- 1000.000001000.000001000.000001000.000001000.00000
     Eigenvalues --- 1000.000001000.00000
 En-DIIS/RFO-DIIS/Sim-DIIS IScMMF=       -3 using points:     5    4    3    2    1
 RFO step:  Lambda=-1.60642537D-07.
 DidBck=T Rises=F RFO-DIIS coefs:    0.35080    0.14669    0.46494   -0.04727    0.08484
 Iteration  1 RMS(Cart)=  0.00020480 RMS(Int)=  0.00000047
 Iteration  2 RMS(Cart)=  0.00000004 RMS(Int)=  0.00000047
 Iteration  1 RMS(Cart)=  0.00000131 RMS(Int)=  0.00000045
 Iteration  2 RMS(Cart)=  0.00000080 RMS(Int)=  0.00000050
 Variable       Old X    -DE/DX   Delta X   Delta X   Delta X     New X
                                 (Linear)    (Quad)   (Total)
    R1        2.87635  -0.00026  -0.00004   0.00004   0.00000   2.87635
    R2        2.09055  -0.00000  -0.00001   0.00001  -0.00000   2.09055
    R3        2.08473  -0.00000   0.00002  -0.00002  -0.00000   2.08473
    R4        2.09304   0.00000  -0.00001   0.00001   0.00001   2.09305
    R5        2.67245   0.00016   0.00005  -0.00005   0.00000   2.67246
    R6        2.75901   0.00028   0.00003  -0.00002   0.00001   2.75902
    R7        2.64264   0.00011  -0.00001   0.00001   0.00001   2.64265
    R8        2.08110   0.00000  -0.00001   0.00001   0.00000   2.08110
    R9        2.63587  -0.00011  -0.00001  -0.00000  -0.00001   2.63586
   R10        2.07856   0.00000  -0.00000   0.00000   0.00000   2.07856
   R11        2.63375  -0.00015  -0.00003   0.00002  -0.00000   2.63375
   R12        2.07764   0.00000  -0.00000   0.00001   0.00000   2.07764
   R13        2.61509   0.00026   0.00010  -0.00012  -0.00002   2.61507
   R14        2.70386  -0.00028  -0.00003   0.00003   0.00001   2.70387
   R15        2.85740   0.00000  -0.00002   0.00002   0.00000   2.85740
   R16        2.76254  -0.00009  -0.00002   0.00001  -0.00001   2.76253
   R17        2.70865   0.00008  -0.00000   0.00001   0.00001   2.70866
   R18        2.55672   0.00010   0.00004  -0.00004   0.00000   2.55672
   R19        2.67763  -0.00006  -0.00002   0.00002   0.00000   2.67764
   R20        1.84936  -0.00001   0.00003  -0.00004  -0.00001   1.84935
   R21        2.62683  -0.00004   0.00001  -0.00002  -0.00001   2.62682
   R22        2.07701   0.00000  -0.00001   0.00001   0.00000   2.07702
   R23        2.64379   0.00005  -0.00002   0.00002   0.00001   2.64380
   R24        2.07941   0.00000   0.00000   0.00000   0.00000   2.07941
   R25        2.63690   0.00005   0.00003  -0.00004  -0.00000   2.63689
   R26        2.07669  -0.00000   0.00000  -0.00000  -0.00000   2.07669
   R27        2.55121  -0.00009  -0.00004   0.00004   0.00000   2.55121
    A1        1.98902  -0.00000  -0.00001   0.00000  -0.00000   1.98902
    A2        1.95623   0.00000   0.00002  -0.00001   0.00001   1.95624
    A3        1.87927  -0.00000   0.00003  -0.00004  -0.00001   1.87927
    A4        1.87832   0.00000  -0.00001   0.00002   0.00001   1.87833
    A5        1.87675   0.00000   0.00000  -0.00001  -0.00000   1.87675
    A6        1.87992  -0.00000  -0.00004   0.00003  -0.00001   1.87991
    A7        1.95968  -0.00040  -0.00008   0.00007  -0.00001   1.95967
    A8        2.23108   0.00096   0.00013  -0.00010   0.00002   2.23110
    A9        2.08392  -0.00047  -0.00005   0.00004  -0.00001   2.08391
   A10        2.16668   0.00025   0.00006  -0.00005   0.00000   2.16668
   A11        2.04237  -0.00014  -0.00001   0.00001  -0.00000   2.04237
   A12        2.07243  -0.00011  -0.00004   0.00004   0.00000   2.07243
   A13        2.04206   0.00001  -0.00000   0.00001   0.00000   2.04207
   A14        2.11830  -0.00002  -0.00000   0.00001   0.00001   2.11830
   A15        2.11825   0.00001   0.00001  -0.00002  -0.00001   2.11824
   A16        2.06261  -0.00022  -0.00003   0.00004   0.00001   2.06262
   A17        2.15240   0.00009   0.00004  -0.00004  -0.00001   2.15240
   A18        2.06726   0.00012  -0.00000   0.00001   0.00000   2.06726
   A19        1.96498   0.00038  -0.00006   0.00007   0.00001   1.96499
   A20        2.22077   0.00033   0.00007  -0.00007   0.00000   2.22077
   A21        2.09628  -0.00075  -0.00001  -0.00000  -0.00001   2.09626
   A22        1.92943   0.00012   0.00001   0.00001   0.00001   1.92944
   A23        2.25399  -0.00034   0.00001  -0.00004  -0.00003   2.25396
   A24        2.09976   0.00022  -0.00002   0.00004   0.00002   2.09978
   A25        2.16613  -0.00015  -0.00013   0.00012  -0.00001   2.16612
   A26        2.17481   0.00016   0.00012  -0.00014  -0.00002   2.17479
   A27        1.93433  -0.00001  -0.00001   0.00001  -0.00001   1.93432
   A28        2.20935  -0.00030  -0.00013   0.00011  -0.00002   2.20933
   A29        2.12714   0.00016   0.00006  -0.00006   0.00000   2.12714
   A30        1.94385   0.00008   0.00006  -0.00005   0.00001   1.94386
   A31        1.94397  -0.00001  -0.00007   0.00006  -0.00002   1.94396
   A32        2.13413  -0.00009  -0.00004   0.00004  -0.00000   2.13413
   A33        2.02050   0.00005   0.00000  -0.00000   0.00000   2.02051
   A34        2.12783   0.00003   0.00003  -0.00004  -0.00000   2.12783
   A35        2.06030   0.00000  -0.00003   0.00003   0.00000   2.06030
   A36        2.11120   0.00000   0.00003  -0.00003  -0.00000   2.11120
   A37        2.11097  -0.00001  -0.00000   0.00001   0.00000   2.11097
   A38        2.08195   0.00008   0.00007  -0.00007  -0.00000   2.08195
   A39        2.14712  -0.00003  -0.00002   0.00001  -0.00000   2.14711
   A40        2.05320  -0.00005  -0.00005   0.00006   0.00001   2.05321
   A41        2.20763  -0.00013  -0.00007   0.00007  -0.00000   2.20763
   A42        2.10140   0.00025   0.00010  -0.00009   0.00001   2.10141
   A43        1.97313  -0.00007  -0.00003   0.00002  -0.00001   1.97312
    D1        1.74444  -0.00031   0.00017   0.00000   0.00017   1.74461
    D2       -1.53952   0.00032   0.00016   0.00009   0.00025  -1.53927
    D3       -2.40012  -0.00031   0.00017   0.00003   0.00019  -2.39993
    D4        0.59911   0.00032   0.00015   0.00012   0.00027   0.59938
    D5       -0.33566  -0.00031   0.00015   0.00004   0.00018  -0.33547
    D6        2.66357   0.00032   0.00013   0.00013   0.00026   2.66384
    D7        2.87462   0.00066   0.00018  -0.00012   0.00005   2.87467
    D8       -0.20330   0.00054   0.00005  -0.00000   0.00005  -0.20325
    D9       -0.13799  -0.00004   0.00017  -0.00019  -0.00002  -0.13801
   D10        3.06728  -0.00016   0.00005  -0.00008  -0.00002   3.06725
   D11       -2.65578  -0.00077  -0.00018   0.00005  -0.00013  -2.65591
   D12        0.49046  -0.00076   0.00003   0.00008   0.00012   0.49057
   D13        0.33454  -0.00009  -0.00020   0.00015  -0.00005   0.33449
   D14       -2.80240  -0.00008   0.00002   0.00018   0.00020  -2.80221
   D15       -0.11546   0.00006   0.00000   0.00006   0.00006  -0.11540
   D16        3.12747   0.00007  -0.00003   0.00004   0.00001   3.12748
   D17        2.96144   0.00018   0.00013  -0.00006   0.00006   2.96150
   D18       -0.07881   0.00019   0.00009  -0.00008   0.00001  -0.07880
   D19        0.13092   0.00008  -0.00013   0.00011  -0.00002   0.13090
   D20       -2.96407   0.00021  -0.00008   0.00002  -0.00006  -2.96413
   D21       -3.11201   0.00006  -0.00010   0.00013   0.00003  -3.11198
   D22        0.07618   0.00020  -0.00004   0.00004  -0.00000   0.07618
   D23       -2.97522   0.00086   0.00004  -0.00011  -0.00007  -2.97529
   D24        0.11417  -0.00017   0.00011  -0.00017  -0.00006   0.11411
   D25        0.12209   0.00073  -0.00002  -0.00002  -0.00004   0.12205
   D26       -3.07171  -0.00030   0.00006  -0.00008  -0.00002  -3.07173
   D27       -0.34179   0.00009   0.00004   0.00005   0.00009  -0.34170
   D28        2.79563   0.00008  -0.00015   0.00001  -0.00013   2.79550
   D29        2.74408  -0.00097   0.00012  -0.00001   0.00011   2.74419
   D30       -0.40169  -0.00098  -0.00007  -0.00005  -0.00011  -0.40180
   D31        0.12320  -0.00491   0.00000   0.00000   0.00000   0.12320
   D32        2.83547  -0.00384  -0.00020  -0.00009  -0.00029   2.83518
   D33       -0.15876  -0.00380   0.00005  -0.00002   0.00003  -0.15872
   D34       -0.30109  -0.00383   0.00003  -0.00006  -0.00002  -0.30111
   D35        2.98787  -0.00379   0.00028   0.00002   0.00030   2.98818
   D36       -0.56678  -0.00483   0.00000   0.00000   0.00000  -0.56678
   D37       -0.16616  -0.00086   0.00003   0.00014   0.00017  -0.16598
   D38        3.06355   0.00007   0.00012   0.00014   0.00026   3.06381
   D39        2.84577  -0.00088  -0.00017   0.00006  -0.00011   2.84566
   D40       -0.20771   0.00005  -0.00009   0.00006  -0.00002  -0.20773
   D41       -3.06675   0.00003  -0.00013  -0.00010  -0.00023  -3.06698
   D42        0.12698  -0.00113  -0.00006  -0.00010  -0.00016   0.12682
   D43        0.20528   0.00008   0.00009  -0.00004   0.00006   0.20534
   D44       -2.88417  -0.00107   0.00017  -0.00004   0.00013  -2.88404
   D45        0.61579   0.00042   0.00014  -0.00017  -0.00003   0.61575
   D46       -2.60614  -0.00042   0.00006  -0.00017  -0.00011  -2.60626
   D47        0.10325  -0.00013   0.00002  -0.00004  -0.00002   0.10323
   D48       -3.07863  -0.00023  -0.00003   0.00001  -0.00002  -3.07865
   D49       -2.96239   0.00069   0.00010  -0.00005   0.00006  -2.96234
   D50        0.13891   0.00059   0.00006   0.00000   0.00006   0.13897
   D51        0.03796   0.00005   0.00004   0.00001   0.00004   0.03800
   D52        3.13946   0.00008  -0.00004   0.00004  -0.00000   3.13945
   D53       -3.06089   0.00016   0.00009  -0.00005   0.00004  -3.06085
   D54        0.04061   0.00019   0.00001  -0.00002  -0.00000   0.04061
   D55       -0.04978   0.00010  -0.00002   0.00001  -0.00001  -0.04979
   D56        3.04473   0.00024  -0.00002  -0.00004  -0.00006   3.04467
   D57        3.13190   0.00007   0.00006  -0.00002   0.00003   3.13194
   D58       -0.05677   0.00021   0.00006  -0.00007  -0.00002  -0.05679
   D59       -0.08492  -0.00018  -0.00005   0.00001  -0.00004  -0.08496
   D60        3.00781   0.00091  -0.00012   0.00001  -0.00011   3.00770
   D61        3.10124  -0.00031  -0.00006   0.00006   0.00001   3.10125
   D62       -0.08922   0.00078  -0.00012   0.00006  -0.00006  -0.08928
         Item               Value     Threshold  Converged?
 Maximum Force            0.000020     0.000450     YES
 RMS     Force            0.000004     0.000300     YES
 Maximum Displacement     0.000802     0.001800     YES
 RMS     Displacement     0.000205     0.001200     YES
 Predicted change in Energy=-1.522356D-08
 Optimization completed.
    -- Stationary point found.
                           ----------------------------
                           !   Optimized Parameters   !
                           ! (Angstroms and Degrees)  !
 --------------------------                            --------------------------
 ! Name  Definition              Value          Derivative Info.                !
 --------------------------------------------------------------------------------
 ! R1    R(1,2)                  1.5221         -DE/DX =   -0.0003              !
 ! R2    R(1,17)                 1.1063         -DE/DX =    0.0                 !
 ! R3    R(1,18)                 1.1032         -DE/DX =    0.0                 !
 ! R4    R(1,19)                 1.1076         -DE/DX =    0.0                 !
 ! R5    R(2,3)                  1.4142         -DE/DX =    0.0002              !
 ! R6    R(2,8)                  1.46           -DE/DX =    0.0003              !
 ! R7    R(3,4)                  1.3984         -DE/DX =    0.0001              !
 ! R8    R(3,20)                 1.1013         -DE/DX =    0.0                 !
 ! R9    R(4,5)                  1.3948         -DE/DX =   -0.0001              !
 ! R10   R(4,21)                 1.0999         -DE/DX =    0.0                 !
 ! R11   R(5,6)                  1.3937         -DE/DX =   -0.0002              !
 ! R12   R(5,22)                 1.0994         -DE/DX =    0.0                 !
 ! R13   R(6,7)                  1.3838         -DE/DX =    0.0003              !
 ! R14   R(6,8)                  1.4308         -DE/DX =   -0.0003              !
 ! R15   R(8,9)                  1.5121         -DE/DX =    0.0                 !
 ! R16   R(9,10)                 1.4619         -DE/DX =   -0.0001              !
 ! R17   R(9,15)                 1.4334         -DE/DX =    0.0001              !
 ! R18   R(10,11)                1.353          -DE/DX =    0.0001              !
 ! R19   R(10,12)                1.4169         -DE/DX =   -0.0001              !
 ! R20   R(11,23)                0.9786         -DE/DX =    0.0                 !
 ! R21   R(12,13)                1.3901         -DE/DX =    0.0                 !
 ! R22   R(12,24)                1.0991         -DE/DX =    0.0                 !
 ! R23   R(13,14)                1.399          -DE/DX =    0.0                 !
 ! R24   R(13,25)                1.1004         -DE/DX =    0.0                 !
 ! R25   R(14,15)                1.3954         -DE/DX =    0.0001              !
 ! R26   R(14,26)                1.0989         -DE/DX =    0.0                 !
 ! R27   R(15,16)                1.35           -DE/DX =   -0.0001              !
 ! A1    A(2,1,17)             113.9626         -DE/DX =    0.0                 !
 ! A2    A(2,1,18)             112.0837         -DE/DX =    0.0                 !
 ! A3    A(2,1,19)             107.6745         -DE/DX =    0.0                 !
 ! A4    A(17,1,18)            107.6201         -DE/DX =    0.0                 !
 ! A5    A(17,1,19)            107.5299         -DE/DX =    0.0                 !
 ! A6    A(18,1,19)            107.7114         -DE/DX =    0.0                 !
 ! A7    A(1,2,3)              112.2817         -DE/DX =   -0.0004              !
 ! A8    A(1,2,8)              127.8313         -DE/DX =    0.001               !
 ! A9    A(3,2,8)              119.3997         -DE/DX =   -0.0005              !
 ! A10   A(2,3,4)              124.1415         -DE/DX =    0.0003              !
 ! A11   A(2,3,20)             117.0194         -DE/DX =   -0.0001              !
 ! A12   A(4,3,20)             118.7414         -DE/DX =   -0.0001              !
 ! A13   A(3,4,5)              117.0015         -DE/DX =    0.0                 !
 ! A14   A(3,4,21)             121.3695         -DE/DX =    0.0                 !
 ! A15   A(5,4,21)             121.3667         -DE/DX =    0.0                 !
 ! A16   A(4,5,6)              118.1791         -DE/DX =   -0.0002              !
 ! A17   A(4,5,22)             123.3237         -DE/DX =    0.0001              !
 ! A18   A(6,5,22)             118.4451         -DE/DX =    0.0001              !
 ! A19   A(5,6,7)              112.5853         -DE/DX =    0.0004              !
 ! A20   A(5,6,8)              127.2406         -DE/DX =    0.0003              !
 ! A21   A(7,6,8)              120.1077         -DE/DX =   -0.0008              !
 ! A22   A(2,8,6)              110.5481         -DE/DX =    0.0001              !
 ! A23   A(2,8,9)              129.1439         -DE/DX =   -0.0003              !
 ! A24   A(6,8,9)              120.3075         -DE/DX =    0.0002              !
 ! A25   A(8,9,10)             124.1098         -DE/DX =   -0.0002              !
 ! A26   A(8,9,15)             124.6077         -DE/DX =    0.0002              !
 ! A27   A(10,9,15)            110.829          -DE/DX =    0.0                 !
 ! A28   A(9,10,11)            126.5866         -DE/DX =   -0.0003              !
 ! A29   A(9,10,12)            121.8761         -DE/DX =    0.0002              !
 ! A30   A(11,10,12)           111.3745         -DE/DX =    0.0001              !
 ! A31   A(10,11,23)           111.3815         -DE/DX =    0.0                 !
 ! A32   A(10,12,13)           122.2765         -DE/DX =   -0.0001              !
 ! A33   A(10,12,24)           115.7662         -DE/DX =    0.0001              !
 ! A34   A(13,12,24)           121.9156         -DE/DX =    0.0                 !
 ! A35   A(12,13,14)           118.0468         -DE/DX =    0.0                 !
 ! A36   A(12,13,25)           120.9631         -DE/DX =    0.0                 !
 ! A37   A(14,13,25)           120.9495         -DE/DX =    0.0                 !
 ! A38   A(13,14,15)           119.287          -DE/DX =    0.0001              !
 ! A39   A(13,14,26)           123.0208         -DE/DX =    0.0                 !
 ! A40   A(15,14,26)           117.6398         -DE/DX =    0.0                 !
 ! A41   A(9,15,14)            126.4877         -DE/DX =   -0.0001              !
 ! A42   A(9,15,16)            120.4016         -DE/DX =    0.0002              !
 ! A43   A(14,15,16)           113.0521         -DE/DX =   -0.0001              !
 ! D1    D(17,1,2,3)            99.9489         -DE/DX =   -0.0003              !
 ! D2    D(17,1,2,8)           -88.2078         -DE/DX =    0.0003              !
 ! D3    D(18,1,2,3)          -137.5168         -DE/DX =   -0.0003              !
 ! D4    D(18,1,2,8)            34.3265         -DE/DX =    0.0003              !
 ! D5    D(19,1,2,3)           -19.2317         -DE/DX =   -0.0003              !
 ! D6    D(19,1,2,8)           152.6116         -DE/DX =    0.0003              !
 ! D7    D(1,2,3,4)            164.7037         -DE/DX =    0.0007              !
 ! D8    D(1,2,3,20)           -11.6481         -DE/DX =    0.0005              !
 ! D9    D(8,2,3,4)             -7.9062         -DE/DX =    0.0                 !
 ! D10   D(8,2,3,20)           175.7421         -DE/DX =   -0.0002              !
 ! D11   D(1,2,8,6)           -152.165          -DE/DX =   -0.0008              !
 ! D12   D(1,2,8,9)             28.1012         -DE/DX =   -0.0008              !
 ! D13   D(3,2,8,6)             19.1679         -DE/DX =   -0.0001              !
 ! D14   D(3,2,8,9)           -160.5659         -DE/DX =   -0.0001              !
 ! D15   D(2,3,4,5)             -6.6153         -DE/DX =    0.0001              !
 ! D16   D(2,3,4,21)           179.1911         -DE/DX =    0.0001              !
 ! D17   D(20,3,4,5)           169.6779         -DE/DX =    0.0002              !
 ! D18   D(20,3,4,21)           -4.5158         -DE/DX =    0.0002              !
 ! D19   D(3,4,5,6)              7.5011         -DE/DX =    0.0001              !
 ! D20   D(3,4,5,22)          -169.829          -DE/DX =    0.0002              !
 ! D21   D(21,4,5,6)          -178.305          -DE/DX =    0.0001              !
 ! D22   D(21,4,5,22)            4.3648         -DE/DX =    0.0002              !
 ! D23   D(4,5,6,7)           -170.4675         -DE/DX =    0.0009              !
 ! D24   D(4,5,6,8)              6.5412         -DE/DX =   -0.0002              !
 ! D25   D(22,5,6,7)             6.9954         -DE/DX =    0.0007              !
 ! D26   D(22,5,6,8)          -175.9959         -DE/DX =   -0.0003              !
 ! D27   D(5,6,8,2)            -19.583          -DE/DX =    0.0001              !
 ! D28   D(5,6,8,9)            160.1779         -DE/DX =    0.0001              !
 ! D29   D(7,6,8,2)            157.2242         -DE/DX =   -0.001               !
 ! D30   D(7,6,8,9)            -23.0149         -DE/DX =   -0.001               !
 ! D31   D(1,8,9,16)             7.0589         -DE/DX =   -0.0049              !
 ! D32   D(2,8,9,10)           162.4604         -DE/DX =   -0.0038              !
 ! D33   D(2,8,9,15)            -9.0961         -DE/DX =   -0.0038              !
 ! D34   D(6,8,9,10)           -17.2509         -DE/DX =   -0.0038              !
 ! D35   D(6,8,9,15)           171.1926         -DE/DX =   -0.0038              !
 ! D36   D(7,8,9,11)           -32.4742         -DE/DX =   -0.0048              !
 ! D37   D(8,9,10,11)           -9.52           -DE/DX =   -0.0009              !
 ! D38   D(8,9,10,12)          175.5285         -DE/DX =    0.0001              !
 ! D39   D(15,9,10,11)         163.0506         -DE/DX =   -0.0009              !
 ! D40   D(15,9,10,12)         -11.9009         -DE/DX =    0.0                 !
 ! D41   D(8,9,15,14)         -175.7121         -DE/DX =    0.0                 !
 ! D42   D(8,9,15,16)            7.2753         -DE/DX =   -0.0011              !
 ! D43   D(10,9,15,14)          11.7618         -DE/DX =    0.0001              !
 ! D44   D(10,9,15,16)        -165.2508         -DE/DX =   -0.0011              !
 ! D45   D(9,10,11,23)          35.2819         -DE/DX =    0.0004              !
 ! D46   D(12,10,11,23)       -149.3209         -DE/DX =   -0.0004              !
 ! D47   D(9,10,12,13)           5.9158         -DE/DX =   -0.0001              !
 ! D48   D(9,10,12,24)        -176.3926         -DE/DX =   -0.0002              !
 ! D49   D(11,10,12,13)       -169.7326         -DE/DX =    0.0007              !
 ! D50   D(11,10,12,24)          7.9591         -DE/DX =    0.0006              !
 ! D51   D(10,12,13,14)          2.1747         -DE/DX =    0.0001              !
 ! D52   D(10,12,13,25)        179.8776         -DE/DX =    0.0001              !
 ! D53   D(24,12,13,14)       -175.3761         -DE/DX =    0.0002              !
 ! D54   D(24,12,13,25)          2.3267         -DE/DX =    0.0002              !
 ! D55   D(12,13,14,15)         -2.8519         -DE/DX =    0.0001              !
 ! D56   D(12,13,14,26)        174.4503         -DE/DX =    0.0002              !
 ! D57   D(25,13,14,15)        179.4449         -DE/DX =    0.0001              !
 ! D58   D(25,13,14,26)         -3.2529         -DE/DX =    0.0002              !
 ! D59   D(13,14,15,9)          -4.8653         -DE/DX =   -0.0002              !
 ! D60   D(13,14,15,16)        172.3346         -DE/DX =    0.0009              !
 ! D61   D(26,14,15,9)         177.688          -DE/DX =   -0.0003              !
 ! D62   D(26,14,15,16)         -5.112          -DE/DX =    0.0008              !
 --------------------------------------------------------------------------------
 GradGradGradGradGradGradGradGradGradGradGradGradGradGradGradGradGradGrad

                          Input orientation:                          
 ---------------------------------------------------------------------
 Center     Atomic      Atomic             Coordinates (Angstroms)
 Number     Number       Type             X           Y           Z
 ---------------------------------------------------------------------
      1          6           0       -1.137730    2.576778   -1.142520
      2          6           0       -1.524925    1.221651   -0.567627
      3          6           0       -2.904023    1.141879   -0.264819
      4          6           0       -3.586076   -0.054299   -0.020778
      5          6           0       -2.878655   -1.239292   -0.223089
      6          6           0       -1.514324   -1.153185   -0.494461
      7          9           0       -0.971729   -2.366120   -0.881001
      8          6           0       -0.698674    0.022084   -0.467855
      9          6           0        0.803790   -0.094479   -0.343868
     10          6           0        1.497893   -1.297793    0.111472
     11          8           0        0.930089   -2.400423    0.652122
     12          6           0        2.911971   -1.387276    0.121747
     13          6           0        3.726600   -0.303081   -0.183484
     14          6           0        3.112865    0.922355   -0.464442
     15          6           0        1.719759    0.998582   -0.487846
     16          9           0        1.261440    2.262843   -0.607022
     17          1           0       -0.675369    3.261451   -0.406800
     18          1           0       -0.442641    2.482799   -1.994020
     19          1           0       -2.062026    3.061019   -1.513926
     20          1           0       -3.475455    2.083124   -0.282816
     21          1           0       -4.658416   -0.062326    0.223879
     22          1           0       -3.350567   -2.232299   -0.221189
     23          1           0        0.059512   -2.588701    0.246685
     24          1           0        3.327043   -2.358750    0.425052
     25          1           0        4.822897   -0.396292   -0.166896
     26          1           0        3.677077    1.851035   -0.628384
 ---------------------------------------------------------------------
                    Distance matrix (angstroms):
                    1          2          3          4          5
     1  C    0.000000
     2  C    1.522101   0.000000
     3  C    2.439075   1.414202   0.000000
     4  C    3.765006   2.485043   1.398426   0.000000
     5  C    4.294015   2.829759   2.381672   1.394842   0.000000
     6  C    3.804527   2.375987   2.692827   2.392506   1.393720
     7  F    4.952594   3.643670   4.052098   3.594344   2.310618
     8  C    2.678508   1.460003   2.481679   2.922808   2.530474
     9  C    3.397493   2.684247   3.909311   4.401923   3.858184
    10  C    4.850908   3.993270   5.046827   5.235505   4.389707
    11  O    5.680594   4.542500   5.299915   5.133501   4.076855
    12  C    5.806218   5.193051   6.353884   6.634889   5.802771
    13  C    5.733676   5.481869   6.786728   7.318715   6.671390
    14  C    4.611341   4.648583   6.024200   6.784283   6.374110
    15  C    3.329346   3.253321   4.631375   5.429420   5.120897
    16  F    2.478171   2.974805   4.327210   5.404743   5.436244
    17  H    1.106273   2.215489   3.078903   4.428931   5.014470
    18  H    1.103192   2.190075   3.293418   4.495746   4.787935
    19  H    1.107590   2.137109   2.439739   3.775901   4.563532
    20  H    2.539240   2.151236   1.101272   2.156265   3.376121
    21  H    4.607292   3.477620   2.183307   1.099925   2.180042
    22  H    5.373334   3.922086   3.403878   2.199844   1.099440
    23  H    5.481374   4.206225   4.791806   4.448038   3.267172
    24  H    6.837464   6.111160   7.180286   7.300717   6.339081
    25  H    6.732018   6.563016   7.879141   8.417193   7.747755
    26  H    4.896265   5.240290   6.629175   7.533451   7.258926
                    6          7          8          9         10
     6  C    0.000000
     7  F    1.383848   0.000000
     8  C    1.430821   2.439010   0.000000
     9  C    2.552878   2.932803   1.512070   0.000000
    10  C    3.075958   2.867989   2.627280   1.461874   0.000000
    11  O    2.974123   2.443062   3.126621   2.515020   1.352959
    12  C    4.475108   4.128772   3.920545   2.516455   1.416943
    13  C    5.318520   5.178509   4.446307   2.934630   2.458370
    14  C    5.071453   5.260370   3.916417   2.525929   2.805150
    15  C    3.884512   4.326650   2.608211   1.433357   2.383641
    16  F    4.403043   5.146787   2.980338   2.415712   3.640093
    17  H    4.494501   5.655285   3.240026   3.667988   5.077241
    18  H    4.076464   5.003075   2.906862   3.304384   4.742535
    19  H    4.370218   5.571641   3.491149   4.420306   5.857831
    20  H    3.790056   5.140257   3.463039   4.801835   6.026629
    21  H    3.404600   4.485520   4.020594   5.491727   6.280060
    22  H    2.147313   2.472272   3.489359   4.673757   4.948892
    23  H    2.255429   1.544239   2.810981   2.669054   1.937439
    24  H    5.073235   4.492802   4.761517   3.476343   2.137697
    25  H    6.390661   6.161806   5.545571   4.034307   3.456276
    26  H    5.999493   6.281689   4.745316   3.481631   3.900173
                   11         12         13         14         15
    11  O    0.000000
    12  C    2.288148   0.000000
    13  C    3.594100   1.390060   0.000000
    14  C    4.129417   2.391312   1.399036   0.000000
    15  C    3.671014   2.735926   2.411301   1.395386   0.000000
    16  F    4.841621   4.071698   3.583345   2.290199   1.350043
    17  H    5.979601   5.895679   5.668605   4.452573   3.296025
    18  H    5.721216   5.541423   5.331204   4.173274   3.024472
    19  H    6.593320   6.870473   6.826085   5.696911   4.428136
    20  H    6.354929   7.280560   7.587715   6.692259   5.311169
    21  H    6.073012   7.686135   8.398357   7.863599   6.504859
    22  H    4.372065   6.328589   7.335502   7.196316   6.018131
    23  H    0.978638   3.097669   4.342423   4.707036   4.020518
    24  H    2.408046   1.099109   2.180765   3.406277   3.832548
    25  H    4.454357   2.171867   1.100378   2.179811   3.417331
    26  H    5.221163   3.410974   2.200137   1.098936   2.139514
                   16         17         18         19         20
    16  F    0.000000
    17  H    2.188272   0.000000
    18  H    2.208175   1.783180   0.000000
    19  H    3.536240   1.785699   1.785284   0.000000
    20  H    4.751377   3.040445   3.505127   2.114164   0.000000
    21  H    6.414164   5.225888   5.400878   4.417747   2.501818
    22  H    6.451805   6.113299   5.816452   5.599172   4.317670
    23  H    5.070595   5.932232   5.567138   6.286495   5.882373
    24  H    5.166335   6.949671   6.595682   7.885150   8.155078
    25  H    4.466395   6.608144   6.273232   7.821104   8.661616
    26  H    2.450580   4.580629   4.385905   5.931741   7.164635
                   21         22         23         24         25
    21  H    0.000000
    22  H    2.572419   0.000000
    23  H    5.351816   3.460428   0.000000
    24  H    8.311533   6.709999   3.280465   0.000000
    25  H    9.495238   8.377314   5.259995   2.537562   0.000000
    26  H    8.594635   8.138010   5.793426   4.353681   2.564441
                   26
    26  H    0.000000
 Stoichiometry    C13H10F2O
 Framework group  C1[X(C13H10F2O)]
 Deg. of freedom    72
 Full point group                 C1      NOp   1
 Largest Abelian subgroup         C1      NOp   1
 Largest concise Abelian subgroup C1      NOp   1
                         Standard orientation:                         
 ---------------------------------------------------------------------
 Center     Atomic      Atomic             Coordinates (Angstroms)
 Number     Number       Type             X           Y           Z
 ---------------------------------------------------------------------
      1          6           0        1.373842    2.644424    0.315851
      2          6           0        1.649168    1.191168   -0.043359
      3          6           0        3.005154    0.969172   -0.378005
      4          6           0        3.599637   -0.294693   -0.447493
      5          6           0        2.830181   -1.380319   -0.029237
      6          6           0        1.487855   -1.158151    0.272854
      7          9           0        0.889528   -2.253020    0.871439
      8          6           0        0.746345    0.050826    0.083681
      9          6           0       -0.764583    0.019416    0.034011
     10          6           0       -1.552352   -1.190826   -0.193607
     11          8           0       -1.079706   -2.402385   -0.566741
     12          6           0       -2.968213   -1.183379   -0.138739
     13          6           0       -3.698989   -0.010829    0.014094
     14          6           0       -2.998050    1.198702    0.069035
     15          6           0       -1.603312    1.181754    0.030024
     16          9           0       -1.062404    2.414203   -0.075346
     17          1           0        0.921281    3.232138   -0.504892
     18          1           0        0.714440    2.736479    1.195481
     19          1           0        2.342609    3.117350    0.569989
     20          1           0        3.634107    1.859545   -0.534388
     21          1           0        4.656931   -0.415617   -0.725598
     22          1           0        3.238974   -2.390790    0.114302
     23          1           0       -0.204649   -2.582470   -0.167269
     24          1           0       -3.456364   -2.160103   -0.264279
     25          1           0       -4.798548   -0.029911    0.052026
     26          1           0       -3.495353    2.178216    0.099054
 ---------------------------------------------------------------------
 Rotational constants (GHZ):           0.8392258           0.4686053           0.3116994

 **********************************************************************

            Population analysis using the SCF Density.

 **********************************************************************

 Orbital symmetries:
       Occupied  (A) (A) (A) (A) (A) (A) (A) (A) (A) (A) (A) (A)
                 (A) (A) (A) (A) (A) (A) (A) (A) (A) (A) (A) (A)
                 (A) (A) (A) (A) (A) (A) (A) (A) (A) (A) (A) (A)
                 (A) (A) (A) (A) (A) (A) (A) (A) (A) (A) (A) (A)
                 (A) (A) (A) (A) (A) (A) (A) (A) (A)
       Virtual   (A) (A) (A) (A) (A) (A) (A) (A) (A) (A) (A) (A)
                 (A) (A) (A) (A) (A) (A) (A) (A) (A) (A) (A) (A)
                 (A) (A) (A) (A) (A) (A) (A) (A) (A) (A) (A) (A)
                 (A) (A) (A) (A) (A) (A) (A) (A) (A) (A) (A) (A)
                 (A) (A) (A) (A) (A) (A) (A) (A) (A) (A) (A) (A)
                 (A) (A) (A) (A) (A) (A) (A) (A) (A) (A) (A) (A)
                 (A) (A) (A) (A) (A) (A) (A) (A) (A) (A) (A) (A)
                 (A) (A) (A) (A) (A) (A) (A) (A) (A) (A) (A) (A)
                 (A) (A) (A) (A) (A) (A) (A) (A) (A) (A) (A) (A)
                 (A) (A) (A) (A) (A) (A) (A) (A) (A) (A) (A) (A)
                 (A) (A) (A) (A) (A) (A) (A) (A) (A) (A) (A) (A)
                 (A) (A) (A) (A) (A) (A) (A) (A) (A) (A) (A) (A)
                 (A) (A) (A) (A) (A) (A) (A) (A) (A) (A) (A) (A)
                 (A) (A) (A) (A) (A) (A) (A) (A) (A) (A) (A) (A)
                 (A) (A) (A) (A) (A) (A) (A) (A) (A) (A) (A) (A)
                 (A) (A) (A) (A) (A) (A) (A) (A) (A) (A) (A) (A)
                 (A) (A) (A) (A) (A) (A) (A) (A) (A) (A) (A) (A)
                 (A) (A) (A) (A) (A) (A) (A) (A) (A) (A) (A) (A)
                 (A)
 The electronic state is 1-A.
 Alpha  occ. eigenvalues --  -24.33257 -24.30350 -18.79961 -10.01161 -10.00333
 Alpha  occ. eigenvalues --   -9.98847  -9.96347  -9.95206  -9.94904  -9.93342
 Alpha  occ. eigenvalues --   -9.93284  -9.92720  -9.92537  -9.91726  -9.91615
 Alpha  occ. eigenvalues --   -9.91228  -1.13490  -1.11395  -0.95965  -0.79486
 Alpha  occ. eigenvalues --   -0.77258  -0.71554  -0.70193  -0.66813  -0.66216
 Alpha  occ. eigenvalues --   -0.62517  -0.58928  -0.56188  -0.55093  -0.53514
 Alpha  occ. eigenvalues --   -0.51644  -0.48636  -0.47964  -0.46108  -0.44358
 Alpha  occ. eigenvalues --   -0.43402  -0.43023  -0.42297  -0.41695  -0.40449
 Alpha  occ. eigenvalues --   -0.38876  -0.38011  -0.37738  -0.36710  -0.35978
 Alpha  occ. eigenvalues --   -0.34345  -0.33963  -0.33200  -0.32794  -0.30891
 Alpha  occ. eigenvalues --   -0.30662  -0.30282  -0.28419  -0.26695  -0.22633
 Alpha  occ. eigenvalues --   -0.20994  -0.19883
 Alpha virt. eigenvalues --   -0.08973  -0.04981  -0.03111  -0.02505   0.02572
 Alpha virt. eigenvalues --    0.03963   0.04556   0.06725   0.07624   0.08043
 Alpha virt. eigenvalues --    0.09476   0.10285   0.10737   0.11214   0.11922
 Alpha virt. eigenvalues --    0.12653   0.14427   0.15869   0.16897   0.19252
 Alpha virt. eigenvalues --    0.19636   0.21820   0.23560   0.25110   0.25823
 Alpha virt. eigenvalues --    0.26609   0.27211   0.28394   0.29181   0.30588
 Alpha virt. eigenvalues --    0.32670   0.34944   0.36061   0.36470   0.37305
 Alpha virt. eigenvalues --    0.38794   0.39775   0.40070   0.41578   0.41773
 Alpha virt. eigenvalues --    0.42364   0.42592   0.43836   0.43987   0.45838
 Alpha virt. eigenvalues --    0.46903   0.47446   0.48671   0.49930   0.51336
 Alpha virt. eigenvalues --    0.51718   0.52275   0.53097   0.54151   0.54495
 Alpha virt. eigenvalues --    0.56834   0.57051   0.58390   0.58674   0.59096
 Alpha virt. eigenvalues --    0.60406   0.61034   0.61461   0.61848   0.62685
 Alpha virt. eigenvalues --    0.63757   0.64264   0.64712   0.65487   0.66457
 Alpha virt. eigenvalues --    0.67611   0.68137   0.70111   0.71344   0.71963
 Alpha virt. eigenvalues --    0.72985   0.74024   0.75117   0.76294   0.77422
 Alpha virt. eigenvalues --    0.81871   0.82339   0.83744   0.88345   0.92302
 Alpha virt. eigenvalues --    0.93460   0.95927   0.96950   0.98899   1.01547
 Alpha virt. eigenvalues --    1.04042   1.05719   1.07531   1.09499   1.10827
 Alpha virt. eigenvalues --    1.12010   1.14353   1.16118   1.18059   1.18814
 Alpha virt. eigenvalues --    1.20974   1.22007   1.22273   1.25334   1.26790
 Alpha virt. eigenvalues --    1.28197   1.29765   1.31333   1.34950   1.35487
 Alpha virt. eigenvalues --    1.37115   1.38948   1.43155   1.45168   1.45903
 Alpha virt. eigenvalues --    1.49909   1.52604   1.54671   1.56636   1.57598
 Alpha virt. eigenvalues --    1.58493   1.60091   1.60877   1.61833   1.62675
 Alpha virt. eigenvalues --    1.63732   1.63916   1.64260   1.65251   1.66182
 Alpha virt. eigenvalues --    1.67499   1.68288   1.70975   1.71578   1.72511
 Alpha virt. eigenvalues --    1.72754   1.73750   1.74446   1.76080   1.77723
 Alpha virt. eigenvalues --    1.78533   1.81371   1.82683   1.84850   1.86233
 Alpha virt. eigenvalues --    1.86681   1.87550   1.89304   1.90191   1.92847
 Alpha virt. eigenvalues --    1.94282   1.95373   1.96958   1.98514   1.99188
 Alpha virt. eigenvalues --    2.00407   2.01905   2.05587   2.06295   2.08821
 Alpha virt. eigenvalues --    2.09366   2.09518   2.13485   2.15319   2.17103
 Alpha virt. eigenvalues --    2.17550   2.18454   2.19112   2.20178   2.23132
 Alpha virt. eigenvalues --    2.23649   2.28262   2.31340   2.33083   2.35212
 Alpha virt. eigenvalues --    2.37030   2.38026   2.43251   2.44730   2.46561
 Alpha virt. eigenvalues --    2.48672   2.49215   2.52458   2.54629   2.54822
 Alpha virt. eigenvalues --    2.58892   2.61731   2.62761   2.65165   2.67564
 Alpha virt. eigenvalues --    2.68467   2.76068   2.77692   2.81062   2.82563
 Alpha virt. eigenvalues --    2.84053   2.87776   2.88544   2.89760   2.92865
 Alpha virt. eigenvalues --    2.93955   2.97954   2.98831   3.01616   3.07425
 Alpha virt. eigenvalues --    3.10434   3.12392   3.14960   3.19912   3.29551
 Alpha virt. eigenvalues --    3.32644   3.38749   3.44042   3.48130   3.67631
 Alpha virt. eigenvalues --    3.74619   3.78940
          Condensed to atoms (all electrons):
               1          2          3          4          5          6
     1  C    4.559377   0.444546  -0.078595   0.014983  -0.000237   0.008795
     2  C    0.444546   5.177864   0.365035   0.058854  -0.117959   0.045612
     3  C   -0.078595   0.365035   5.112306   0.281609   0.088474  -0.137740
     4  C    0.014983   0.058854   0.281609   5.088974   0.223037   0.096310
     5  C   -0.000237  -0.117959   0.088474   0.223037   5.221667   0.299419
     6  C    0.008795   0.045612  -0.137740   0.096310   0.299419   5.216743
     7  F   -0.000017   0.002065  -0.000053   0.005401  -0.060388   0.299386
     8  C   -0.065506   0.291111   0.029024  -0.090474   0.000436   0.223140
     9  C   -0.019577  -0.042399   0.013814  -0.000856   0.012689  -0.067419
    10  C   -0.000418   0.006720   0.000352  -0.000267   0.001679  -0.025815
    11  O   -0.000004  -0.000059  -0.000002   0.000005  -0.001455   0.009503
    12  C    0.000007   0.000094  -0.000003   0.000002  -0.000064   0.001875
    13  C   -0.000026  -0.000033   0.000001  -0.000000   0.000003  -0.000312
    14  C    0.000314  -0.000223  -0.000010   0.000001  -0.000003   0.000226
    15  C    0.000033  -0.021143   0.000002  -0.000013  -0.000160   0.010764
    16  F    0.004895  -0.007888   0.000209   0.000001   0.000000   0.000248
    17  H    0.354413   0.003317   0.001459  -0.000419  -0.000025  -0.000200
    18  H    0.370201  -0.000209   0.006496  -0.000929   0.000260  -0.000762
    19  H    0.372719  -0.023189  -0.021020   0.002357  -0.000126  -0.000020
    20  H   -0.022622  -0.061855   0.425137  -0.067136   0.014171  -0.000651
    21  H   -0.000411   0.014301  -0.063902   0.431846  -0.070859   0.013450
    22  H    0.000020  -0.001014   0.012867  -0.064808   0.416940  -0.059466
    23  H    0.000002   0.000428  -0.000064   0.000322  -0.002540  -0.018480
    24  H    0.000000   0.000002  -0.000000   0.000000   0.000001  -0.000004
    25  H    0.000000  -0.000001   0.000000   0.000000  -0.000000   0.000001
    26  H   -0.000015   0.000031  -0.000000   0.000000  -0.000000   0.000001
               7          8          9         10         11         12
     1  C   -0.000017  -0.065506  -0.019577  -0.000418  -0.000004   0.000007
     2  C    0.002065   0.291111  -0.042399   0.006720  -0.000059   0.000094
     3  C   -0.000053   0.029024   0.013814   0.000352  -0.000002  -0.000003
     4  C    0.005401  -0.090474  -0.000856  -0.000267   0.000005   0.000002
     5  C   -0.060388   0.000436   0.012689   0.001679  -0.001455  -0.000064
     6  C    0.299386   0.223140  -0.067419  -0.025815   0.009503   0.001875
     7  F    8.989913  -0.071232   0.004445   0.000818  -0.027934  -0.000718
     8  C   -0.071232   5.457274   0.228390  -0.072260  -0.002966   0.010202
     9  C    0.004445   0.228390   5.768847   0.140686  -0.075899   0.011893
    10  C    0.000818  -0.072260   0.140686   5.182885   0.453549   0.283822
    11  O   -0.027934  -0.002966  -0.075899   0.453549   7.559063  -0.090282
    12  C   -0.000718   0.010202   0.011893   0.283822  -0.090282   5.265684
    13  C    0.000003  -0.000582  -0.105146   0.120266   0.006344   0.198246
    14  C   -0.000002   0.013513  -0.000930  -0.141136   0.000006   0.111254
    15  C    0.000080  -0.056621   0.148973   0.100149   0.001893  -0.139634
    16  F   -0.000000   0.002037  -0.075451   0.002142  -0.000001   0.000012
    17  H    0.000000  -0.003188   0.004575   0.000031   0.000000  -0.000001
    18  H   -0.000003  -0.010446   0.004641   0.000149   0.000001  -0.000005
    19  H    0.000001   0.009540  -0.000533   0.000005   0.000000  -0.000000
    20  H    0.000004   0.015159  -0.000198   0.000000   0.000000  -0.000000
    21  H   -0.000076  -0.001255   0.000023   0.000001  -0.000000  -0.000000
    22  H    0.000833   0.016872  -0.000289   0.000049   0.000007  -0.000000
    23  H    0.051467   0.005563  -0.011172  -0.026807   0.339695   0.004291
    24  H    0.000021  -0.000185   0.020089  -0.057546   0.003806   0.417762
    25  H   -0.000000   0.000014  -0.001982   0.014411  -0.000115  -0.069628
    26  H    0.000000  -0.000206   0.019734  -0.001538   0.000006   0.013890
              13         14         15         16         17         18
     1  C   -0.000026   0.000314   0.000033   0.004895   0.354413   0.370201
     2  C   -0.000033  -0.000223  -0.021143  -0.007888   0.003317  -0.000209
     3  C    0.000001  -0.000010   0.000002   0.000209   0.001459   0.006496
     4  C   -0.000000   0.000001  -0.000013   0.000001  -0.000419  -0.000929
     5  C    0.000003  -0.000003  -0.000160   0.000000  -0.000025   0.000260
     6  C   -0.000312   0.000226   0.010764   0.000248  -0.000200  -0.000762
     7  F    0.000003  -0.000002   0.000080  -0.000000   0.000000  -0.000003
     8  C   -0.000582   0.013513  -0.056621   0.002037  -0.003188  -0.010446
     9  C   -0.105146  -0.000930   0.148973  -0.075451   0.004575   0.004641
    10  C    0.120266  -0.141136   0.100149   0.002142   0.000031   0.000149
    11  O    0.006344   0.000006   0.001893  -0.000001   0.000000   0.000001
    12  C    0.198246   0.111254  -0.139634   0.000012  -0.000001  -0.000005
    13  C    5.194066   0.156390   0.119113   0.005255   0.000002   0.000037
    14  C    0.156390   5.289586   0.322567  -0.062391  -0.000247  -0.000775
    15  C    0.119113   0.322567   5.052757   0.360041  -0.002170  -0.000987
    16  F    0.005255  -0.062391   0.360041   8.926617   0.004241   0.001339
    17  H    0.000002  -0.000247  -0.002170   0.004241   0.626602  -0.018975
    18  H    0.000037  -0.000775  -0.000987   0.001339  -0.018975   0.638889
    19  H   -0.000001   0.000026   0.000191   0.001659  -0.023012  -0.028416
    20  H    0.000000  -0.000000   0.000017  -0.000006   0.001550   0.000649
    21  H    0.000000   0.000000   0.000000   0.000000   0.000013   0.000010
    22  H    0.000000  -0.000000   0.000003  -0.000000  -0.000001  -0.000001
    23  H    0.000025  -0.000154   0.000210   0.000001   0.000001   0.000001
    24  H   -0.075129   0.014838  -0.001789   0.000004  -0.000000  -0.000000
    25  H    0.437282  -0.071487   0.014110  -0.000084   0.000000  -0.000000
    26  H   -0.070858   0.416888  -0.059897   0.001872   0.000022   0.000036
              19         20         21         22         23         24
     1  C    0.372719  -0.022622  -0.000411   0.000020   0.000002   0.000000
     2  C   -0.023189  -0.061855   0.014301  -0.001014   0.000428   0.000002
     3  C   -0.021020   0.425137  -0.063902   0.012867  -0.000064  -0.000000
     4  C    0.002357  -0.067136   0.431846  -0.064808   0.000322   0.000000
     5  C   -0.000126   0.014171  -0.070859   0.416940  -0.002540   0.000001
     6  C   -0.000020  -0.000651   0.013450  -0.059466  -0.018480  -0.000004
     7  F    0.000001   0.000004  -0.000076   0.000833   0.051467   0.000021
     8  C    0.009540   0.015159  -0.001255   0.016872   0.005563  -0.000185
     9  C   -0.000533  -0.000198   0.000023  -0.000289  -0.011172   0.020089
    10  C    0.000005   0.000000   0.000001   0.000049  -0.026807  -0.057546
    11  O    0.000000   0.000000  -0.000000   0.000007   0.339695   0.003806
    12  C   -0.000000  -0.000000  -0.000000  -0.000000   0.004291   0.417762
    13  C   -0.000001   0.000000   0.000000   0.000000   0.000025  -0.075129
    14  C    0.000026  -0.000000   0.000000  -0.000000  -0.000154   0.014838
    15  C    0.000191   0.000017   0.000000   0.000003   0.000210  -0.001789
    16  F    0.001659  -0.000006   0.000000  -0.000000   0.000001   0.000004
    17  H   -0.023012   0.001550   0.000013  -0.000001   0.000001  -0.000000
    18  H   -0.028416   0.000649   0.000010  -0.000001   0.000001  -0.000000
    19  H    0.680137   0.006104  -0.000018  -0.000002  -0.000000  -0.000000
    20  H    0.006104   0.701198  -0.012538  -0.000370  -0.000002   0.000000
    21  H   -0.000018  -0.012538   0.689100  -0.011749   0.000002  -0.000000
    22  H   -0.000002  -0.000370  -0.011749   0.674251   0.000183  -0.000000
    23  H   -0.000000  -0.000002   0.000002   0.000183   0.471535   0.000093
    24  H   -0.000000   0.000000  -0.000000  -0.000000   0.000093   0.687091
    25  H    0.000000  -0.000000  -0.000000  -0.000000   0.000012  -0.013205
    26  H   -0.000001  -0.000000  -0.000000   0.000000  -0.000002  -0.000305
              25         26
     1  C    0.000000  -0.000015
     2  C   -0.000001   0.000031
     3  C    0.000000  -0.000000
     4  C    0.000000   0.000000
     5  C   -0.000000  -0.000000
     6  C    0.000001   0.000001
     7  F   -0.000000   0.000000
     8  C    0.000014  -0.000206
     9  C   -0.001982   0.019734
    10  C    0.014411  -0.001538
    11  O   -0.000115   0.000006
    12  C   -0.069628   0.013890
    13  C    0.437282  -0.070858
    14  C   -0.071487   0.416888
    15  C    0.014110  -0.059897
    16  F   -0.000084   0.001872
    17  H    0.000000   0.000022
    18  H   -0.000000   0.000036
    19  H    0.000000  -0.000001
    20  H   -0.000000  -0.000000
    21  H   -0.000000  -0.000000
    22  H   -0.000000   0.000000
    23  H    0.000012  -0.000002
    24  H   -0.013205  -0.000305
    25  H    0.691758  -0.012387
    26  H   -0.012387   0.686221
 Mulliken charges:
               1
     1  C    0.057124
     2  C   -0.134009
     3  C   -0.035395
     4  C    0.021201
     5  C   -0.024961
     6  C    0.085392
     7  F   -0.194014
     8  C    0.072647
     9  C    0.023052
    10  C    0.018072
    11  O   -0.175160
    12  C   -0.018699
    13  C    0.015053
    14  C   -0.048251
    15  C    0.151510
    16  F   -0.164753
    17  H    0.052011
    18  H    0.038800
    19  H    0.023600
    20  H    0.001389
    21  H    0.012062
    22  H    0.015675
    23  H    0.185388
    24  H    0.004455
    25  H    0.011302
    26  H    0.006510
 Sum of Mulliken charges =  -0.00000
 Mulliken charges with hydrogens summed into heavy atoms:
               1
     1  C    0.171534
     2  C   -0.134009
     3  C   -0.034006
     4  C    0.033263
     5  C   -0.009286
     6  C    0.085392
     7  F   -0.194014
     8  C    0.072647
     9  C    0.023052
    10  C    0.018072
    11  O    0.010228
    12  C   -0.014244
    13  C    0.026355
    14  C   -0.041741
    15  C    0.151510
    16  F   -0.164753
 Electronic spatial extent (au):  <R**2>=           3394.8004
 Charge=             -0.0000 electrons
 Dipole moment (field-independent basis, Debye):
    X=              1.4166    Y=              0.5281    Z=              0.3061  Tot=              1.5425
 Quadrupole moment (field-independent basis, Debye-Ang):
   XX=            -78.6929   YY=            -88.3564   ZZ=            -95.5108
   XY=             -2.2615   XZ=             -1.8025   YZ=             -0.4665
 Traceless Quadrupole moment (field-independent basis, Debye-Ang):
   XX=              8.8271   YY=             -0.8364   ZZ=             -7.9908
   XY=             -2.2615   XZ=             -1.8025   YZ=             -0.4665
 Octapole moment (field-independent basis, Debye-Ang**2):
  XXX=             -4.9938  YYY=             -6.0007  ZZZ=              6.0383  XYY=             11.7267
  XXY=             -2.0282  XXZ=             -4.7538  XZZ=              0.1617  YZZ=              0.8188
  YYZ=              4.0132  XYZ=              0.7885
 Hexadecapole moment (field-independent basis, Debye-Ang**3):
 XXXX=          -2599.4776 YYYY=          -1367.0621 ZZZZ=           -160.9149 XXXY=            -43.4262
 XXXZ=            -26.3096 YYYX=            -42.9515 YYYZ=            -19.4234 ZZZX=             12.8652
 ZZZY=            -12.2162 XXYY=           -664.7538 XXZZ=           -552.5069 YYZZ=           -265.0770
 XXYZ=             -4.0182 YYXZ=             -3.8775 ZZXY=             -8.4642
 N-N= 1.068722659117D+03 E-N=-3.948519773526D+03  KE= 7.677407138969D+02
 Unable to Open any file for archive entry.
 1\1\GINC-SEMLSCPN102\FOpt\RBP86\def2SVP\C13H10F2O1\KTVF206\02-Dec-2025
 \0\\# opt=modredundant bp86 def2svp empiricaldispersion=GD3BJ\\example
 \\0,1\C,-1.1377300781,2.5767779873,-1.1425201527\C,-1.5249251569,1.221
 6513331,-0.5676270384\C,-2.9040231469,1.1418790018,-0.2648185162\C,-3.
 5860760728,-0.0542992142,-0.0207778773\C,-2.8786545425,-1.2392923673,-
 0.2230889461\C,-1.5143235185,-1.1531848046,-0.4944605756\F,-0.97172871
 57,-2.3661201233,-0.8810012553\C,-0.6986735474,0.0220842003,-0.4678545
 386\C,0.8037902438,-0.0944792873,-0.3438683913\C,1.4978931938,-1.29779
 28395,0.1114716843\O,0.9300887062,-2.4004232993,0.6521220633\C,2.91197
 05549,-1.3872759,0.1217469161\C,3.7265996882,-0.3030806346,-0.18348380
 31\C,3.112864952,0.9223551701,-0.4644417977\C,1.7197589216,0.998582301
 4,-0.4878462828\F,1.2614403222,2.2628434262,-0.6070220459\H,-0.6753688
 985,3.2614508752,-0.4067997952\H,-0.4426412201,2.4827985496,-1.9940200
 703\H,-2.062026327,3.0610190534,-1.5139260754\H,-3.4754545366,2.083124
 3321,-0.28281638\H,-4.6584160085,-0.0623255075,0.2238785297\H,-3.35056
 67812,-2.2322992848,-0.2211888268\H,0.0595117252,-2.5887014535,0.24668
 4846\H,3.3270427719,-2.3587495785,0.4250522379\H,4.8228973377,-0.39629
 21743,-0.1668964526\H,3.6770771334,1.851035238,-0.6283844559\\Version=
 ES64L-G16RevC.02\State=1-A\HF=-775.7525649\RMSD=3.910e-09\RMSF=6.425e-
 04\Dipole=-0.5370928,0.2194645,-0.1779309\Quadrupole=6.8369219,-0.8028
 203,-6.0341016,1.0003793,-1.0350513,-0.3845469\PG=C01 [X(C13H10F2O1)]\
 \@
 The archive entry for this job was punched.


 MOM AND DAD WENT TO ALPHA CENTAURI AND ALL
 I GOT WAS THIS DUMB T-SHIRT.
 Job cpu time:       0 days  0 hours 15 minutes 46.2 seconds.
 Elapsed time:       0 days  0 hours  2 minutes  4.1 seconds.
 File lengths (MBytes):  RWF=     46 Int=      0 D2E=      0 Chk=      7 Scr=      1
 Normal termination of Gaussian 16 at Tue Dec  2 16:05:46 2025.
