%mem=12000MB
%nprocshared=8
# opt=modredundant bp86 def2svp empiricaldispersion=GD3BJ

example

0 1
C -1.138356 2.577101 -1.142277
C -1.524849 1.221609 -0.567942
C -2.904089 1.141719 -0.265289
C -3.586249 -0.054347 -0.021032
C -2.878769 -1.239352 -0.222724
C -1.514437 -1.153169 -0.493617
F -0.971954 -2.366322 -0.880381
C -0.698620 0.021891 -0.467496
C 0.803996 -0.094433 -0.344333
C 1.498168 -1.297671 0.111191
O 0.929887 -2.400281 0.651646
C 2.912147 -1.387340 0.122323
C 3.726934 -0.303313 -0.183002
C 3.113272 0.921936 -0.464701
C 1.720131 0.998625 -0.488284
F 1.262718 2.263039 -0.607824
H -0.675127 3.261098 -0.406584
H -0.444457 2.484140 -1.994942
H -2.063084 3.061763 -1.512143
H -3.475518 2.082963 -0.283357
H -4.658679 -0.062299 0.223245
H -3.350524 -2.232439 -0.220509
H 0.059997 -2.588911 0.244839
H 3.326937 -2.358762 0.426194
H 4.823235 -0.396461 -0.165938
H 3.677617 1.850501 -0.628950

7 8 9 11 F
1 8 9 16 F

