      -----------------------------------------------------------      
     |                   =====================                   |     
     |                           x T B                           |     
     |                   =====================                   |     
     |                         S. Grimme                         |     
     |          Mulliken Center for Theoretical Chemistry        |     
     |                    University of Bonn                     |     
      -----------------------------------------------------------      

   * xtb version 6.6.1 (8d0f1dd) compiled by 'stahn@M-Bot' on 2023-08-01

   xtb is free software: you can redistribute it and/or modify it under
   the terms of the GNU Lesser General Public License as published by
   the Free Software Foundation, either version 3 of the License, or
   (at your option) any later version.
   
   xtb is distributed in the hope that it will be useful,
   but WITHOUT ANY WARRANTY; without even the implied warranty of
   MERCHANTABILITY or FITNESS FOR A PARTICULAR PURPOSE.  See the
   GNU Lesser General Public License for more details.
   
   Cite this work as:
   * C. Bannwarth, E. Caldeweyher, S. Ehlert, A. Hansen, P. Pracht,
     J. Seibert, S. Spicher, S. Grimme, WIREs Comput. Mol. Sci., 2020, 11,
     e01493. DOI: 10.1002/wcms.1493
   
   for GFN2-xTB:
   * C. Bannwarth, S. Ehlert and S. Grimme., J. Chem. Theory Comput., 2019,
     15, 1652-1671. DOI: 10.1021/acs.jctc.8b01176
   for GFN1-xTB:
   * S. Grimme, C. Bannwarth, P. Shushkov, J. Chem. Theory Comput., 2017,
     13, 1989-2009. DOI: 10.1021/acs.jctc.7b00118
   for GFN0-xTB:
   * P. Pracht, E. Caldeweyher, S. Ehlert, S. Grimme, ChemRxiv, 2019, preprint.
     DOI: 10.26434/chemrxiv.8326202.v1
   for GFN-FF:
   * S. Spicher and S. Grimme, Angew. Chem. Int. Ed., 2020, 59, 15665-15673.
     DOI: 10.1002/anie.202004239
   
   for ALPB and GBSA implicit solvation:
   * S. Ehlert, M. Stahn, S. Spicher, S. Grimme, J. Chem. Theory Comput.,
     2021, 17, 4250-4261. DOI: 10.1021/acs.jctc.1c00471
   
   for DFT-D4:
   * E. Caldeweyher, C. Bannwarth and S. Grimme, J. Chem. Phys., 2017,
     147, 034112. DOI: 10.1063/1.4993215
   * E. Caldeweyher, S. Ehlert, A. Hansen, H. Neugebauer, S. Spicher,
     C. Bannwarth and S. Grimme, J. Chem. Phys., 2019, 150, 154122.
     DOI: 10.1063/1.5090222
   * E. Caldeweyher, J.-M. Mewes, S. Ehlert and S. Grimme, Phys. Chem. Chem. Phys.
     2020, 22, 8499-8512. DOI: 10.1039/D0CP00502A
   
   for sTDA-xTB:
   * S. Grimme and C. Bannwarth, J. Chem. Phys., 2016, 145, 054103.
     DOI: 10.1063/1.4959605
   
   in the mass-spec context:
   * V. Asgeirsson, C. Bauer and S. Grimme, Chem. Sci., 2017, 8, 4879.
     DOI: 10.1039/c7sc00601b
   * J. Koopman and S. Grimme, ACS Omega 2019, 4, 12, 15120-15133.
     DOI: 10.1021/acsomega.9b02011
   
   for metadynamics refer to:
   * S. Grimme, J. Chem. Theory Comput., 2019, 155, 2847-2862
     DOI: 10.1021/acs.jctc.9b00143
   
   for SPH calculations refer to:
   * S. Spicher and S. Grimme, J. Chem. Theory Comput., 2021, 17, 1701-1714
     DOI: 10.1021/acs.jctc.0c01306
   
   with help from (in alphabetical order)
   P. Atkinson, C. Bannwarth, F. Bohle, G. Brandenburg, E. Caldeweyher
   M. Checinski, S. Dohm, S. Ehlert, S. Ehrlich, I. Gerasimov, C. Hölzer
   A. Katbashev, J. Koopman, C. Lavigne, S. Lehtola, F. März, M. Müller,
   F. Musil, H. Neugebauer, J. Pisarek, C. Plett, P. Pracht, F. Pultar,
   J. Seibert, P. Shushkov, S. Spicher, M. Stahn, M. Steiner, T. Strunk,
   J. Stückrath, T. Rose, and J. Unsleber
   
 * started run on 2025/08/28 at 10:01:59.307     

           -------------------------------------------------
          |                Calculation Setup                |
           -------------------------------------------------

          program call               : /path/to/xtb /path/to/3.xyz --opt --etemp 298.15 --chrg 0 --uhf 0 -P 4
          hostname                   : semlscpn101
          coordinate file            : /path/to/3.xyz
          omp threads                :                     4

   ID    Z sym.   atoms
    1    6 C      1-6, 8-10, 12-15
    2    9 F      7, 16
    3    8 O      11
    4    1 H      17-26

           -------------------------------------------------
          |                 G F N 2 - x T B                 |
           -------------------------------------------------

        Reference                      10.1021/acs.jctc.8b01176
      * Hamiltonian:
        H0-scaling (s, p, d)           1.850000    2.230000    2.230000
        zeta-weighting                 0.500000
      * Dispersion:
        s8                             2.700000
        a1                             0.520000
        a2                             5.000000
        s9                             5.000000
      * Repulsion:
        kExp                           1.500000    1.000000
        rExp                           1.000000
      * Coulomb:
        alpha                          2.000000
        third order                    shell-resolved
        anisotropic                    true
        a3                             3.000000
        a5                             4.000000
        cn-shift                       1.200000
        cn-exp                         4.000000
        max-rad                        5.000000


          ...................................................
          :                      SETUP                      :
          :.................................................:
          :  # basis functions                  74          :
          :  # atomic orbitals                  74          :
          :  # shells                           42          :
          :  # electrons                        82          :
          :  max. iterations                   250          :
          :  Hamiltonian                  GFN2-xTB          :
          :  restarted?                      false          :
          :  GBSA solvation                  false          :
          :  PC potential                    false          :
          :  electronic temp.          298.1500000     K    :
          :  accuracy                    1.0000000          :
          :  -> integral cutoff          0.2500000E+02      :
          :  -> integral neglect         0.1000000E-07      :
          :  -> SCF convergence          0.1000000E-05 Eh   :
          :  -> wf. convergence          0.1000000E-03 e    :
          :  Broyden damping             0.4000000          :
          ...................................................

 iter      E             dE          RMSdq      gap      omega  full diag
   1    -47.0455644 -0.470456E+02  0.452E+00    4.50       0.0  T
   2    -47.0840913 -0.385268E-01  0.274E+00    4.36       1.0  T
   3    -47.0761953  0.789599E-02  0.146E+00    4.35       1.0  T
   4    -47.0971493 -0.209540E-01  0.244E-01    4.38       1.0  T
   5    -47.0974443 -0.294997E-03  0.973E-02    4.35       1.0  T
   6    -47.0976075 -0.163277E-03  0.463E-02    4.35       1.0  T
   7    -47.0976246 -0.170263E-04  0.182E-02    4.35       1.1  T
   8    -47.0976273 -0.275304E-05  0.797E-03    4.35       2.5  T
   9    -47.0976279 -0.523450E-06  0.188E-03    4.35      10.4  T
  10    -47.0976279 -0.147613E-07  0.785E-04    4.35      25.0  T
  11    -47.0976279 -0.169596E-08  0.354E-04    4.35      55.4  T

   *** convergence criteria satisfied after 11 iterations ***

         #    Occupation            Energy/Eh            Energy/eV
      -------------------------------------------------------------
         1        2.0000           -0.8142259             -22.1562
       ...           ...                  ...                  ...
        35        2.0000           -0.4492585             -12.2249
        36        2.0000           -0.4414147             -12.0115
        37        2.0000           -0.4267051             -11.6112
        38        2.0000           -0.4108497             -11.1798
        39        2.0000           -0.4052079             -11.0263
        40        2.0000           -0.4017426             -10.9320
        41        2.0000           -0.3988503             -10.8533 (HOMO)
        42                         -0.2388319              -6.4989 (LUMO)
        43                         -0.2365389              -6.4366
        44                         -0.2294799              -6.2445
        45                         -0.2239277              -6.0934
        46                         -0.1105252              -3.0075
       ...                                ...                  ...
        74                          0.6931912              18.8627
      -------------------------------------------------------------
                  HL-Gap            0.1600184 Eh            4.3543 eV
             Fermi-level           -0.3188411 Eh           -8.6761 eV

 SCC (total)                   0 d,  0 h,  0 min,  0.087 sec
 SCC setup                      ...        0 min,  0.000 sec (  0.351%)
 Dispersion                     ...        0 min,  0.000 sec (  0.386%)
 classical contributions        ...        0 min,  0.000 sec (  0.089%)
 integral evaluation            ...        0 min,  0.007 sec (  8.184%)
 iterations                     ...        0 min,  0.058 sec ( 66.431%)
 molecular gradient             ...        0 min,  0.021 sec ( 24.227%)
 printout                       ...        0 min,  0.000 sec (  0.306%)

         :::::::::::::::::::::::::::::::::::::::::::::::::::::
         ::                     SUMMARY                     ::
         :::::::::::::::::::::::::::::::::::::::::::::::::::::
         :: total energy             -46.445363928328 Eh    ::
         :: gradient norm              0.099593899704 Eh/a0 ::
         :: HOMO-LUMO gap              4.354322423606 eV    ::
         ::.................................................::
         :: SCC energy               -47.097627868906 Eh    ::
         :: -> isotropic ES            0.048199634077 Eh    ::
         :: -> anisotropic ES          0.002796642184 Eh    ::
         :: -> anisotropic XC          0.008269986091 Eh    ::
         :: -> dispersion             -0.027695209745 Eh    ::
         :: repulsion energy           0.652016986550 Eh    ::
         :: add. restraining           0.000000000000 Eh    ::
         :: total charge               0.000000000000 e     ::
         :::::::::::::::::::::::::::::::::::::::::::::::::::::

      ----------------------------------------------------------- 
     |                   =====================                   |
     |                        A N C O P T                        |
     |                   =====================                   |
     |               Approximate Normal Coordinate               |
     |                Rational Function Optimizer                |
      ----------------------------------------------------------- 

          ...................................................
          :                      SETUP                      :
          :.................................................:
          :   optimization level            normal          :
          :   max. optcycles                   200          :
          :   ANC micro-cycles                  20          :
          :   degrees of freedom                72          :
          :.................................................:
          :   RF solver                   davidson          :
          :   write xtbopt.log                true          :
          :   linear?                        false          :
          :   energy convergence         0.5000000E-05 Eh   :
          :   grad. convergence          0.1000000E-02 Eh/α :
          :   maxmium RF displ.          1.0000000          :
          :   Hlow (freq-cutoff)         0.1000000E-01      :
          :   Hmax (freq-cutoff)         5.0000000          :
          :   S6 in model hess.         20.0000000          :
          ...................................................

generating ANC from model Hessian ...
Using Lindh-Hessian (1995)
 Shifting diagonal of input Hessian by   8.587907152194582E-003
 Lowest  eigenvalues of input Hessian
    0.000000    0.000000    0.000000    0.000000    0.000000    0.000000
    0.010000    0.010442    0.010773    0.014020    0.015100    0.017139
    0.020258    0.021913    0.024783    0.029364    0.029976    0.030736
 Highest eigenvalues
    1.917949    1.940218    2.059601    2.108273    2.119670    2.183129
 

........................................................................
.............................. CYCLE    1 ..............................
........................................................................

 iter      E             dE          RMSdq      gap      omega  full diag
   1    -47.0976279 -0.470976E+02  0.123E-04    4.35       0.0  T
   2    -47.0976279 -0.479830E-10  0.753E-05    4.35     260.6  T
   3    -47.0976279 -0.135358E-10  0.490E-05    4.35     400.4  T
     SCC iter.                  ...        0 min,  0.008 sec
     gradient                   ...        0 min,  0.022 sec
 * total energy  :   -46.4453639 Eh     change       -0.1353477E-08 Eh
   gradient norm :     0.0995947 Eh/α   predicted     0.0000000E+00 (-100.00%)
   displ. norm   :     0.3159629 α      lambda       -0.1974612E-01
   maximum displ.:     0.1153698 α      in ANC's #40, #17, #7, ...

........................................................................
.............................. CYCLE    2 ..............................
........................................................................

 iter      E             dE          RMSdq      gap      omega  full diag
   1    -47.1108162 -0.471108E+02  0.324E-01    4.30       0.0  T
   2    -47.1109428 -0.126534E-03  0.203E-01    4.35       1.0  T
   3    -47.1108328  0.110008E-03  0.841E-02    4.32       1.0  T
   4    -47.1109759 -0.143198E-03  0.183E-02    4.33       1.1  T
   5    -47.1109814 -0.543496E-05  0.618E-03    4.33       3.2  T
   6    -47.1109820 -0.599460E-06  0.313E-03    4.33       6.3  T
   7    -47.1109821 -0.825343E-07  0.117E-03    4.33      16.8  T
   8    -47.1109821 -0.612038E-08  0.446E-04    4.33      44.0  T
   9    -47.1109821 -0.237942E-08  0.159E-04    4.33     123.4  T
     SCC iter.                  ...        0 min,  0.023 sec
     gradient                   ...        0 min,  0.021 sec
 * total energy  :   -46.4588362 Eh     change       -0.1347225E-01 Eh
   gradient norm :     0.0399077 Eh/α   predicted    -0.1086018E-01 ( -19.39%)
   displ. norm   :     0.2496138 α      lambda       -0.5294202E-02
   maximum displ.:     0.0879609 α      in ANC's #10, #7, #14, ...

........................................................................
.............................. CYCLE    3 ..............................
........................................................................

 iter      E             dE          RMSdq      gap      omega  full diag
   1    -47.1161489 -0.471161E+02  0.197E-01    4.30       0.0  T
   2    -47.1162234 -0.744315E-04  0.122E-01    4.33       1.0  T
   3    -47.1162025  0.209139E-04  0.575E-02    4.32       1.0  T
   4    -47.1162384 -0.358997E-04  0.133E-02    4.32       1.5  T
   5    -47.1162403 -0.196822E-05  0.384E-03    4.32       5.1  T
   6    -47.1162405 -0.192235E-06  0.213E-03    4.32       9.2  T
   7    -47.1162406 -0.594911E-07  0.830E-04    4.32      23.6  T
   8    -47.1162406 -0.212923E-08  0.294E-04    4.32      66.7  T
     SCC iter.                  ...        0 min,  0.020 sec
     gradient                   ...        0 min,  0.021 sec
 * total energy  :   -46.4620706 Eh     change       -0.3234464E-02 Eh
   gradient norm :     0.0120942 Eh/α   predicted    -0.2812842E-02 ( -13.04%)
   displ. norm   :     0.2573090 α      lambda       -0.1504785E-02
   maximum displ.:     0.1093019 α      in ANC's #10, #7, #14, ...

........................................................................
.............................. CYCLE    4 ..............................
........................................................................

 iter      E             dE          RMSdq      gap      omega  full diag
   1    -47.1142482 -0.471142E+02  0.117E-01    4.32       0.0  T
   2    -47.1142941 -0.459522E-04  0.672E-02    4.34       1.0  T
   3    -47.1142935  0.609065E-06  0.383E-02    4.33       1.0  T
   4    -47.1143051 -0.115399E-04  0.103E-02    4.33       1.9  T
   5    -47.1143058 -0.772224E-06  0.336E-03    4.33       5.8  T
   6    -47.1143059 -0.110529E-06  0.186E-03    4.33      10.6  T
   7    -47.1143060 -0.307215E-07  0.831E-04    4.33      23.6  T
   8    -47.1143060 -0.289175E-08  0.292E-04    4.33      67.2  T
     SCC iter.                  ...        0 min,  0.020 sec
     gradient                   ...        0 min,  0.021 sec
 * total energy  :   -46.4630773 Eh     change       -0.1006693E-02 Eh
   gradient norm :     0.0250153 Eh/α   predicted    -0.8022162E-03 ( -20.31%)
   displ. norm   :     0.2730076 α      lambda       -0.1251592E-02
   maximum displ.:     0.1611009 α      in ANC's #2, #3, #7, ...

........................................................................
.............................. CYCLE    5 ..............................
........................................................................

 iter      E             dE          RMSdq      gap      omega  full diag
   1    -47.1143409 -0.471143E+02  0.984E-02    4.32       0.0  T
   2    -47.1143573 -0.163756E-04  0.582E-02    4.33       1.0  T
   3    -47.1143523  0.504436E-05  0.314E-02    4.33       1.0  T
   4    -47.1143634 -0.110962E-04  0.455E-03    4.33       4.3  T
   5    -47.1143636 -0.196378E-06  0.184E-03    4.33      10.7  T
   6    -47.1143636 -0.356972E-07  0.958E-04    4.33      20.5  T
   7    -47.1143636 -0.550846E-08  0.428E-04    4.33      45.8  T
     SCC iter.                  ...        0 min,  0.018 sec
     gradient                   ...        0 min,  0.021 sec
 * total energy  :   -46.4640169 Eh     change       -0.9395194E-03 Eh
   gradient norm :     0.0236466 Eh/α   predicted    -0.6725229E-03 ( -28.42%)
   displ. norm   :     0.3149243 α      lambda       -0.1433325E-02
   maximum displ.:     0.2263593 α      in ANC's #2, #3, #7, ...

........................................................................
.............................. CYCLE    6 ..............................
........................................................................

 iter      E             dE          RMSdq      gap      omega  full diag
   1    -47.1173502 -0.471174E+02  0.113E-01    4.32       0.0  T
   2    -47.1173554 -0.518055E-05  0.669E-02    4.32       1.0  T
   3    -47.1173445  0.108900E-04  0.258E-02    4.32       1.0  T
   4    -47.1173588 -0.142261E-04  0.334E-03    4.32       5.9  T
   5    -47.1173588 -0.251428E-07  0.194E-03    4.32      10.1  T
   6    -47.1173588 -0.228907E-07  0.570E-04    4.32      34.4  T
   7    -47.1173588 -0.216304E-08  0.260E-04    4.32      75.6  T
     SCC iter.                  ...        0 min,  0.019 sec
     gradient                   ...        0 min,  0.021 sec
 * total energy  :   -46.4649339 Eh     change       -0.9170599E-03 Eh
   gradient norm :     0.0109849 Eh/α   predicted    -0.7877959E-03 ( -14.10%)
   displ. norm   :     0.4127972 α      lambda       -0.1080879E-02
   maximum displ.:     0.2398939 α      in ANC's #2, #3, #7, ...

........................................................................
.............................. CYCLE    7 ..............................
........................................................................

 iter      E             dE          RMSdq      gap      omega  full diag
   1    -47.1139043 -0.471139E+02  0.148E-01    4.29       0.0  T
   2    -47.1139229 -0.185692E-04  0.871E-02    4.30       1.0  T
   3    -47.1139017  0.212445E-04  0.366E-02    4.30       1.0  T
   4    -47.1139306 -0.289510E-04  0.708E-03    4.30       2.8  T
   5    -47.1139310 -0.379430E-06  0.383E-03    4.30       5.1  T
   6    -47.1139312 -0.191985E-06  0.192E-03    4.30      10.2  T
   7    -47.1139312 -0.134164E-07  0.673E-04    4.30      29.1  T
   8    -47.1139312 -0.487245E-08  0.220E-04    4.30      89.2  T
     SCC iter.                  ...        0 min,  0.021 sec
     gradient                   ...        0 min,  0.022 sec
 * total energy  :   -46.4649990 Eh     change       -0.6512122E-04 Eh
   gradient norm :     0.0295187 Eh/α   predicted    -0.6325326E-03 ( 871.32%)
   displ. norm   :     0.1138060 α      lambda       -0.1156129E-02
   maximum displ.:     0.0565961 α      in ANC's #7, #10, #14, ...

........................................................................
.............................. CYCLE    8 ..............................
........................................................................

 iter      E             dE          RMSdq      gap      omega  full diag
   1    -47.1192533 -0.471193E+02  0.610E-02    4.31       0.0  T
   2    -47.1192596 -0.634417E-05  0.352E-02    4.31       1.0  T
   3    -47.1192568  0.286651E-05  0.167E-02    4.31       1.2  T
   4    -47.1192620 -0.522445E-05  0.506E-03    4.31       3.9  T
   5    -47.1192622 -0.159505E-06  0.248E-03    4.31       7.9  T
   6    -47.1192622 -0.618010E-07  0.134E-03    4.31      14.7  T
   7    -47.1192622 -0.931063E-08  0.421E-04    4.31      46.6  T
   8    -47.1192622 -0.117442E-08  0.156E-04    4.31     125.9  T
     SCC iter.                  ...        0 min,  0.021 sec
     gradient                   ...        0 min,  0.022 sec
 * total energy  :   -46.4655523 Eh     change       -0.5532493E-03 Eh
   gradient norm :     0.0046787 Eh/α   predicted    -0.5855561E-03 (   5.84%)
   displ. norm   :     0.1234592 α      lambda       -0.1470959E-03
   maximum displ.:     0.0745994 α      in ANC's #3, #2, #5, ...

........................................................................
.............................. CYCLE    9 ..............................
........................................................................

 iter      E             dE          RMSdq      gap      omega  full diag
   1    -47.1196766 -0.471197E+02  0.422E-02    4.30       0.0  T
   2    -47.1196772 -0.593114E-06  0.251E-02    4.30       1.0  T
   3    -47.1196764  0.806630E-06  0.676E-03    4.30       2.9  T
   4    -47.1196774 -0.104891E-05  0.119E-03    4.30      16.5  T
   5    -47.1196774 -0.638632E-08  0.636E-04    4.30      30.9  T
   6    -47.1196774 -0.215236E-08  0.289E-04    4.30      67.9  T
     SCC iter.                  ...        0 min,  0.016 sec
     gradient                   ...        0 min,  0.021 sec
 * total energy  :   -46.4656677 Eh     change       -0.1154632E-03 Eh
   gradient norm :     0.0026712 Eh/α   predicted    -0.7466854E-04 ( -35.33%)
   displ. norm   :     0.1714626 α      lambda       -0.1302542E-03
   maximum displ.:     0.1130262 α      in ANC's #3, #2, #5, ...

........................................................................
.............................. CYCLE   10 ..............................
........................................................................

 iter      E             dE          RMSdq      gap      omega  full diag
   1    -47.1194652 -0.471195E+02  0.574E-02    4.28       0.0  T
   2    -47.1194663 -0.113751E-05  0.341E-02    4.28       1.0  T
   3    -47.1194649  0.143848E-05  0.913E-03    4.28       2.1  T
   4    -47.1194668 -0.190415E-05  0.174E-03    4.28      11.3  T
   5    -47.1194668 -0.132832E-07  0.897E-04    4.28      21.9  T
   6    -47.1194668 -0.360268E-08  0.419E-04    4.28      46.8  T
     SCC iter.                  ...        0 min,  0.016 sec
     gradient                   ...        0 min,  0.021 sec
 * total energy  :   -46.4657375 Eh     change       -0.6975691E-04 Eh
   gradient norm :     0.0031628 Eh/α   predicted    -0.6704473E-04 (  -3.89%)
   displ. norm   :     0.0345067 α      lambda       -0.1690174E-04
   maximum displ.:     0.0283717 α      in ANC's #3, #5, #1, ...

........................................................................
.............................. CYCLE   11 ..............................
........................................................................

 iter      E             dE          RMSdq      gap      omega  full diag
   1    -47.1199360 -0.471199E+02  0.124E-02    4.28       0.0  T
   2    -47.1199360 -0.605154E-07  0.735E-03    4.28       2.7  T
   3    -47.1199359  0.860767E-07  0.215E-03    4.28       9.1  T
   4    -47.1199361 -0.110247E-06  0.454E-04    4.28      43.2  T
   5    -47.1199361 -0.156450E-08  0.245E-04    4.28      79.9  T
     SCC iter.                  ...        0 min,  0.013 sec
     gradient                   ...        0 min,  0.021 sec
 * total energy  :   -46.4657499 Eh     change       -0.1237480E-04 Eh
   gradient norm :     0.0014012 Eh/α   predicted    -0.8469953E-05 ( -31.55%)
   displ. norm   :     0.0800750 α      lambda       -0.1517324E-04
   maximum displ.:     0.0565233 α      in ANC's #3, #2, #5, ...

........................................................................
.............................. CYCLE   12 ..............................
........................................................................

 iter      E             dE          RMSdq      gap      omega  full diag
   1    -47.1204567 -0.471205E+02  0.274E-02    4.28       0.0  T
   2    -47.1204569 -0.170508E-06  0.162E-02    4.28       1.2  T
   3    -47.1204567  0.207760E-06  0.356E-03    4.28       5.5  T
   4    -47.1204570 -0.272579E-06  0.681E-04    4.28      28.8  T
   5    -47.1204570 -0.184591E-08  0.341E-04    4.28      57.6  T
     SCC iter.                  ...        0 min,  0.013 sec
     gradient                   ...        0 min,  0.021 sec
 * total energy  :   -46.4657651 Eh     change       -0.1524851E-04 Eh
   gradient norm :     0.0017748 Eh/α   predicted    -0.7608871E-05 ( -50.10%)
   displ. norm   :     0.0809461 α      lambda       -0.1126070E-04
   maximum displ.:     0.0504159 α      in ANC's #3, #2, #1, ...

........................................................................
.............................. CYCLE   13 ..............................
........................................................................

 iter      E             dE          RMSdq      gap      omega  full diag
   1    -47.1202495 -0.471202E+02  0.262E-02    4.28       0.0  T
   2    -47.1202496 -0.630670E-07  0.155E-02    4.28       1.3  T
   3    -47.1202495  0.667281E-07  0.187E-03    4.28      10.5  T
   4    -47.1202496 -0.976140E-07  0.517E-04    4.28      38.0  T
   5    -47.1202496 -0.873577E-09  0.270E-04    4.28      72.7  T
     SCC iter.                  ...        0 min,  0.013 sec
     gradient                   ...        0 min,  0.021 sec
 * total energy  :   -46.4657794 Eh     change       -0.1422791E-04 Eh
   gradient norm :     0.0017706 Eh/α   predicted    -0.5647194E-05 ( -60.31%)
   displ. norm   :     0.1237545 α      lambda       -0.1574076E-04
   maximum displ.:     0.0716913 α      in ANC's #3, #2, #1, ...

........................................................................
.............................. CYCLE   14 ..............................
........................................................................

 iter      E             dE          RMSdq      gap      omega  full diag
   1    -47.1199062 -0.471199E+02  0.392E-02    4.27       0.0  T
   2    -47.1199063 -0.114501E-06  0.231E-02    4.27       1.0  T
   3    -47.1199062  0.129690E-06  0.253E-03    4.27       7.7  T
   4    -47.1199063 -0.188591E-06  0.642E-04    4.27      30.5  T
   5    -47.1199063 -0.483304E-09  0.353E-04    4.27      55.6  T
     SCC iter.                  ...        0 min,  0.013 sec
     gradient                   ...        0 min,  0.021 sec
 * total energy  :   -46.4657996 Eh     change       -0.2020313E-04 Eh
   gradient norm :     0.0014641 Eh/α   predicted    -0.7926340E-05 ( -60.77%)
   displ. norm   :     0.2879476 α      lambda       -0.2981319E-04
   maximum displ.:     0.1688032 α      in ANC's #1, #2, #3, ...

........................................................................
.............................. CYCLE   15 ..............................
........................................................................

 iter      E             dE          RMSdq      gap      omega  full diag
   1    -47.1191769 -0.471192E+02  0.878E-02    4.24       0.0  T
   2    -47.1191774 -0.470689E-06  0.517E-02    4.25       1.0  T
   3    -47.1191770  0.384686E-06  0.492E-03    4.24       4.0  T
   4    -47.1191777 -0.626433E-06  0.134E-03    4.25      14.7  T
   5    -47.1191777 -0.643226E-09  0.716E-04    4.25      27.4  T
   6    -47.1191777 -0.520113E-08  0.237E-04    4.25      82.9  T
     SCC iter.                  ...        0 min,  0.016 sec
     gradient                   ...        0 min,  0.022 sec
 * total energy  :   -46.4658302 Eh     change       -0.3061807E-04 Eh
   gradient norm :     0.0015825 Eh/α   predicted    -0.1545978E-04 ( -49.51%)
   displ. norm   :     0.2109004 α      lambda       -0.1625235E-04
   maximum displ.:     0.1374547 α      in ANC's #1, #3, #2, ...

........................................................................
.............................. CYCLE   16 ..............................
........................................................................

 iter      E             dE          RMSdq      gap      omega  full diag
   1    -47.1190510 -0.471191E+02  0.618E-02    4.22       0.0  T
   2    -47.1190513 -0.339154E-06  0.363E-02    4.23       1.0  T
   3    -47.1190507  0.662035E-06  0.522E-03    4.22       3.8  T
   4    -47.1190515 -0.847887E-06  0.970E-04    4.23      20.2  T
   5    -47.1190515 -0.617618E-09  0.505E-04    4.23      38.8  T
     SCC iter.                  ...        0 min,  0.013 sec
     gradient                   ...        0 min,  0.022 sec
 * total energy  :   -46.4658489 Eh     change       -0.1869598E-04 Eh
   gradient norm :     0.0015011 Eh/α   predicted    -0.8288382E-05 ( -55.67%)
   displ. norm   :     0.1475684 α      lambda       -0.1854080E-04
   maximum displ.:     0.1071801 α      in ANC's #1, #3, #2, ...

........................................................................
.............................. CYCLE   17 ..............................
........................................................................

 iter      E             dE          RMSdq      gap      omega  full diag
   1    -47.1198295 -0.471198E+02  0.392E-02    4.21       0.0  T
   2    -47.1198298 -0.313752E-06  0.231E-02    4.21       1.0  T
   3    -47.1198291  0.766980E-06  0.574E-03    4.21       3.4  T
   4    -47.1198300 -0.928387E-06  0.695E-04    4.21      28.2  T
   5    -47.1198300 -0.155897E-08  0.370E-04    4.21      53.0  T
     SCC iter.                  ...        0 min,  0.013 sec
     gradient                   ...        0 min,  0.022 sec
 * total energy  :   -46.4658737 Eh     change       -0.2485742E-04 Eh
   gradient norm :     0.0012630 Eh/α   predicted    -0.9361431E-05 ( -62.34%)
   displ. norm   :     0.2804651 α      lambda       -0.4281011E-04
   maximum displ.:     0.2059262 α      in ANC's #1, #3, #6, ...

........................................................................
.............................. CYCLE   18 ..............................
........................................................................

 iter      E             dE          RMSdq      gap      omega  full diag
   1    -47.1200162 -0.471200E+02  0.712E-02    4.19       0.0  T
   2    -47.1200174 -0.117950E-05  0.420E-02    4.19       1.0  T
   3    -47.1200143  0.301812E-05  0.114E-02    4.19       1.7  T
   4    -47.1200180 -0.364594E-05  0.132E-03    4.19      14.9  T
   5    -47.1200180 -0.641307E-08  0.700E-04    4.19      28.0  T
   6    -47.1200180 -0.245073E-08  0.307E-04    4.19      63.9  T
     SCC iter.                  ...        0 min,  0.016 sec
     gradient                   ...        0 min,  0.022 sec
 * total energy  :   -46.4659339 Eh     change       -0.6019678E-04 Eh
   gradient norm :     0.0027864 Eh/α   predicted    -0.2215540E-04 ( -63.20%)
   displ. norm   :     0.4304359 α      lambda       -0.1108200E-03
   maximum displ.:     0.3208613 α      in ANC's #1, #3, #6, ...

........................................................................
.............................. CYCLE   19 ..............................
........................................................................

 iter      E             dE          RMSdq      gap      omega  full diag
   1    -47.1186745 -0.471187E+02  0.107E-01    4.14       0.0  T
   2    -47.1186770 -0.250323E-05  0.628E-02    4.15       1.0  T
   3    -47.1186721  0.496627E-05  0.145E-02    4.14       1.4  T
   4    -47.1186781 -0.604420E-05  0.213E-03    4.15       9.2  T
   5    -47.1186781 -0.299206E-07  0.113E-03    4.15      17.4  T
   6    -47.1186781 -0.180785E-08  0.502E-04    4.15      39.1  T
   7    -47.1186781 -0.264524E-08  0.162E-04    4.15     120.9  T
     SCC iter.                  ...        0 min,  0.018 sec
     gradient                   ...        0 min,  0.021 sec
 * total energy  :   -46.4660192 Eh     change       -0.8525005E-04 Eh
   gradient norm :     0.0065204 Eh/α   predicted    -0.6568582E-04 ( -22.95%)
   displ. norm   :     0.3375663 α      lambda       -0.1147857E-03
   maximum displ.:     0.2687986 α      in ANC's #1, #3, #6, ...

........................................................................
.............................. CYCLE   20 ..............................
........................................................................

 iter      E             dE          RMSdq      gap      omega  full diag
   1    -47.1183498 -0.471183E+02  0.826E-02    4.11       0.0  T
   2    -47.1183514 -0.160636E-05  0.488E-02    4.11       1.0  T
   3    -47.1183467  0.472374E-05  0.141E-02    4.11       1.4  T
   4    -47.1183524 -0.566533E-05  0.147E-03    4.11      13.3  T
   5    -47.1183524 -0.825428E-08  0.820E-04    4.11      23.9  T
   6    -47.1183524 -0.372337E-08  0.379E-04    4.11      51.7  T
     SCC iter.                  ...        0 min,  0.016 sec
     gradient                   ...        0 min,  0.023 sec
 * total energy  :   -46.4661052 Eh     change       -0.8604718E-04 Eh
   gradient norm :     0.0081350 Eh/α   predicted    -0.6394546E-04 ( -25.69%)
   displ. norm   :     0.3004475 α      lambda       -0.2161757E-03
   maximum displ.:     0.2457865 α      in ANC's #1, #2, #6, ...
 * RMSD in coord.:     0.5519525 α      energy gain  -0.2074130E-01 Eh

generating ANC from model Hessian ...
Using Lindh-Hessian (1995)
 Shifting diagonal of input Hessian by   8.725880975684224E-003
 Lowest  eigenvalues of input Hessian
    0.000000    0.000000    0.000000    0.000000    0.000000    0.000000
    0.010000    0.010582    0.010817    0.013906    0.015578    0.017689
    0.021040    0.022329    0.024854    0.030071    0.031365    0.033697
 Highest eigenvalues
    1.891458    1.913776    2.030395    2.074118    2.116167    2.139965
 

........................................................................
.............................. CYCLE   21 ..............................
........................................................................

 iter      E             dE          RMSdq      gap      omega  full diag
   1    -47.1210092 -0.471210E+02  0.807E-02    4.09       0.0  T
   2    -47.1210122 -0.298777E-05  0.475E-02    4.09       1.0  T
   3    -47.1210075  0.472710E-05  0.161E-02    4.09       1.2  T
   4    -47.1210134 -0.592615E-05  0.217E-03    4.09       9.0  T
   5    -47.1210134 -0.375263E-07  0.106E-03    4.09      18.5  T
   6    -47.1210134 -0.289688E-09  0.573E-04    4.09      34.2  T
   7    -47.1210134 -0.405748E-08  0.161E-04    4.09     121.6  T
     SCC iter.                  ...        0 min,  0.018 sec
     gradient                   ...        0 min,  0.023 sec
 * total energy  :   -46.4662245 Eh     change       -0.1193026E-03 Eh
   gradient norm :     0.0071524 Eh/α   predicted     0.0000000E+00 (-100.00%)
   displ. norm   :     0.0623337 α      lambda       -0.1085753E-03
   maximum displ.:     0.0451836 α      in ANC's #5, #6, #3, ...

........................................................................
.............................. CYCLE   22 ..............................
........................................................................

 iter      E             dE          RMSdq      gap      omega  full diag
   1    -47.1204670 -0.471205E+02  0.284E-02    4.09       0.0  T
   2    -47.1204681 -0.113695E-05  0.171E-02    4.09       1.1  T
   3    -47.1204672  0.943582E-06  0.862E-03    4.09       2.3  T
   4    -47.1204687 -0.151386E-05  0.103E-03    4.09      19.0  T
   5    -47.1204687 -0.967164E-08  0.467E-04    4.09      42.0  T
   6    -47.1204687 -0.200747E-08  0.232E-04    4.09      84.5  T
     SCC iter.                  ...        0 min,  0.015 sec
     gradient                   ...        0 min,  0.023 sec
 * total energy  :   -46.4663254 Eh     change       -0.1008498E-03 Eh
   gradient norm :     0.0033198 Eh/α   predicted    -0.6840301E-04 ( -32.17%)
   displ. norm   :     0.1120950 α      lambda       -0.1136864E-03
   maximum displ.:     0.0740258 α      in ANC's #5, #6, #2, ...

........................................................................
.............................. CYCLE   23 ..............................
........................................................................

 iter      E             dE          RMSdq      gap      omega  full diag
   1    -47.1199113 -0.471199E+02  0.437E-02    4.09       0.0  T
   2    -47.1199130 -0.176028E-05  0.260E-02    4.09       1.0  T
   3    -47.1199107  0.232670E-05  0.116E-02    4.09       1.7  T
   4    -47.1199139 -0.317950E-05  0.140E-03    4.09      14.0  T
   5    -47.1199139 -0.176088E-07  0.689E-04    4.09      28.5  T
   6    -47.1199139 -0.547936E-08  0.321E-04    4.09      61.2  T
     SCC iter.                  ...        0 min,  0.016 sec
     gradient                   ...        0 min,  0.022 sec
 * total energy  :   -46.4663984 Eh     change       -0.7301930E-04 Eh
   gradient norm :     0.0020813 Eh/α   predicted    -0.5757515E-04 ( -21.15%)
   displ. norm   :     0.0938619 α      lambda       -0.4661098E-04
   maximum displ.:     0.0528006 α      in ANC's #6, #5, #3, ...

........................................................................
.............................. CYCLE   24 ..............................
........................................................................

 iter      E             dE          RMSdq      gap      omega  full diag
   1    -47.1198127 -0.471198E+02  0.322E-02    4.08       0.0  T
   2    -47.1198130 -0.266590E-06  0.190E-02    4.08       1.0  T
   3    -47.1198124  0.550185E-06  0.472E-03    4.08       4.2  T
   4    -47.1198131 -0.667158E-06  0.754E-04    4.08      26.0  T
   5    -47.1198131 -0.483619E-08  0.418E-04    4.08      46.9  T
     SCC iter.                  ...        0 min,  0.013 sec
     gradient                   ...        0 min,  0.022 sec
 * total energy  :   -46.4664361 Eh     change       -0.3768089E-04 Eh
   gradient norm :     0.0029020 Eh/α   predicted    -0.2351277E-04 ( -37.60%)
   displ. norm   :     0.2074050 α      lambda       -0.9342650E-04
   maximum displ.:     0.1284110 α      in ANC's #6, #3, #2, ...

........................................................................
.............................. CYCLE   25 ..............................
........................................................................

 iter      E             dE          RMSdq      gap      omega  full diag
   1    -47.1194145 -0.471194E+02  0.636E-02    4.07       0.0  T
   2    -47.1194149 -0.484121E-06  0.376E-02    4.07       1.0  T
   3    -47.1194144  0.501606E-06  0.512E-03    4.07       3.8  T
   4    -47.1194151 -0.666322E-06  0.131E-03    4.07      14.9  T
   5    -47.1194151 -0.166776E-07  0.700E-04    4.07      28.0  T
   6    -47.1194151 -0.222045E-08  0.298E-04    4.07      65.8  T
     SCC iter.                  ...        0 min,  0.016 sec
     gradient                   ...        0 min,  0.021 sec
 * total energy  :   -46.4665069 Eh     change       -0.7081514E-04 Eh
   gradient norm :     0.0043530 Eh/α   predicted    -0.4873073E-04 ( -31.19%)
   displ. norm   :     0.2554735 α      lambda       -0.1105162E-03
   maximum displ.:     0.1638654 α      in ANC's #6, #3, #2, ...

........................................................................
.............................. CYCLE   26 ..............................
........................................................................

 iter      E             dE          RMSdq      gap      omega  full diag
   1    -47.1186341 -0.471186E+02  0.707E-02    4.04       0.0  T
   2    -47.1186349 -0.821925E-06  0.419E-02    4.04       1.0  T
   3    -47.1186336  0.133756E-05  0.786E-03    4.04       2.5  T
   4    -47.1186352 -0.163641E-05  0.148E-03    4.04      13.3  T
   5    -47.1186352 -0.197498E-07  0.768E-04    4.04      25.5  T
   6    -47.1186352  0.523883E-09  0.397E-04    4.04      49.5  T
     SCC iter.                  ...        0 min,  0.016 sec
     gradient                   ...        0 min,  0.021 sec
 * total energy  :   -46.4665850 Eh     change       -0.7807977E-04 Eh
   gradient norm :     0.0064687 Eh/α   predicted    -0.5886515E-04 ( -24.61%)
   displ. norm   :     0.2172002 α      lambda       -0.1492488E-03
   maximum displ.:     0.1314164 α      in ANC's #6, #3, #1, ...

........................................................................
.............................. CYCLE   27 ..............................
........................................................................

 iter      E             dE          RMSdq      gap      omega  full diag
   1    -47.1191433 -0.471191E+02  0.540E-02    4.02       0.0  T
   2    -47.1191445 -0.113841E-05  0.321E-02    4.02       1.0  T
   3    -47.1191415  0.298584E-05  0.118E-02    4.02       1.7  T
   4    -47.1191451 -0.364618E-05  0.117E-03    4.02      16.8  T
   5    -47.1191451 -0.781635E-08  0.644E-04    4.02      30.5  T
   6    -47.1191452 -0.469871E-08  0.304E-04    4.02      64.5  T
     SCC iter.                  ...        0 min,  0.015 sec
     gradient                   ...        0 min,  0.021 sec
 * total energy  :   -46.4667019 Eh     change       -0.1169749E-03 Eh
   gradient norm :     0.0059566 Eh/α   predicted    -0.7814623E-04 ( -33.19%)
   displ. norm   :     0.2219559 α      lambda       -0.2152215E-03
   maximum displ.:     0.1231482 α      in ANC's #1, #6, #3, ...

........................................................................
.............................. CYCLE   28 ..............................
........................................................................

 iter      E             dE          RMSdq      gap      omega  full diag
   1    -47.1211726 -0.471212E+02  0.534E-02    4.00       0.0  T
   2    -47.1211753 -0.272183E-05  0.314E-02    4.00       1.0  T
   3    -47.1211723  0.294439E-05  0.138E-02    4.00       1.4  T
   4    -47.1211764 -0.401858E-05  0.189E-03    4.00      10.4  T
   5    -47.1211764 -0.409678E-07  0.869E-04    4.00      22.6  T
   6    -47.1211764 -0.557758E-08  0.438E-04    4.00      44.8  T
     SCC iter.                  ...        0 min,  0.016 sec
     gradient                   ...        0 min,  0.022 sec
 * total energy  :   -46.4668397 Eh     change       -0.1377371E-03 Eh
   gradient norm :     0.0031544 Eh/α   predicted    -0.1129244E-03 ( -18.01%)
   displ. norm   :     0.4900443 α      lambda       -0.2071802E-03
   maximum displ.:     0.3135325 α      in ANC's #6, #3, #1, ...

........................................................................
.............................. CYCLE   29 ..............................
........................................................................

 iter      E             dE          RMSdq      gap      omega  full diag
   1    -47.1152963 -0.471153E+02  0.125E-01    3.96       0.0  T
   2    -47.1153065 -0.102496E-04  0.734E-02    3.96       1.0  T
   3    -47.1153024  0.415806E-05  0.180E-02    3.96       1.1  T
   4    -47.1153079 -0.552642E-05  0.480E-03    3.96       4.1  T
   5    -47.1153083 -0.426948E-06  0.200E-03    3.96       9.8  T
   6    -47.1153083 -0.257273E-08  0.812E-04    3.96      24.2  T
   7    -47.1153084 -0.906326E-08  0.265E-04    3.96      74.1  T
     SCC iter.                  ...        0 min,  0.018 sec
     gradient                   ...        0 min,  0.022 sec
 * total energy  :   -46.4666970 Eh     change        0.1426689E-03 Eh
   gradient norm :     0.0146987 Eh/α   predicted    -0.1284718E-03 (-190.05%)
   displ. norm   :     0.2532965 α      lambda       -0.6080993E-03
   maximum displ.:     0.1712921 α      in ANC's #6, #3, #1, ...

........................................................................
.............................. CYCLE   30 ..............................
........................................................................

 iter      E             dE          RMSdq      gap      omega  full diag
   1    -47.1207253 -0.471207E+02  0.777E-02    3.99       0.0  T
   2    -47.1207327 -0.741709E-05  0.445E-02    3.98       1.0  T
   3    -47.1207320  0.734338E-06  0.124E-02    3.98       1.6  T
   4    -47.1207332 -0.125262E-05  0.386E-03    3.98       5.1  T
   5    -47.1207335 -0.298287E-06  0.155E-03    3.98      12.7  T
   6    -47.1207335 -0.501880E-08  0.470E-04    3.98      41.7  T
   7    -47.1207335 -0.181988E-08  0.195E-04    3.98     100.7  T
     SCC iter.                  ...        0 min,  0.018 sec
     gradient                   ...        0 min,  0.021 sec
 * total energy  :   -46.4669372 Eh     change       -0.2401788E-03 Eh
   gradient norm :     0.0020505 Eh/α   predicted    -0.3235467E-03 (  34.71%)
   displ. norm   :     0.0791076 α      lambda       -0.3312868E-04
   maximum displ.:     0.0479223 α      in ANC's #6, #1, #3, ...

........................................................................
.............................. CYCLE   31 ..............................
........................................................................

 iter      E             dE          RMSdq      gap      omega  full diag
   1    -47.1206389 -0.471206E+02  0.201E-02    3.98       0.0  T
   2    -47.1206389 -0.306356E-07  0.119E-02    3.98       1.6  T
   3    -47.1206389  0.300364E-07  0.129E-03    3.98      15.2  T
   4    -47.1206389 -0.417559E-07  0.347E-04    3.98      56.5  T
   5    -47.1206389 -0.763457E-09  0.166E-04    3.98     118.4  T
     SCC iter.                  ...        0 min,  0.013 sec
     gradient                   ...        0 min,  0.023 sec
 * total energy  :   -46.4669679 Eh     change       -0.3066990E-04 Eh
   gradient norm :     0.0016463 Eh/α   predicted    -0.1668160E-04 ( -45.61%)
   displ. norm   :     0.5843360 α      lambda       -0.1434341E-03
   maximum displ.:     0.3559861 α      in ANC's #6, #1, #3, ...

........................................................................
.............................. CYCLE   32 ..............................
........................................................................

 iter      E             dE          RMSdq      gap      omega  full diag
   1    -47.1160713 -0.471161E+02  0.152E-01    3.94       0.0  T
   2    -47.1160770 -0.566227E-05  0.895E-02    3.94       1.0  T
   3    -47.1160760  0.963066E-06  0.984E-03    3.94       2.0  T
   4    -47.1160776 -0.159381E-05  0.407E-03    3.94       4.8  T
   5    -47.1160779 -0.283111E-06  0.183E-03    3.94      10.7  T
   6    -47.1160779 -0.428604E-08  0.598E-04    3.94      32.8  T
   7    -47.1160779 -0.675264E-08  0.201E-04    3.94      97.5  T
     SCC iter.                  ...        0 min,  0.018 sec
     gradient                   ...        0 min,  0.021 sec
 * total energy  :   -46.4668732 Eh     change        0.9461707E-04 Eh
   gradient norm :     0.0116635 Eh/α   predicted    -0.8269595E-04 (-187.40%)
   displ. norm   :     0.2207878 α      lambda       -0.3647721E-03
   maximum displ.:     0.1426980 α      in ANC's #6, #1, #3, ...

........................................................................
.............................. CYCLE   33 ..............................
........................................................................

 iter      E             dE          RMSdq      gap      omega  full diag
   1    -47.1199599 -0.471200E+02  0.620E-02    3.95       0.0  T
   2    -47.1199628 -0.283805E-05  0.360E-02    3.95       1.0  T
   3    -47.1199628 -0.440612E-07  0.615E-03    3.95       3.2  T
   4    -47.1199630 -0.168776E-06  0.188E-03    3.95      10.4  T
   5    -47.1199630 -0.398569E-07  0.103E-03    3.95      19.0  T
   6    -47.1199630 -0.455863E-08  0.243E-04    3.95      80.6  T
   7    -47.1199630 -0.443286E-09  0.971E-05    3.95     202.0  T
     SCC iter.                  ...        0 min,  0.018 sec
     gradient                   ...        0 min,  0.021 sec
 * total energy  :   -46.4670508 Eh     change       -0.1775810E-03 Eh
   gradient norm :     0.0025838 Eh/α   predicted    -0.1908850E-03 (   7.49%)
   displ. norm   :     0.0207266 α      lambda       -0.1280463E-04
   maximum displ.:     0.0147131 α      in ANC's #2, #1, #6, ...

........................................................................
.............................. CYCLE   34 ..............................
........................................................................

 iter      E             dE          RMSdq      gap      omega  full diag
   1    -47.1205552 -0.471206E+02  0.817E-03    3.95       0.0  T
   2    -47.1205553 -0.697010E-07  0.473E-03    3.95       4.1  T
   3    -47.1205553  0.251498E-07  0.136E-03    3.95      14.4  T
   4    -47.1205553 -0.316900E-07  0.441E-04    3.95      44.5  T
   5    -47.1205553 -0.435254E-08  0.147E-04    3.95     133.2  T
     SCC iter.                  ...        0 min,  0.013 sec
     gradient                   ...        0 min,  0.021 sec
 * total energy  :   -46.4670610 Eh     change       -0.1018379E-04 Eh
   gradient norm :     0.0014608 Eh/α   predicted    -0.6412829E-05 ( -37.03%)
   displ. norm   :     0.0787853 α      lambda       -0.1646009E-04
   maximum displ.:     0.0443771 α      in ANC's #2, #6, #1, ...

........................................................................
.............................. CYCLE   35 ..............................
........................................................................

 iter      E             dE          RMSdq      gap      omega  full diag
   1    -47.1214555 -0.471215E+02  0.253E-02    3.95       0.0  T
   2    -47.1214558 -0.296912E-06  0.149E-02    3.95       1.3  T
   3    -47.1214554  0.342600E-06  0.391E-03    3.95       5.0  T
   4    -47.1214558 -0.415015E-06  0.793E-04    3.95      24.7  T
   5    -47.1214558 -0.106422E-07  0.312E-04    3.95      62.9  T
     SCC iter.                  ...        0 min,  0.013 sec
     gradient                   ...        0 min,  0.023 sec
 * total energy  :   -46.4670750 Eh     change       -0.1403213E-04 Eh
   gradient norm :     0.0013199 Eh/α   predicted    -0.8284616E-05 ( -40.96%)
   displ. norm   :     0.0663569 α      lambda       -0.8165599E-05
   maximum displ.:     0.0472116 α      in ANC's #6, #2, #1, ...

........................................................................
.............................. CYCLE   36 ..............................
........................................................................

 iter      E             dE          RMSdq      gap      omega  full diag
   1    -47.1212524 -0.471213E+02  0.183E-02    3.95       0.0  T
   2    -47.1212525 -0.358480E-07  0.108E-02    3.95       1.8  T
   3    -47.1212524  0.516275E-07  0.160E-03    3.95      12.3  T
   4    -47.1212525 -0.666288E-07  0.339E-04    3.95      57.8  T
   5    -47.1212525 -0.413081E-09  0.164E-04    3.95     119.3  T
     SCC iter.                  ...        0 min,  0.013 sec
     gradient                   ...        0 min,  0.021 sec
 * total energy  :   -46.4670852 Eh     change       -0.1016207E-04 Eh
   gradient norm :     0.0009201 Eh/α   predicted    -0.4104958E-05 ( -59.61%)
   displ. norm   :     0.1300814 α      lambda       -0.1425726E-04
   maximum displ.:     0.0958790 α      in ANC's #6, #2, #4, ...

........................................................................
.............................. CYCLE   37 ..............................
........................................................................

 iter      E             dE          RMSdq      gap      omega  full diag
   1    -47.1205548 -0.471206E+02  0.362E-02    3.95       0.0  T
   2    -47.1205549 -0.124520E-06  0.214E-02    3.95       1.0  T
   3    -47.1205548  0.742859E-07  0.246E-03    3.95       8.0  T
   4    -47.1205549 -0.118026E-06  0.715E-04    3.95      27.4  T
   5    -47.1205549 -0.258654E-08  0.359E-04    3.95      54.6  T
     SCC iter.                  ...        0 min,  0.013 sec
     gradient                   ...        0 min,  0.023 sec
 * total energy  :   -46.4670966 Eh     change       -0.1137882E-04 Eh
   gradient norm :     0.0015119 Eh/α   predicted    -0.7243756E-05 ( -36.34%)
   displ. norm   :     0.0443734 α      lambda       -0.5861306E-05
   maximum displ.:     0.0250200 α      in ANC's #2, #1, #3, ...

........................................................................
.............................. CYCLE   38 ..............................
........................................................................

 iter      E             dE          RMSdq      gap      omega  full diag
   1    -47.1206912 -0.471207E+02  0.149E-02    3.96       0.0  T
   2    -47.1206912 -0.366888E-07  0.876E-03    3.96       2.2  T
   3    -47.1206912  0.319326E-07  0.139E-03    3.96      14.1  T
   4    -47.1206912 -0.428933E-07  0.324E-04    3.96      60.6  T
   5    -47.1206912 -0.880249E-09  0.162E-04    3.96     120.8  T
     SCC iter.                  ...        0 min,  0.013 sec
     gradient                   ...        0 min,  0.022 sec
 * total energy  :   -46.4671030 Eh     change       -0.6418507E-05 Eh
   gradient norm :     0.0011329 Eh/α   predicted    -0.2919762E-05 ( -54.51%)
   displ. norm   :     0.0987456 α      lambda       -0.9651225E-05
   maximum displ.:     0.0556435 α      in ANC's #1, #2, #3, ...

........................................................................
.............................. CYCLE   39 ..............................
........................................................................

 iter      E             dE          RMSdq      gap      omega  full diag
   1    -47.1209153 -0.471209E+02  0.321E-02    3.97       0.0  T
   2    -47.1209154 -0.142147E-06  0.189E-02    3.97       1.0  T
   3    -47.1209152  0.250420E-06  0.345E-03    3.97       5.7  T
   4    -47.1209155 -0.312404E-06  0.561E-04    3.97      35.0  T
   5    -47.1209155 -0.163359E-08  0.311E-04    3.97      63.1  T
     SCC iter.                  ...        0 min,  0.013 sec
     gradient                   ...        0 min,  0.022 sec
 * total energy  :   -46.4671127 Eh     change       -0.9660134E-05 Eh
   gradient norm :     0.0006546 Eh/α   predicted    -0.4783176E-05 ( -50.49%)
   displ. norm   :     0.0647585 α      lambda       -0.4371894E-05
   maximum displ.:     0.0378824 α      in ANC's #1, #6, #2, ...

........................................................................
.............................. CYCLE   40 ..............................
........................................................................

 iter      E             dE          RMSdq      gap      omega  full diag
   1    -47.1209762 -0.471210E+02  0.211E-02    3.97       0.0  T
   2    -47.1209762 -0.483046E-07  0.124E-02    3.97       1.6  T
   3    -47.1209761  0.912453E-07  0.196E-03    3.97      10.0  T
   4    -47.1209762 -0.114781E-06  0.339E-04    3.97      57.9  T
   5    -47.1209762 -0.283571E-09  0.183E-04    3.97     107.3  T
     SCC iter.                  ...        0 min,  0.013 sec
     gradient                   ...        0 min,  0.022 sec
 * total energy  :   -46.4671178 Eh     change       -0.5101907E-05 Eh
   gradient norm :     0.0005074 Eh/α   predicted    -0.2173685E-05 ( -57.39%)
   displ. norm   :     0.0361558 α      lambda       -0.3330974E-05
   maximum displ.:     0.0295613 α      in ANC's #1, #4, #6, ...

........................................................................
.............................. CYCLE   41 ..............................
........................................................................

 iter      E             dE          RMSdq      gap      omega  full diag
   1    -47.1210319 -0.471210E+02  0.136E-02    3.98       0.0  T
   2    -47.1210319 -0.153821E-07  0.796E-03    3.98       2.5  T
   3    -47.1210319  0.365485E-07  0.117E-03    3.98      16.7  T
   4    -47.1210319 -0.445242E-07  0.160E-04    3.98     122.7  T
   5    -47.1210319 -0.693277E-10  0.837E-05    3.98     234.2  T
     SCC iter.                  ...        0 min,  0.013 sec
     gradient                   ...        0 min,  0.022 sec
 * total energy  :   -46.4671221 Eh     change       -0.4345027E-05 Eh
   gradient norm :     0.0004067 Eh/α   predicted    -0.1670958E-05 ( -61.54%)
   displ. norm   :     0.0388395 α      lambda       -0.3548283E-05
   maximum displ.:     0.0314145 α      in ANC's #1, #6, #2, ...

   *** GEOMETRY OPTIMIZATION CONVERGED AFTER 41 ITERATIONS ***

------------------------------------------------------------------------
 total energy gain   :        -0.0217582 Eh      -13.6535 kcal/mol
 total RMSD          :         0.8328721 a0        0.4407 Å
 total power (kW/mol):        -1.3933195 (step)  -30.5594 (real)
------------------------------------------------------------------------

 ANCopt (total)                0 d,  0 h,  0 min,  1.869 sec
 optimizer setup                ...        0 min,  0.000 sec (  0.009%)
 model hessian                  ...        0 min,  0.014 sec (  0.752%)
 ANC generation                 ...        0 min,  0.004 sec (  0.192%)
 coordinate transformation      ...        0 min,  0.000 sec (  0.026%)
 single point calculation       ...        0 min,  1.834 sec ( 98.082%)
 optimization log               ...        0 min,  0.007 sec (  0.351%)
 hessian update                 ...        0 min,  0.005 sec (  0.250%)
 rational function              ...        0 min,  0.004 sec (  0.224%)

================
 final structure:
================
26
 xtb: 6.6.1 (8d0f1dd)
C           -1.16220105654967       -1.90902910267186       -0.89336076846847
C           -1.60891751325969       -0.60320281675239       -0.31206045645227
C           -2.96068490880829       -0.33866655572666       -0.13229777547774
C           -3.39488250490425        0.85843052279173        0.40674724636346
C           -2.47807214846834        1.82475109056685        0.78039485434347
C           -1.13526355813170        1.56055854107242        0.60111936338877
F           -0.23784696481432        2.50935035086169        0.94961665655877
C           -0.67486024175826        0.36635729452184        0.05818707497618
C            0.78106770865630        0.15519566439205       -0.08992699559951
C            1.59804513493882        0.08338307544459        1.04570602091114
O            0.99817440468336        0.15695770436415        2.25867068958290
C            2.97045544166669       -0.08558072893599        0.90823289385705
C            3.54364015758396       -0.18374164239093       -0.34657026184427
C            2.75716019481919       -0.11495171140937       -1.48156113419352
C            1.39359311066993        0.05612887641041       -1.33066313958376
F            0.62945474113895        0.13980016085966       -2.44084768588689
H           -1.94026882098725       -2.66106465133880       -0.78858710919156
H           -0.94632361530604       -1.78912945361193       -1.95509342930983
H           -0.25640287986416       -2.26293178020274       -0.40435878184515
H           -3.68365872379064       -1.08857458654950       -0.41782497439875
H           -4.45036423074877        1.04094132146502        0.53949993022374
H           -2.78481209724376        2.76802597814526        1.20320833754278
H            1.66317568459085        0.15357522017852        2.95733367072757
H            3.58946499792129       -0.13854522865661        1.79348937809460
H            4.61053711213853       -0.31397584478176       -0.43860813611712
H            3.17978957582676       -0.18406269804602       -2.47044446820146
 
 Bond Distances (Angstroems)
 ---------------------------
C1-C2=1.4975         C1-H17=1.0872        C1-H18=1.0901        C1-H19=1.0885        C2-C1=1.4975         C2-C3=1.3891         
C2-C8=1.3963         C3-C2=1.3891         C3-C4=1.3828         C3-H20=1.0801        C4-C3=1.3828         C4-C5=1.3834         
C4-H21=1.0793        C5-C4=1.3834         C5-C6=1.3802         C5-H22=1.0783        C6-C5=1.3802         C6-F7=1.3517         
C6-C8=1.3903         F7-C6=1.3517         C8-C2=1.3963         C8-C6=1.3903         C8-C9=1.4786         C9-C8=1.4786         
C9-C10=1.4008        C9-C15=1.3872        C10-C9=1.4008        C10-O11=1.3552       C10-C12=1.3896       O11-C10=1.3552       
O11-H23=0.9646       C12-C10=1.3896       C12-C13=1.3830       C12-H24=1.0815       C13-C12=1.3830       C13-C14=1.3826       
C13-H25=1.0787       C14-C13=1.3826       C14-C15=1.3825       C14-H26=1.0776       C15-C9=1.3872        C15-C14=1.3825       
C15-F16=1.3503       F16-C15=1.3503       H17-C1=1.0872        H18-C1=1.0901        H19-C1=1.0885        H20-C3=1.0801        
H21-C4=1.0793        H22-C5=1.0783        H23-O11=0.9646       H24-C12=1.0815       H25-C13=1.0787       H26-C14=1.0776       
 C  H  Rav=1.0824 sigma=0.0046  Rmin=1.0776  Rmax=1.0901     9
 C  C  Rav=1.4017 sigma=0.0359  Rmin=1.3802  Rmax=1.4975    14
 O  H  Rav=0.9646 sigma=0.0000  Rmin=0.9646  Rmax=0.9646     1
 O  C  Rav=1.3552 sigma=0.0000  Rmin=1.3552  Rmax=1.3552     1
 F  C  Rav=1.3510 sigma=0.0007  Rmin=1.3503  Rmax=1.3517     2
 
 selected bond angles (degree)
 --------------------
H17-C1-C2=110.63               H18-C1-C2=109.95               H18-C1-H17=108.16              H19-C1-C2=110.94               
H19-C1-H17=109.11              H19-C1-H18=107.97              C3-C2-C1=120.44                C8-C2-C1=120.59                
C8-C2-C3=118.98                C4-C3-C2=121.39                H20-C3-C2=119.01               H20-C3-C4=119.60               
C5-C4-C3=120.12                H21-C4-C3=120.09               H21-C4-C5=119.78               C6-C5-C4=118.42                
H22-C5-C4=121.90               H22-C5-C6=119.68               F7-C6-C5=118.56                C8-C6-C5=122.50                
C8-C6-F7=118.93                C6-C8-C2=118.59                C9-C8-C2=122.21                C9-C8-C6=119.20                
C10-C9-C8=120.03               C15-C9-C8=122.31               C15-C9-C10=117.64              O11-C10-C9=117.69              
C12-C10-C9=120.13              C12-C10-O11=122.16             
 
 selected dihedral angles (degree)
 ---------------------------------
C3-C2-C1-H17=339.47           C3-C2-C1-H18= 98.87           C3-C2-C1-H19=218.23           C8-C2-C1-H17=159.43           
C8-C2-C1-H18=278.83           C8-C2-C1-H19= 38.19           C4-C3-C2-C1=179.78            C4-C3-C2-C8=359.82            
H20-C3-C2-C1=  0.00           H20-C3-C2-C8=180.05           C5-C4-C3-C2=  0.00            C5-C4-C3-H20=179.78           
H21-C4-C3-C2=180.16           H21-C4-C3-H20=359.93          C6-C5-C4-C3=  0.00            C6-C5-C4-H21=179.85           
H22-C5-C4-C3=179.99           H22-C5-C4-H21=359.84          F7-C6-C5-C4=179.18            F7-C6-C5-H22=359.19           
C8-C6-C5-C4=  0.18            C8-C6-C5-H22=180.19           C6-C8-C2-C1=180.38            C6-C8-C2-C3=  0.34            
C9-C8-C2-C1=359.45            C9-C8-C2-C3=179.42            C2-C8-C6-C5=359.65            C2-C8-C6-F7=180.65            
C9-C8-C6-C5=180.55            C9-C8-C6-F7=  1.55            C10-C9-C8-C2=245.58           C10-C9-C8-C6= 64.65           
C15-C9-C8-C2= 67.27           C15-C9-C8-C6=246.34           O11-C10-C9-C8=  2.72          O11-C10-C9-C15=181.11         
C12-C10-C9-C8=181.42          C12-C10-C9-C15=359.81         
           -------------------------------------------------
          |                Final Singlepoint                |
           -------------------------------------------------

          ...................................................
          :                      SETUP                      :
          :.................................................:
          :  # basis functions                  74          :
          :  # atomic orbitals                  74          :
          :  # shells                           42          :
          :  # electrons                        82          :
          :  max. iterations                   250          :
          :  Hamiltonian                  GFN2-xTB          :
          :  restarted?                      false          :
          :  GBSA solvation                  false          :
          :  PC potential                    false          :
          :  electronic temp.          298.1500000     K    :
          :  accuracy                    1.0000000          :
          :  -> integral cutoff          0.2500000E+02      :
          :  -> integral neglect         0.1000000E-07      :
          :  -> SCF convergence          0.1000000E-05 Eh   :
          :  -> wf. convergence          0.1000000E-03 e    :
          :  Broyden damping             0.4000000          :
          ...................................................

 iter      E             dE          RMSdq      gap      omega  full diag
   1    -47.1210319 -0.471210E+02  0.419E-05    3.98       0.0  T
   2    -47.1210319 -0.704858E-11  0.271E-05    3.98     724.9  T
   3    -47.1210319 -0.562039E-11  0.171E-05    3.98    1146.4  T

   *** convergence criteria satisfied after 3 iterations ***

         #    Occupation            Energy/Eh            Energy/eV
      -------------------------------------------------------------
         1        2.0000           -0.8146426             -22.1676
       ...           ...                  ...                  ...
        35        2.0000           -0.4502961             -12.2532
        36        2.0000           -0.4428423             -12.0504
        37        2.0000           -0.4253539             -11.5745
        38        2.0000           -0.4132421             -11.2449
        39        2.0000           -0.4018320             -10.9344
        40        2.0000           -0.3978914             -10.8272
        41        2.0000           -0.3925076             -10.6807 (HOMO)
        42                         -0.2463975              -6.7048 (LUMO)
        43                         -0.2291071              -6.2343
        44                         -0.2245342              -6.1099
        45                         -0.2199421              -5.9849
        46                         -0.1094062              -2.9771
       ...                                ...                  ...
        74                          0.6744097              18.3516
      -------------------------------------------------------------
                  HL-Gap            0.1461101 Eh            3.9759 eV
             Fermi-level           -0.3194525 Eh           -8.6927 eV

 SCC (total)                   0 d,  0 h,  0 min,  0.039 sec
 SCC setup                      ...        0 min,  0.000 sec (  0.487%)
 Dispersion                     ...        0 min,  0.000 sec (  0.567%)
 classical contributions        ...        0 min,  0.000 sec (  0.187%)
 integral evaluation            ...        0 min,  0.007 sec ( 18.000%)
 iterations                     ...        0 min,  0.008 sec ( 20.708%)
 molecular gradient             ...        0 min,  0.023 sec ( 59.355%)
 printout                       ...        0 min,  0.000 sec (  0.635%)

         :::::::::::::::::::::::::::::::::::::::::::::::::::::
         ::                     SUMMARY                     ::
         :::::::::::::::::::::::::::::::::::::::::::::::::::::
         :: total energy             -46.467122110908 Eh    ::
         :: gradient norm              0.000406929036 Eh/a0 ::
         :: HOMO-LUMO gap              3.975858736729 eV    ::
         ::.................................................::
         :: SCC energy               -47.121031904843 Eh    ::
         :: -> isotropic ES            0.045150265628 Eh    ::
         :: -> anisotropic ES          0.002464465726 Eh    ::
         :: -> anisotropic XC          0.007518467352 Eh    ::
         :: -> dispersion             -0.027418760388 Eh    ::
         :: repulsion energy           0.653680001240 Eh    ::
         :: add. restraining           0.000000000000 Eh    ::
         :: total charge               0.000000000000 e     ::
         :::::::::::::::::::::::::::::::::::::::::::::::::::::

           -------------------------------------------------
          |                Property Printout                |
           -------------------------------------------------

    * Orbital Energies and Occupations

         #    Occupation            Energy/Eh            Energy/eV
      -------------------------------------------------------------
         1        2.0000           -0.8146426             -22.1676
       ...           ...                  ...                  ...
        29        2.0000           -0.4789779             -13.0337
        30        2.0000           -0.4740784             -12.9003
        31        2.0000           -0.4661300             -12.6840
        32        2.0000           -0.4637711             -12.6199
        33        2.0000           -0.4580941             -12.4654
        34        2.0000           -0.4562733             -12.4158
        35        2.0000           -0.4502961             -12.2532
        36        2.0000           -0.4428423             -12.0504
        37        2.0000           -0.4253539             -11.5745
        38        2.0000           -0.4132421             -11.2449
        39        2.0000           -0.4018320             -10.9344
        40        2.0000           -0.3978914             -10.8272
        41        2.0000           -0.3925076             -10.6807 (HOMO)
        42                         -0.2463975              -6.7048 (LUMO)
        43                         -0.2291071              -6.2343
        44                         -0.2245342              -6.1099
        45                         -0.2199421              -5.9849
        46                         -0.1094062              -2.9771
        47                         -0.0931921              -2.5359
        48                          0.0347834               0.9465
        49                          0.0545688               1.4849
        50                          0.0770998               2.0980
        51                          0.0995535               2.7090
        52                          0.1229123               3.3446
       ...                                ...                  ...
        74                          0.6744097              18.3516
      -------------------------------------------------------------
                  HL-Gap            0.1461101 Eh            3.9759 eV
             Fermi-level           -0.3194525 Eh           -8.6927 eV

     #   Z          covCN         q      C6AA      α(0)
     1   6 C        3.758    -0.109    22.635     6.783
     2   6 C        2.971     0.022    27.514     8.604
     3   6 C        2.924    -0.045    29.129     8.851
     4   6 C        2.923    -0.032    28.788     8.799
     5   6 C        2.917    -0.054    29.342     8.883
     6   6 C        2.791     0.169    24.349     8.083
     7   9 F        0.787    -0.228    11.531     4.011
     8   6 C        2.979     0.003    27.948     8.672
     9   6 C        2.974    -0.014    28.350     8.734
    10   6 C        2.853     0.149    24.761     8.156
    11   8 O        1.660    -0.376    20.389     6.096
    12   6 C        2.916    -0.077    29.927     8.971
    13   6 C        2.924    -0.031    28.775     8.797
    14   6 C        2.916    -0.062    29.554     8.915
    15   6 C        2.790     0.165    24.434     8.097
    16   9 F        0.787    -0.224    11.484     4.003
    17   1 H        0.925     0.045     2.380     2.412
    18   1 H        0.925     0.064     2.149     2.293
    19   1 H        0.925     0.045     2.383     2.414
    20   1 H        0.926     0.042     2.425     2.435
    21   1 H        0.926     0.043     2.414     2.430
    22   1 H        0.926     0.055     2.258     2.350
    23   1 H        0.805     0.305     0.705     1.319
    24   1 H        0.925     0.038     2.475     2.460
    25   1 H        0.926     0.048     2.347     2.396
    26   1 H        0.926     0.059     2.207     2.323

 Mol. C6AA /au·bohr⁶  :       8741.538488
 Mol. C8AA /au·bohr⁸  :     214358.581455
 Mol. α(0) /au        :        147.284693


Wiberg/Mayer (AO) data.
largest (>0.10) Wiberg bond orders for each atom

 ---------------------------------------------------------------------------
     #   Z sym  total        # sym  WBO       # sym  WBO       # sym  WBO
 ---------------------------------------------------------------------------
     1   6 C    3.996 --     2 C    1.030    17 H    0.983    19 H    0.977
                            18 H    0.963
     2   6 C    3.988 --     3 C    1.411     8 C    1.373     1 C    1.030
                             5 C    0.105
     3   6 C    3.990 --     4 C    1.445     2 C    1.411    20 H    0.968
     4   6 C    3.990 --     3 C    1.445     5 C    1.432    21 H    0.970
                             8 C    0.105
     5   6 C    3.988 --     4 C    1.432     6 C    1.404    22 H    0.967
                             2 C    0.105
     6   6 C    3.885 --     5 C    1.404     8 C    1.362     7 F    0.956
     7   9 F    1.086 --     6 C    0.956
     8   6 C    3.988 --     2 C    1.373     6 C    1.362     9 C    1.019
                             4 C    0.105
     9   6 C    3.986 --    15 C    1.375    10 C    1.321     8 C    1.019
                            13 C    0.103
    10   6 C    3.942 --    12 C    1.374     9 C    1.321    11 O    1.089
    11   8 O    2.142 --    10 C    1.089    23 H    0.885
    12   6 C    3.985 --    13 C    1.443    10 C    1.374    24 H    0.965
    13   6 C    3.989 --    12 C    1.443    14 C    1.435    25 H    0.970
                             9 C    0.103
    14   6 C    3.987 --    13 C    1.435    15 C    1.392    26 H    0.967
    15   6 C    3.886 --    14 C    1.392     9 C    1.375    16 F    0.959
    16   9 F    1.091 --    15 C    0.959
    17   1 H    0.998 --     1 C    0.983
    18   1 H    0.996 --     1 C    0.963
    19   1 H    0.998 --     1 C    0.977
    20   1 H    0.998 --     3 C    0.968
    21   1 H    0.998 --     4 C    0.970
    22   1 H    0.996 --     5 C    0.967
    23   1 H    0.906 --    11 O    0.885
    24   1 H    0.998 --    12 C    0.965
    25   1 H    0.997 --    13 C    0.970
    26   1 H    0.996 --    14 C    0.967
 ---------------------------------------------------------------------------

Topologies differ in total number of bonds
Writing topology from bond orders to xtbtopo.mol

molecular dipole:
                 x           y           z       tot (Debye)
 q only:        0.290      -0.841       0.549
   full:        0.517      -0.846       0.690       3.069
molecular quadrupole (traceless):
                xx          xy          yy          xz          yz          zz
 q only:        9.859      -1.134      -6.600       3.455       0.163      -3.259
  q+dip:       13.683      -2.347      -9.184       4.208       1.375      -4.499
   full:       11.264      -1.763      -7.766       4.663       0.154      -3.498

           -------------------------------------------------
          |                Geometry Summary                 |
           -------------------------------------------------

      molecular mass/u    :      220.2151854
   center of mass at/Å    :        0.0814119       0.3105285      -0.0073380
  moments of inertia/u·Å² :        0.5682033E+03   0.1103495E+04   0.1329867E+04
rotational constants/cm⁻¹ :        0.2966831E-01   0.1527659E-01   0.1267618E-01

 * 23 selected distances

     #   Z          #   Z                                           value/Å
     2   6 C        3   6 C                                       1.3890895
     3   6 C        4   6 C                                       1.3828011
     4   6 C        5   6 C                                       1.3834484
     5   6 C        6   6 C                                       1.3802437
     2   6 C        8   6 C                                       1.3962784
     6   6 C        8   6 C                                       1.3902747
     9   6 C       10   6 C                                       1.4008111 (max)
    10   6 C       11   8 O                                       1.3551907
    10   6 C       12   6 C                                       1.3895892
    12   6 C       13   6 C                                       1.3830067
    13   6 C       14   6 C                                       1.3825655
     9   6 C       15   6 C                                       1.3872376
    14   6 C       15   6 C                                       1.3825174
     1   6 C       17   1 H                                       1.0871636
     1   6 C       18   1 H                                       1.0900713
     1   6 C       19   1 H                                       1.0885038
     3   6 C       20   1 H                                       1.0800830
     4   6 C       21   1 H                                       1.0793402
     5   6 C       22   1 H                                       1.0782525
    11   8 O       23   1 H                                       0.9645560 (min)
    12   6 C       24   1 H                                       1.0815070
    13   6 C       25   1 H                                       1.0787499
    14   6 C       26   1 H                                       1.0776281

 * 4 distinct bonds (by element types)

   Z      Z             #   av. dist./Å        max./Å        min./Å
   1 H    6 C           9     1.0823666     1.0900713     1.0776281
   6 C    6 C          12     1.3873219     1.4008111     1.3802437
   1 H    8 O           1     0.9645560     0.9645560     0.9645560
   6 C    8 O           1     1.3551907     1.3551907     1.3551907


optimized geometry written to: xtbopt.xyz


           -------------------------------------------------
          | TOTAL ENERGY              -46.467122110908 Eh   |
          | GRADIENT NORM               0.000406929036 Eh/α |
          | HOMO-LUMO GAP               3.975858736729 eV   |
           -------------------------------------------------

------------------------------------------------------------------------
 * finished run on 2025/08/28 at 10:02:01.349     
------------------------------------------------------------------------
 total:
 * wall-time:     0 d,  0 h,  0 min,  2.042 sec
 *  cpu-time:     0 d,  0 h,  0 min,  4.023 sec
 * ratio c/w:     1.970 speedup
 SCF:
 * wall-time:     0 d,  0 h,  0 min,  0.087 sec
 *  cpu-time:     0 d,  0 h,  0 min,  0.149 sec
 * ratio c/w:     1.709 speedup
 ANC optimizer:
 * wall-time:     0 d,  0 h,  0 min,  1.911 sec
 *  cpu-time:     0 d,  0 h,  0 min,  3.804 sec
 * ratio c/w:     1.991 speedup

