26
 energy: -46.467122110908 gnorm: 0.000406929036 xtb: 6.6.1 (8d0f1dd)
C           -1.16220105654967       -1.90902910267186       -0.89336076846847
C           -1.60891751325969       -0.60320281675239       -0.31206045645227
C           -2.96068490880829       -0.33866655572666       -0.13229777547774
C           -3.39488250490425        0.85843052279173        0.40674724636346
C           -2.47807214846834        1.82475109056685        0.78039485434347
C           -1.13526355813170        1.56055854107242        0.60111936338877
F           -0.23784696481432        2.50935035086169        0.94961665655877
C           -0.67486024175826        0.36635729452184        0.05818707497618
C            0.78106770865630        0.15519566439205       -0.08992699559951
C            1.59804513493882        0.08338307544459        1.04570602091114
O            0.99817440468336        0.15695770436415        2.25867068958290
C            2.97045544166669       -0.08558072893599        0.90823289385705
C            3.54364015758396       -0.18374164239093       -0.34657026184427
C            2.75716019481919       -0.11495171140937       -1.48156113419352
C            1.39359311066993        0.05612887641041       -1.33066313958376
F            0.62945474113895        0.13980016085966       -2.44084768588689
H           -1.94026882098725       -2.66106465133880       -0.78858710919156
H           -0.94632361530604       -1.78912945361193       -1.95509342930983
H           -0.25640287986416       -2.26293178020274       -0.40435878184515
H           -3.68365872379064       -1.08857458654950       -0.41782497439875
H           -4.45036423074877        1.04094132146502        0.53949993022374
H           -2.78481209724376        2.76802597814526        1.20320833754278
H            1.66317568459085        0.15357522017852        2.95733367072757
H            3.58946499792129       -0.13854522865661        1.79348937809460
H            4.61053711213853       -0.31397584478176       -0.43860813611712
H            3.17978957582676       -0.18406269804602       -2.47044446820146
