      -----------------------------------------------------------      
     |                   =====================                   |     
     |                           x T B                           |     
     |                   =====================                   |     
     |                         S. Grimme                         |     
     |          Mulliken Center for Theoretical Chemistry        |     
     |                    University of Bonn                     |     
      -----------------------------------------------------------      

   * xtb version 6.6.1 (8d0f1dd) compiled by 'stahn@M-Bot' on 2023-08-01

   xtb is free software: you can redistribute it and/or modify it under
   the terms of the GNU Lesser General Public License as published by
   the Free Software Foundation, either version 3 of the License, or
   (at your option) any later version.
   
   xtb is distributed in the hope that it will be useful,
   but WITHOUT ANY WARRANTY; without even the implied warranty of
   MERCHANTABILITY or FITNESS FOR A PARTICULAR PURPOSE.  See the
   GNU Lesser General Public License for more details.
   
   Cite this work as:
   * C. Bannwarth, E. Caldeweyher, S. Ehlert, A. Hansen, P. Pracht,
     J. Seibert, S. Spicher, S. Grimme, WIREs Comput. Mol. Sci., 2020, 11,
     e01493. DOI: 10.1002/wcms.1493
   
   for GFN2-xTB:
   * C. Bannwarth, S. Ehlert and S. Grimme., J. Chem. Theory Comput., 2019,
     15, 1652-1671. DOI: 10.1021/acs.jctc.8b01176
   for GFN1-xTB:
   * S. Grimme, C. Bannwarth, P. Shushkov, J. Chem. Theory Comput., 2017,
     13, 1989-2009. DOI: 10.1021/acs.jctc.7b00118
   for GFN0-xTB:
   * P. Pracht, E. Caldeweyher, S. Ehlert, S. Grimme, ChemRxiv, 2019, preprint.
     DOI: 10.26434/chemrxiv.8326202.v1
   for GFN-FF:
   * S. Spicher and S. Grimme, Angew. Chem. Int. Ed., 2020, 59, 15665-15673.
     DOI: 10.1002/anie.202004239
   
   for ALPB and GBSA implicit solvation:
   * S. Ehlert, M. Stahn, S. Spicher, S. Grimme, J. Chem. Theory Comput.,
     2021, 17, 4250-4261. DOI: 10.1021/acs.jctc.1c00471
   
   for DFT-D4:
   * E. Caldeweyher, C. Bannwarth and S. Grimme, J. Chem. Phys., 2017,
     147, 034112. DOI: 10.1063/1.4993215
   * E. Caldeweyher, S. Ehlert, A. Hansen, H. Neugebauer, S. Spicher,
     C. Bannwarth and S. Grimme, J. Chem. Phys., 2019, 150, 154122.
     DOI: 10.1063/1.5090222
   * E. Caldeweyher, J.-M. Mewes, S. Ehlert and S. Grimme, Phys. Chem. Chem. Phys.
     2020, 22, 8499-8512. DOI: 10.1039/D0CP00502A
   
   for sTDA-xTB:
   * S. Grimme and C. Bannwarth, J. Chem. Phys., 2016, 145, 054103.
     DOI: 10.1063/1.4959605
   
   in the mass-spec context:
   * V. Asgeirsson, C. Bauer and S. Grimme, Chem. Sci., 2017, 8, 4879.
     DOI: 10.1039/c7sc00601b
   * J. Koopman and S. Grimme, ACS Omega 2019, 4, 12, 15120-15133.
     DOI: 10.1021/acsomega.9b02011
   
   for metadynamics refer to:
   * S. Grimme, J. Chem. Theory Comput., 2019, 155, 2847-2862
     DOI: 10.1021/acs.jctc.9b00143
   
   for SPH calculations refer to:
   * S. Spicher and S. Grimme, J. Chem. Theory Comput., 2021, 17, 1701-1714
     DOI: 10.1021/acs.jctc.0c01306
   
   with help from (in alphabetical order)
   P. Atkinson, C. Bannwarth, F. Bohle, G. Brandenburg, E. Caldeweyher
   M. Checinski, S. Dohm, S. Ehlert, S. Ehrlich, I. Gerasimov, C. Hölzer
   A. Katbashev, J. Koopman, C. Lavigne, S. Lehtola, F. März, M. Müller,
   F. Musil, H. Neugebauer, J. Pisarek, C. Plett, P. Pracht, F. Pultar,
   J. Seibert, P. Shushkov, S. Spicher, M. Stahn, M. Steiner, T. Strunk,
   J. Stückrath, T. Rose, and J. Unsleber
   
 * started run on 2025/08/28 at 10:02:17.514     

           -------------------------------------------------
          |                Calculation Setup                |
           -------------------------------------------------

          program call               : /path/to/xtb /path/to/8.xyz --opt --etemp 298.15 --chrg 0 --uhf 0 -P 4
          hostname                   : semlscpn101
          coordinate file            : /path/to/8.xyz
          omp threads                :                     4

   ID    Z sym.   atoms
    1    6 C      1-6, 8-10, 12-15
    2    9 F      7, 16
    3    8 O      11
    4    1 H      17-26

           -------------------------------------------------
          |                 G F N 2 - x T B                 |
           -------------------------------------------------

        Reference                      10.1021/acs.jctc.8b01176
      * Hamiltonian:
        H0-scaling (s, p, d)           1.850000    2.230000    2.230000
        zeta-weighting                 0.500000
      * Dispersion:
        s8                             2.700000
        a1                             0.520000
        a2                             5.000000
        s9                             5.000000
      * Repulsion:
        kExp                           1.500000    1.000000
        rExp                           1.000000
      * Coulomb:
        alpha                          2.000000
        third order                    shell-resolved
        anisotropic                    true
        a3                             3.000000
        a5                             4.000000
        cn-shift                       1.200000
        cn-exp                         4.000000
        max-rad                        5.000000


          ...................................................
          :                      SETUP                      :
          :.................................................:
          :  # basis functions                  74          :
          :  # atomic orbitals                  74          :
          :  # shells                           42          :
          :  # electrons                        82          :
          :  max. iterations                   250          :
          :  Hamiltonian                  GFN2-xTB          :
          :  restarted?                      false          :
          :  GBSA solvation                  false          :
          :  PC potential                    false          :
          :  electronic temp.          298.1500000     K    :
          :  accuracy                    1.0000000          :
          :  -> integral cutoff          0.2500000E+02      :
          :  -> integral neglect         0.1000000E-07      :
          :  -> SCF convergence          0.1000000E-05 Eh   :
          :  -> wf. convergence          0.1000000E-03 e    :
          :  Broyden damping             0.4000000          :
          ...................................................

 iter      E             dE          RMSdq      gap      omega  full diag
   1    -47.0553042 -0.470553E+02  0.448E+00    4.38       0.0  T
   2    -47.0953880 -0.400839E-01  0.275E+00    4.24       1.0  T
   3    -47.0893877  0.600032E-02  0.142E+00    4.18       1.0  T
   4    -47.1079709 -0.185831E-01  0.239E-01    4.22       1.0  T
   5    -47.1082335 -0.262698E-03  0.848E-02    4.28       1.0  T
   6    -47.1083180 -0.844097E-04  0.437E-02    4.27       1.0  T
   7    -47.1083299 -0.119779E-04  0.171E-02    4.26       1.1  T
   8    -47.1083328 -0.286740E-05  0.787E-03    4.26       2.5  T
   9    -47.1083335 -0.746308E-06  0.147E-03    4.26      13.3  T
  10    -47.1083336 -0.117977E-07  0.784E-04    4.26      25.0  T
  11    -47.1083336 -0.361116E-08  0.336E-04    4.26      58.4  T

   *** convergence criteria satisfied after 11 iterations ***

         #    Occupation            Energy/Eh            Energy/eV
      -------------------------------------------------------------
         1        2.0000           -0.8193313             -22.2951
       ...           ...                  ...                  ...
        35        2.0000           -0.4541566             -12.3582
        36        2.0000           -0.4505709             -12.2607
        37        2.0000           -0.4353991             -11.8478
        38        2.0000           -0.4171356             -11.3508
        39        2.0000           -0.4120569             -11.2126
        40        2.0000           -0.4100772             -11.1588
        41        2.0000           -0.3975727             -10.8185 (HOMO)
        42                         -0.2408900              -6.5549 (LUMO)
        43                         -0.2382456              -6.4830
        44                         -0.2367530              -6.4424
        45                         -0.2316490              -6.3035
        46                         -0.1088437              -2.9618
       ...                                ...                  ...
        74                          0.6826668              18.5763
      -------------------------------------------------------------
                  HL-Gap            0.1566827 Eh            4.2636 eV
             Fermi-level           -0.3192313 Eh           -8.6867 eV

 SCC (total)                   0 d,  0 h,  0 min,  0.112 sec
 SCC setup                      ...        0 min,  0.000 sec (  0.263%)
 Dispersion                     ...        0 min,  0.000 sec (  0.444%)
 classical contributions        ...        0 min,  0.000 sec (  0.131%)
 integral evaluation            ...        0 min,  0.005 sec (  4.840%)
 iterations                     ...        0 min,  0.089 sec ( 79.559%)
 molecular gradient             ...        0 min,  0.016 sec ( 14.322%)
 printout                       ...        0 min,  0.000 sec (  0.418%)

         :::::::::::::::::::::::::::::::::::::::::::::::::::::
         ::                     SUMMARY                     ::
         :::::::::::::::::::::::::::::::::::::::::::::::::::::
         :: total energy             -46.455173990642 Eh    ::
         :: gradient norm              0.079379988228 Eh/a0 ::
         :: HOMO-LUMO gap              4.263552974747 eV    ::
         ::.................................................::
         :: SCC energy               -47.108333565408 Eh    ::
         :: -> isotropic ES            0.046806114793 Eh    ::
         :: -> anisotropic ES          0.002550869386 Eh    ::
         :: -> anisotropic XC          0.008282967182 Eh    ::
         :: -> dispersion             -0.027668143986 Eh    ::
         :: repulsion energy           0.652917041057 Eh    ::
         :: add. restraining           0.000000000000 Eh    ::
         :: total charge               0.000000000000 e     ::
         :::::::::::::::::::::::::::::::::::::::::::::::::::::

      ----------------------------------------------------------- 
     |                   =====================                   |
     |                        A N C O P T                        |
     |                   =====================                   |
     |               Approximate Normal Coordinate               |
     |                Rational Function Optimizer                |
      ----------------------------------------------------------- 

          ...................................................
          :                      SETUP                      :
          :.................................................:
          :   optimization level            normal          :
          :   max. optcycles                   200          :
          :   ANC micro-cycles                  20          :
          :   degrees of freedom                72          :
          :.................................................:
          :   RF solver                   davidson          :
          :   write xtbopt.log                true          :
          :   linear?                        false          :
          :   energy convergence         0.5000000E-05 Eh   :
          :   grad. convergence          0.1000000E-02 Eh/α :
          :   maxmium RF displ.          1.0000000          :
          :   Hlow (freq-cutoff)         0.1000000E-01      :
          :   Hmax (freq-cutoff)         5.0000000          :
          :   S6 in model hess.         20.0000000          :
          ...................................................

generating ANC from model Hessian ...
Using Lindh-Hessian (1995)
 Shifting diagonal of input Hessian by   8.600635240380015E-003
 Lowest  eigenvalues of input Hessian
    0.000000    0.000000    0.000000    0.000000    0.000000    0.000000
    0.010000    0.010370    0.010798    0.013982    0.014724    0.017137
    0.020234    0.022219    0.025125    0.029190    0.030551    0.032733
 Highest eigenvalues
    1.918001    1.942857    2.053927    2.118121    2.120476    2.176778
 

........................................................................
.............................. CYCLE    1 ..............................
........................................................................

 iter      E             dE          RMSdq      gap      omega  full diag
   1    -47.1083336 -0.471083E+02  0.101E-04    4.26       0.0  T
   2    -47.1083336 -0.322018E-10  0.613E-05    4.26     319.9  T
   3    -47.1083336 -0.608225E-11  0.383E-05    4.26     512.1  T
     SCC iter.                  ...        0 min,  0.012 sec
     gradient                   ...        0 min,  0.014 sec
 * total energy  :   -46.4551740 Eh     change       -0.9274572E-09 Eh
   gradient norm :     0.0793813 Eh/α   predicted     0.0000000E+00 (-100.00%)
   displ. norm   :     0.2457782 α      lambda       -0.1294291E-01
   maximum displ.:     0.0854913 α      in ANC's #31, #22, #24, ...

........................................................................
.............................. CYCLE    2 ..............................
........................................................................

 iter      E             dE          RMSdq      gap      omega  full diag
   1    -47.1149225 -0.471149E+02  0.250E-01    4.16       0.0  T
   2    -47.1150519 -0.129349E-03  0.160E-01    4.19       1.0  T
   3    -47.1149802  0.717137E-04  0.841E-02    4.19       1.0  T
   4    -47.1151157 -0.135529E-03  0.170E-02    4.19       1.2  T
   5    -47.1151206 -0.494540E-05  0.528E-03    4.19       3.7  T
   6    -47.1151211 -0.470307E-06  0.229E-03    4.19       8.6  T
   7    -47.1151211 -0.194127E-07  0.888E-04    4.19      22.1  T
   8    -47.1151211 -0.355875E-08  0.362E-04    4.19      54.1  T
     SCC iter.                  ...        0 min,  0.029 sec
     gradient                   ...        0 min,  0.014 sec
 * total energy  :   -46.4639704 Eh     change       -0.8796410E-02 Eh
   gradient norm :     0.0310147 Eh/α   predicted    -0.6862628E-02 ( -21.98%)
   displ. norm   :     0.1871207 α      lambda       -0.3504677E-02
   maximum displ.:     0.0703652 α      in ANC's #22, #15, #24, ...

........................................................................
.............................. CYCLE    3 ..............................
........................................................................

 iter      E             dE          RMSdq      gap      omega  full diag
   1    -47.1178294 -0.471178E+02  0.160E-01    4.13       0.0  T
   2    -47.1178991 -0.697458E-04  0.100E-01    4.14       1.0  T
   3    -47.1178860  0.131395E-04  0.579E-02    4.14       1.0  T
   4    -47.1179339 -0.479405E-04  0.125E-02    4.14       1.6  T
   5    -47.1179361 -0.215550E-05  0.385E-03    4.14       5.1  T
   6    -47.1179363 -0.234048E-06  0.183E-03    4.14      10.7  T
   7    -47.1179364 -0.150081E-07  0.716E-04    4.14      27.4  T
   8    -47.1179364 -0.130816E-08  0.279E-04    4.14      70.2  T
     SCC iter.                  ...        0 min,  0.029 sec
     gradient                   ...        0 min,  0.016 sec
 * total energy  :   -46.4660063 Eh     change       -0.2035919E-02 Eh
   gradient norm :     0.0121033 Eh/α   predicted    -0.1813900E-02 ( -10.91%)
   displ. norm   :     0.1063565 α      lambda       -0.4474090E-03
   maximum displ.:     0.0403075 α      in ANC's #15, #1, #5, ...

........................................................................
.............................. CYCLE    4 ..............................
........................................................................

 iter      E             dE          RMSdq      gap      omega  full diag
   1    -47.1177602 -0.471178E+02  0.523E-02    4.12       0.0  T
   2    -47.1177656 -0.541110E-05  0.307E-02    4.12       1.0  T
   3    -47.1177630  0.263520E-05  0.193E-02    4.12       1.0  T
   4    -47.1177685 -0.547884E-05  0.324E-03    4.12       6.1  T
   5    -47.1177686 -0.116302E-06  0.129E-03    4.12      15.2  T
   6    -47.1177686 -0.208101E-07  0.722E-04    4.12      27.2  T
   7    -47.1177686 -0.383988E-08  0.232E-04    4.12      84.5  T
     SCC iter.                  ...        0 min,  0.025 sec
     gradient                   ...        0 min,  0.016 sec
 * total energy  :   -46.4663301 Eh     change       -0.3237875E-03 Eh
   gradient norm :     0.0109535 Eh/α   predicted    -0.2262370E-03 ( -30.13%)
   displ. norm   :     0.1324175 α      lambda       -0.3518114E-03
   maximum displ.:     0.0659542 α      in ANC's #1, #3, #5, ...

........................................................................
.............................. CYCLE    5 ..............................
........................................................................

 iter      E             dE          RMSdq      gap      omega  full diag
   1    -47.1184226 -0.471184E+02  0.503E-02    4.12       0.0  T
   2    -47.1184246 -0.201979E-05  0.297E-02    4.11       1.0  T
   3    -47.1184211  0.351170E-05  0.158E-02    4.11       1.2  T
   4    -47.1184259 -0.479344E-05  0.185E-03    4.11      10.6  T
   5    -47.1184259 -0.340293E-07  0.104E-03    4.11      18.9  T
   6    -47.1184259 -0.109013E-07  0.537E-04    4.11      36.5  T
   7    -47.1184259 -0.213954E-08  0.144E-04    4.11     136.6  T
     SCC iter.                  ...        0 min,  0.025 sec
     gradient                   ...        0 min,  0.016 sec
 * total energy  :   -46.4665636 Eh     change       -0.2334754E-03 Eh
   gradient norm :     0.0074306 Eh/α   predicted    -0.1789938E-03 ( -23.34%)
   displ. norm   :     0.1131992 α      lambda       -0.1551121E-03
   maximum displ.:     0.0618311 α      in ANC's #1, #3, #5, ...

........................................................................
.............................. CYCLE    6 ..............................
........................................................................

 iter      E             dE          RMSdq      gap      omega  full diag
   1    -47.1189487 -0.471189E+02  0.384E-02    4.11       0.0  T
   2    -47.1189493 -0.650459E-06  0.228E-02    4.11       1.0  T
   3    -47.1189474  0.191502E-05  0.973E-03    4.11       2.0  T
   4    -47.1189499 -0.241922E-05  0.110E-03    4.11      17.8  T
   5    -47.1189499 -0.300194E-08  0.680E-04    4.11      28.8  T
   6    -47.1189499 -0.394021E-08  0.174E-04    4.11     112.4  T
     SCC iter.                  ...        0 min,  0.022 sec
     gradient                   ...        0 min,  0.016 sec
 * total energy  :   -46.4666802 Eh     change       -0.1166154E-03 Eh
   gradient norm :     0.0060926 Eh/α   predicted    -0.7856451E-04 ( -32.63%)
   displ. norm   :     0.1417172 α      lambda       -0.1484649E-03
   maximum displ.:     0.0811492 α      in ANC's #1, #3, #5, ...

........................................................................
.............................. CYCLE    7 ..............................
........................................................................

 iter      E             dE          RMSdq      gap      omega  full diag
   1    -47.1196991 -0.471197E+02  0.491E-02    4.11       0.0  T
   2    -47.1197002 -0.110867E-05  0.290E-02    4.11       1.0  T
   3    -47.1196977  0.255741E-05  0.111E-02    4.11       1.8  T
   4    -47.1197009 -0.322569E-05  0.138E-03    4.11      14.2  T
   5    -47.1197009 -0.816281E-08  0.778E-04    4.11      25.2  T
   6    -47.1197009 -0.304961E-08  0.341E-04    4.11      57.4  T
     SCC iter.                  ...        0 min,  0.022 sec
     gradient                   ...        0 min,  0.016 sec
 * total energy  :   -46.4667798 Eh     change       -0.9956578E-04 Eh
   gradient norm :     0.0029105 Eh/α   predicted    -0.7572637E-04 ( -23.94%)
   displ. norm   :     0.1166422 α      lambda       -0.5920242E-04
   maximum displ.:     0.0621730 α      in ANC's #1, #3, #2, ...

........................................................................
.............................. CYCLE    8 ..............................
........................................................................

 iter      E             dE          RMSdq      gap      omega  full diag
   1    -47.1192513 -0.471193E+02  0.394E-02    4.10       0.0  T
   2    -47.1192522 -0.919091E-06  0.235E-02    4.11       1.0  T
   3    -47.1192499  0.231808E-05  0.107E-02    4.10       1.8  T
   4    -47.1192529 -0.296912E-05  0.128E-03    4.10      15.3  T
   5    -47.1192529 -0.127600E-07  0.745E-04    4.10      26.3  T
   6    -47.1192529 -0.443872E-08  0.328E-04    4.10      59.7  T
     SCC iter.                  ...        0 min,  0.022 sec
     gradient                   ...        0 min,  0.014 sec
 * total energy  :   -46.4668072 Eh     change       -0.2745843E-04 Eh
   gradient norm :     0.0037976 Eh/α   predicted    -0.3000770E-04 (   9.28%)
   displ. norm   :     0.0631533 α      lambda       -0.4738054E-04
   maximum displ.:     0.0339791 α      in ANC's #3, #1, #2, ...

........................................................................
.............................. CYCLE    9 ..............................
........................................................................

 iter      E             dE          RMSdq      gap      omega  full diag
   1    -47.1201172 -0.471201E+02  0.255E-02    4.11       0.0  T
   2    -47.1201175 -0.314155E-06  0.149E-02    4.11       1.3  T
   3    -47.1201173  0.203630E-06  0.371E-03    4.11       5.3  T
   4    -47.1201176 -0.324519E-06  0.107E-03    4.11      18.3  T
   5    -47.1201177 -0.606631E-08  0.573E-04    4.11      34.2  T
   6    -47.1201177 -0.140341E-08  0.286E-04    4.11      68.6  T
     SCC iter.                  ...        0 min,  0.022 sec
     gradient                   ...        0 min,  0.014 sec
 * total energy  :   -46.4668186 Eh     change       -0.1142027E-04 Eh
   gradient norm :     0.0035194 Eh/α   predicted    -0.2379080E-04 ( 108.32%)
   displ. norm   :     0.0127505 α      lambda       -0.1404279E-04
   maximum displ.:     0.0078124 α      in ANC's #2, #3, #6, ...

........................................................................
.............................. CYCLE   10 ..............................
........................................................................

 iter      E             dE          RMSdq      gap      omega  full diag
   1    -47.1197877 -0.471198E+02  0.731E-03    4.11       0.0  T
   2    -47.1197878 -0.641499E-07  0.418E-03    4.11       4.7  T
   3    -47.1197878  0.406551E-07  0.189E-03    4.11      10.4  T
   4    -47.1197878 -0.608887E-07  0.477E-04    4.11      41.1  T
   5    -47.1197878 -0.204954E-08  0.220E-04    4.11      89.3  T
     SCC iter.                  ...        0 min,  0.018 sec
     gradient                   ...        0 min,  0.014 sec
 * total energy  :   -46.4668276 Eh     change       -0.8970278E-05 Eh
   gradient norm :     0.0008786 Eh/α   predicted    -0.7023970E-05 ( -21.70%)
   displ. norm   :     0.0285736 α      lambda       -0.4860046E-05
   maximum displ.:     0.0230115 α      in ANC's #2, #6, #4, ...

........................................................................
.............................. CYCLE   11 ..............................
........................................................................

 iter      E             dE          RMSdq      gap      omega  full diag
   1    -47.1196312 -0.471196E+02  0.104E-02    4.11       0.0  T
   2    -47.1196312 -0.401150E-07  0.607E-03    4.11       3.2  T
   3    -47.1196311  0.595400E-07  0.195E-03    4.11      10.1  T
   4    -47.1196312 -0.736390E-07  0.312E-04    4.11      62.8  T
   5    -47.1196312 -0.979071E-09  0.155E-04    4.11     126.2  T
     SCC iter.                  ...        0 min,  0.018 sec
     gradient                   ...        0 min,  0.014 sec
 * total energy  :   -46.4668326 Eh     change       -0.4962269E-05 Eh
   gradient norm :     0.0007355 Eh/α   predicted    -0.2433643E-05 ( -50.96%)
   displ. norm   :     0.0386035 α      lambda       -0.3707896E-05
   maximum displ.:     0.0291732 α      in ANC's #2, #6, #1, ...

   *** GEOMETRY OPTIMIZATION CONVERGED AFTER 11 ITERATIONS ***

------------------------------------------------------------------------
 total energy gain   :        -0.0116586 Eh       -7.3159 kcal/mol
 total RMSD          :         0.1718622 a0        0.0909 Å
 total power (kW/mol):        -2.7826918 (step)  -61.9460 (real)
------------------------------------------------------------------------

 ANCopt (total)                0 d,  0 h,  0 min,  0.494 sec
 optimizer setup                ...        0 min,  0.000 sec (  0.046%)
 model hessian                  ...        0 min,  0.015 sec (  3.023%)
 ANC generation                 ...        0 min,  0.003 sec (  0.552%)
 coordinate transformation      ...        0 min,  0.000 sec (  0.028%)
 single point calculation       ...        0 min,  0.469 sec ( 94.982%)
 optimization log               ...        0 min,  0.002 sec (  0.341%)
 hessian update                 ...        0 min,  0.003 sec (  0.708%)
 rational function              ...        0 min,  0.001 sec (  0.188%)

================
 final structure:
================
26
 xtb: 6.6.1 (8d0f1dd)
C           -1.18291753160539        1.95179541299797       -0.50624172093957
C           -1.56257695008906        0.55404987441657       -0.12225128172944
C           -2.90525531337638        0.19719128531053       -0.05605571793576
C           -3.29336303812006       -1.08342424514044        0.28947060849329
C           -2.34064807891422       -2.04634923546482        0.57471881727345
C           -1.00851364138627       -1.69059823408733        0.50879722479268
F           -0.07054825932258       -2.62595594932283        0.77421369933740
C           -0.59222044077778       -0.40708433163797        0.16636983669375
C            0.86014067851660       -0.09435984241733        0.13489669437208
C            1.61755559398214       -0.29910476159073       -1.02219941649891
O            1.05602839835389       -0.77043370031214       -2.16169067829764
C            2.97701011862249       -0.00254216786953       -1.02588857501166
C            3.58650853212129        0.48734808799448        0.11201032987111
C            2.85685198809432        0.69180943825444        1.27121370666406
C            1.50819519674481        0.39572116712980        1.26072942875363
F            0.78303268450368        0.60161390523021        2.38119344131667
H           -1.52749757801497        2.16946396892227       -1.51681040133836
H           -1.65613246301849        2.66425916066388        0.16725668307824
H           -0.10659234303363        2.09763105079276       -0.46654205776317
H           -3.65347005354015        0.94399265733450       -0.27640999245905
H           -4.34110940697985       -1.33647794332575        0.33936521728658
H           -2.61139529768532       -3.05324761785449        0.84860331919791
H            0.11972990913232       -0.96132136799286       -2.01011031002796
H            3.53320724189763       -0.16766373179239       -1.93410190228739
H            4.64129569346627        0.71275653123937        0.09840929875711
H            3.31268336042854        1.07092958852189        2.17105074840097
 
 Bond Distances (Angstroems)
 ---------------------------
C1-C2=1.4984         C1-H17=1.0897        C1-H18=1.0886        C1-H19=1.0869        C2-C1=1.4984         C2-C3=1.3909         
C2-C8=1.3959         C3-C2=1.3909         C3-C4=1.3820         C3-H20=1.0799        C4-C3=1.3820         C4-C5=1.3843         
C4-H21=1.0790        C5-C4=1.3843         C5-C6=1.3804         C5-H22=1.0780        C6-C5=1.3804         C6-F7=1.3510         
C6-C8=1.3921         F7-C6=1.3510         C8-C2=1.3959         C8-C6=1.3921         C8-C9=1.4860         C9-C8=1.4860         
C9-C10=1.3980        C9-C15=1.3884        C10-C9=1.3980        C10-O11=1.3550       C10-C12=1.3914       O11-C10=1.3550       
O11-H23=0.9675       C12-C10=1.3914       C12-C13=1.3807       C12-H24=1.0777       C13-C12=1.3807       C13-C14=1.3849       
C13-H25=1.0787       C14-C13=1.3849       C14-C15=1.3808       C14-H26=1.0776       C15-C9=1.3884        C15-C14=1.3808       
C15-F16=1.3504       F16-C15=1.3504       H17-C1=1.0897        H18-C1=1.0886        H19-C1=1.0869        H20-C3=1.0799        
H21-C4=1.0790        H22-C5=1.0780        H23-O11=0.9675       H24-C12=1.0777       H25-C13=1.0787       H26-C14=1.0776       
 C  H  Rav=1.0818 sigma=0.0048  Rmin=1.0776  Rmax=1.0897     9
 C  C  Rav=1.4025 sigma=0.0371  Rmin=1.3804  Rmax=1.4984    14
 O  H  Rav=0.9675 sigma=0.0000  Rmin=0.9675  Rmax=0.9675     1
 O  C  Rav=1.3550 sigma=0.0000  Rmin=1.3550  Rmax=1.3550     1
 F  C  Rav=1.3507 sigma=0.0003  Rmin=1.3504  Rmax=1.3510     2
 
 selected bond angles (degree)
 --------------------
H17-C1-C2=110.11               H18-C1-C2=109.99               H18-C1-H17=107.79              H19-C1-C2=111.51               
H19-C1-H17=108.68              H19-C1-H18=108.67              C3-C2-C1=119.74                C8-C2-C1=121.27                
C8-C2-C3=118.98                C4-C3-C2=121.38                H20-C3-C2=118.80               H20-C3-C4=119.82               
C5-C4-C3=120.19                H21-C4-C3=120.10               H21-C4-C5=119.71               C6-C5-C4=118.36                
H22-C5-C4=121.95               H22-C5-C6=119.68               F7-C6-C5=118.83                C8-C6-C5=122.54                
C8-C6-F7=118.62                C6-C8-C2=118.54                C9-C8-C2=122.01                C9-C8-C6=119.44                
C10-C9-C8=121.08               C15-C9-C8=120.88               C15-C9-C10=118.03              O11-C10-C9=121.50              
C12-C10-C9=120.02              C12-C10-O11=118.48             
 
 selected dihedral angles (degree)
 ---------------------------------
C3-C2-C1-H17=297.82           C3-C2-C1-H18= 56.47           C3-C2-C1-H19=177.09           C8-C2-C1-H17=117.50           
C8-C2-C1-H18=236.15           C8-C2-C1-H19=356.78           C4-C3-C2-C1=179.75            C4-C3-C2-C8=  0.07            
H20-C3-C2-C1=359.47           H20-C3-C2-C8=179.78           C5-C4-C3-C2=359.77            C5-C4-C3-H20=180.06           
H21-C4-C3-C2=179.69           H21-C4-C3-H20=359.98          C6-C5-C4-C3=  0.23            C6-C5-C4-H21=180.32           
H22-C5-C4-C3=179.91           H22-C5-C4-H21=  0.00          F7-C6-C5-C4=180.56            F7-C6-C5-H22=  0.87           
C8-C6-C5-C4=359.92            C8-C6-C5-H22=180.23           C6-C8-C2-C1=180.40            C6-C8-C2-C3=  0.08            
C9-C8-C2-C1=  1.19            C9-C8-C2-C3=180.87            C2-C8-C6-C5=359.93            C2-C8-C6-F7=179.29            
C9-C8-C6-C5=179.16            C9-C8-C6-F7=358.52            C10-C9-C8-C2=267.42           C10-C9-C8-C6= 88.22           
C15-C9-C8-C2= 88.19           C15-C9-C8-C6=268.98           O11-C10-C9-C8=  0.97          O11-C10-C9-C15=180.23         
C12-C10-C9-C8=180.20          C12-C10-C9-C15=359.46         
           -------------------------------------------------
          |                Final Singlepoint                |
           -------------------------------------------------

          ...................................................
          :                      SETUP                      :
          :.................................................:
          :  # basis functions                  74          :
          :  # atomic orbitals                  74          :
          :  # shells                           42          :
          :  # electrons                        82          :
          :  max. iterations                   250          :
          :  Hamiltonian                  GFN2-xTB          :
          :  restarted?                      false          :
          :  GBSA solvation                  false          :
          :  PC potential                    false          :
          :  electronic temp.          298.1500000     K    :
          :  accuracy                    1.0000000          :
          :  -> integral cutoff          0.2500000E+02      :
          :  -> integral neglect         0.1000000E-07      :
          :  -> SCF convergence          0.1000000E-05 Eh   :
          :  -> wf. convergence          0.1000000E-03 e    :
          :  Broyden damping             0.4000000          :
          ...................................................

 iter      E             dE          RMSdq      gap      omega  full diag
   1    -47.1196312 -0.471196E+02  0.848E-05    4.11       0.0  T
   2    -47.1196312 -0.292601E-10  0.561E-05    4.11     349.4  T
   3    -47.1196312 -0.313918E-10  0.363E-05    4.11     540.2  T

   *** convergence criteria satisfied after 3 iterations ***

         #    Occupation            Energy/Eh            Energy/eV
      -------------------------------------------------------------
         1        2.0000           -0.8182907             -22.2668
       ...           ...                  ...                  ...
        35        2.0000           -0.4557316             -12.4011
        36        2.0000           -0.4517588             -12.2930
        37        2.0000           -0.4337856             -11.8039
        38        2.0000           -0.4164769             -11.3329
        39        2.0000           -0.4118656             -11.2074
        40        2.0000           -0.4099346             -11.1549
        41        2.0000           -0.3957636             -10.7693 (HOMO)
        42                         -0.2448384              -6.6624 (LUMO)
        43                         -0.2401450              -6.5347
        44                         -0.2375876              -6.4651
        45                         -0.2279478              -6.2028
        46                         -0.1153566              -3.1390
       ...                                ...                  ...
        74                          0.6644397              18.0803
      -------------------------------------------------------------
                  HL-Gap            0.1509252 Eh            4.1069 eV
             Fermi-level           -0.3203010 Eh           -8.7158 eV

 SCC (total)                   0 d,  0 h,  0 min,  0.032 sec
 SCC setup                      ...        0 min,  0.000 sec (  1.225%)
 Dispersion                     ...        0 min,  0.000 sec (  0.737%)
 classical contributions        ...        0 min,  0.000 sec (  0.382%)
 integral evaluation            ...        0 min,  0.005 sec ( 15.307%)
 iterations                     ...        0 min,  0.012 sec ( 36.113%)
 molecular gradient             ...        0 min,  0.015 sec ( 45.142%)
 printout                       ...        0 min,  0.000 sec (  1.017%)

         :::::::::::::::::::::::::::::::::::::::::::::::::::::
         ::                     SUMMARY                     ::
         :::::::::::::::::::::::::::::::::::::::::::::::::::::
         :: total energy             -46.466832575531 Eh    ::
         :: gradient norm              0.000734402280 Eh/a0 ::
         :: HOMO-LUMO gap              4.106882752516 eV    ::
         ::.................................................::
         :: SCC energy               -47.119631223118 Eh    ::
         :: -> isotropic ES            0.045011972724 Eh    ::
         :: -> anisotropic ES          0.002298246312 Eh    ::
         :: -> anisotropic XC          0.007836463053 Eh    ::
         :: -> dispersion             -0.027472012365 Eh    ::
         :: repulsion energy           0.652549534025 Eh    ::
         :: add. restraining           0.000000000000 Eh    ::
         :: total charge               0.000000000000 e     ::
         :::::::::::::::::::::::::::::::::::::::::::::::::::::

           -------------------------------------------------
          |                Property Printout                |
           -------------------------------------------------

    * Orbital Energies and Occupations

         #    Occupation            Energy/Eh            Energy/eV
      -------------------------------------------------------------
         1        2.0000           -0.8182907             -22.2668
       ...           ...                  ...                  ...
        29        2.0000           -0.4921057             -13.3909
        30        2.0000           -0.4751245             -12.9288
        31        2.0000           -0.4728992             -12.8682
        32        2.0000           -0.4699368             -12.7876
        33        2.0000           -0.4650662             -12.6551
        34        2.0000           -0.4579743             -12.4621
        35        2.0000           -0.4557316             -12.4011
        36        2.0000           -0.4517588             -12.2930
        37        2.0000           -0.4337856             -11.8039
        38        2.0000           -0.4164769             -11.3329
        39        2.0000           -0.4118656             -11.2074
        40        2.0000           -0.4099346             -11.1549
        41        2.0000           -0.3957636             -10.7693 (HOMO)
        42                         -0.2448384              -6.6624 (LUMO)
        43                         -0.2401450              -6.5347
        44                         -0.2375876              -6.4651
        45                         -0.2279478              -6.2028
        46                         -0.1153566              -3.1390
        47                         -0.1048456              -2.8530
        48                          0.0359773               0.9790
        49                          0.0454883               1.2378
        50                          0.0689571               1.8764
        51                          0.0844940               2.2992
        52                          0.1146211               3.1190
       ...                                ...                  ...
        74                          0.6644397              18.0803
      -------------------------------------------------------------
                  HL-Gap            0.1509252 Eh            4.1069 eV
             Fermi-level           -0.3203010 Eh           -8.7158 eV

     #   Z          covCN         q      C6AA      α(0)
     1   6 C        3.758    -0.110    22.664     6.787
     2   6 C        2.971     0.016    27.644     8.624
     3   6 C        2.924    -0.047    29.159     8.855
     4   6 C        2.923    -0.031    28.772     8.796
     5   6 C        2.916    -0.055    29.358     8.885
     6   6 C        2.790     0.162    24.489     8.106
     7   9 F        0.787    -0.227    11.517     4.009
     8   6 C        2.977    -0.011    28.280     8.723
     9   6 C        2.973    -0.035    28.862     8.812
    10   6 C        2.852     0.147    24.809     8.164
    11   8 O        1.660    -0.380    20.472     6.108
    12   6 C        2.917    -0.061    29.507     8.908
    13   6 C        2.925    -0.031    28.766     8.796
    14   6 C        2.916    -0.063    29.557     8.915
    15   6 C        2.790     0.166    24.408     8.093
    16   9 F        0.787    -0.225    11.498     4.005
    17   1 H        0.925     0.052     2.299     2.371
    18   1 H        0.925     0.057     2.235     2.338
    19   1 H        0.925     0.048     2.340     2.392
    20   1 H        0.926     0.045     2.384     2.414
    21   1 H        0.926     0.046     2.372     2.408
    22   1 H        0.926     0.058     2.220     2.330
    23   1 H        0.805     0.305     0.705     1.319
    24   1 H        0.926     0.062     2.178     2.308
    25   1 H        0.926     0.051     2.310     2.377
    26   1 H        0.926     0.060     2.203     2.321

 Mol. C6AA /au·bohr⁶  :       8726.951062
 Mol. C8AA /au·bohr⁸  :     214246.847124
 Mol. α(0) /au        :        147.165261


Wiberg/Mayer (AO) data.
largest (>0.10) Wiberg bond orders for each atom

 ---------------------------------------------------------------------------
     #   Z sym  total        # sym  WBO       # sym  WBO       # sym  WBO
 ---------------------------------------------------------------------------
     1   6 C    3.995 --     2 C    1.029    19 H    0.982    18 H    0.970
                            17 H    0.969
     2   6 C    3.987 --     3 C    1.405     8 C    1.380     1 C    1.029
                             5 C    0.106
     3   6 C    3.991 --     4 C    1.452     2 C    1.405    20 H    0.968
     4   6 C    3.990 --     3 C    1.452     5 C    1.428    21 H    0.970
                             8 C    0.104
     5   6 C    3.988 --     4 C    1.428     6 C    1.405    22 H    0.966
                             2 C    0.106
     6   6 C    3.884 --     5 C    1.405     8 C    1.358     7 F    0.957
     7   9 F    1.089 --     6 C    0.957
     8   6 C    3.987 --     2 C    1.380     6 C    1.358     9 C    1.003
                             4 C    0.104
     9   6 C    3.983 --    15 C    1.368    10 C    1.336     8 C    1.003
                            13 C    0.101
    10   6 C    3.942 --    12 C    1.362     9 C    1.336    11 O    1.089
    11   8 O    2.139 --    10 C    1.089    23 H    0.879
    12   6 C    3.986 --    13 C    1.458    10 C    1.362    24 H    0.966
    13   6 C    3.990 --    12 C    1.458    14 C    1.425    25 H    0.970
                             9 C    0.101
    14   6 C    3.987 --    13 C    1.425    15 C    1.399    26 H    0.966
    15   6 C    3.886 --    14 C    1.399     9 C    1.368    16 F    0.959
    16   9 F    1.090 --    15 C    0.959
    17   1 H    0.997 --     1 C    0.969
    18   1 H    0.997 --     1 C    0.970
    19   1 H    0.997 --     1 C    0.982
    20   1 H    0.997 --     3 C    0.968
    21   1 H    0.997 --     4 C    0.970
    22   1 H    0.995 --     5 C    0.966
    23   1 H    0.907 --    11 O    0.879
    24   1 H    0.995 --    12 C    0.966
    25   1 H    0.997 --    13 C    0.970
    26   1 H    0.995 --    14 C    0.966
 ---------------------------------------------------------------------------

Topologies differ in total number of bonds
Writing topology from bond orders to xtbtopo.mol

molecular dipole:
                 x           y           z       tot (Debye)
 q only:       -0.502       0.653      -0.748
   full:       -0.721       0.629      -0.646       2.933
molecular quadrupole (traceless):
                xx          xy          yy          xz          yz          zz
 q only:       10.763       3.399      -3.160       1.809      -0.017      -7.603
  q+dip:       13.786       5.519      -3.363       3.030      -0.440     -10.422
   full:       11.579       4.648      -2.563       3.137      -0.394      -9.015

           -------------------------------------------------
          |                Geometry Summary                 |
           -------------------------------------------------

      molecular mass/u    :      220.2151854
   center of mass at/Å    :        0.1561165      -0.2850556       0.1898417
  moments of inertia/u·Å² :        0.5674462E+03   0.1208083E+04   0.1227019E+04
rotational constants/cm⁻¹ :        0.2970790E-01   0.1395403E-01   0.1373869E-01

 * 23 selected distances

     #   Z          #   Z                                           value/Å
     2   6 C        3   6 C                                       1.3908686
     3   6 C        4   6 C                                       1.3820248
     4   6 C        5   6 C                                       1.3842894
     5   6 C        6   6 C                                       1.3803938
     2   6 C        8   6 C                                       1.3959489
     6   6 C        8   6 C                                       1.3921081
     9   6 C       10   6 C                                       1.3980235 (max)
    10   6 C       11   8 O                                       1.3549555
    10   6 C       12   6 C                                       1.3914309
    12   6 C       13   6 C                                       1.3806864
    13   6 C       14   6 C                                       1.3849029
     9   6 C       15   6 C                                       1.3883997
    14   6 C       15   6 C                                       1.3808163
     1   6 C       17   1 H                                       1.0896625
     1   6 C       18   1 H                                       1.0886401
     1   6 C       19   1 H                                       1.0868856
     3   6 C       20   1 H                                       1.0798582
     4   6 C       21   1 H                                       1.0790266
     5   6 C       22   1 H                                       1.0780359
    11   8 O       23   1 H                                       0.9675070 (min)
    12   6 C       24   1 H                                       1.0777161
    13   6 C       25   1 H                                       1.0786891
    14   6 C       26   1 H                                       1.0775998

 * 4 distinct bonds (by element types)

   Z      Z             #   av. dist./Å        max./Å        min./Å
   1 H    6 C           9     1.0817904     1.0896625     1.0775998
   6 C    6 C          12     1.3874911     1.3980235     1.3803938
   1 H    8 O           1     0.9675070     0.9675070     0.9675070
   6 C    8 O           1     1.3549555     1.3549555     1.3549555


optimized geometry written to: xtbopt.xyz


           -------------------------------------------------
          | TOTAL ENERGY              -46.466832575531 Eh   |
          | GRADIENT NORM               0.000734402280 Eh/α |
          | HOMO-LUMO GAP               4.106882752516 eV   |
           -------------------------------------------------

------------------------------------------------------------------------
 * finished run on 2025/08/28 at 10:02:18.184     
------------------------------------------------------------------------
 total:
 * wall-time:     0 d,  0 h,  0 min,  0.670 sec
 *  cpu-time:     0 d,  0 h,  0 min,  1.287 sec
 * ratio c/w:     1.921 speedup
 SCF:
 * wall-time:     0 d,  0 h,  0 min,  0.113 sec
 *  cpu-time:     0 d,  0 h,  0 min,  0.208 sec
 * ratio c/w:     1.845 speedup
 ANC optimizer:
 * wall-time:     0 d,  0 h,  0 min,  0.529 sec
 *  cpu-time:     0 d,  0 h,  0 min,  1.054 sec
 * ratio c/w:     1.992 speedup

