 Entering Gaussian System, Link 0=g16
 Initial command:
 /path/to/gaussian "/path/to/scratch/inp" -scrdir="/path/to/scratch/"
 Entering Link 1 = /path/to/gaussian PID=    230055.
  
 Copyright (c) 1988-2021, Gaussian, Inc.  All Rights Reserved.
  
 This is part of the Gaussian(R) 16 program.  It is based on
 the Gaussian(R) 09 system (copyright 2009, Gaussian, Inc.),
 the Gaussian(R) 03 system (copyright 2003, Gaussian, Inc.),
 the Gaussian(R) 98 system (copyright 1998, Gaussian, Inc.),
 the Gaussian(R) 94 system (copyright 1995, Gaussian, Inc.),
 the Gaussian 92(TM) system (copyright 1992, Gaussian, Inc.),
 the Gaussian 90(TM) system (copyright 1990, Gaussian, Inc.),
 the Gaussian 88(TM) system (copyright 1988, Gaussian, Inc.),
 the Gaussian 86(TM) system (copyright 1986, Carnegie Mellon
 University), and the Gaussian 82(TM) system (copyright 1983,
 Carnegie Mellon University). Gaussian is a federally registered
 trademark of Gaussian, Inc.
  
 This software contains proprietary and confidential information,
 including trade secrets, belonging to Gaussian, Inc.
  
 This software is provided under written license and may be
 used, copied, transmitted, or stored only in accord with that
 written license.
  
 The following legend is applicable only to US Government
 contracts under FAR:
  
                    RESTRICTED RIGHTS LEGEND
  
 Use, reproduction and disclosure by the US Government is
 subject to restrictions as set forth in subparagraphs (a)
 and (c) of the Commercial Computer Software - Restricted
 Rights clause in FAR 52.227-19.
  
 Gaussian, Inc.
 340 Quinnipiac St., Bldg. 40, Wallingford CT 06492
  
  
 ---------------------------------------------------------------
 Warning -- This program may not be used in any manner that
 competes with the business of Gaussian, Inc. or will provide
 assistance to any competitor of Gaussian, Inc.  The licensee
 of this program is prohibited from giving any competitor of
 Gaussian, Inc. access to this program.  By using this program,
 the user acknowledges that Gaussian, Inc. is engaged in the
 business of creating and licensing software in the field of
 computational chemistry and represents and warrants to the
 licensee that it is not a competitor of Gaussian, Inc. and that
 it will not use this program in any manner prohibited above.
 ---------------------------------------------------------------
  

 Cite this work as:
 Gaussian 16, Revision C.02,
 M. J. Frisch, G. W. Trucks, H. B. Schlegel, G. E. Scuseria, 
 M. A. Robb, J. R. Cheeseman, G. Scalmani, V. Barone, 
 G. A. Petersson, H. Nakatsuji, X. Li, M. Caricato, A. V. Marenich, 
 J. Bloino, B. G. Janesko, R. Gomperts, B. Mennucci, H. P. Hratchian, 
 J. V. Ortiz, A. F. Izmaylov, J. L. Sonnenberg, D. Williams-Young, 
 F. Ding, F. Lipparini, F. Egidi, J. Goings, B. Peng, A. Petrone, 
 T. Henderson, D. Ranasinghe, V. G. Zakrzewski, J. Gao, N. Rega, 
 G. Zheng, W. Liang, M. Hada, M. Ehara, K. Toyota, R. Fukuda, 
 J. Hasegawa, M. Ishida, T. Nakajima, Y. Honda, O. Kitao, H. Nakai, 
 T. Vreven, K. Throssell, J. A. Montgomery, Jr., J. E. Peralta, 
 F. Ogliaro, M. J. Bearpark, J. J. Heyd, E. N. Brothers, K. N. Kudin, 
 V. N. Staroverov, T. A. Keith, R. Kobayashi, J. Normand, 
 K. Raghavachari, A. P. Rendell, J. C. Burant, S. S. Iyengar, 
 J. Tomasi, M. Cossi, J. M. Millam, M. Klene, C. Adamo, R. Cammi, 
 J. W. Ochterski, R. L. Martin, K. Morokuma, O. Farkas, 
 J. B. Foresman, and D. J. Fox, Gaussian, Inc., Wallingford CT, 2019.
 
 ******************************************
 Gaussian 16:  ES64L-G16RevC.02  7-Dec-2021
                 3-Dec-2025 
 ******************************************
 %mem=12000MB
 %nprocshared=8
 Will use up to    8 processors via shared memory.
 ----------------------------------------------------------------------
 # opt=(TS,recalcFC=15,noeigentest) freq bp86 def2svp empiricaldispersi
 on=GD3BJ
 ----------------------------------------------------------------------
 1/5=1,10=4,11=1,18=20,26=3,38=1,71=15/1,3;
 2/9=110,12=2,17=6,18=5,40=1/2;
 3/5=43,7=101,11=2,25=1,30=1,71=2,74=404,124=41,140=1/1,2,3;
 4//1;
 5/5=2,38=5/2;
 8/6=4,10=90,11=11/1;
 11/6=1,8=1,9=11,15=111,16=1/1,2,10;
 10/6=1,13=1/2;
 6/7=2,8=2,9=2,10=2,28=1/1;
 7/10=1,25=1/1,2,3,16;
 1/5=1,10=4,11=1,18=20,26=3,71=15/3(3);
 2/9=110/2;
 7/9=1,25=1,44=-1/16;
 99//99;
 2/9=110/2;
 3/5=43,7=101,11=2,25=1,30=1,71=2,74=404,124=41,140=1/1,2,3;
 4/5=5,16=3,69=1/1;
 5/5=2,38=5/2;
 8/6=4,10=90,11=11/1;
 11/6=1,8=1,9=11,15=111,16=1/1,2,10;
 10/6=1,13=1/2;
 7/10=1,25=1/1,2,3,16;
 1/5=1,11=1,18=20,26=3,71=15/3(-8);
 2/9=110/2;
 6/7=2,8=2,9=2,10=2,19=2,28=1/1;
 7/9=1,25=1,44=-1/16;
 99/9=1/99;
 ------------------
 g_opt_ts_confs.log
 ------------------
 Symbolic Z-matrix:
 Charge =  0 Multiplicity = 1
 C                     1.35203   2.57539   0.52803 
 C                     1.65054   1.16414   0.04296 
 C                     3.01003   0.9772   -0.29247 
 C                     3.59798  -0.28194  -0.4497 
 C                     2.83162  -1.39593  -0.10251 
 C                     1.48362  -1.22257   0.22748 
 F                     0.91749  -2.30975   0.79204 
 C                     0.75853   0.01557   0.0794 
 C                    -0.74171   0.01044  -0.02322 
 C                    -1.59673  -1.17787  -0.15877 
 O                    -1.13994  -2.41331  -0.54161 
 C                    -2.9957   -1.09158   0.03701 
 C                    -3.66395   0.12537   0.1658 
 C                    -2.91604   1.29834   0.03959 
 C                    -1.52832   1.20719  -0.10231 
 F                    -0.93639   2.39103  -0.3764 
 H                     0.54809   2.605     1.28348 
 H                     2.27299   2.96011   1.01096 
 H                     1.08414   3.28216  -0.28046 
 H                     3.64067   1.8775   -0.36813 
 H                     4.65616  -0.38536  -0.73346 
 H                     3.25178  -2.4091   -0.02185 
 H                    -1.91925  -2.99839  -0.58479 
 H                    -3.57019  -2.03431   0.02368 
 H                    -4.75463   0.15712   0.30518 
 H                    -3.3716    2.29786   0.00971 
 

 GradGradGradGradGradGradGradGradGradGradGradGradGradGradGradGradGradGrad
 Berny optimization.
 Initialization pass.
                           ----------------------------
                           !    Initial Parameters    !
                           ! (Angstroms and Degrees)  !
 --------------------------                            --------------------------
 ! Name  Definition              Value          Derivative Info.                !
 --------------------------------------------------------------------------------
 ! R1    R(1,2)                  1.5219         calculate D2E/DX2 analytically  !
 ! R2    R(1,17)                 1.1036         calculate D2E/DX2 analytically  !
 ! R3    R(1,18)                 1.1088         calculate D2E/DX2 analytically  !
 ! R4    R(1,19)                 1.1068         calculate D2E/DX2 analytically  !
 ! R5    R(2,3)                  1.4127         calculate D2E/DX2 analytically  !
 ! R6    R(2,8)                  1.4547         calculate D2E/DX2 analytically  !
 ! R7    R(3,4)                  1.3985         calculate D2E/DX2 analytically  !
 ! R8    R(3,20)                 1.1018         calculate D2E/DX2 analytically  !
 ! R9    R(4,5)                  1.396          calculate D2E/DX2 analytically  !
 ! R10   R(4,21)                 1.1004         calculate D2E/DX2 analytically  !
 ! R11   R(5,6)                  1.3986         calculate D2E/DX2 analytically  !
 ! R12   R(5,22)                 1.0998         calculate D2E/DX2 analytically  !
 ! R13   R(6,7)                  1.3495         calculate D2E/DX2 analytically  !
 ! R14   R(6,8)                  1.4425         calculate D2E/DX2 analytically  !
 ! R15   R(8,9)                  1.5038         calculate D2E/DX2 analytically  !
 ! R16   R(9,10)                 1.4702         calculate D2E/DX2 analytically  !
 ! R17   R(9,15)                 1.4343         calculate D2E/DX2 analytically  !
 ! R18   R(10,11)                1.3717         calculate D2E/DX2 analytically  !
 ! R19   R(10,12)                1.4152         calculate D2E/DX2 analytically  !
 ! R20   R(11,23)                0.9755         calculate D2E/DX2 analytically  !
 ! R21   R(12,13)                1.3943         calculate D2E/DX2 analytically  !
 ! R22   R(12,24)                1.1041         calculate D2E/DX2 analytically  !
 ! R23   R(13,14)                1.3968         calculate D2E/DX2 analytically  !
 ! R24   R(13,25)                1.1            calculate D2E/DX2 analytically  !
 ! R25   R(14,15)                1.3979         calculate D2E/DX2 analytically  !
 ! R26   R(14,26)                1.0988         calculate D2E/DX2 analytically  !
 ! R27   R(15,16)                1.3517         calculate D2E/DX2 analytically  !
 ! A1    A(2,1,17)             112.7034         calculate D2E/DX2 analytically  !
 ! A2    A(2,1,18)             107.3172         calculate D2E/DX2 analytically  !
 ! A3    A(2,1,19)             114.0052         calculate D2E/DX2 analytically  !
 ! A4    A(17,1,18)            107.3146         calculate D2E/DX2 analytically  !
 ! A5    A(17,1,19)            107.8541         calculate D2E/DX2 analytically  !
 ! A6    A(18,1,19)            107.3158         calculate D2E/DX2 analytically  !
 ! A7    A(1,2,3)              112.7778         calculate D2E/DX2 analytically  !
 ! A8    A(1,2,8)              127.1501         calculate D2E/DX2 analytically  !
 ! A9    A(3,2,8)              119.4432         calculate D2E/DX2 analytically  !
 ! A10   A(2,3,4)              123.3957         calculate D2E/DX2 analytically  !
 ! A11   A(2,3,20)             117.3223         calculate D2E/DX2 analytically  !
 ! A12   A(4,3,20)             119.1653         calculate D2E/DX2 analytically  !
 ! A13   A(3,4,5)              117.3682         calculate D2E/DX2 analytically  !
 ! A14   A(3,4,21)             121.1896         calculate D2E/DX2 analytically  !
 ! A15   A(5,4,21)             121.1328         calculate D2E/DX2 analytically  !
 ! A16   A(4,5,6)              119.2668         calculate D2E/DX2 analytically  !
 ! A17   A(4,5,22)             122.9323         calculate D2E/DX2 analytically  !
 ! A18   A(6,5,22)             117.7168         calculate D2E/DX2 analytically  !
 ! A19   A(5,6,7)              113.7771         calculate D2E/DX2 analytically  !
 ! A20   A(5,6,8)              124.5183         calculate D2E/DX2 analytically  !
 ! A21   A(7,6,8)              121.5719         calculate D2E/DX2 analytically  !
 ! A22   A(2,8,6)              111.8421         calculate D2E/DX2 analytically  !
 ! A23   A(2,8,9)              127.7873         calculate D2E/DX2 analytically  !
 ! A24   A(6,8,9)              120.3699         calculate D2E/DX2 analytically  !
 ! A25   A(8,9,10)             126.1041         calculate D2E/DX2 analytically  !
 ! A26   A(8,9,15)             123.2342         calculate D2E/DX2 analytically  !
 ! A27   A(10,9,15)            110.5096         calculate D2E/DX2 analytically  !
 ! A28   A(9,10,11)            124.0585         calculate D2E/DX2 analytically  !
 ! A29   A(9,10,12)            120.8534         calculate D2E/DX2 analytically  !
 ! A30   A(11,10,12)           115.0058         calculate D2E/DX2 analytically  !
 ! A31   A(10,11,23)           106.6503         calculate D2E/DX2 analytically  !
 ! A32   A(10,12,13)           122.6669         calculate D2E/DX2 analytically  !
 ! A33   A(10,12,24)           117.4277         calculate D2E/DX2 analytically  !
 ! A34   A(13,12,24)           119.8009         calculate D2E/DX2 analytically  !
 ! A35   A(12,13,14)           117.9015         calculate D2E/DX2 analytically  !
 ! A36   A(12,13,25)           120.8038         calculate D2E/DX2 analytically  !
 ! A37   A(14,13,25)           121.205          calculate D2E/DX2 analytically  !
 ! A38   A(13,14,15)           119.0739         calculate D2E/DX2 analytically  !
 ! A39   A(13,14,26)           122.9771         calculate D2E/DX2 analytically  !
 ! A40   A(15,14,26)           117.9111         calculate D2E/DX2 analytically  !
 ! A41   A(9,15,14)            126.3864         calculate D2E/DX2 analytically  !
 ! A42   A(9,15,16)            120.1187         calculate D2E/DX2 analytically  !
 ! A43   A(14,15,16)           113.466          calculate D2E/DX2 analytically  !
 ! D1    D(17,1,2,3)          -147.5435         calculate D2E/DX2 analytically  !
 ! D2    D(17,1,2,8)            23.2197         calculate D2E/DX2 analytically  !
 ! D3    D(18,1,2,3)           -29.6142         calculate D2E/DX2 analytically  !
 ! D4    D(18,1,2,8)           141.149          calculate D2E/DX2 analytically  !
 ! D5    D(19,1,2,3)            89.0805         calculate D2E/DX2 analytically  !
 ! D6    D(19,1,2,8)          -100.1564         calculate D2E/DX2 analytically  !
 ! D7    D(1,2,3,4)            164.0404         calculate D2E/DX2 analytically  !
 ! D8    D(1,2,3,20)           -11.9916         calculate D2E/DX2 analytically  !
 ! D9    D(8,2,3,4)             -7.5114         calculate D2E/DX2 analytically  !
 ! D10   D(8,2,3,20)           176.4566         calculate D2E/DX2 analytically  !
 ! D11   D(1,2,8,6)           -149.4552         calculate D2E/DX2 analytically  !
 ! D12   D(1,2,8,9)             30.8453         calculate D2E/DX2 analytically  !
 ! D13   D(3,2,8,6)             20.76           calculate D2E/DX2 analytically  !
 ! D14   D(3,2,8,9)           -158.9395         calculate D2E/DX2 analytically  !
 ! D15   D(2,3,4,5)             -7.6841         calculate D2E/DX2 analytically  !
 ! D16   D(2,3,4,21)           178.634          calculate D2E/DX2 analytically  !
 ! D17   D(20,3,4,5)           168.2786         calculate D2E/DX2 analytically  !
 ! D18   D(20,3,4,21)           -5.4032         calculate D2E/DX2 analytically  !
 ! D19   D(3,4,5,6)              7.5063         calculate D2E/DX2 analytically  !
 ! D20   D(3,4,5,22)          -169.0795         calculate D2E/DX2 analytically  !
 ! D21   D(21,4,5,6)          -178.808          calculate D2E/DX2 analytically  !
 ! D22   D(21,4,5,22)            4.6061         calculate D2E/DX2 analytically  !
 ! D23   D(4,5,6,7)           -167.7382         calculate D2E/DX2 analytically  !
 ! D24   D(4,5,6,8)              8.1188         calculate D2E/DX2 analytically  !
 ! D25   D(22,5,6,7)             9.025          calculate D2E/DX2 analytically  !
 ! D26   D(22,5,6,8)          -175.118          calculate D2E/DX2 analytically  !
 ! D27   D(5,6,8,2)            -21.8459         calculate D2E/DX2 analytically  !
 ! D28   D(5,6,8,9)            157.8788         calculate D2E/DX2 analytically  !
 ! D29   D(7,6,8,2)            153.7035         calculate D2E/DX2 analytically  !
 ! D30   D(7,6,8,9)            -26.5718         calculate D2E/DX2 analytically  !
 ! D31   D(2,8,9,10)           171.4375         calculate D2E/DX2 analytically  !
 ! D32   D(2,8,9,15)            -3.6466         calculate D2E/DX2 analytically  !
 ! D33   D(6,8,9,10)            -8.2392         calculate D2E/DX2 analytically  !
 ! D34   D(6,8,9,15)           176.6767         calculate D2E/DX2 analytically  !
 ! D35   D(8,9,10,11)          -16.997          calculate D2E/DX2 analytically  !
 ! D36   D(8,9,10,12)          166.4676         calculate D2E/DX2 analytically  !
 ! D37   D(15,9,10,11)         158.6139         calculate D2E/DX2 analytically  !
 ! D38   D(15,9,10,12)         -17.9214         calculate D2E/DX2 analytically  !
 ! D39   D(8,9,15,14)         -167.7785         calculate D2E/DX2 analytically  !
 ! D40   D(8,9,15,16)           14.3072         calculate D2E/DX2 analytically  !
 ! D41   D(10,9,15,14)          16.4608         calculate D2E/DX2 analytically  !
 ! D42   D(10,9,15,16)        -161.4535         calculate D2E/DX2 analytically  !
 ! D43   D(9,10,11,23)        -177.6019         calculate D2E/DX2 analytically  !
 ! D44   D(12,10,11,23)         -0.8836         calculate D2E/DX2 analytically  !
 ! D45   D(9,10,12,13)           9.8462         calculate D2E/DX2 analytically  !
 ! D46   D(9,10,12,24)        -173.8838         calculate D2E/DX2 analytically  !
 ! D47   D(11,10,12,13)       -166.987          calculate D2E/DX2 analytically  !
 ! D48   D(11,10,12,24)          9.2831         calculate D2E/DX2 analytically  !
 ! D49   D(10,12,13,14)          2.6718         calculate D2E/DX2 analytically  !
 ! D50   D(10,12,13,25)        179.268          calculate D2E/DX2 analytically  !
 ! D51   D(24,12,13,14)       -173.5129         calculate D2E/DX2 analytically  !
 ! D52   D(24,12,13,25)          3.0833         calculate D2E/DX2 analytically  !
 ! D53   D(12,13,14,15)         -5.0057         calculate D2E/DX2 analytically  !
 ! D54   D(12,13,14,26)        172.7081         calculate D2E/DX2 analytically  !
 ! D55   D(25,13,14,15)        178.4125         calculate D2E/DX2 analytically  !
 ! D56   D(25,13,14,26)         -3.8738         calculate D2E/DX2 analytically  !
 ! D57   D(13,14,15,9)          -5.5771         calculate D2E/DX2 analytically  !
 ! D58   D(13,14,15,16)        172.4561         calculate D2E/DX2 analytically  !
 ! D59   D(26,14,15,9)         176.5932         calculate D2E/DX2 analytically  !
 ! D60   D(26,14,15,16)         -5.3735         calculate D2E/DX2 analytically  !
 --------------------------------------------------------------------------------
 Trust Radius=3.00D-01 FncErr=1.00D-07 GrdErr=1.00D-06 EigMax=2.50D+02 EigMin=1.00D-04
 Number of steps in this run=    140 maximum allowed number of steps=    156.
 Search for a saddle point of order  1.
 GradGradGradGradGradGradGradGradGradGradGradGradGradGradGradGradGradGrad

                          Input orientation:                          
 ---------------------------------------------------------------------
 Center     Atomic      Atomic             Coordinates (Angstroms)
 Number     Number       Type             X           Y           Z
 ---------------------------------------------------------------------
      1          6           0        1.352030    2.575390    0.528030
      2          6           0        1.650540    1.164140    0.042960
      3          6           0        3.010030    0.977200   -0.292470
      4          6           0        3.597980   -0.281940   -0.449700
      5          6           0        2.831620   -1.395930   -0.102510
      6          6           0        1.483620   -1.222570    0.227480
      7          9           0        0.917490   -2.309750    0.792040
      8          6           0        0.758530    0.015570    0.079400
      9          6           0       -0.741710    0.010440   -0.023220
     10          6           0       -1.596730   -1.177870   -0.158770
     11          8           0       -1.139940   -2.413310   -0.541610
     12          6           0       -2.995700   -1.091580    0.037010
     13          6           0       -3.663950    0.125370    0.165800
     14          6           0       -2.916040    1.298340    0.039590
     15          6           0       -1.528320    1.207190   -0.102310
     16          9           0       -0.936390    2.391030   -0.376400
     17          1           0        0.548090    2.605000    1.283480
     18          1           0        2.272990    2.960110    1.010960
     19          1           0        1.084140    3.282160   -0.280460
     20          1           0        3.640670    1.877500   -0.368130
     21          1           0        4.656160   -0.385360   -0.733460
     22          1           0        3.251780   -2.409100   -0.021850
     23          1           0       -1.919250   -2.998390   -0.584790
     24          1           0       -3.570190   -2.034310    0.023680
     25          1           0       -4.754630    0.157120    0.305180
     26          1           0       -3.371600    2.297860    0.009710
 ---------------------------------------------------------------------
                    Distance matrix (angstroms):
                    1          2          3          4          5
     1  C    0.000000
     2  C    1.521850   0.000000
     3  C    2.444667   1.412683   0.000000
     4  C    3.763586   2.475153   1.398514   0.000000
     5  C    4.284641   2.823131   2.387396   1.396002   0.000000
     6  C    3.812105   2.399645   2.727501   2.411198   1.398589
     7  F    4.911529   3.628553   4.044617   3.583149   2.301995
     8  C    2.665744   1.454724   2.476342   2.903607   2.514583
     9  C    3.356574   2.656739   3.883642   4.370387   3.840944
    10  C    4.822224   4.008799   5.087675   5.279426   4.434073
    11  O    5.678131   4.574565   5.364688   5.196063   4.123246
    12  C    5.708811   5.164867   6.360598   6.661007   5.836930
    13  C    5.594092   5.416451   6.743711   7.299340   6.676734
    14  C    4.481724   4.568553   5.944047   6.720800   6.349400
    15  C    3.250495   3.182469   4.548151   5.349499   5.077924
    16  F    2.467559   2.893670   4.192874   5.264091   5.349204
    17  H    1.103586   2.197809   3.345818   4.543145   4.810709
    18  H    1.108782   2.133067   2.484772   3.794735   4.530670
    19  H    1.106772   2.216172   3.003671   4.364727   4.996987
    20  H    2.555000   2.153717   1.101804   2.161402   3.382375
    21  H    4.612448   3.469514   2.181923   1.100436   2.179058
    22  H    5.362514   3.916148   3.405687   2.197207   1.099797
    23  H    6.557947   5.519432   6.339445   6.151193   5.036987
    24  H    6.762540   6.122620   7.243510   7.394427   6.434798
    25  H    6.571833   6.489149   7.830687   8.398137   7.754313
    26  H    4.760080   5.148623   6.523853   7.445903   7.220569
                    6          7          8          9         10
     6  C    0.000000
     7  F    1.349515   0.000000
     8  C    1.442454   2.437260   0.000000
     9  C    2.556415   2.966627   1.503754   0.000000
    10  C    3.104794   2.916589   2.651089   1.470209   0.000000
    11  O    2.982017   2.454051   3.144726   2.510354   1.371691
    12  C    4.485281   4.167381   3.914310   2.509691   1.415236
    13  C    5.321487   5.226048   4.424686   2.930601   2.465193
    14  C    5.074180   5.317936   3.892242   2.527913   2.812746
    15  C    3.883848   4.376153   2.585084   1.434302   2.386709
    16  F    4.390811   5.186469   2.953526   2.414507   3.635995
    17  H    4.079295   4.953053   2.863432   3.178489   4.581533
    18  H    4.328020   5.445799   3.439725   4.342637   5.784970
    19  H    4.550844   5.696269   3.302443   3.755536   5.205165
    20  H    3.823356   5.127842   3.460318   4.775995   6.067081
    21  H    3.418967   4.473039   4.001625   5.458764   6.329058
    22  H    2.143924   2.474105   3.479306   4.669276   5.004271
    23  H    3.923371   3.227535   4.086026   3.279485   1.897315
    24  H    5.122641   4.561306   4.789878   3.490487   2.159009
    25  H    6.389471   6.204468   5.519597   4.029006   3.459737
    26  H    6.001168   6.343375   4.719288   3.485641   3.906309
                   11         12         13         14         15
    11  O    0.000000
    12  C    2.350663   0.000000
    13  C    3.649103   1.394314   0.000000
    14  C    4.155559   2.391249   1.396838   0.000000
    15  C    3.667676   2.730743   2.408969   1.397931   0.000000
    16  F    4.811487   4.066969   3.587029   2.299137   1.351660
    17  H    5.600342   5.270374   5.013886   3.905742   2.861078
    18  H    6.552267   6.717430   6.633046   5.534534   4.331519
    19  H    6.119895   5.989615   5.719163   4.476540   3.340986
    20  H    6.426148   7.281551   7.530771   6.594855   5.219045
    21  H    6.143628   7.722910   8.384136   7.795554   6.417348
    22  H    4.422372   6.385165   7.367908   7.196589   5.994446
    23  H    0.975452   2.276248   3.655850   4.454810   4.251178
    24  H    2.523749   1.104064   2.166381   3.396281   3.833070
    25  H    4.515545   2.173707   1.100008   2.180214   3.417275
    26  H    5.242078   3.410330   2.197623   1.098848   2.144712
                   16         17         18         19         20
    16  F    0.000000
    17  H    2.237111   0.000000
    18  H    3.542420   1.782035   0.000000
    19  H    2.210398   1.786562   1.784614   0.000000
    20  H    4.605785   3.580660   2.223619   2.918322   0.000000
    21  H    6.253995   5.466858   4.462586   5.139576   2.507034
    22  H    6.380260   5.844230   5.554561   6.095571   4.318111
    23  H    5.482270   6.401264   7.458218   6.968377   7.398240
    24  H    5.165327   6.330128   7.749949   7.072492   8.212933
    25  H    4.475920   5.921826   7.598837   6.648314   8.596169
    26  H    2.467389   4.132892   5.770829   4.572381   7.035012
                   21         22         23         24         25
    21  H    0.000000
    22  H    2.564019   0.000000
    23  H    7.077150   5.234856   0.000000
    24  H    8.424080   6.832409   2.006312   0.000000
    25  H    9.483461   8.413979   4.334590   2.506892   0.000000
    26  H    8.496876   8.125616   5.523859   4.336742   2.565705
                   26
    26  H    0.000000
 Stoichiometry    C13H10F2O
 Framework group  C1[X(C13H10F2O)]
 Deg. of freedom    72
 Full point group                 C1      NOp   1
 Largest Abelian subgroup         C1      NOp   1
 Largest concise Abelian subgroup C1      NOp   1
                         Standard orientation:                         
 ---------------------------------------------------------------------
 Center     Atomic      Atomic             Coordinates (Angstroms)
 Number     Number       Type             X           Y           Z
 ---------------------------------------------------------------------
      1          6           0        1.352033    2.575388    0.528031
      2          6           0        1.650542    1.164137    0.042961
      3          6           0        3.010031    0.977196   -0.292469
      4          6           0        3.597980   -0.281945   -0.449699
      5          6           0        2.831619   -1.395934   -0.102509
      6          6           0        1.483619   -1.222573    0.227481
      7          9           0        0.917488   -2.309752    0.792041
      8          6           0        0.758531    0.015568    0.079401
      9          6           0       -0.741709    0.010440   -0.023219
     10          6           0       -1.596731   -1.177870   -0.158769
     11          8           0       -1.139942   -2.413310   -0.541609
     12          6           0       -2.995701   -1.091578    0.037011
     13          6           0       -3.663949    0.125372    0.165801
     14          6           0       -2.916038    1.298342    0.039591
     15          6           0       -1.528318    1.207190   -0.102309
     16          9           0       -0.936387    2.391030   -0.376399
     17          1           0        0.548093    2.604998    1.283481
     18          1           0        2.272993    2.960107    1.010961
     19          1           0        1.084144    3.282158   -0.280459
     20          1           0        3.640672    1.877495   -0.368129
     21          1           0        4.656160   -0.385366   -0.733459
     22          1           0        3.251778   -2.409104   -0.021849
     23          1           0       -1.919252   -2.998389   -0.584789
     24          1           0       -3.570191   -2.034308    0.023681
     25          1           0       -4.754629    0.157123    0.305181
     26          1           0       -3.371597    2.297862    0.009711
 ---------------------------------------------------------------------
 Rotational constants (GHZ):           0.8325284           0.4709058           0.3124763
 Standard basis: def2SVP (5D, 7F)
 There are   290 symmetry adapted cartesian basis functions of A   symmetry.
 There are   274 symmetry adapted basis functions of A   symmetry.
   274 basis functions,   470 primitive gaussians,   290 cartesian basis functions
    57 alpha electrons       57 beta electrons
       nuclear repulsion energy      1066.3459754384 Hartrees.
 NAtoms=   26 NActive=   26 NUniq=   26 SFac= 1.00D+00 NAtFMM=   60 NAOKFM=F Big=F
 Integral buffers will be    131072 words long.
 Raffenetti 2 integral format.
 Two-electron integral symmetry is turned on.
 Nuclear repulsion after empirical dispersion term =     1066.2949356433 Hartrees.
 One-electron integrals computed using PRISM.
   1 Symmetry operations used in ECPInt.
 ECPInt:  NShTT=    8001 NPrTT=   29641 LenC2=    7583 LenP2D=   20202.
 LDataN:  DoStor=T MaxTD1= 4 Len=   56
 NBasis=   274 RedAO= T EigKep=  3.20D-04  NBF=   274
 NBsUse=   274 1.00D-06 EigRej= -1.00D+00 NBFU=   274
 ExpMin= 1.22D-01 ExpMax= 2.89D+03 ExpMxC= 4.35D+02 IAcc=3 IRadAn=         5 AccDes= 0.00D+00
 Harris functional with IExCor=  404 and IRadAn=       5 diagonalized for initial guess.
 HarFok:  IExCor=  404 AccDes= 0.00D+00 IRadAn=         5 IDoV= 1 UseB2=F ITyADJ=14
 ICtDFT=  3500011 ScaDFX=  1.000000  1.000000  1.000000  1.000000
 FoFCou: FMM=F IPFlag=           0 FMFlag=      100000 FMFlg1=           0
         NFxFlg=           0 DoJE=T BraDBF=F KetDBF=T FulRan=T
         wScrn=  0.000000 ICntrl=       500 IOpCl=  0 I1Cent=   200000004 NGrid=           0
         NMat0=    1 NMatS0=      1 NMatT0=    0 NMatD0=    1 NMtDS0=    0 NMtDT0=    0
 Petite list used in FoFCou.
 Requested convergence on RMS density matrix=1.00D-08 within 128 cycles.
 Requested convergence on MAX density matrix=1.00D-06.
 Requested convergence on             energy=1.00D-06.
 No special actions if energy rises.
 Integral accuracy reduced to 1.0D-05 until final iterations.
 Initial convergence to 1.0D-05 achieved.  Increase integral accuracy.
 SCF Done:  E(RB-P86) =  -775.741948218     A.U. after   17 cycles
            NFock= 17  Conv=0.53D-08     -V/T= 2.0106
 DoSCS=F DFT=T ScalE2(SS,OS)=  1.000000  1.000000
 Range of M.O.s used for correlation:     1   274
 NBasis=   274 NAE=    57 NBE=    57 NFC=     0 NFV=     0
 NROrb=    274 NOA=    57 NOB=    57 NVA=   217 NVB=   217
   1 Symmetry operations used in ECPInt.
 ECPInt:  NShTT=    8001 NPrTT=   29641 LenC2=    7583 LenP2D=   20202.
 LDataN:  DoStor=T MaxTD1= 5 Len=  102
 Symmetrizing basis deriv contribution to polar:
 IMax=3 JMax=2 DiffMx= 0.00D+00
 G2DrvN: will do    27 centers at a time, making    1 passes.
 Calling FoFCou, ICntrl=  3507 FMM=F I1Cent=   0 AccDes= 0.00D+00.
 End of G2Drv F.D. properties file   721 does not exist.
 End of G2Drv F.D. properties file   722 does not exist.
 End of G2Drv F.D. properties file   788 does not exist.
          IDoAtm=11111111111111111111111111
          Differentiating once with respect to nuclear coordinates.
 Keep J ints in memory in canonical form, NReq=722056080.
          There are    81 degrees of freedom in the 1st order CPHF.  IDoFFX=6 NUNeed=     0.
     75 vectors produced by pass  0 Test12= 1.53D-14 1.23D-09 XBig12= 2.12D-01 1.96D-01.
 AX will form    75 AO Fock derivatives at one time.
     75 vectors produced by pass  1 Test12= 1.53D-14 1.23D-09 XBig12= 6.60D-02 7.09D-02.
     75 vectors produced by pass  2 Test12= 1.53D-14 1.23D-09 XBig12= 3.44D-04 1.74D-03.
     75 vectors produced by pass  3 Test12= 1.53D-14 1.23D-09 XBig12= 5.34D-07 6.22D-05.
     74 vectors produced by pass  4 Test12= 1.53D-14 1.23D-09 XBig12= 3.98D-10 1.86D-06.
     32 vectors produced by pass  5 Test12= 1.53D-14 1.23D-09 XBig12= 6.57D-14 1.70D-08.
 InvSVY:  IOpt=1 It=  1 EMax= 3.33D-16
 Solved reduced A of dimension   406 with    81 vectors.
 End of Minotr F.D. properties file   721 does not exist.
 End of Minotr F.D. properties file   722 does not exist.
 End of Minotr F.D. properties file   788 does not exist.

 **********************************************************************

            Population analysis using the SCF Density.

 **********************************************************************

 Orbital symmetries:
       Occupied  (A) (A) (A) (A) (A) (A) (A) (A) (A) (A) (A) (A)
                 (A) (A) (A) (A) (A) (A) (A) (A) (A) (A) (A) (A)
                 (A) (A) (A) (A) (A) (A) (A) (A) (A) (A) (A) (A)
                 (A) (A) (A) (A) (A) (A) (A) (A) (A) (A) (A) (A)
                 (A) (A) (A) (A) (A) (A) (A) (A) (A)
       Virtual   (A) (A) (A) (A) (A) (A) (A) (A) (A) (A) (A) (A)
                 (A) (A) (A) (A) (A) (A) (A) (A) (A) (A) (A) (A)
                 (A) (A) (A) (A) (A) (A) (A) (A) (A) (A) (A) (A)
                 (A) (A) (A) (A) (A) (A) (A) (A) (A) (A) (A) (A)
                 (A) (A) (A) (A) (A) (A) (A) (A) (A) (A) (A) (A)
                 (A) (A) (A) (A) (A) (A) (A) (A) (A) (A) (A) (A)
                 (A) (A) (A) (A) (A) (A) (A) (A) (A) (A) (A) (A)
                 (A) (A) (A) (A) (A) (A) (A) (A) (A) (A) (A) (A)
                 (A) (A) (A) (A) (A) (A) (A) (A) (A) (A) (A) (A)
                 (A) (A) (A) (A) (A) (A) (A) (A) (A) (A) (A) (A)
                 (A) (A) (A) (A) (A) (A) (A) (A) (A) (A) (A) (A)
                 (A) (A) (A) (A) (A) (A) (A) (A) (A) (A) (A) (A)
                 (A) (A) (A) (A) (A) (A) (A) (A) (A) (A) (A) (A)
                 (A) (A) (A) (A) (A) (A) (A) (A) (A) (A) (A) (A)
                 (A) (A) (A) (A) (A) (A) (A) (A) (A) (A) (A) (A)
                 (A) (A) (A) (A) (A) (A) (A) (A) (A) (A) (A) (A)
                 (A) (A) (A) (A) (A) (A) (A) (A) (A) (A) (A) (A)
                 (A) (A) (A) (A) (A) (A) (A) (A) (A) (A) (A) (A)
                 (A)
 The electronic state is 1-A.
 Alpha  occ. eigenvalues --  -24.30265 -24.29112 -18.82080 -10.00402  -9.99700
 Alpha  occ. eigenvalues --   -9.99503  -9.95288  -9.94731  -9.93598  -9.93197
 Alpha  occ. eigenvalues --   -9.92492  -9.92043  -9.91984  -9.91441  -9.91140
 Alpha  occ. eigenvalues --   -9.90987  -1.11214  -1.09928  -0.97374  -0.78414
 Alpha  occ. eigenvalues --   -0.77062  -0.70828  -0.68974  -0.66730  -0.65525
 Alpha  occ. eigenvalues --   -0.61289  -0.57442  -0.57346  -0.53524  -0.52713
 Alpha  occ. eigenvalues --   -0.51393  -0.47501  -0.46273  -0.45486  -0.44452
 Alpha  occ. eigenvalues --   -0.42659  -0.42102  -0.41661  -0.40544  -0.39653
 Alpha  occ. eigenvalues --   -0.37864  -0.37281  -0.36939  -0.36558  -0.35246
 Alpha  occ. eigenvalues --   -0.34801  -0.33148  -0.32026  -0.31702  -0.31013
 Alpha  occ. eigenvalues --   -0.30373  -0.29634  -0.28715  -0.26097  -0.21013
 Alpha  occ. eigenvalues --   -0.20532  -0.19327
 Alpha virt. eigenvalues --   -0.08527  -0.03602  -0.03323  -0.02113   0.01601
 Alpha virt. eigenvalues --    0.03238   0.04932   0.05446   0.07251   0.08576
 Alpha virt. eigenvalues --    0.09432   0.09767   0.11213   0.11823   0.12336
 Alpha virt. eigenvalues --    0.13050   0.14158   0.16023   0.17714   0.18671
 Alpha virt. eigenvalues --    0.20025   0.20187   0.24173   0.25599   0.26609
 Alpha virt. eigenvalues --    0.27363   0.28497   0.29171   0.29922   0.30543
 Alpha virt. eigenvalues --    0.32647   0.35286   0.36345   0.37204   0.38019
 Alpha virt. eigenvalues --    0.38899   0.39732   0.41048   0.42113   0.42698
 Alpha virt. eigenvalues --    0.43002   0.43562   0.44538   0.45111   0.45647
 Alpha virt. eigenvalues --    0.46802   0.48112   0.48738   0.50167   0.51754
 Alpha virt. eigenvalues --    0.52198   0.53376   0.54337   0.54938   0.55739
 Alpha virt. eigenvalues --    0.56307   0.57513   0.58439   0.59388   0.59518
 Alpha virt. eigenvalues --    0.60809   0.61279   0.61656   0.62261   0.62874
 Alpha virt. eigenvalues --    0.63833   0.64438   0.65601   0.66035   0.66494
 Alpha virt. eigenvalues --    0.67706   0.68741   0.70035   0.71761   0.72241
 Alpha virt. eigenvalues --    0.72553   0.73835   0.75075   0.76919   0.78340
 Alpha virt. eigenvalues --    0.79497   0.82269   0.82422   0.88520   0.90322
 Alpha virt. eigenvalues --    0.93404   0.93787   0.96314   0.98633   1.01413
 Alpha virt. eigenvalues --    1.02496   1.04344   1.07364   1.08766   1.10130
 Alpha virt. eigenvalues --    1.13815   1.15567   1.16212   1.18209   1.20533
 Alpha virt. eigenvalues --    1.21295   1.22793   1.23648   1.26100   1.26979
 Alpha virt. eigenvalues --    1.28739   1.31067   1.31657   1.32747   1.36287
 Alpha virt. eigenvalues --    1.36861   1.40881   1.42020   1.44009   1.45500
 Alpha virt. eigenvalues --    1.49256   1.52688   1.54781   1.56073   1.57390
 Alpha virt. eigenvalues --    1.58768   1.60265   1.60623   1.62076   1.63270
 Alpha virt. eigenvalues --    1.63749   1.64079   1.64858   1.65930   1.66714
 Alpha virt. eigenvalues --    1.67902   1.68888   1.70610   1.71227   1.72469
 Alpha virt. eigenvalues --    1.73131   1.73650   1.75738   1.77084   1.77294
 Alpha virt. eigenvalues --    1.79497   1.79965   1.81633   1.83821   1.85900
 Alpha virt. eigenvalues --    1.86883   1.87835   1.90825   1.92737   1.93546
 Alpha virt. eigenvalues --    1.95168   1.95375   1.98391   1.99485   1.99918
 Alpha virt. eigenvalues --    2.00864   2.02789   2.04188   2.07160   2.08263
 Alpha virt. eigenvalues --    2.08677   2.10084   2.11667   2.14338   2.16487
 Alpha virt. eigenvalues --    2.17698   2.18403   2.18867   2.20134   2.22036
 Alpha virt. eigenvalues --    2.23684   2.25136   2.28373   2.34456   2.36178
 Alpha virt. eigenvalues --    2.36544   2.38147   2.43943   2.45814   2.46741
 Alpha virt. eigenvalues --    2.47503   2.48609   2.52432   2.54993   2.56402
 Alpha virt. eigenvalues --    2.58932   2.61866   2.63051   2.65684   2.68309
 Alpha virt. eigenvalues --    2.69838   2.77384   2.77648   2.80514   2.82366
 Alpha virt. eigenvalues --    2.84478   2.85591   2.87576   2.88898   2.91436
 Alpha virt. eigenvalues --    2.92557   2.99794   3.01297   3.01857   3.03643
 Alpha virt. eigenvalues --    3.06906   3.15760   3.19829   3.20671   3.21355
 Alpha virt. eigenvalues --    3.34280   3.39942   3.42934   3.47056   3.67103
 Alpha virt. eigenvalues --    3.75042   3.77029
          Condensed to atoms (all electrons):
               1          2          3          4          5          6
     1  C    4.566238   0.436485  -0.073934   0.013879  -0.000099   0.008361
     2  C    0.436485   5.200633   0.359024   0.057986  -0.118161   0.030212
     3  C   -0.073934   0.359024   5.104199   0.288128   0.085507  -0.128445
     4  C    0.013879   0.057986   0.288128   5.090537   0.220123   0.086924
     5  C   -0.000099  -0.118161   0.085507   0.220123   5.265345   0.318912
     6  C    0.008361   0.030212  -0.128445   0.086924   0.318912   5.037160
     7  F   -0.000019   0.001450   0.000073   0.005578  -0.066424   0.377021
     8  C   -0.064702   0.297474   0.034458  -0.087782  -0.017972   0.229486
     9  C   -0.019406  -0.047009   0.013649  -0.000156   0.013446  -0.051962
    10  C   -0.000253   0.008715   0.000182  -0.000194   0.000890  -0.033831
    11  O   -0.000001   0.000108  -0.000004   0.000002  -0.001725   0.002941
    12  C   -0.000001   0.000068  -0.000002   0.000002  -0.000051   0.000355
    13  C   -0.000014  -0.000112   0.000001  -0.000000   0.000002  -0.000105
    14  C   -0.000181   0.000429  -0.000014   0.000001  -0.000002   0.000017
    15  C   -0.000105  -0.022561   0.000021  -0.000047  -0.000140   0.012942
    16  F    0.004001  -0.003948  -0.000119   0.000002  -0.000002   0.000221
    17  H    0.370954  -0.003785   0.007610  -0.000877   0.000209  -0.000679
    18  H    0.374820  -0.021841  -0.018922   0.002019  -0.000037  -0.000032
    19  H    0.356966  -0.001273   0.000091  -0.000219  -0.000036  -0.000225
    20  H   -0.019273  -0.066483   0.424584  -0.067061   0.013701  -0.000480
    21  H   -0.000440   0.015048  -0.067154   0.430402  -0.070847   0.013383
    22  H    0.000023  -0.000749   0.012517  -0.066670   0.410455  -0.055571
    23  H    0.000000   0.000020  -0.000000  -0.000000   0.000038  -0.000384
    24  H    0.000000   0.000000  -0.000000   0.000000   0.000000   0.000037
    25  H    0.000000  -0.000000  -0.000000   0.000000  -0.000000   0.000001
    26  H   -0.000013   0.000033  -0.000000   0.000000  -0.000000   0.000001
               7          8          9         10         11         12
     1  C   -0.000019  -0.064702  -0.019406  -0.000253  -0.000001  -0.000001
     2  C    0.001450   0.297474  -0.047009   0.008715   0.000108   0.000068
     3  C    0.000073   0.034458   0.013649   0.000182  -0.000004  -0.000002
     4  C    0.005578  -0.087782  -0.000156  -0.000194   0.000002   0.000002
     5  C   -0.066424  -0.017972   0.013446   0.000890  -0.001725  -0.000051
     6  C    0.377021   0.229486  -0.051962  -0.033831   0.002941   0.000355
     7  F    8.911179  -0.075340   0.004840   0.001234  -0.006859  -0.000855
     8  C   -0.075340   5.507371   0.203191  -0.050279   0.005484   0.012843
     9  C    0.004840   0.203191   5.622351   0.206299  -0.073019   0.023987
    10  C    0.001234  -0.050279   0.206299   5.154402   0.431988   0.273917
    11  O   -0.006859   0.005484  -0.073019   0.431988   7.551103  -0.080303
    12  C   -0.000855   0.012843   0.023987   0.273917  -0.080303   5.318563
    13  C    0.000002  -0.000730  -0.092852   0.094424   0.005283   0.225946
    14  C   -0.000001   0.013062  -0.004163  -0.129287   0.000306   0.093153
    15  C    0.000241  -0.051768   0.195144   0.068076   0.000720  -0.147672
    16  F   -0.000000  -0.002340  -0.070584   0.002412  -0.000001   0.000043
    17  H   -0.000004  -0.009606   0.004210   0.000070   0.000000  -0.000008
    18  H    0.000001   0.006585  -0.000537   0.000008  -0.000000  -0.000000
    19  H    0.000000  -0.000699   0.003823   0.000025   0.000000  -0.000003
    20  H    0.000004   0.015328  -0.000249   0.000002  -0.000000  -0.000000
    21  H   -0.000082  -0.001579   0.000022   0.000000   0.000000  -0.000000
    22  H    0.001985   0.017751  -0.000371   0.000049   0.000043   0.000000
    23  H    0.001225  -0.000528   0.012012  -0.008211   0.315840  -0.028506
    24  H    0.000001  -0.000273   0.014946  -0.075734  -0.008878   0.407346
    25  H    0.000000   0.000011  -0.001823   0.014457  -0.000109  -0.061667
    26  H   -0.000000  -0.000211   0.018524  -0.001207   0.000006   0.014420
              13         14         15         16         17         18
     1  C   -0.000014  -0.000181  -0.000105   0.004001   0.370954   0.374820
     2  C   -0.000112   0.000429  -0.022561  -0.003948  -0.003785  -0.021841
     3  C    0.000001  -0.000014   0.000021  -0.000119   0.007610  -0.018922
     4  C   -0.000000   0.000001  -0.000047   0.000002  -0.000877   0.002019
     5  C    0.000002  -0.000002  -0.000140  -0.000002   0.000209  -0.000037
     6  C   -0.000105   0.000017   0.012942   0.000221  -0.000679  -0.000032
     7  F    0.000002  -0.000001   0.000241  -0.000000  -0.000004   0.000001
     8  C   -0.000730   0.013062  -0.051768  -0.002340  -0.009606   0.006585
     9  C   -0.092852  -0.004163   0.195144  -0.070584   0.004210  -0.000537
    10  C    0.094424  -0.129287   0.068076   0.002412   0.000070   0.000008
    11  O    0.005283   0.000306   0.000720  -0.000001   0.000000  -0.000000
    12  C    0.225946   0.093153  -0.147672   0.000043  -0.000008  -0.000000
    13  C    5.125060   0.199567   0.113810   0.005394   0.000081  -0.000001
    14  C    0.199567   5.257379   0.316065  -0.061397  -0.001239   0.000038
    15  C    0.113810   0.316065   5.061244   0.358045   0.002217   0.000119
    16  F    0.005394  -0.061397   0.358045   8.926390  -0.002027   0.001677
    17  H    0.000081  -0.001239   0.002217  -0.002027   0.649421  -0.028653
    18  H   -0.000001   0.000038   0.000119   0.001677  -0.028653   0.673679
    19  H    0.000003  -0.000169  -0.002208   0.003465  -0.019174  -0.023417
    20  H    0.000000  -0.000000   0.000025  -0.000011   0.000564   0.005044
    21  H   -0.000000   0.000000   0.000000   0.000000   0.000011  -0.000018
    22  H    0.000000  -0.000000   0.000002  -0.000000  -0.000001  -0.000002
    23  H    0.000755  -0.000103   0.000207   0.000002  -0.000000   0.000000
    24  H   -0.046816   0.013803  -0.000475   0.000003  -0.000000  -0.000000
    25  H    0.427053  -0.068235   0.013599  -0.000083  -0.000001   0.000000
    26  H   -0.070391   0.417507  -0.059369   0.001810   0.000050  -0.000002
              19         20         21         22         23         24
     1  C    0.356966  -0.019273  -0.000440   0.000023   0.000000   0.000000
     2  C   -0.001273  -0.066483   0.015048  -0.000749   0.000020   0.000000
     3  C    0.000091   0.424584  -0.067154   0.012517  -0.000000  -0.000000
     4  C   -0.000219  -0.067061   0.430402  -0.066670  -0.000000   0.000000
     5  C   -0.000036   0.013701  -0.070847   0.410455   0.000038   0.000000
     6  C   -0.000225  -0.000480   0.013383  -0.055571  -0.000384   0.000037
     7  F    0.000000   0.000004  -0.000082   0.001985   0.001225   0.000001
     8  C   -0.000699   0.015328  -0.001579   0.017751  -0.000528  -0.000273
     9  C    0.003823  -0.000249   0.000022  -0.000371   0.012012   0.014946
    10  C    0.000025   0.000002   0.000000   0.000049  -0.008211  -0.075734
    11  O    0.000000  -0.000000   0.000000   0.000043   0.315840  -0.008878
    12  C   -0.000003  -0.000000  -0.000000   0.000000  -0.028506   0.407346
    13  C    0.000003   0.000000  -0.000000   0.000000   0.000755  -0.046816
    14  C   -0.000169  -0.000000   0.000000  -0.000000  -0.000103   0.013803
    15  C   -0.002208   0.000025   0.000000   0.000002   0.000207  -0.000475
    16  F    0.003465  -0.000011   0.000000  -0.000000   0.000002   0.000003
    17  H   -0.019174   0.000564   0.000011  -0.000001  -0.000000  -0.000000
    18  H   -0.023417   0.005044  -0.000018  -0.000002   0.000000  -0.000000
    19  H    0.632321   0.001984   0.000015  -0.000001  -0.000000  -0.000000
    20  H    0.001984   0.711097  -0.012644  -0.000386   0.000000   0.000000
    21  H    0.000015  -0.012644   0.700764  -0.012361   0.000000  -0.000000
    22  H   -0.000001  -0.000386  -0.012361   0.683140  -0.000002  -0.000000
    23  H   -0.000000   0.000000   0.000000  -0.000002   0.515277   0.012245
    24  H   -0.000000   0.000000  -0.000000  -0.000000   0.012245   0.713317
    25  H    0.000000  -0.000000   0.000000  -0.000000  -0.000057  -0.014023
    26  H    0.000021  -0.000000  -0.000000   0.000000  -0.000006  -0.000347
              25         26
     1  C    0.000000  -0.000013
     2  C   -0.000000   0.000033
     3  C   -0.000000  -0.000000
     4  C    0.000000   0.000000
     5  C   -0.000000  -0.000000
     6  C    0.000001   0.000001
     7  F    0.000000  -0.000000
     8  C    0.000011  -0.000211
     9  C   -0.001823   0.018524
    10  C    0.014457  -0.001207
    11  O   -0.000109   0.000006
    12  C   -0.061667   0.014420
    13  C    0.427053  -0.070391
    14  C   -0.068235   0.417507
    15  C    0.013599  -0.059369
    16  F   -0.000083   0.001810
    17  H   -0.000001   0.000050
    18  H    0.000000  -0.000002
    19  H    0.000000   0.000021
    20  H   -0.000000  -0.000000
    21  H    0.000000  -0.000000
    22  H   -0.000000   0.000000
    23  H   -0.000057  -0.000006
    24  H   -0.014023  -0.000347
    25  H    0.692138  -0.012231
    26  H   -0.012231   0.682225
 Mulliken charges:
               1
     1  C    0.046713
     2  C   -0.121763
     3  C   -0.041447
     4  C    0.027425
     5  C   -0.053133
     6  C    0.153739
     7  F   -0.155248
     8  C    0.020764
     9  C    0.025686
    10  C    0.041849
    11  O   -0.142926
    12  C   -0.051575
    13  C    0.013642
    14  C   -0.046535
    15  C    0.141869
    16  F   -0.162954
    17  H    0.030657
    18  H    0.029470
    19  H    0.048709
    20  H   -0.005745
    21  H    0.005479
    22  H    0.010150
    23  H    0.180178
    24  H   -0.015151
    25  H    0.010969
    26  H    0.009179
 Sum of Mulliken charges =  -0.00000
 Mulliken charges with hydrogens summed into heavy atoms:
               1
     1  C    0.155550
     2  C   -0.121763
     3  C   -0.047192
     4  C    0.032903
     5  C   -0.042983
     6  C    0.153739
     7  F   -0.155248
     8  C    0.020764
     9  C    0.025686
    10  C    0.041849
    11  O    0.037252
    12  C   -0.066726
    13  C    0.024611
    14  C   -0.037357
    15  C    0.141869
    16  F   -0.162954
 APT charges:
               1
     1  C   -0.604143
     2  C   -0.594646
     3  C   -0.522371
     4  C   -0.421666
     5  C   -0.423147
     6  C   -0.413310
     7  F    0.147107
     8  C   -0.450736
     9  C   -0.464403
    10  C   -0.381997
    11  O   -0.528528
    12  C   -0.560955
    13  C   -0.392269
    14  C   -0.471001
    15  C   -0.395119
    16  F    0.118599
    17  H    0.116037
    18  H    0.575989
    19  H    0.379857
    20  H    0.657683
    21  H    0.870499
    22  H    0.659728
    23  H    0.878509
    24  H    0.656445
    25  H    0.894280
    26  H    0.669558
 Sum of APT charges =  -0.00000
 APT charges with hydrogens summed into heavy atoms:
               1
     1  C    0.467739
     2  C   -0.594646
     3  C    0.135312
     4  C    0.448833
     5  C    0.236581
     6  C   -0.413310
     7  F    0.147107
     8  C   -0.450736
     9  C   -0.464403
    10  C   -0.381997
    11  O    0.349980
    12  C    0.095490
    13  C    0.502011
    14  C    0.198558
    15  C   -0.395119
    16  F    0.118599
 Electronic spatial extent (au):  <R**2>=           3394.3688
 Charge=             -0.0000 electrons
 Dipole moment (field-independent basis, Debye):
    X=             -1.4948    Y=             -0.5919    Z=             -0.1288  Tot=              1.6128
 Quadrupole moment (field-independent basis, Debye-Ang):
   XX=            -76.1510   YY=            -83.6686   ZZ=            -95.2369
   XY=              5.7033   XZ=             -0.4280   YZ=              2.3608
 Traceless Quadrupole moment (field-independent basis, Debye-Ang):
   XX=              8.8678   YY=              1.3502   ZZ=            -10.2181
   XY=              5.7033   XZ=             -0.4280   YZ=              2.3608
 Octapole moment (field-independent basis, Debye-Ang**2):
  XXX=            -18.4091  YYY=            -27.9101  ZZZ=              1.9834  XYY=            -18.1555
  XXY=            -17.3150  XXZ=             -4.9772  XZZ=             -1.2532  YZZ=             -2.2296
  YYZ=             -3.9350  XYZ=             -2.9300
 Hexadecapole moment (field-independent basis, Debye-Ang**3):
 XXXX=          -2620.7659 YYYY=          -1293.0361 ZZZZ=           -167.8232 XXXY=             -9.0688
 XXXZ=            -28.8740 YYYX=             48.6790 YYYZ=              4.3100 ZZZX=             18.5037
 ZZZY=            -14.8318 XXYY=           -612.0714 XXZZ=           -551.1539 YYZZ=           -262.1462
 XXYZ=              6.1008 YYXZ=             14.1607 ZZXY=             -2.0246
 N-N= 1.066294935643D+03 E-N=-3.944289696329D+03  KE= 7.676321370321D+02
  Exact polarizability:       0.000       0.000       0.000       0.000       0.000       0.000
 Approx polarizability:     473.935      -6.063     382.967     -35.299      -0.497     129.222
   1 Symmetry operations used in ECPInt.
 ECPInt:  NShTT=    8001 NPrTT=   29641 LenC2=    7583 LenP2D=   20202.
 LDataN:  DoStor=T MaxTD1= 6 Len=  172
 Calling FoFJK, ICntrl=    100527 FMM=F ISym2X=0 I1Cent= 0 IOpClX= 0 NMat=1 NMatS=1 NMatT=0.
 ***** Axes restored to original set *****
 -------------------------------------------------------------------
 Center     Atomic                   Forces (Hartrees/Bohr)
 Number     Number              X              Y              Z
 -------------------------------------------------------------------
      1        6           0.000079654    0.000313748    0.000165866
      2        6          -0.000052693   -0.000063569   -0.000024301
      3        6           0.000036194   -0.000013626   -0.000008950
      4        6          -0.000010385    0.000042107    0.000005267
      5        6          -0.000064138   -0.000050925    0.000005622
      6        6           0.000106843    0.000046241   -0.000041187
      7        9          -0.007327100    0.002913242   -0.003084313
      8        6           0.000416487   -0.008383662   -0.002945456
      9        6          -0.002722336   -0.006359524    0.001918954
     10        6           0.000012260    0.000031045   -0.000000991
     11        8           0.010894211    0.014223885    0.004543073
     12        6          -0.000026638    0.000003358    0.000004883
     13        6           0.000025429   -0.000015621   -0.000004850
     14        6           0.000018923    0.000014859    0.000009573
     15        6          -0.000039978    0.000005308   -0.000004684
     16        9          -0.001319743   -0.002683129   -0.000535060
     17        1          -0.000009251   -0.000007636    0.000002135
     18        1           0.000011011   -0.000009150    0.000010589
     19        1           0.000004373   -0.000001208   -0.000015995
     20        1           0.000006049    0.000016367   -0.000003086
     21        1           0.000012437   -0.000002413   -0.000004777
     22        1           0.000010627   -0.000003920    0.000011096
     23        1          -0.000029893   -0.000014729   -0.000002427
     24        1          -0.000003999   -0.000010632    0.000001718
     25        1          -0.000020970   -0.000000082    0.000001718
     26        1          -0.000007373    0.000009665   -0.000004417
 -------------------------------------------------------------------
 Cartesian Forces:  Max     0.014223885 RMS     0.002663623
 FormGI is forming the generalized inverse of G from B-inverse, IUseBI=4.

 GradGradGradGradGradGradGradGradGradGradGradGradGradGradGradGradGradGrad
 Berny optimization.
 Internal  Forces:  Max     0.025036941 RMS     0.005138533
 Search for a saddle point.
 Step number   1 out of a maximum of  140
 All quantities printed in internal units (Hartrees-Bohrs-Radians)
 Swapping is turned off.
 Second derivative matrix not updated -- analytic derivatives used.
 ITU=  0
     Eigenvalues ---   -0.02685   0.00426   0.00602   0.01066   0.01426
     Eigenvalues ---    0.01543   0.01558   0.01588   0.01635   0.01698
     Eigenvalues ---    0.01813   0.02025   0.02082   0.02218   0.02391
     Eigenvalues ---    0.02622   0.02810   0.02905   0.02998   0.03377
     Eigenvalues ---    0.03758   0.05228   0.05505   0.09870   0.09949
     Eigenvalues ---    0.10789   0.10839   0.10959   0.11443   0.11559
     Eigenvalues ---    0.12987   0.13334   0.14627   0.15351   0.16194
     Eigenvalues ---    0.16966   0.17311   0.17488   0.17745   0.18010
     Eigenvalues ---    0.19461   0.20094   0.21665   0.24775   0.26536
     Eigenvalues ---    0.27113   0.28724   0.30656   0.32268   0.32733
     Eigenvalues ---    0.33163   0.33511   0.33676   0.34078   0.34183
     Eigenvalues ---    0.34452   0.34580   0.34684   0.34969   0.36640
     Eigenvalues ---    0.39393   0.41690   0.42922   0.44607   0.46251
     Eigenvalues ---    0.46661   0.46899   0.49055   0.49307   0.49655
     Eigenvalues ---    0.61787   1.62102
 Eigenvectors required to have negative eigenvalues:
                          D32       D31       D34       D33       D4
   1                    0.49572   0.46793   0.41137   0.38359  -0.15235
                          D6        D2        D42       D40       A25
   1                   -0.14979  -0.14231   0.13396   0.11627   0.11003
 RFO step:  Lambda0=1.194418001D-03 Lambda=-6.58496211D-03.
 Linear search not attempted -- option 19 set.
 Iteration  1 RMS(Cart)=  0.07424160 RMS(Int)=  0.00200537
 Iteration  2 RMS(Cart)=  0.00313429 RMS(Int)=  0.00026260
 Iteration  3 RMS(Cart)=  0.00000469 RMS(Int)=  0.00026258
 Iteration  4 RMS(Cart)=  0.00000000 RMS(Int)=  0.00026258
 Variable       Old X    -DE/DX   Delta X   Delta X   Delta X     New X
                                 (Linear)    (Quad)   (Total)
    R1        2.87588   0.00031   0.00000  -0.00310  -0.00310   2.87278
    R2        2.08547   0.00001   0.00000   0.00237   0.00237   2.08784
    R3        2.09529   0.00001   0.00000   0.00078   0.00078   2.09608
    R4        2.09150   0.00001   0.00000  -0.00037  -0.00037   2.09113
    R5        2.66958   0.00063   0.00000  -0.00202  -0.00196   2.66762
    R6        2.74903  -0.00088   0.00000  -0.00649  -0.00645   2.74258
    R7        2.64281   0.00175   0.00000   0.00222   0.00221   2.64501
    R8        2.08211   0.00002   0.00000   0.00042   0.00042   2.08253
    R9        2.63806   0.00131   0.00000   0.00366   0.00355   2.64162
   R10        2.07952   0.00001   0.00000   0.00022   0.00022   2.07974
   R11        2.64295  -0.00062   0.00000  -0.00065  -0.00071   2.64224
   R12        2.07832   0.00001   0.00000   0.00010   0.00010   2.07841
   R13        2.55021  -0.00056   0.00000  -0.00667  -0.00667   2.54354
   R14        2.72584  -0.00833   0.00000  -0.01103  -0.01095   2.71490
   R15        2.84168  -0.00719   0.00000  -0.01841  -0.01841   2.82328
   R16        2.77829  -0.02036   0.00000  -0.04320  -0.04319   2.73510
   R17        2.71044  -0.00216   0.00000  -0.00266  -0.00268   2.70775
   R18        2.59212  -0.01045   0.00000  -0.03226  -0.03226   2.55986
   R19        2.67441  -0.00098   0.00000  -0.00473  -0.00464   2.66977
   R20        1.84334   0.00003   0.00000   0.00147   0.00147   1.84481
   R21        2.63487   0.00095   0.00000   0.00343   0.00348   2.63835
   R22        2.08638   0.00001   0.00000  -0.00111  -0.00111   2.08527
   R23        2.63964   0.00202   0.00000   0.00488   0.00484   2.64448
   R24        2.07871   0.00002   0.00000   0.00025   0.00025   2.07896
   R25        2.64171   0.00102   0.00000   0.00140   0.00132   2.64302
   R26        2.07652   0.00001   0.00000   0.00019   0.00019   2.07671
   R27        2.55427  -0.00282   0.00000  -0.00399  -0.00399   2.55027
    A1        1.96705  -0.00001   0.00000  -0.00273  -0.00273   1.96431
    A2        1.87304  -0.00001   0.00000   0.00131   0.00131   1.87435
    A3        1.98977  -0.00001   0.00000   0.00093   0.00093   1.99070
    A4        1.87299   0.00001   0.00000   0.00044   0.00044   1.87343
    A5        1.88241   0.00001   0.00000  -0.00024  -0.00024   1.88217
    A6        1.87301   0.00001   0.00000   0.00043   0.00043   1.87345
    A7        1.96834   0.00135   0.00000   0.02056   0.02054   1.98889
    A8        2.21919   0.00170   0.00000  -0.02279  -0.02285   2.19634
    A9        2.08468  -0.00313   0.00000   0.00046   0.00049   2.08516
   A10        2.15366  -0.00036   0.00000  -0.00858  -0.00850   2.14516
   A11        2.04766   0.00014   0.00000   0.00493   0.00489   2.05255
   A12        2.07983   0.00021   0.00000   0.00336   0.00332   2.08315
   A13        2.04846   0.00068   0.00000   0.00473   0.00465   2.05311
   A14        2.11516  -0.00031   0.00000  -0.00165  -0.00162   2.11354
   A15        2.11417  -0.00030   0.00000  -0.00367  -0.00364   2.11053
   A16        2.08160  -0.00202   0.00000  -0.00236  -0.00244   2.07916
   A17        2.14557   0.00107   0.00000  -0.00144  -0.00144   2.14413
   A18        2.05455   0.00099   0.00000   0.00325   0.00326   2.05781
   A19        1.98579   0.00900   0.00000   0.01935   0.01917   2.00495
   A20        2.17326   0.00098   0.00000  -0.00587  -0.00569   2.16756
   A21        2.12183  -0.00986   0.00000  -0.01446  -0.01457   2.10726
   A22        1.95201   0.00427   0.00000   0.00651   0.00623   1.95824
   A23        2.23031   0.01414   0.00000  -0.02918  -0.02977   2.20054
   A24        2.10085  -0.01841   0.00000   0.02295   0.02223   2.12308
   A25        2.20093  -0.02504   0.00000  -0.02637  -0.02659   2.17434
   A26        2.15084   0.02141   0.00000   0.02284   0.02237   2.17321
   A27        1.92876   0.00358   0.00000   0.00014  -0.00025   1.92850
   A28        2.16523  -0.02208   0.00000  -0.07199  -0.07193   2.09330
   A29        2.10929   0.00537   0.00000   0.02107   0.02091   2.13020
   A30        2.00723   0.01677   0.00000   0.05019   0.05023   2.05746
   A31        1.86140  -0.00001   0.00000   0.01805   0.01805   1.87944
   A32        2.14094  -0.00396   0.00000  -0.02340  -0.02336   2.11758
   A33        2.04950   0.00198   0.00000   0.00929   0.00927   2.05876
   A34        2.09092   0.00202   0.00000   0.01366   0.01362   2.10454
   A35        2.05777  -0.00075   0.00000   0.00366   0.00355   2.06132
   A36        2.10842   0.00040   0.00000  -0.00065  -0.00064   2.10779
   A37        2.11543   0.00036   0.00000  -0.00383  -0.00384   2.11158
   A38        2.07823  -0.00067   0.00000   0.00063   0.00042   2.07865
   A39        2.14636   0.00032   0.00000  -0.00308  -0.00306   2.14330
   A40        2.05794   0.00032   0.00000   0.00184   0.00187   2.05980
   A41        2.20586  -0.00331   0.00000  -0.01507  -0.01522   2.19064
   A42        2.09647   0.00156   0.00000  -0.00006  -0.00015   2.09632
   A43        1.98036   0.00170   0.00000   0.01428   0.01414   1.99450
    D1       -2.57512   0.00044   0.00000  -0.05249  -0.05257  -2.62769
    D2        0.40526  -0.00045   0.00000  -0.06474  -0.06466   0.34060
    D3       -0.51687   0.00043   0.00000  -0.05269  -0.05276  -0.56963
    D4        2.46351  -0.00045   0.00000  -0.06493  -0.06486   2.39866
    D5        1.55475   0.00043   0.00000  -0.05070  -0.05077   1.50397
    D6       -1.74806  -0.00045   0.00000  -0.06294  -0.06287  -1.81093
    D7        2.86305   0.00020   0.00000  -0.01563  -0.01549   2.84755
    D8       -0.20929   0.00024   0.00000  -0.01091  -0.01091  -0.22020
    D9       -0.13110   0.00055   0.00000  -0.00185  -0.00168  -0.13278
   D10        3.07975   0.00059   0.00000   0.00287   0.00291   3.08266
   D11       -2.60849  -0.00017   0.00000   0.02453   0.02425  -2.58424
   D12        0.53835  -0.00028   0.00000  -0.03650  -0.03588   0.50248
   D13        0.36233  -0.00070   0.00000   0.01300   0.01301   0.37534
   D14       -2.77402  -0.00081   0.00000  -0.04803  -0.04711  -2.82113
   D15       -0.13411   0.00084   0.00000  -0.00392  -0.00407  -0.13819
   D16        3.11775   0.00006   0.00000   0.00226   0.00219   3.11994
   D17        2.93702   0.00079   0.00000  -0.00867  -0.00869   2.92833
   D18       -0.09430   0.00002   0.00000  -0.00249  -0.00243  -0.09673
   D19        0.13101  -0.00042   0.00000   0.00010   0.00007   0.13108
   D20       -2.95099  -0.00103   0.00000   0.01118   0.01135  -2.93965
   D21       -3.12079   0.00036   0.00000  -0.00594  -0.00604  -3.12683
   D22        0.08039  -0.00025   0.00000   0.00514   0.00523   0.08562
   D23       -2.92758  -0.00202   0.00000   0.02608   0.02656  -2.90102
   D24        0.14170  -0.00057   0.00000   0.01034   0.01055   0.15225
   D25        0.15752  -0.00143   0.00000   0.01542   0.01569   0.17321
   D26       -3.05639   0.00001   0.00000  -0.00032  -0.00032  -3.05671
   D27       -0.38128   0.00035   0.00000  -0.01650  -0.01672  -0.39800
   D28        2.75551   0.00055   0.00000   0.03922   0.04018   2.79568
   D29        2.68263   0.00268   0.00000  -0.03206  -0.03228   2.65035
   D30       -0.46376   0.00288   0.00000   0.02367   0.02462  -0.43915
   D31        2.99215   0.00181   0.00000   0.07539   0.07531   3.06746
   D32       -0.06365   0.00235   0.00000   0.13001   0.12983   0.06618
   D33       -0.14380   0.00162   0.00000   0.00979   0.00998  -0.13382
   D34        3.08359   0.00216   0.00000   0.06441   0.06450  -3.13510
   D35       -0.29665   0.00136   0.00000  -0.00984  -0.01024  -0.30690
   D36        2.90541  -0.00049   0.00000   0.00361   0.00256   2.90796
   D37        2.76834   0.00184   0.00000  -0.05743  -0.05698   2.71136
   D38       -0.31279  -0.00001   0.00000  -0.04399  -0.04418  -0.35697
   D39       -2.92829  -0.00243   0.00000  -0.00301  -0.00384  -2.93213
   D40        0.24971  -0.00073   0.00000   0.02749   0.02679   0.27650
   D41        0.28729  -0.00051   0.00000   0.04549   0.04541   0.33271
   D42       -2.81790   0.00119   0.00000   0.07599   0.07604  -2.74185
   D43       -3.09974  -0.00074   0.00000  -0.00318  -0.00337  -3.10311
   D44       -0.01542   0.00075   0.00000  -0.01653  -0.01635  -0.03177
   D45        0.17185  -0.00078   0.00000   0.01377   0.01349   0.18534
   D46       -3.03484  -0.00004   0.00000   0.00631   0.00625  -3.02860
   D47       -2.91447  -0.00121   0.00000   0.03004   0.03005  -2.88442
   D48        0.16202  -0.00047   0.00000   0.02258   0.02280   0.18482
   D49        0.04663   0.00044   0.00000   0.01625   0.01656   0.06319
   D50        3.12882   0.00066   0.00000   0.00063   0.00085   3.12967
   D51       -3.02837  -0.00031   0.00000   0.02408   0.02420  -3.00417
   D52        0.05381  -0.00009   0.00000   0.00846   0.00850   0.06231
   D53       -0.08737   0.00089   0.00000  -0.01011  -0.00992  -0.09728
   D54        3.01432   0.00015   0.00000  -0.02857  -0.02864   2.98568
   D55        3.11388   0.00066   0.00000   0.00545   0.00571   3.11960
   D56       -0.06761  -0.00007   0.00000  -0.01301  -0.01301  -0.08063
   D57       -0.09734   0.00015   0.00000  -0.02233  -0.02253  -0.11987
   D58        3.00993  -0.00145   0.00000  -0.05131  -0.05181   2.95812
   D59        3.08213   0.00085   0.00000  -0.00470  -0.00458   3.07755
   D60       -0.09379  -0.00075   0.00000  -0.03367  -0.03386  -0.12765
         Item               Value     Threshold  Converged?
 Maximum Force            0.025037     0.000450     NO 
 RMS     Force            0.005139     0.000300     NO 
 Maximum Displacement     0.389772     0.001800     NO 
 RMS     Displacement     0.074575     0.001200     NO 
 Predicted change in Energy=-2.847910D-03
 GradGradGradGradGradGradGradGradGradGradGradGradGradGradGradGradGradGrad

                          Input orientation:                          
 ---------------------------------------------------------------------
 Center     Atomic      Atomic             Coordinates (Angstroms)
 Number     Number       Type             X           Y           Z
 ---------------------------------------------------------------------
      1          6           0        1.300003    2.526574    0.576393
      2          6           0        1.637823    1.145420    0.038500
      3          6           0        3.000870    0.974539   -0.286529
      4          6           0        3.588144   -0.283365   -0.465116
      5          6           0        2.821394   -1.407996   -0.146715
      6          6           0        1.471468   -1.241812    0.177450
      7          9           0        0.889313   -2.314420    0.745149
      8          6           0        0.753565   -0.005400    0.036396
      9          6           0       -0.738618    0.031645   -0.027588
     10          6           0       -1.586346   -1.138133   -0.115957
     11          8           0       -1.061069   -2.326212   -0.500073
     12          6           0       -2.980430   -1.072056    0.103389
     13          6           0       -3.642727    0.153167    0.200579
     14          6           0       -2.900190    1.321847   -0.002243
     15          6           0       -1.515547    1.226553   -0.174989
     16          9           0       -0.927217    2.370645   -0.582658
     17          1           0        0.446035    2.511048    1.277225
     18          1           0        2.184026    2.888064    1.140435
     19          1           0        1.080856    3.275188   -0.208505
     20          1           0        3.632161    1.876732   -0.331084
     21          1           0        4.649782   -0.381457   -0.738102
     22          1           0        3.247109   -2.419603   -0.075407
     23          1           0       -1.789055   -2.975861   -0.532029
     24          1           0       -3.545934   -2.019323    0.126765
     25          1           0       -4.730441    0.193818    0.360375
     26          1           0       -3.363755    2.314708   -0.086021
 ---------------------------------------------------------------------
                    Distance matrix (angstroms):
                    1          2          3          4          5
     1  C    0.000000
     2  C    1.520209   0.000000
     3  C    2.458941   1.411645   0.000000
     4  C    3.770422   2.469577   1.399681   0.000000
     5  C    4.279994   2.820475   2.393372   1.397883   0.000000
     6  C    3.793321   2.397052   2.732500   2.410773   1.398213
     7  F    4.861313   3.609725   4.042311   3.587981   2.312999
     8  C    2.645955   1.451311   2.472840   2.891992   2.505339
     9  C    3.278023   2.625325   3.865213   4.360221   3.841932
    10  C    4.715976   3.953952   5.053220   5.256223   4.416101
    11  O    5.502997   4.430159   5.238312   5.078349   4.005185
    12  C    5.612127   5.123443   6.333762   6.640135   5.816921
    13  C    5.495897   5.375411   6.711878   7.274559   6.659032
    14  C    4.407699   4.541624   5.918104   6.699958   6.341092
    15  C    3.190918   3.161630   4.524818   5.330262   5.074516
    16  F    2.515596   2.909715   4.179315   5.238899   5.340436
    17  H    1.104839   2.195390   3.366507   4.551631   4.798838
    18  H    1.109195   2.132933   2.522903   3.821951   4.529804
    19  H    1.106577   2.215205   2.997587   4.360693   4.996549
    20  H    2.585492   2.156107   1.102028   2.164699   3.388329
    21  H    4.626613   3.465019   2.182098   1.100553   2.178651
    22  H    5.355439   3.913076   3.409604   2.198110   1.099848
    23  H    6.406845   5.390172   6.213639   6.014007   4.884968
    24  H    6.659613   6.074103   7.210732   7.366066   6.402451
    25  H    6.469519   6.447010   7.797511   8.373051   7.736483
    26  H    4.715329   5.137949   6.507282   7.431191   7.219300
                    6          7          8          9         10
     6  C    0.000000
     7  F    1.345984   0.000000
     8  C    1.436662   2.419159   0.000000
     9  C    2.558948   2.958260   1.494013   0.000000
    10  C    3.073608   2.872985   2.604128   1.447354   0.000000
    11  O    2.837024   2.314023   2.994473   2.426254   1.354620
    12  C    4.455749   4.114637   3.883937   2.502206   1.412781
    13  C    5.301084   5.188923   4.402214   2.915592   2.448745
    14  C    5.071098   5.304843   3.887545   2.517471   2.791167
    15  C    3.890925   4.378183   2.590610   1.432882   2.366481
    16  F    4.402420   5.197373   2.975541   2.411347   3.600526
    17  H    4.042892   4.874909   2.822541   3.041936   4.403186
    18  H    4.300111   5.375720   3.411342   4.250324   5.657251
    19  H    4.550256   5.673610   3.305956   3.723410   5.157512
    20  H    3.827861   5.123207   3.458869   4.753963   6.030631
    21  H    3.417619   4.480793   3.990209   5.450718   6.312600
    22  H    2.145700   2.498716   3.472555   4.679415   5.000610
    23  H    3.760492   3.040122   3.951160   3.225363   1.895112
    24  H    5.077540   4.487860   4.748657   3.480132   2.162266
    25  H    6.368530   6.166112   5.497179   4.013909   3.447654
    26  H    6.008131   6.340998   4.727601   3.479531   3.883579
                   11         12         13         14         15
    11  O    0.000000
    12  C    2.370870   0.000000
    13  C    3.647354   1.396156   0.000000
    14  C    4.115646   2.397575   1.399397   0.000000
    15  C    3.596439   2.739886   2.412074   1.398627   0.000000
    16  F    4.699490   4.066760   3.592307   2.308567   1.349546
    17  H    5.369286   5.094819   4.841151   3.774713   2.758017
    18  H    6.356932   6.590115   6.504924   5.441323   4.263543
    19  H    6.004043   5.957336   5.676848   4.439235   3.307467
    20  H    6.302358   7.253308   7.495155   6.564118   5.190954
    21  H    6.037595   7.707475   8.362574   7.774626   6.396411
    22  H    4.330065   6.374174   7.359698   7.196741   5.998938
    23  H    0.976232   2.334010   3.709936   4.470524   4.226412
    24  H    2.581019   1.103475   2.175898   3.405444   3.840473
    25  H    4.533786   2.175089   1.100140   2.180312   3.418874
    26  H    5.197302   3.413646   2.198232   1.098947   2.146595
                   16         17         18         19         20
    16  F    0.000000
    17  H    2.316182   0.000000
    18  H    3.593967   1.783667   0.000000
    19  H    2.233953   1.787261   1.785073   0.000000
    20  H    4.592948   3.624972   2.298969   2.912020   0.000000
    21  H    6.221024   5.486311   4.505398   5.136998   2.510105
    22  H    6.374070   5.829832   5.547950   6.094342   4.321126
    23  H    5.415760   6.194771   7.277920   6.885976   7.278573
    24  H    5.160696   6.146839   7.611991   7.039278   8.180093
    25  H    4.482455   5.745091   7.461723   6.602245   8.558238
    26  H    2.487268   4.051109   5.710587   4.548857   7.013896
                   21         22         23         24         25
    21  H    0.000000
    22  H    2.561385   0.000000
    23  H    6.944928   5.087325   0.000000
    24  H    8.402401   6.807828   2.106085   0.000000
    25  H    9.461827   8.406020   4.415314   2.521036   0.000000
    26  H    8.480052   8.131257   5.537935   4.343074   2.562279
                   26
    26  H    0.000000
 Stoichiometry    C13H10F2O
 Framework group  C1[X(C13H10F2O)]
 Deg. of freedom    72
 Full point group                 C1      NOp   1
 Largest Abelian subgroup         C1      NOp   1
 Largest concise Abelian subgroup C1      NOp   1
                         Standard orientation:                         
 ---------------------------------------------------------------------
 Center     Atomic      Atomic             Coordinates (Angstroms)
 Number     Number       Type             X           Y           Z
 ---------------------------------------------------------------------
      1          6           0        1.230280    2.543813    0.643023
      2          6           0        1.605643    1.181052    0.083542
      3          6           0        2.973928    1.050671   -0.238232
      4          6           0        3.594048   -0.188574   -0.435283
      5          6           0        2.855178   -1.337702   -0.139217
      6          6           0        1.500134   -1.211666    0.181673
      7          9           0        0.943456   -2.308274    0.728695
      8          6           0        0.751267    0.008149    0.058189
      9          6           0       -0.741105    0.008016   -0.011813
     10          6           0       -1.558130   -1.181443   -0.123573
     11          8           0       -1.000953   -2.349015   -0.525226
     12          6           0       -2.954322   -1.154827    0.090638
     13          6           0       -3.648273    0.051204    0.205421
     14          6           0       -2.935204    1.241788    0.025547
     15          6           0       -1.547886    1.184940   -0.142602
     16          9           0       -0.987516    2.350455   -0.528392
     17          1           0        0.374180    2.494574    1.339685
     18          1           0        2.102445    2.918263    1.216984
     19          1           0        0.995127    3.299714   -0.130171
     20          1           0        3.582000    1.969370   -0.264831
     21          1           0        4.658946   -0.254802   -0.705143
     22          1           0        3.306459   -2.339126   -0.082997
     23          1           0       -1.711869   -3.016473   -0.571321
     24          1           0       -3.495385   -2.116536    0.095596
     25          1           0       -4.737306    0.061261    0.361028
     26          1           0       -3.423791    2.223716   -0.043624
 ---------------------------------------------------------------------
 Rotational constants (GHZ):           0.8468102           0.4762958           0.3177377
 Standard basis: def2SVP (5D, 7F)
 There are   290 symmetry adapted cartesian basis functions of A   symmetry.
 There are   274 symmetry adapted basis functions of A   symmetry.
   274 basis functions,   470 primitive gaussians,   290 cartesian basis functions
    57 alpha electrons       57 beta electrons
       nuclear repulsion energy      1072.4467490454 Hartrees.
 NAtoms=   26 NActive=   26 NUniq=   26 SFac= 1.00D+00 NAtFMM=   60 NAOKFM=F Big=F
 Integral buffers will be    131072 words long.
 Raffenetti 2 integral format.
 Two-electron integral symmetry is turned on.
 Nuclear repulsion after empirical dispersion term =     1072.3952797236 Hartrees.
 One-electron integrals computed using PRISM.
   1 Symmetry operations used in ECPInt.
 ECPInt:  NShTT=    8001 NPrTT=   29641 LenC2=    7594 LenP2D=   20271.
 LDataN:  DoStor=T MaxTD1= 4 Len=   56
 NBasis=   274 RedAO= T EigKep=  3.40D-04  NBF=   274
 NBsUse=   274 1.00D-06 EigRej= -1.00D+00 NBFU=   274
 Initial guess from the checkpoint file:  "/scratch/gaussian_tmp/Gau-230055.chk"
 B after Tr=     0.000000   -0.000000    0.000000
         Rot=    0.999925   -0.003228    0.001828   -0.011690 Ang=  -1.41 deg.
 ExpMin= 1.22D-01 ExpMax= 2.89D+03 ExpMxC= 4.35D+02 IAcc=3 IRadAn=         5 AccDes= 0.00D+00
 Harris functional with IExCor=  404 and IRadAn=       5 diagonalized for initial guess.
 HarFok:  IExCor=  404 AccDes= 0.00D+00 IRadAn=         5 IDoV= 1 UseB2=F ITyADJ=14
 ICtDFT=  3500011 ScaDFX=  1.000000  1.000000  1.000000  1.000000
 FoFCou: FMM=F IPFlag=           0 FMFlag=      100000 FMFlg1=           0
         NFxFlg=           0 DoJE=T BraDBF=F KetDBF=T FulRan=T
         wScrn=  0.000000 ICntrl=       500 IOpCl=  0 I1Cent=   200000004 NGrid=           0
         NMat0=    1 NMatS0=      1 NMatT0=    0 NMatD0=    1 NMtDS0=    0 NMtDT0=    0
 Petite list used in FoFCou.
 Requested convergence on RMS density matrix=1.00D-08 within 128 cycles.
 Requested convergence on MAX density matrix=1.00D-06.
 Requested convergence on             energy=1.00D-06.
 No special actions if energy rises.
 Integral accuracy reduced to 1.0D-05 until final iterations.
 Initial convergence to 1.0D-05 achieved.  Increase integral accuracy.
 SCF Done:  E(RB-P86) =  -775.744433554     A.U. after   13 cycles
            NFock= 13  Conv=0.73D-08     -V/T= 2.0104
 DoSCS=F DFT=T ScalE2(SS,OS)=  1.000000  1.000000
 Range of M.O.s used for correlation:     1   274
 NBasis=   274 NAE=    57 NBE=    57 NFC=     0 NFV=     0
 NROrb=    274 NOA=    57 NOB=    57 NVA=   217 NVB=   217
 Symmetrizing basis deriv contribution to polar:
 IMax=3 JMax=2 DiffMx= 0.00D+00
   1 Symmetry operations used in ECPInt.
 ECPInt:  NShTT=    8001 NPrTT=   29641 LenC2=    7594 LenP2D=   20271.
 LDataN:  DoStor=T MaxTD1= 5 Len=  102
 Calling FoFJK, ICntrl=      2527 FMM=F ISym2X=0 I1Cent= 0 IOpClX= 0 NMat=1 NMatS=1 NMatT=0.
 ***** Axes restored to original set *****
 -------------------------------------------------------------------
 Center     Atomic                   Forces (Hartrees/Bohr)
 Number     Number              X              Y              Z
 -------------------------------------------------------------------
      1        6          -0.000447952   -0.000030417   -0.000363028
      2        6           0.000181446   -0.000059706   -0.000212339
      3        6           0.000016717    0.000123803   -0.000194387
      4        6          -0.000006004    0.000007112    0.000104937
      5        6           0.000008021   -0.000081015   -0.000148832
      6        6           0.000092182   -0.000100823    0.000487622
      7        9           0.001729940   -0.000077276    0.001230345
      8        6           0.000002862   -0.000266961    0.000296258
      9        6           0.000236806    0.001279295    0.000363559
     10        6          -0.000578675   -0.000852461   -0.000077142
     11        8          -0.001486115   -0.000157716   -0.001976158
     12        6          -0.000245285   -0.000025018    0.000308556
     13        6           0.000033650   -0.000057237   -0.000188740
     14        6          -0.000030182    0.000016994    0.000138729
     15        6           0.000003351    0.000110464   -0.000159306
     16        9           0.000988241    0.000203000    0.000624222
     17        1          -0.000183529   -0.000027986   -0.000173879
     18        1          -0.000164894    0.000021165    0.000073312
     19        1          -0.000173561    0.000084835   -0.000259437
     20        1           0.000022076   -0.000050340   -0.000015758
     21        1           0.000000631   -0.000001162   -0.000001355
     22        1           0.000030831    0.000012566   -0.000004315
     23        1           0.000073507   -0.000143101    0.000064454
     24        1          -0.000079937    0.000074896    0.000011118
     25        1           0.000003522    0.000003962    0.000063786
     26        1          -0.000027651   -0.000006873    0.000007778
 -------------------------------------------------------------------
 Cartesian Forces:  Max     0.001976158 RMS     0.000458293

 GradGradGradGradGradGradGradGradGradGradGradGradGradGradGradGradGradGrad
 Berny optimization.
 FormGI is forming the generalized inverse of G from B-inverse, IUseBI=4.
 Internal  Forces:  Max     0.006529329 RMS     0.001264033
 Search for a saddle point.
 Step number   2 out of a maximum of  140
 All quantities printed in internal units (Hartrees-Bohrs-Radians)
 Swapping is turned off.
 Update second derivatives using D2CorX and points    1    2
 ITU=  0  0
     Eigenvalues ---   -0.02494   0.00419   0.00531   0.00932   0.01408
     Eigenvalues ---    0.01486   0.01552   0.01577   0.01594   0.01714
     Eigenvalues ---    0.01820   0.02022   0.02064   0.02217   0.02376
     Eigenvalues ---    0.02603   0.02784   0.02895   0.03002   0.03294
     Eigenvalues ---    0.03722   0.05228   0.05505   0.09869   0.09949
     Eigenvalues ---    0.10786   0.10838   0.10959   0.11443   0.11558
     Eigenvalues ---    0.12946   0.13314   0.14627   0.15340   0.16199
     Eigenvalues ---    0.16965   0.17309   0.17478   0.17737   0.18009
     Eigenvalues ---    0.19455   0.20087   0.21662   0.24772   0.26533
     Eigenvalues ---    0.27108   0.28743   0.30671   0.32269   0.32732
     Eigenvalues ---    0.33162   0.33511   0.33675   0.34078   0.34183
     Eigenvalues ---    0.34452   0.34580   0.34684   0.34968   0.36645
     Eigenvalues ---    0.39409   0.41690   0.42941   0.44612   0.46251
     Eigenvalues ---    0.46682   0.46897   0.49145   0.49307   0.49658
     Eigenvalues ---    0.62568   1.63437
 Eigenvectors required to have negative eigenvalues:
                          D32       D31       D34       D33       D4
   1                   -0.48323  -0.45551  -0.39988  -0.37217   0.16737
                          D6        D2        D42       D40       A25
   1                    0.16414   0.15664  -0.14110  -0.12719  -0.11411
 RFO step:  Lambda0=1.044275430D-04 Lambda=-6.04790173D-04.
 Linear search not attempted -- option 19 set.
 Iteration  1 RMS(Cart)=  0.03605251 RMS(Int)=  0.00092408
 Iteration  2 RMS(Cart)=  0.00099273 RMS(Int)=  0.00005930
 Iteration  3 RMS(Cart)=  0.00000196 RMS(Int)=  0.00005928
 Iteration  4 RMS(Cart)=  0.00000000 RMS(Int)=  0.00005928
 Variable       Old X    -DE/DX   Delta X   Delta X   Delta X     New X
                                 (Linear)    (Quad)   (Total)
    R1        2.87278   0.00000   0.00000  -0.00083  -0.00083   2.87195
    R2        2.08784   0.00003   0.00000  -0.00213  -0.00213   2.08572
    R3        2.09608  -0.00009   0.00000   0.00053   0.00053   2.09661
    R4        2.09113   0.00027   0.00000   0.00204   0.00204   2.09317
    R5        2.66762  -0.00007   0.00000  -0.00085  -0.00085   2.66678
    R6        2.74258  -0.00046   0.00000  -0.00172  -0.00172   2.74086
    R7        2.64501  -0.00015   0.00000   0.00018   0.00018   2.64520
    R8        2.08253  -0.00003   0.00000   0.00012   0.00012   2.08265
    R9        2.64162  -0.00008   0.00000   0.00135   0.00135   2.64297
   R10        2.07974   0.00000   0.00000   0.00007   0.00007   2.07981
   R11        2.64224   0.00020   0.00000  -0.00017  -0.00017   2.64207
   R12        2.07841   0.00000   0.00000   0.00004   0.00004   2.07845
   R13        2.54354  -0.00017   0.00000   0.00220   0.00220   2.54574
   R14        2.71490   0.00155   0.00000   0.00105   0.00105   2.71595
   R15        2.82328   0.00115   0.00000  -0.00396  -0.00396   2.81932
   R16        2.73510   0.00254   0.00000   0.00389   0.00382   2.73892
   R17        2.70775  -0.00039   0.00000  -0.00026  -0.00032   2.70743
   R18        2.55986   0.00026   0.00000  -0.00074  -0.00074   2.55912
   R19        2.66977   0.00038   0.00000  -0.00079  -0.00079   2.66898
   R20        1.84481   0.00004   0.00000   0.00014   0.00014   1.84495
   R21        2.63835  -0.00008   0.00000   0.00199   0.00206   2.64041
   R22        2.08527  -0.00002   0.00000  -0.00017  -0.00017   2.08510
   R23        2.64448  -0.00005   0.00000   0.00135   0.00141   2.64589
   R24        2.07896   0.00001   0.00000   0.00011   0.00011   2.07908
   R25        2.64302  -0.00001   0.00000   0.00042   0.00042   2.64344
   R26        2.07671   0.00001   0.00000   0.00015   0.00015   2.07685
   R27        2.55027   0.00041   0.00000   0.00092   0.00092   2.55119
    A1        1.96431  -0.00014   0.00000   0.00477   0.00477   1.96908
    A2        1.87435   0.00029   0.00000  -0.00094  -0.00094   1.87341
    A3        1.99070  -0.00018   0.00000  -0.00446  -0.00446   1.98623
    A4        1.87343   0.00002   0.00000  -0.00225  -0.00225   1.87119
    A5        1.88217  -0.00003   0.00000   0.00109   0.00110   1.88327
    A6        1.87345   0.00008   0.00000   0.00172   0.00171   1.87516
    A7        1.98889   0.00104   0.00000   0.00520   0.00521   1.99410
    A8        2.19634  -0.00163   0.00000  -0.00660  -0.00659   2.18975
    A9        2.08516   0.00067   0.00000   0.00139   0.00138   2.08655
   A10        2.14516  -0.00014   0.00000  -0.00375  -0.00375   2.14141
   A11        2.05255   0.00012   0.00000   0.00217   0.00217   2.05472
   A12        2.08315   0.00003   0.00000   0.00123   0.00122   2.08437
   A13        2.05311  -0.00002   0.00000   0.00199   0.00199   2.05510
   A14        2.11354  -0.00000   0.00000  -0.00021  -0.00021   2.11333
   A15        2.11053   0.00000   0.00000  -0.00167  -0.00167   2.10886
   A16        2.07916   0.00030   0.00000   0.00114   0.00113   2.08030
   A17        2.14413  -0.00021   0.00000  -0.00201  -0.00201   2.14212
   A18        2.05781  -0.00011   0.00000   0.00078   0.00078   2.05859
   A19        2.00495  -0.00161   0.00000   0.00106   0.00106   2.00601
   A20        2.16756  -0.00038   0.00000  -0.00435  -0.00434   2.16322
   A21        2.10726   0.00192   0.00000   0.00320   0.00320   2.11046
   A22        1.95824  -0.00048   0.00000   0.00149   0.00148   1.95972
   A23        2.20054  -0.00606   0.00000  -0.01112  -0.01113   2.18941
   A24        2.12308   0.00653   0.00000   0.00924   0.00923   2.13231
   A25        2.17434   0.00574   0.00000  -0.00248  -0.00232   2.17202
   A26        2.17321  -0.00528   0.00000   0.00379   0.00393   2.17714
   A27        1.92850  -0.00047   0.00000  -0.00249  -0.00284   1.92566
   A28        2.09330   0.00177   0.00000  -0.00765  -0.00754   2.08575
   A29        2.13020  -0.00053   0.00000  -0.00364  -0.00391   2.12629
   A30        2.05746  -0.00130   0.00000   0.01058   0.01069   2.06815
   A31        1.87944   0.00024   0.00000   0.00798   0.00798   1.88742
   A32        2.11758   0.00018   0.00000  -0.00550  -0.00565   2.11194
   A33        2.05876   0.00004   0.00000   0.00409   0.00410   2.06287
   A34        2.10454  -0.00024   0.00000   0.00040   0.00042   2.10496
   A35        2.06132   0.00013   0.00000   0.00284   0.00280   2.06412
   A36        2.10779  -0.00006   0.00000  -0.00118  -0.00117   2.10662
   A37        2.11158  -0.00008   0.00000  -0.00201  -0.00200   2.10959
   A38        2.07865   0.00004   0.00000  -0.00085  -0.00097   2.07768
   A39        2.14330  -0.00004   0.00000  -0.00150  -0.00145   2.14184
   A40        2.05980   0.00001   0.00000   0.00200   0.00205   2.06185
   A41        2.19064   0.00049   0.00000  -0.00675  -0.00699   2.18365
   A42        2.09632  -0.00120   0.00000  -0.00003   0.00009   2.09641
   A43        1.99450   0.00075   0.00000   0.00692   0.00703   2.00153
    D1       -2.62769  -0.00054   0.00000  -0.06689  -0.06689  -2.69458
    D2        0.34060   0.00012   0.00000  -0.06662  -0.06661   0.27398
    D3       -0.56963  -0.00042   0.00000  -0.06750  -0.06750  -0.63713
    D4        2.39866   0.00024   0.00000  -0.06723  -0.06723   2.33143
    D5        1.50397  -0.00024   0.00000  -0.06869  -0.06869   1.43529
    D6       -1.81093   0.00042   0.00000  -0.06841  -0.06841  -1.87933
    D7        2.84755   0.00037   0.00000  -0.00783  -0.00781   2.83974
    D8       -0.22020   0.00022   0.00000  -0.00245  -0.00244  -0.22264
    D9       -0.13278   0.00001   0.00000  -0.00719  -0.00717  -0.13995
   D10        3.08266  -0.00014   0.00000  -0.00180  -0.00180   3.08085
   D11       -2.58424  -0.00065   0.00000   0.00771   0.00770  -2.57653
   D12        0.50248  -0.00050   0.00000   0.00002   0.00007   0.50254
   D13        0.37534   0.00006   0.00000   0.00827   0.00828   0.38362
   D14       -2.82113   0.00021   0.00000   0.00059   0.00064  -2.82049
   D15       -0.13819  -0.00017   0.00000   0.00326   0.00326  -0.13493
   D16        3.11994  -0.00005   0.00000   0.00228   0.00227   3.12221
   D17        2.92833  -0.00001   0.00000  -0.00218  -0.00217   2.92616
   D18       -0.09673   0.00010   0.00000  -0.00316  -0.00315  -0.09989
   D19        0.13108  -0.00001   0.00000  -0.00041  -0.00042   0.13066
   D20       -2.93965   0.00030   0.00000   0.00115   0.00115  -2.93850
   D21       -3.12683  -0.00012   0.00000   0.00067   0.00066  -3.12617
   D22        0.08562   0.00018   0.00000   0.00223   0.00224   0.08786
   D23       -2.90102   0.00098   0.00000   0.00212   0.00214  -2.89888
   D24        0.15225   0.00011   0.00000   0.00125   0.00126   0.15351
   D25        0.17321   0.00069   0.00000   0.00052   0.00053   0.17374
   D26       -3.05671  -0.00018   0.00000  -0.00035  -0.00035  -3.05706
   D27       -0.39800  -0.00002   0.00000  -0.00469  -0.00469  -0.40269
   D28        2.79568   0.00028   0.00000   0.00333   0.00339   2.79907
   D29        2.65035  -0.00111   0.00000  -0.00573  -0.00575   2.64460
   D30       -0.43915  -0.00081   0.00000   0.00228   0.00232  -0.43683
   D31        3.06746  -0.00256   0.00000  -0.01482  -0.01484   3.05261
   D32        0.06618  -0.00236   0.00000  -0.00305  -0.00304   0.06315
   D33       -0.13382  -0.00265   0.00000  -0.02349  -0.02350  -0.15733
   D34       -3.13510  -0.00245   0.00000  -0.01171  -0.01170   3.13639
   D35       -0.30690  -0.00076   0.00000  -0.05044  -0.05046  -0.35736
   D36        2.90796   0.00025   0.00000  -0.03937  -0.03944   2.86852
   D37        2.71136  -0.00136   0.00000  -0.06033  -0.06031   2.65104
   D38       -0.35697  -0.00036   0.00000  -0.04927  -0.04930  -0.40627
   D39       -2.93213   0.00073   0.00000   0.03602   0.03597  -2.89616
   D40        0.27650  -0.00020   0.00000   0.03301   0.03300   0.30950
   D41        0.33271   0.00039   0.00000   0.04645   0.04639   0.37910
   D42       -2.74185  -0.00054   0.00000   0.04343   0.04342  -2.69843
   D43       -3.10311   0.00038   0.00000  -0.06334  -0.06331   3.11677
   D44       -0.03177  -0.00056   0.00000  -0.07450  -0.07453  -0.10630
   D45        0.18534   0.00026   0.00000   0.02544   0.02536   0.21070
   D46       -3.02860  -0.00011   0.00000   0.00949   0.00942  -3.01918
   D47       -2.88442   0.00112   0.00000   0.03700   0.03699  -2.84743
   D48        0.18482   0.00075   0.00000   0.02106   0.02105   0.20587
   D49        0.06319   0.00001   0.00000   0.00666   0.00665   0.06985
   D50        3.12967  -0.00011   0.00000   0.00124   0.00126   3.13093
   D51       -3.00417   0.00038   0.00000   0.02288   0.02283  -2.98133
   D52        0.06231   0.00025   0.00000   0.01746   0.01744   0.07975
   D53       -0.09728  -0.00022   0.00000  -0.01029  -0.01026  -0.10755
   D54        2.98568  -0.00001   0.00000  -0.01748  -0.01745   2.96823
   D55        3.11960  -0.00010   0.00000  -0.00490  -0.00490   3.11470
   D56       -0.08063   0.00011   0.00000  -0.01208  -0.01209  -0.09271
   D57       -0.11987  -0.00017   0.00000  -0.01906  -0.01904  -0.13890
   D58        2.95812   0.00065   0.00000  -0.01640  -0.01642   2.94171
   D59        3.07755  -0.00036   0.00000  -0.01210  -0.01207   3.06548
   D60       -0.12765   0.00046   0.00000  -0.00944  -0.00945  -0.13710
         Item               Value     Threshold  Converged?
 Maximum Force            0.006529     0.000450     NO 
 RMS     Force            0.001264     0.000300     NO 
 Maximum Displacement     0.176150     0.001800     NO 
 RMS     Displacement     0.036177     0.001200     NO 
 Predicted change in Energy=-2.670709D-04
 GradGradGradGradGradGradGradGradGradGradGradGradGradGradGradGradGradGrad

                          Input orientation:                          
 ---------------------------------------------------------------------
 Center     Atomic      Atomic             Coordinates (Angstroms)
 Number     Number       Type             X           Y           Z
 ---------------------------------------------------------------------
      1          6           0        1.278798    2.517655    0.562969
      2          6           0        1.633106    1.139029    0.030465
      3          6           0        2.997573    0.974393   -0.289852
      4          6           0        3.589649   -0.283563   -0.452241
      5          6           0        2.826596   -1.409391   -0.126151
      6          6           0        1.474395   -1.248295    0.190632
      7          9           0        0.895127   -2.318298    0.768861
      8          6           0        0.754246   -0.014775    0.031216
      9          6           0       -0.735320    0.032217   -0.038102
     10          6           0       -1.588437   -1.134859   -0.142098
     11          8           0       -1.070151   -2.301797   -0.593287
     12          6           0       -2.974920   -1.069614    0.119014
     13          6           0       -3.626637    0.159964    0.244320
     14          6           0       -2.887707    1.327926    0.020163
     15          6           0       -1.508252    1.228971   -0.189814
     16          9           0       -0.922997    2.361576   -0.633968
     17          1           0        0.382104    2.510545    1.206453
     18          1           0        2.129109    2.859035    1.188564
     19          1           0        1.123638    3.276449   -0.228901
     20          1           0        3.625542    1.878756   -0.338681
     21          1           0        4.652728   -0.380955   -0.719958
     22          1           0        3.259187   -2.417128   -0.042240
     23          1           0       -1.776499   -2.975517   -0.574590
     24          1           0       -3.546879   -2.013006    0.137398
     25          1           0       -4.708749    0.204985    0.437835
     26          1           0       -3.354031    2.320009   -0.058366
 ---------------------------------------------------------------------
                    Distance matrix (angstroms):
                    1          2          3          4          5
     1  C    0.000000
     2  C    1.519771   0.000000
     3  C    2.462346   1.411197   0.000000
     4  C    3.770611   2.466745   1.399777   0.000000
     5  C    4.276944   2.818401   2.395507   1.398597   0.000000
     6  C    3.789363   2.397949   2.737020   2.412114   1.398124
     7  F    4.855516   3.611503   4.047588   3.590500   2.314677
     8  C    2.640287   1.450399   2.472661   2.888856   2.502868
     9  C    3.255052   2.615182   3.858181   4.356212   3.843595
    10  C    4.696702   3.946984   5.049976   5.256754   4.423588
    11  O    5.484670   4.419949   5.231813   5.080049   4.024828
    12  C    5.582089   5.110758   6.325805   6.636097   5.816626
    13  C    5.451930   5.354363   6.695430   7.263381   6.651641
    14  C    4.366905   4.524770   5.904034   6.691503   6.337789
    15  C    3.161493   3.150356   4.514120   5.324023   5.075028
    16  F    2.510960   2.910285   4.172956   5.233905   5.342051
    17  H    1.103714   2.197501   3.382214   4.565813   4.808042
    18  H    1.109476   2.132049   2.547905   3.834233   4.520445
    19  H    1.107655   2.212554   2.968975   4.336447   4.986754
    20  H    2.593910   2.157143   1.102090   2.165596   3.390486
    21  H    4.629389   3.462889   2.182085   1.100588   2.178313
    22  H    5.351664   3.910969   3.410597   2.197592   1.099869
    23  H    6.387787   5.377824   6.202792   6.004759   4.882861
    24  H    6.632885   6.064570   7.206729   7.366728   6.407417
    25  H    6.419877   6.423201   7.778747   8.360282   7.726947
    26  H    4.678486   5.125831   6.496702   7.426198   7.218945
                    6          7          8          9         10
     6  C    0.000000
     7  F    1.347148   0.000000
     8  C    1.437220   2.422847   0.000000
     9  C    2.564150   2.972283   1.491918   0.000000
    10  C    3.082939   2.898010   2.602458   1.449375   0.000000
    11  O    2.863408   2.391241   2.991471   2.422388   1.354229
    12  C    4.453477   4.118103   3.876477   2.500905   1.412364
    13  C    5.292126   5.182979   4.389543   2.907885   2.445433
    14  C    5.068916   5.307102   3.881597   2.512972   2.789219
    15  C    3.895866   4.390718   2.591265   1.432711   2.365671
    16  F    4.411193   5.212938   2.983732   2.411679   3.593022
    17  H    4.043992   4.875695   2.810144   2.989927   4.357819
    18  H    4.277228   5.338880   3.389466   4.207203   5.616226
    19  H    4.557669   5.687613   3.322087   3.743951   5.179046
    20  H    3.832239   5.128068   3.459281   4.745226   6.025454
    21  H    3.418078   4.482126   3.987043   5.446715   6.313037
    22  H    2.146132   2.501286   3.471516   4.685658   5.015340
    23  H    3.759943   3.061761   3.941785   3.227745   1.900116
    24  H    5.079449   4.497040   4.743826   3.481178   2.164430
    25  H    6.356445   6.154669   5.482513   4.005559   3.444975
    26  H    6.009034   6.344568   4.726223   3.477363   3.880779
                   11         12         13         14         15
    11  O    0.000000
    12  C    2.377771   0.000000
    13  C    3.646570   1.397247   0.000000
    14  C    4.105450   2.401162   1.400143   0.000000
    15  C    3.580649   2.744082   2.412219   1.398849   0.000000
    16  F    4.665872   4.068223   3.595575   2.314391   1.350034
    17  H    5.339171   5.026895   4.745623   3.673900   2.676834
    18  H    6.328068   6.529114   6.426911   5.373816   4.217514
    19  H    6.005191   5.983936   5.701011   4.466505   3.334747
    20  H    6.292168   7.243513   7.475844   6.546343   5.176894
    21  H    6.037966   7.704489   8.352863   7.766996   6.389882
    22  H    4.365790   6.380116   7.357859   7.198169   6.003690
    23  H    0.976307   2.355794   3.731603   4.484210   4.230571
    24  H    2.598362   1.103387   2.177060   3.407356   3.843629
    25  H    4.537242   2.175411   1.100200   2.179825   3.418431
    26  H    5.182986   3.415368   2.198120   1.099024   2.148149
                   16         17         18         19         20
    16  F    0.000000
    17  H    2.261113   0.000000
    18  H    3.589489   1.781514   0.000000
    19  H    2.278110   1.787938   1.787292   0.000000
    20  H    4.583614   3.647806   2.352177   2.867947   0.000000
    21  H    6.214305   5.505457   4.528647   5.106096   2.511329
    22  H    6.377838   5.841130   5.534425   6.083768   4.321657
    23  H    5.405234   6.158617   7.239094   6.900534   7.266476
    24  H    5.159140   6.086238   7.553712   7.065850   8.174111
    25  H    4.486821   5.641202   7.373186   6.625342   8.536093
    26  H    2.498594   3.949022   5.648912   4.581853   6.999123
                   21         22         23         24         25
    21  H    0.000000
    22  H    2.558762   0.000000
    23  H    6.934540   5.094441   0.000000
    24  H    8.404297   6.820419   2.137195   0.000000
    25  H    9.450982   8.402020   4.442824   2.521842   0.000000
    26  H    8.475913   8.134825   5.549567   4.341720   2.560235
                   26
    26  H    0.000000
 Stoichiometry    C13H10F2O
 Framework group  C1[X(C13H10F2O)]
 Deg. of freedom    72
 Full point group                 C1      NOp   1
 Largest Abelian subgroup         C1      NOp   1
 Largest concise Abelian subgroup C1      NOp   1
                         Standard orientation:                         
 ---------------------------------------------------------------------
 Center     Atomic      Atomic             Coordinates (Angstroms)
 Number     Number       Type             X           Y           Z
 ---------------------------------------------------------------------
      1          6           0        1.195617    2.539433    0.638431
      2          6           0        1.593966    1.182459    0.081973
      3          6           0        2.963915    1.065780   -0.235993
      4          6           0        3.594968   -0.170167   -0.419247
      5          6           0        2.865843   -1.324758   -0.116966
      6          6           0        1.508275   -1.211174    0.197447
      7          9           0        0.960288   -2.309010    0.753570
      8          6           0        0.751037    0.002394    0.058003
      9          6           0       -0.739030    0.004894   -0.016257
     10          6           0       -1.555469   -1.185701   -0.145099
     11          8           0       -1.000008   -2.327596   -0.615711
     12          6           0       -2.944168   -1.167926    0.111752
     13          6           0       -3.633836    0.038519    0.257173
     14          6           0       -2.930461    1.232583    0.057491
     15          6           0       -1.547920    1.179955   -0.148883
     16          9           0       -0.996323    2.338049   -0.569776
     17          1           0        0.297423    2.492845    1.278166
     18          1           0        2.032923    2.895097    1.273536
     19          1           0        1.019819    3.307670   -0.139905
     20          1           0        3.563911    1.989754   -0.265675
     21          1           0        4.661429   -0.229878   -0.684558
     22          1           0        3.328964   -2.320118   -0.049972
     23          1           0       -1.685343   -3.022922   -0.612207
     24          1           0       -3.486877   -2.128617    0.110493
     25          1           0       -4.717461    0.046686    0.447255
     26          1           0       -3.426834    2.211163   -0.004543
 ---------------------------------------------------------------------
 Rotational constants (GHZ):           0.8461238           0.4761567           0.3189764
 Standard basis: def2SVP (5D, 7F)
 There are   290 symmetry adapted cartesian basis functions of A   symmetry.
 There are   274 symmetry adapted basis functions of A   symmetry.
   274 basis functions,   470 primitive gaussians,   290 cartesian basis functions
    57 alpha electrons       57 beta electrons
       nuclear repulsion energy      1072.1597010078 Hartrees.
 NAtoms=   26 NActive=   26 NUniq=   26 SFac= 1.00D+00 NAtFMM=   60 NAOKFM=F Big=F
 Integral buffers will be    131072 words long.
 Raffenetti 2 integral format.
 Two-electron integral symmetry is turned on.
 Nuclear repulsion after empirical dispersion term =     1072.1081635406 Hartrees.
 One-electron integrals computed using PRISM.
   1 Symmetry operations used in ECPInt.
 ECPInt:  NShTT=    8001 NPrTT=   29641 LenC2=    7596 LenP2D=   20284.
 LDataN:  DoStor=T MaxTD1= 4 Len=   56
 NBasis=   274 RedAO= T EigKep=  3.59D-04  NBF=   274
 NBsUse=   274 1.00D-06 EigRej= -1.00D+00 NBFU=   274
 Initial guess from the checkpoint file:  "/scratch/gaussian_tmp/Gau-230055.chk"
 B after Tr=    -0.000000   -0.000000   -0.000000
         Rot=    0.999997   -0.000673    0.000250   -0.002234 Ang=  -0.27 deg.
 ExpMin= 1.22D-01 ExpMax= 2.89D+03 ExpMxC= 4.35D+02 IAcc=3 IRadAn=         5 AccDes= 0.00D+00
 Harris functional with IExCor=  404 and IRadAn=       5 diagonalized for initial guess.
 HarFok:  IExCor=  404 AccDes= 0.00D+00 IRadAn=         5 IDoV= 1 UseB2=F ITyADJ=14
 ICtDFT=  3500011 ScaDFX=  1.000000  1.000000  1.000000  1.000000
 FoFCou: FMM=F IPFlag=           0 FMFlag=      100000 FMFlg1=           0
         NFxFlg=           0 DoJE=T BraDBF=F KetDBF=T FulRan=T
         wScrn=  0.000000 ICntrl=       500 IOpCl=  0 I1Cent=   200000004 NGrid=           0
         NMat0=    1 NMatS0=      1 NMatT0=    0 NMatD0=    1 NMtDS0=    0 NMtDT0=    0
 Petite list used in FoFCou.
 Requested convergence on RMS density matrix=1.00D-08 within 128 cycles.
 Requested convergence on MAX density matrix=1.00D-06.
 Requested convergence on             energy=1.00D-06.
 No special actions if energy rises.
 Integral accuracy reduced to 1.0D-05 until final iterations.
 Initial convergence to 1.0D-05 achieved.  Increase integral accuracy.
 SCF Done:  E(RB-P86) =  -775.744330317     A.U. after   13 cycles
            NFock= 13  Conv=0.43D-08     -V/T= 2.0104
 DoSCS=F DFT=T ScalE2(SS,OS)=  1.000000  1.000000
 Range of M.O.s used for correlation:     1   274
 NBasis=   274 NAE=    57 NBE=    57 NFC=     0 NFV=     0
 NROrb=    274 NOA=    57 NOB=    57 NVA=   217 NVB=   217
 Symmetrizing basis deriv contribution to polar:
 IMax=3 JMax=2 DiffMx= 0.00D+00
   1 Symmetry operations used in ECPInt.
 ECPInt:  NShTT=    8001 NPrTT=   29641 LenC2=    7596 LenP2D=   20284.
 LDataN:  DoStor=T MaxTD1= 5 Len=  102
 Calling FoFJK, ICntrl=      2527 FMM=F ISym2X=0 I1Cent= 0 IOpClX= 0 NMat=1 NMatS=1 NMatT=0.
 ***** Axes restored to original set *****
 -------------------------------------------------------------------
 Center     Atomic                   Forces (Hartrees/Bohr)
 Number     Number              X              Y              Z
 -------------------------------------------------------------------
      1        6          -0.000115504    0.000161268   -0.000405708
      2        6           0.000069434   -0.000074221   -0.000318791
      3        6           0.000119887   -0.000130300    0.000321098
      4        6           0.000054732    0.000039605   -0.000093070
      5        6          -0.000042449   -0.000019600    0.000220031
      6        6           0.000103599    0.000433367   -0.000043235
      7        9          -0.002604282   -0.000305140   -0.001590873
      8        6          -0.000115450    0.000364000    0.000222617
      9        6          -0.000173061   -0.000722628   -0.001204517
     10        6           0.000071488    0.000837239    0.000355663
     11        8           0.002549689   -0.000822245    0.001674699
     12        6           0.000082194    0.000042965   -0.000288077
     13        6          -0.000094830    0.000043451    0.000181864
     14        6          -0.000099375   -0.000071544   -0.000348145
     15        6          -0.000105911   -0.000008454    0.000514420
     16        9           0.000321892    0.000276715    0.000688156
     17        1           0.000136273   -0.000028989    0.000317376
     18        1           0.000142969    0.000137375   -0.000285171
     19        1          -0.000258086   -0.000124781    0.000106961
     20        1          -0.000010174   -0.000029069   -0.000041346
     21        1          -0.000008315    0.000008090   -0.000020657
     22        1          -0.000018193   -0.000010717   -0.000006113
     23        1           0.000039615   -0.000010332    0.000032309
     24        1          -0.000037724    0.000032278    0.000041632
     25        1          -0.000006785   -0.000017655   -0.000049582
     26        1          -0.000001633   -0.000000677    0.000018459
 -------------------------------------------------------------------
 Cartesian Forces:  Max     0.002604282 RMS     0.000562538

 GradGradGradGradGradGradGradGradGradGradGradGradGradGradGradGradGradGrad
 Berny optimization.
 FormGI is forming the generalized inverse of G from B-inverse, IUseBI=4.
 Internal  Forces:  Max     0.006274240 RMS     0.001208585
 Search for a saddle point.
 Step number   3 out of a maximum of  140
 All quantities printed in internal units (Hartrees-Bohrs-Radians)
 Swapping is turned off.
 Update second derivatives using D2CorX and points    1    2    3
 ITU=  0  0  0
     Eigenvalues ---   -0.02283   0.00216   0.00484   0.01062   0.01405
     Eigenvalues ---    0.01516   0.01556   0.01580   0.01596   0.01715
     Eigenvalues ---    0.01822   0.02027   0.02106   0.02218   0.02412
     Eigenvalues ---    0.02597   0.02786   0.02896   0.03019   0.03410
     Eigenvalues ---    0.03900   0.05229   0.05505   0.09869   0.09949
     Eigenvalues ---    0.10790   0.10838   0.10959   0.11441   0.11558
     Eigenvalues ---    0.12959   0.13327   0.14627   0.15337   0.16192
     Eigenvalues ---    0.16964   0.17303   0.17473   0.17729   0.18009
     Eigenvalues ---    0.19456   0.20081   0.21672   0.24773   0.26544
     Eigenvalues ---    0.27104   0.28732   0.30665   0.32269   0.32732
     Eigenvalues ---    0.33160   0.33511   0.33674   0.34078   0.34183
     Eigenvalues ---    0.34452   0.34581   0.34684   0.34968   0.36645
     Eigenvalues ---    0.39422   0.41690   0.42936   0.44610   0.46249
     Eigenvalues ---    0.46658   0.46894   0.49141   0.49307   0.49657
     Eigenvalues ---    0.62822   1.63670
 Eigenvectors required to have negative eigenvalues:
                          D32       D31       D34       D33       D4
   1                   -0.48797  -0.47101  -0.41490  -0.39795   0.15435
                          D6        D2        D42       A25       D40
   1                    0.15163   0.14387  -0.11389  -0.11386  -0.10998
 RFO step:  Lambda0=4.285871420D-05 Lambda=-3.84838378D-04.
 Linear search not attempted -- option 19 set.
 Iteration  1 RMS(Cart)=  0.03315989 RMS(Int)=  0.00024432
 Iteration  2 RMS(Cart)=  0.00046844 RMS(Int)=  0.00001730
 Iteration  3 RMS(Cart)=  0.00000005 RMS(Int)=  0.00001730
 Variable       Old X    -DE/DX   Delta X   Delta X   Delta X     New X
                                 (Linear)    (Quad)   (Total)
    R1        2.87195   0.00006   0.00000   0.00090   0.00090   2.87285
    R2        2.08572   0.00007   0.00000   0.00091   0.00091   2.08663
    R3        2.09661  -0.00001   0.00000   0.00007   0.00007   2.09668
    R4        2.09317  -0.00013   0.00000  -0.00085  -0.00085   2.09231
    R5        2.66678   0.00022   0.00000   0.00003   0.00003   2.66680
    R6        2.74086  -0.00036   0.00000   0.00068   0.00068   2.74154
    R7        2.64520   0.00054   0.00000   0.00001   0.00001   2.64521
    R8        2.08265  -0.00003   0.00000  -0.00004  -0.00004   2.08261
    R9        2.64297   0.00053   0.00000  -0.00019  -0.00019   2.64277
   R10        2.07981  -0.00000   0.00000  -0.00002  -0.00002   2.07979
   R11        2.64207  -0.00020   0.00000   0.00021   0.00021   2.64228
   R12        2.07845   0.00000   0.00000  -0.00003  -0.00003   2.07842
   R13        2.54574   0.00068   0.00000  -0.00107  -0.00107   2.54467
   R14        2.71595  -0.00217   0.00000  -0.00136  -0.00136   2.71460
   R15        2.81932  -0.00263   0.00000   0.00155   0.00155   2.82087
   R16        2.73892  -0.00238   0.00000  -0.00051  -0.00053   2.73839
   R17        2.70743  -0.00037   0.00000   0.00027   0.00025   2.70769
   R18        2.55912   0.00114   0.00000   0.00198   0.00198   2.56110
   R19        2.66898  -0.00007   0.00000   0.00062   0.00062   2.66960
   R20        1.84495  -0.00002   0.00000   0.00010   0.00010   1.84506
   R21        2.64041   0.00056   0.00000  -0.00078  -0.00075   2.63966
   R22        2.08510  -0.00001   0.00000   0.00006   0.00006   2.08515
   R23        2.64589   0.00057   0.00000  -0.00060  -0.00058   2.64530
   R24        2.07908  -0.00000   0.00000  -0.00003  -0.00003   2.07904
   R25        2.64344   0.00015   0.00000  -0.00019  -0.00019   2.64325
   R26        2.07685  -0.00000   0.00000  -0.00007  -0.00007   2.07678
   R27        2.55119   0.00015   0.00000  -0.00029  -0.00029   2.55091
    A1        1.96908   0.00004   0.00000  -0.00067  -0.00067   1.96841
    A2        1.87341  -0.00004   0.00000  -0.00029  -0.00029   1.87311
    A3        1.98623   0.00005   0.00000   0.00143   0.00143   1.98767
    A4        1.87119  -0.00000   0.00000   0.00008   0.00007   1.87126
    A5        1.88327  -0.00002   0.00000   0.00042   0.00042   1.88369
    A6        1.87516  -0.00005   0.00000  -0.00108  -0.00108   1.87408
    A7        1.99410   0.00044   0.00000  -0.00091  -0.00092   1.99318
    A8        2.18975   0.00060   0.00000   0.00023   0.00022   2.18997
    A9        2.08655  -0.00107   0.00000  -0.00004  -0.00004   2.08651
   A10        2.14141  -0.00012   0.00000   0.00058   0.00058   2.14199
   A11        2.05472   0.00006   0.00000  -0.00028  -0.00028   2.05443
   A12        2.08437   0.00006   0.00000  -0.00030  -0.00030   2.08407
   A13        2.05510   0.00033   0.00000  -0.00032  -0.00032   2.05478
   A14        2.11333  -0.00015   0.00000   0.00003   0.00004   2.11337
   A15        2.10886  -0.00013   0.00000   0.00039   0.00039   2.10925
   A16        2.08030  -0.00051   0.00000  -0.00007  -0.00007   2.08023
   A17        2.14212   0.00033   0.00000   0.00064   0.00063   2.14275
   A18        2.05859   0.00021   0.00000  -0.00030  -0.00030   2.05829
   A19        2.00601   0.00251   0.00000   0.00038   0.00037   2.00639
   A20        2.16322  -0.00005   0.00000   0.00130   0.00130   2.16452
   A21        2.11046  -0.00237   0.00000  -0.00120  -0.00121   2.10925
   A22        1.95972   0.00170   0.00000   0.00026   0.00025   1.95997
   A23        2.18941   0.00460   0.00000   0.00011   0.00010   2.18951
   A24        2.13231  -0.00627   0.00000   0.00009   0.00008   2.13239
   A25        2.17202  -0.00571   0.00000   0.00539   0.00544   2.17746
   A26        2.17714   0.00387   0.00000  -0.00840  -0.00836   2.16878
   A27        1.92566   0.00189   0.00000   0.00340   0.00330   1.92896
   A28        2.08575  -0.00224   0.00000   0.00428   0.00431   2.09006
   A29        2.12629  -0.00024   0.00000   0.00021   0.00013   2.12642
   A30        2.06815   0.00254   0.00000  -0.00423  -0.00419   2.06396
   A31        1.88742   0.00004   0.00000  -0.00267  -0.00267   1.88475
   A32        2.11194  -0.00035   0.00000   0.00326   0.00323   2.11516
   A33        2.06287   0.00020   0.00000  -0.00103  -0.00102   2.06185
   A34        2.10496   0.00019   0.00000  -0.00183  -0.00182   2.10314
   A35        2.06412   0.00031   0.00000  -0.00033  -0.00034   2.06378
   A36        2.10662  -0.00016   0.00000  -0.00012  -0.00012   2.10650
   A37        2.10959  -0.00012   0.00000   0.00071   0.00072   2.11031
   A38        2.07768  -0.00019   0.00000  -0.00009  -0.00013   2.07755
   A39        2.14184   0.00012   0.00000   0.00056   0.00058   2.14242
   A40        2.06185   0.00008   0.00000  -0.00018  -0.00017   2.06168
   A41        2.18365  -0.00101   0.00000   0.00335   0.00329   2.18694
   A42        2.09641   0.00035   0.00000  -0.00175  -0.00171   2.09470
   A43        2.00153   0.00064   0.00000  -0.00163  -0.00160   1.99993
    D1       -2.69458   0.00047   0.00000   0.00253   0.00253  -2.69205
    D2        0.27398   0.00019   0.00000  -0.00236  -0.00236   0.27163
    D3       -0.63713   0.00047   0.00000   0.00205   0.00205  -0.63508
    D4        2.33143   0.00019   0.00000  -0.00284  -0.00284   2.32859
    D5        1.43529   0.00042   0.00000   0.00136   0.00136   1.43665
    D6       -1.87933   0.00013   0.00000  -0.00353  -0.00353  -1.88286
    D7        2.83974   0.00018   0.00000  -0.00410  -0.00410   2.83564
    D8       -0.22264   0.00014   0.00000  -0.00397  -0.00397  -0.22661
    D9       -0.13995   0.00027   0.00000   0.00044   0.00044  -0.13951
   D10        3.08085   0.00024   0.00000   0.00057   0.00057   3.08142
   D11       -2.57653  -0.00034   0.00000   0.00162   0.00162  -2.57491
   D12        0.50254  -0.00014   0.00000   0.00988   0.00988   0.51243
   D13        0.38362  -0.00049   0.00000  -0.00359  -0.00358   0.38004
   D14       -2.82049  -0.00029   0.00000   0.00468   0.00468  -2.81581
   D15       -0.13493   0.00042   0.00000   0.00122   0.00122  -0.13372
   D16        3.12221  -0.00005   0.00000   0.00021   0.00021   3.12242
   D17        2.92616   0.00045   0.00000   0.00109   0.00109   2.92725
   D18       -0.09989  -0.00001   0.00000   0.00008   0.00008  -0.09981
   D19        0.13066  -0.00025   0.00000   0.00065   0.00065   0.13131
   D20       -2.93850  -0.00068   0.00000  -0.00375  -0.00375  -2.94225
   D21       -3.12617   0.00021   0.00000   0.00163   0.00163  -3.12454
   D22        0.08786  -0.00021   0.00000  -0.00277  -0.00277   0.08509
   D23       -2.89888  -0.00135   0.00000  -0.01026  -0.01027  -2.90915
   D24        0.15351  -0.00040   0.00000  -0.00415  -0.00415   0.14936
   D25        0.17374  -0.00094   0.00000  -0.00603  -0.00604   0.16770
   D26       -3.05706   0.00001   0.00000   0.00008   0.00008  -3.05698
   D27       -0.40269   0.00047   0.00000   0.00543   0.00543  -0.39726
   D28        2.79907  -0.00015   0.00000  -0.00252  -0.00252   2.79655
   D29        2.64460   0.00172   0.00000   0.01198   0.01198   2.65658
   D30       -0.43683   0.00110   0.00000   0.00403   0.00403  -0.43280
   D31        3.05261   0.00112   0.00000   0.02640   0.02640   3.07901
   D32        0.06315   0.00052   0.00000   0.02268   0.02268   0.08583
   D33       -0.15733   0.00165   0.00000   0.03544   0.03544  -0.12189
   D34        3.13639   0.00105   0.00000   0.03171   0.03172  -3.11508
   D35       -0.35736   0.00096   0.00000   0.02637   0.02635  -0.33100
   D36        2.86852   0.00001   0.00000   0.02294   0.02291   2.89143
   D37        2.65104   0.00175   0.00000   0.02868   0.02869   2.67973
   D38       -0.40627   0.00080   0.00000   0.02525   0.02525  -0.38102
   D39       -2.89616  -0.00093   0.00000  -0.02163  -0.02166  -2.91782
   D40        0.30950  -0.00070   0.00000  -0.02115  -0.02117   0.28833
   D41        0.37910  -0.00083   0.00000  -0.02523  -0.02526   0.35384
   D42       -2.69843  -0.00061   0.00000  -0.02475  -0.02476  -2.72319
   D43        3.11677  -0.00043   0.00000  -0.00340  -0.00340   3.11337
   D44       -0.10630   0.00036   0.00000   0.00012   0.00012  -0.10618
   D45        0.21070  -0.00059   0.00000  -0.01196  -0.01197   0.19873
   D46       -3.01918  -0.00014   0.00000  -0.00691  -0.00692  -3.02610
   D47       -2.84743  -0.00131   0.00000  -0.01575  -0.01576  -2.86319
   D48        0.20587  -0.00086   0.00000  -0.01070  -0.01070   0.19517
   D49        0.06985  -0.00031   0.00000  -0.00417  -0.00416   0.06568
   D50        3.13093   0.00020   0.00000  -0.00041  -0.00040   3.13053
   D51       -2.98133  -0.00077   0.00000  -0.00939  -0.00939  -2.99072
   D52        0.07975  -0.00026   0.00000  -0.00562  -0.00562   0.07413
   D53       -0.10755   0.00050   0.00000   0.00427   0.00428  -0.10326
   D54        2.96823   0.00055   0.00000   0.00948   0.00948   2.97771
   D55        3.11470  -0.00001   0.00000   0.00054   0.00055   3.11525
   D56       -0.09271   0.00004   0.00000   0.00574   0.00574  -0.08697
   D57       -0.13890   0.00045   0.00000   0.01214   0.01214  -0.12677
   D58        2.94171   0.00024   0.00000   0.01167   0.01165   2.95335
   D59        3.06548   0.00040   0.00000   0.00715   0.00715   3.07263
   D60       -0.13710   0.00018   0.00000   0.00668   0.00667  -0.13043
         Item               Value     Threshold  Converged?
 Maximum Force            0.006274     0.000450     NO 
 RMS     Force            0.001209     0.000300     NO 
 Maximum Displacement     0.173626     0.001800     NO 
 RMS     Displacement     0.033150     0.001200     NO 
 Predicted change in Energy=-1.725821D-04
 GradGradGradGradGradGradGradGradGradGradGradGradGradGradGradGradGradGrad

                          Input orientation:                          
 ---------------------------------------------------------------------
 Center     Atomic      Atomic             Coordinates (Angstroms)
 Number     Number       Type             X           Y           Z
 ---------------------------------------------------------------------
      1          6           0        1.276906    2.510288    0.593356
      2          6           0        1.630646    1.139878    0.038380
      3          6           0        2.993882    0.983497   -0.291241
      4          6           0        3.590023   -0.270184   -0.470952
      5          6           0        2.832428   -1.402340   -0.154628
      6          6           0        1.480791   -1.249714    0.169168
      7          9           0        0.904229   -2.331746    0.725998
      8          6           0        0.755665   -0.017302    0.031714
      9          6           0       -0.735009    0.024806   -0.034552
     10          6           0       -1.591697   -1.141183   -0.114729
     11          8           0       -1.075896   -2.328390   -0.516298
     12          6           0       -2.982079   -1.062022    0.122484
     13          6           0       -3.631368    0.171414    0.213271
     14          6           0       -2.883558    1.332231   -0.016547
     15          6           0       -1.501459    1.223736   -0.202375
     16          9           0       -0.903402    2.351758   -0.640636
     17          1           0        0.384728    2.490954    1.243661
     18          1           0        2.131107    2.844427    1.217627
     19          1           0        1.114728    3.280930   -0.184919
     20          1           0        3.618269    1.890648   -0.333314
     21          1           0        4.652020   -0.360350   -0.745371
     22          1           0        3.267640   -2.410192   -0.087523
     23          1           0       -1.789446   -2.993974   -0.482711
     24          1           0       -3.558722   -2.002209    0.155036
     25          1           0       -4.716354    0.223398    0.387926
     26          1           0       -3.342853    2.325951   -0.113185
 ---------------------------------------------------------------------
                    Distance matrix (angstroms):
                    1          2          3          4          5
     1  C    0.000000
     2  C    1.520248   0.000000
     3  C    2.462034   1.411211   0.000000
     4  C    3.770184   2.467154   1.399784   0.000000
     5  C    4.276423   2.818582   2.395193   1.398495   0.000000
     6  C    3.789343   2.397856   2.736540   2.412072   1.398235
     7  F    4.858166   3.612849   4.048736   3.591130   2.314573
     8  C    2.641183   1.450760   2.472957   2.889673   2.503198
     9  C    3.258787   2.616301   3.858705   4.356990   3.844186
    10  C    4.697181   3.950972   5.056971   5.266475   4.432006
    11  O    5.493616   4.434177   5.251889   5.099909   4.032787
    12  C    5.578716   5.112013   6.329884   6.646179   5.831047
    13  C    5.450316   5.353252   6.693874   7.267163   6.662786
    14  C    4.366836   4.518634   5.894181   6.684419   6.337937
    15  C    3.163498   3.142464   4.502633   5.312920   5.067656
    16  F    2.510301   2.889830   4.145243   5.205212   5.318447
    17  H    1.104196   2.197821   3.381720   4.564832   4.806681
    18  H    1.109514   2.132269   2.546394   3.831518   4.517739
    19  H    1.107205   2.213625   2.969970   4.338122   4.988429
    20  H    2.593194   2.156955   1.102067   2.165395   3.390169
    21  H    4.628624   3.463185   2.182105   1.100579   2.178448
    22  H    5.351424   3.911342   3.410802   2.197859   1.099853
    23  H    6.391975   5.390483   6.223919   6.029748   4.899251
    24  H    6.628578   6.067608   7.214584   7.382163   6.426705
    25  H    6.418039   6.422346   7.777323   8.365237   7.740898
    26  H    4.677109   5.115216   6.479822   7.411658   7.213596
                    6          7          8          9         10
     6  C    0.000000
     7  F    1.346580   0.000000
     8  C    1.436503   2.420899   0.000000
     9  C    2.564307   2.969659   1.492739   0.000000
    10  C    3.087485   2.890313   2.606657   1.449094   0.000000
    11  O    2.858331   2.337564   2.999343   2.426070   1.355275
    12  C    4.467059   4.132774   3.882062   2.501036   1.412692
    13  C    5.306197   5.205799   4.394842   2.910637   2.447601
    14  C    5.074295   5.321976   3.881689   2.515144   2.792189
    15  C    3.892277   4.392115   2.586423   1.432845   2.368263
    16  F    4.394401   5.202925   2.969344   2.410477   3.598745
    17  H    4.043326   4.878144   2.810295   2.994917   4.352459
    18  H    4.275998   5.342255   3.389354   4.211037   5.614225
    19  H    4.559178   5.690010   3.324784   3.747863   5.185050
    20  H    3.831863   5.129987   3.459483   4.745698   6.031876
    21  H    3.418193   4.482998   3.987873   5.447356   6.323877
    22  H    2.146026   2.500736   3.471333   4.685425   5.022378
    23  H    3.763222   3.025791   3.950038   3.228888   1.899303
    24  H    5.095404   4.511378   4.750684   3.481105   2.164099
    25  H    6.373580   6.183365   5.488881   4.008620   3.446480
    26  H    6.011043   6.358936   4.723312   3.478836   3.884271
                   11         12         13         14         15
    11  O    0.000000
    12  C    2.375977   0.000000
    13  C    3.648524   1.396847   0.000000
    14  C    4.113094   2.400309   1.399833   0.000000
    15  C    3.591275   2.742710   2.411774   1.398749   0.000000
    16  F    4.684976   4.069048   3.595116   2.312994   1.349881
    17  H    5.334506   5.021560   4.750894   3.689506   2.693430
    18  H    6.328459   6.527201   6.431162   5.381150   4.223574
    19  H    6.031013   5.978257   5.687976   4.451074   3.328180
    20  H    6.314187   7.245040   7.470727   6.533446   5.164643
    21  H    6.060914   7.715244   8.355614   7.757638   6.377263
    22  H    4.365414   6.396925   7.372345   7.200555   5.996910
    23  H    0.976362   2.349697   3.727835   4.486696   4.236816
    24  H    2.592587   1.103416   2.175616   3.406432   3.842759
    25  H    4.536758   2.174965   1.100182   2.179966   3.418286
    26  H    5.192733   3.415268   2.198145   1.098985   2.147920
                   16         17         18         19         20
    16  F    0.000000
    17  H    2.286751   0.000000
    18  H    3.592229   1.781982   0.000000
    19  H    2.268013   1.788240   1.786252   0.000000
    20  H    4.555500   3.647328   2.350907   2.867511   0.000000
    21  H    6.182978   5.504177   4.525368   5.107393   2.511061
    22  H    6.354501   5.839902   5.532281   6.085506   4.322103
    23  H    5.420966   6.147506   7.235248   6.920789   7.288706
    24  H    5.161477   6.076546   7.549379   7.061746   8.179366
    25  H    4.486252   5.647578   7.378747   6.608946   8.530290
    26  H    2.495955   3.970279   5.657217   4.559293   6.978192
                   21         22         23         24         25
    21  H    0.000000
    22  H    2.559517   0.000000
    23  H    6.964011   5.105985   0.000000
    24  H    8.421563   6.842843   2.126184   0.000000
    25  H    9.454711   8.420570   4.435796   2.519459   0.000000
    26  H    8.457770   8.132055   5.554388   4.341832   2.560927
                   26
    26  H    0.000000
 Stoichiometry    C13H10F2O
 Framework group  C1[X(C13H10F2O)]
 Deg. of freedom    72
 Full point group                 C1      NOp   1
 Largest Abelian subgroup         C1      NOp   1
 Largest concise Abelian subgroup C1      NOp   1
                         Standard orientation:                         
 ---------------------------------------------------------------------
 Center     Atomic      Atomic             Coordinates (Angstroms)
 Number     Number       Type             X           Y           Z
 ---------------------------------------------------------------------
      1          6           0        1.198592    2.529300    0.675309
      2          6           0        1.592933    1.180527    0.095256
      3          6           0        2.961462    1.068701   -0.230535
      4          6           0        3.593171   -0.164099   -0.431887
      5          6           0        2.866078   -1.322942   -0.141706
      6          6           0        1.509274   -1.214431    0.178247
      7          9           0        0.960667   -2.322907    0.710779
      8          6           0        0.750641   -0.000195    0.061433
      9          6           0       -0.740316    0.001720   -0.011469
     10          6           0       -1.563749   -1.185840   -0.118869
     11          8           0       -1.013212   -2.350046   -0.541128
     12          6           0       -2.956844   -1.150114    0.112878
     13          6           0       -3.640718    0.062736    0.224659
     14          6           0       -2.924591    1.248237    0.021480
     15          6           0       -1.539186    1.181947   -0.159511
     16          9           0       -0.970906    2.334634   -0.572486
     17          1           0        0.304407    2.472269    1.320623
     18          1           0        2.040335    2.874648    1.310310
     19          1           0        1.018438    3.310395   -0.088457
     20          1           0        3.560459    1.993532   -0.251618
     21          1           0        4.658487   -0.219224   -0.702696
     22          1           0        3.328956   -2.319424   -0.092262
     23          1           0       -1.708043   -3.035763   -0.524224
     24          1           0       -3.507151   -2.106443    0.124031
     25          1           0       -4.727501    0.081037    0.394858
     26          1           0       -3.411016    2.230510   -0.057889
 ---------------------------------------------------------------------
 Rotational constants (GHZ):           0.8461679           0.4768155           0.3184778
 Standard basis: def2SVP (5D, 7F)
 There are   290 symmetry adapted cartesian basis functions of A   symmetry.
 There are   274 symmetry adapted basis functions of A   symmetry.
   274 basis functions,   470 primitive gaussians,   290 cartesian basis functions
    57 alpha electrons       57 beta electrons
       nuclear repulsion energy      1072.4888322901 Hartrees.
 NAtoms=   26 NActive=   26 NUniq=   26 SFac= 1.00D+00 NAtFMM=   60 NAOKFM=F Big=F
 Integral buffers will be    131072 words long.
 Raffenetti 2 integral format.
 Two-electron integral symmetry is turned on.
 Nuclear repulsion after empirical dispersion term =     1072.4373042918 Hartrees.
 One-electron integrals computed using PRISM.
   1 Symmetry operations used in ECPInt.
 ECPInt:  NShTT=    8001 NPrTT=   29641 LenC2=    7596 LenP2D=   20279.
 LDataN:  DoStor=T MaxTD1= 4 Len=   56
 NBasis=   274 RedAO= T EigKep=  3.49D-04  NBF=   274
 NBsUse=   274 1.00D-06 EigRej= -1.00D+00 NBFU=   274
 Initial guess from the checkpoint file:  "/scratch/gaussian_tmp/Gau-230055.chk"
 B after Tr=    -0.000000   -0.000000    0.000000
         Rot=    0.999999   -0.000079    0.000066    0.001407 Ang=  -0.16 deg.
 ExpMin= 1.22D-01 ExpMax= 2.89D+03 ExpMxC= 4.35D+02 IAcc=3 IRadAn=         5 AccDes= 0.00D+00
 Harris functional with IExCor=  404 and IRadAn=       5 diagonalized for initial guess.
 HarFok:  IExCor=  404 AccDes= 0.00D+00 IRadAn=         5 IDoV= 1 UseB2=F ITyADJ=14
 ICtDFT=  3500011 ScaDFX=  1.000000  1.000000  1.000000  1.000000
 FoFCou: FMM=F IPFlag=           0 FMFlag=      100000 FMFlg1=           0
         NFxFlg=           0 DoJE=T BraDBF=F KetDBF=T FulRan=T
         wScrn=  0.000000 ICntrl=       500 IOpCl=  0 I1Cent=   200000004 NGrid=           0
         NMat0=    1 NMatS0=      1 NMatT0=    0 NMatD0=    1 NMtDS0=    0 NMtDT0=    0
 Petite list used in FoFCou.
 Requested convergence on RMS density matrix=1.00D-08 within 128 cycles.
 Requested convergence on MAX density matrix=1.00D-06.
 Requested convergence on             energy=1.00D-06.
 No special actions if energy rises.
 Integral accuracy reduced to 1.0D-05 until final iterations.
 Initial convergence to 1.0D-05 achieved.  Increase integral accuracy.
 SCF Done:  E(RB-P86) =  -775.744469726     A.U. after   13 cycles
            NFock= 13  Conv=0.17D-08     -V/T= 2.0104
 DoSCS=F DFT=T ScalE2(SS,OS)=  1.000000  1.000000
 Range of M.O.s used for correlation:     1   274
 NBasis=   274 NAE=    57 NBE=    57 NFC=     0 NFV=     0
 NROrb=    274 NOA=    57 NOB=    57 NVA=   217 NVB=   217
 Symmetrizing basis deriv contribution to polar:
 IMax=3 JMax=2 DiffMx= 0.00D+00
   1 Symmetry operations used in ECPInt.
 ECPInt:  NShTT=    8001 NPrTT=   29641 LenC2=    7596 LenP2D=   20279.
 LDataN:  DoStor=T MaxTD1= 5 Len=  102
 Calling FoFJK, ICntrl=      2527 FMM=F ISym2X=0 I1Cent= 0 IOpClX= 0 NMat=1 NMatS=1 NMatT=0.
 ***** Axes restored to original set *****
 -------------------------------------------------------------------
 Center     Atomic                   Forces (Hartrees/Bohr)
 Number     Number              X              Y              Z
 -------------------------------------------------------------------
      1        6          -0.000269839   -0.000048588   -0.000235667
      2        6           0.000051806   -0.000021882    0.000085772
      3        6           0.000029849   -0.000053695    0.000237213
      4        6          -0.000026138   -0.000066084   -0.000007863
      5        6           0.000076362    0.000035651   -0.000049732
      6        6          -0.000092128   -0.000118748   -0.000012310
      7        9           0.000857807    0.000055599    0.000332194
      8        6          -0.000112996    0.000002483    0.000105183
      9        6          -0.000120750   -0.000281481   -0.000636474
     10        6           0.000082865    0.000005578   -0.000082345
     11        8          -0.000673323    0.000343138    0.000191876
     12        6          -0.000023117   -0.000006255    0.000021240
     13        6           0.000011015   -0.000039643    0.000123275
     14        6           0.000075902    0.000008348   -0.000064633
     15        6          -0.000016799   -0.000066649    0.000119326
     16        9           0.000441032    0.000212219    0.000308253
     17        1          -0.000017346   -0.000060925    0.000089309
     18        1           0.000029643    0.000090462   -0.000144111
     19        1          -0.000265142   -0.000038307   -0.000092661
     20        1           0.000001987   -0.000006086   -0.000010096
     21        1           0.000002891    0.000002346    0.000007834
     22        1          -0.000004868   -0.000000463   -0.000004878
     23        1          -0.000055458    0.000062661   -0.000260931
     24        1           0.000021763   -0.000012486    0.000023689
     25        1          -0.000010331    0.000000476   -0.000058158
     26        1           0.000005315    0.000002330    0.000014696
 -------------------------------------------------------------------
 Cartesian Forces:  Max     0.000857807 RMS     0.000190015

 GradGradGradGradGradGradGradGradGradGradGradGradGradGradGradGradGradGrad
 Berny optimization.
 FormGI is forming the generalized inverse of G from B-inverse, IUseBI=4.
 Internal  Forces:  Max     0.003087235 RMS     0.000559574
 Search for a saddle point.
 Step number   4 out of a maximum of  140
 All quantities printed in internal units (Hartrees-Bohrs-Radians)
 Swapping is turned off.
 Update second derivatives using D2CorX and points    1    2    3    4
 ITU=  0  0  0  0
     Eigenvalues ---   -0.02786   0.00313   0.00444   0.00878   0.01412
     Eigenvalues ---    0.01501   0.01567   0.01580   0.01595   0.01713
     Eigenvalues ---    0.01809   0.02022   0.02074   0.02218   0.02382
     Eigenvalues ---    0.02607   0.02787   0.02896   0.03014   0.03371
     Eigenvalues ---    0.03736   0.05229   0.05505   0.09870   0.09950
     Eigenvalues ---    0.10793   0.10840   0.10960   0.11444   0.11558
     Eigenvalues ---    0.12963   0.13330   0.14627   0.15336   0.16198
     Eigenvalues ---    0.16966   0.17308   0.17477   0.17734   0.18009
     Eigenvalues ---    0.19455   0.20085   0.21688   0.24848   0.26537
     Eigenvalues ---    0.27107   0.28734   0.30669   0.32269   0.32733
     Eigenvalues ---    0.33161   0.33511   0.33675   0.34078   0.34184
     Eigenvalues ---    0.34452   0.34581   0.34684   0.34969   0.36646
     Eigenvalues ---    0.39418   0.41691   0.42939   0.44613   0.46250
     Eigenvalues ---    0.46673   0.46897   0.49177   0.49311   0.49658
     Eigenvalues ---    0.64212   1.65992
 Eigenvectors required to have negative eigenvalues:
                          D32       D31       D34       D33       A25
   1                    0.49241   0.48061   0.42884   0.41704   0.13388
                          A24       A26       D4        D6        D2
   1                    0.12118  -0.11852  -0.11588  -0.11228  -0.10495
 RFO step:  Lambda0=9.164122551D-07 Lambda=-1.23210245D-04.
 Linear search not attempted -- option 19 set.
 Iteration  1 RMS(Cart)=  0.02279831 RMS(Int)=  0.00053362
 Iteration  2 RMS(Cart)=  0.00056549 RMS(Int)=  0.00001751
 Iteration  3 RMS(Cart)=  0.00000101 RMS(Int)=  0.00001750
 Iteration  4 RMS(Cart)=  0.00000000 RMS(Int)=  0.00001750
 Variable       Old X    -DE/DX   Delta X   Delta X   Delta X     New X
                                 (Linear)    (Quad)   (Total)
    R1        2.87285  -0.00007   0.00000   0.00065   0.00065   2.87351
    R2        2.08663   0.00007   0.00000   0.00075   0.00075   2.08738
    R3        2.09668  -0.00003   0.00000  -0.00030  -0.00030   2.09638
    R4        2.09231   0.00008   0.00000  -0.00069  -0.00069   2.09163
    R5        2.66680  -0.00007   0.00000   0.00024   0.00024   2.66704
    R6        2.74154  -0.00041   0.00000   0.00238   0.00238   2.74392
    R7        2.64521  -0.00005   0.00000  -0.00034  -0.00034   2.64487
    R8        2.08261  -0.00000   0.00000  -0.00008  -0.00008   2.08252
    R9        2.64277  -0.00008   0.00000  -0.00116  -0.00116   2.64161
   R10        2.07979   0.00000   0.00000  -0.00003  -0.00003   2.07976
   R11        2.64228   0.00012   0.00000   0.00066   0.00067   2.64295
   R12        2.07842  -0.00000   0.00000   0.00004   0.00004   2.07846
   R13        2.54467  -0.00027   0.00000  -0.00063  -0.00063   2.54404
   R14        2.71460   0.00062   0.00000   0.00204   0.00204   2.71664
   R15        2.82087   0.00028   0.00000   0.00457   0.00457   2.82544
   R16        2.73839   0.00020   0.00000   0.00072   0.00070   2.73909
   R17        2.70769  -0.00019   0.00000   0.00002   0.00000   2.70769
   R18        2.56110  -0.00061   0.00000  -0.00121  -0.00121   2.55988
   R19        2.66960   0.00003   0.00000   0.00025   0.00025   2.66985
   R20        1.84506  -0.00001   0.00000  -0.00029  -0.00029   1.84477
   R21        2.63966  -0.00007   0.00000  -0.00114  -0.00112   2.63854
   R22        2.08515  -0.00000   0.00000  -0.00002  -0.00002   2.08514
   R23        2.64530  -0.00005   0.00000  -0.00137  -0.00135   2.64395
   R24        2.07904   0.00000   0.00000  -0.00005  -0.00005   2.07900
   R25        2.64325  -0.00011   0.00000   0.00032   0.00032   2.64357
   R26        2.07678  -0.00000   0.00000  -0.00009  -0.00009   2.07670
   R27        2.55091   0.00027   0.00000  -0.00094  -0.00094   2.54997
    A1        1.96841  -0.00009   0.00000  -0.00280  -0.00280   1.96561
    A2        1.87311   0.00011   0.00000   0.00034   0.00034   1.87345
    A3        1.98767  -0.00008   0.00000   0.00203   0.00203   1.98970
    A4        1.87126   0.00004   0.00000   0.00116   0.00116   1.87242
    A5        1.88369  -0.00001   0.00000  -0.00030  -0.00030   1.88339
    A6        1.87408   0.00004   0.00000  -0.00034  -0.00034   1.87374
    A7        1.99318   0.00057   0.00000  -0.00348  -0.00348   1.98970
    A8        2.18997  -0.00086   0.00000   0.00296   0.00296   2.19293
    A9        2.08651   0.00033   0.00000   0.00068   0.00068   2.08719
   A10        2.14199  -0.00008   0.00000   0.00145   0.00144   2.14343
   A11        2.05443   0.00005   0.00000  -0.00083  -0.00083   2.05360
   A12        2.08407   0.00004   0.00000  -0.00032  -0.00032   2.08375
   A13        2.05478  -0.00003   0.00000  -0.00198  -0.00198   2.05280
   A14        2.11337   0.00001   0.00000   0.00059   0.00059   2.11395
   A15        2.10925   0.00001   0.00000   0.00107   0.00107   2.11031
   A16        2.08023   0.00015   0.00000   0.00091   0.00091   2.08114
   A17        2.14275  -0.00008   0.00000   0.00037   0.00037   2.14312
   A18        2.05829  -0.00008   0.00000  -0.00151  -0.00151   2.05677
   A19        2.00639  -0.00076   0.00000  -0.00454  -0.00454   2.00185
   A20        2.16452  -0.00022   0.00000   0.00066   0.00065   2.16517
   A21        2.10925   0.00095   0.00000   0.00341   0.00340   2.11266
   A22        1.95997  -0.00014   0.00000  -0.00370  -0.00370   1.95627
   A23        2.18951  -0.00295   0.00000   0.00023   0.00023   2.18974
   A24        2.13239   0.00309   0.00000   0.00371   0.00371   2.13610
   A25        2.17746   0.00271   0.00000   0.00286   0.00290   2.18036
   A26        2.16878  -0.00254   0.00000  -0.00178  -0.00173   2.16705
   A27        1.92896  -0.00016   0.00000  -0.00123  -0.00133   1.92764
   A28        2.09006   0.00064   0.00000   0.00219   0.00222   2.09228
   A29        2.12642  -0.00005   0.00000   0.00403   0.00396   2.13039
   A30        2.06396  -0.00061   0.00000  -0.00629  -0.00625   2.05771
   A31        1.88475   0.00001   0.00000  -0.00298  -0.00298   1.88178
   A32        2.11516   0.00008   0.00000   0.00218   0.00214   2.11731
   A33        2.06185  -0.00006   0.00000  -0.00227  -0.00227   2.05958
   A34        2.10314  -0.00003   0.00000   0.00065   0.00065   2.10380
   A35        2.06378  -0.00006   0.00000  -0.00214  -0.00215   2.06163
   A36        2.10650   0.00003   0.00000   0.00108   0.00108   2.10758
   A37        2.11031   0.00002   0.00000   0.00104   0.00104   2.11135
   A38        2.07755  -0.00005   0.00000   0.00166   0.00162   2.07918
   A39        2.14242   0.00004   0.00000   0.00058   0.00059   2.14301
   A40        2.06168   0.00002   0.00000  -0.00186  -0.00185   2.05983
   A41        2.18694   0.00024   0.00000   0.00448   0.00441   2.19135
   A42        2.09470  -0.00047   0.00000   0.00113   0.00116   2.09585
   A43        1.99993   0.00025   0.00000  -0.00547  -0.00544   1.99449
    D1       -2.69205  -0.00004   0.00000   0.02975   0.02976  -2.66229
    D2        0.27163   0.00023   0.00000   0.03081   0.03080   0.30243
    D3       -0.63508   0.00003   0.00000   0.02979   0.02979  -0.60530
    D4        2.32859   0.00030   0.00000   0.03084   0.03084   2.35942
    D5        1.43665   0.00010   0.00000   0.03080   0.03080   1.46746
    D6       -1.88286   0.00037   0.00000   0.03185   0.03185  -1.85101
    D7        2.83564   0.00018   0.00000   0.00535   0.00535   2.84099
    D8       -0.22661   0.00009   0.00000   0.00102   0.00102  -0.22560
    D9       -0.13951   0.00007   0.00000   0.00408   0.00408  -0.13543
   D10        3.08142  -0.00003   0.00000  -0.00025  -0.00025   3.08117
   D11       -2.57491  -0.00034   0.00000   0.00069   0.00069  -2.57423
   D12        0.51243  -0.00019   0.00000   0.00589   0.00588   0.51831
   D13        0.38004  -0.00004   0.00000   0.00142   0.00142   0.38146
   D14       -2.81581   0.00010   0.00000   0.00663   0.00662  -2.80919
   D15       -0.13372  -0.00008   0.00000  -0.00572  -0.00572  -0.13943
   D16        3.12242  -0.00005   0.00000  -0.00260  -0.00260   3.11982
   D17        2.92725   0.00002   0.00000  -0.00133  -0.00133   2.92591
   D18       -0.09981   0.00005   0.00000   0.00179   0.00178  -0.09802
   D19        0.13131  -0.00003   0.00000   0.00081   0.00081   0.13212
   D20       -2.94225   0.00009   0.00000   0.00493   0.00493  -2.93732
   D21       -3.12454  -0.00006   0.00000  -0.00233  -0.00233  -3.12687
   D22        0.08509   0.00005   0.00000   0.00179   0.00179   0.08687
   D23       -2.90915   0.00036   0.00000   0.01225   0.01224  -2.89691
   D24        0.14936   0.00003   0.00000   0.00593   0.00594   0.15529
   D25        0.16770   0.00024   0.00000   0.00840   0.00839   0.17609
   D26       -3.05698  -0.00008   0.00000   0.00208   0.00209  -3.05489
   D27       -0.39726   0.00005   0.00000  -0.00655  -0.00654  -0.40381
   D28        2.79655   0.00012   0.00000  -0.01144  -0.01144   2.78511
   D29        2.65658  -0.00037   0.00000  -0.01359  -0.01360   2.64298
   D30       -0.43280  -0.00030   0.00000  -0.01849  -0.01850  -0.45129
   D31        3.07901  -0.00061   0.00000  -0.00321  -0.00322   3.07579
   D32        0.08583  -0.00073   0.00000  -0.00167  -0.00167   0.08416
   D33       -0.12189  -0.00058   0.00000   0.00226   0.00225  -0.11964
   D34       -3.11508  -0.00069   0.00000   0.00379   0.00381  -3.11127
   D35       -0.33100  -0.00010   0.00000   0.02497   0.02496  -0.30604
   D36        2.89143   0.00017   0.00000   0.02627   0.02627   2.91770
   D37        2.67973  -0.00021   0.00000   0.02352   0.02350   2.70323
   D38       -0.38102   0.00005   0.00000   0.02481   0.02480  -0.35621
   D39       -2.91782   0.00032   0.00000  -0.02642  -0.02642  -2.94424
   D40        0.28833  -0.00003   0.00000  -0.02886  -0.02886   0.25947
   D41        0.35384  -0.00004   0.00000  -0.02539  -0.02539   0.32845
   D42       -2.72319  -0.00038   0.00000  -0.02784  -0.02783  -2.75102
   D43        3.11337   0.00036   0.00000   0.07138   0.07139  -3.09842
   D44       -0.10618   0.00013   0.00000   0.07059   0.07059  -0.03560
   D45        0.19873   0.00002   0.00000  -0.01144  -0.01147   0.18726
   D46       -3.02610  -0.00004   0.00000  -0.00383  -0.00385  -3.02995
   D47       -2.86319   0.00023   0.00000  -0.01053  -0.01055  -2.87374
   D48        0.19517   0.00016   0.00000  -0.00292  -0.00294   0.19224
   D49        0.06568  -0.00003   0.00000  -0.00375  -0.00376   0.06192
   D50        3.13053  -0.00004   0.00000  -0.00406  -0.00405   3.12649
   D51       -2.99072   0.00004   0.00000  -0.01140  -0.01143  -3.00216
   D52        0.07413   0.00002   0.00000  -0.01171  -0.01172   0.06241
   D53       -0.10326  -0.00002   0.00000   0.00389   0.00391  -0.09935
   D54        2.97771   0.00008   0.00000   0.01143   0.01146   2.98916
   D55        3.11525  -0.00001   0.00000   0.00420   0.00420   3.11944
   D56       -0.08697   0.00010   0.00000   0.01173   0.01174  -0.07523
   D57       -0.12677   0.00003   0.00000   0.01172   0.01175  -0.11502
   D58        2.95335   0.00033   0.00000   0.01425   0.01426   2.96761
   D59        3.07263  -0.00007   0.00000   0.00446   0.00449   3.07712
   D60       -0.13043   0.00023   0.00000   0.00699   0.00700  -0.12343
         Item               Value     Threshold  Converged?
 Maximum Force            0.003087     0.000450     NO 
 RMS     Force            0.000560     0.000300     NO 
 Maximum Displacement     0.098494     0.001800     NO 
 RMS     Displacement     0.022701     0.001200     NO 
 Predicted change in Energy=-6.260125D-05
 GradGradGradGradGradGradGradGradGradGradGradGradGradGradGradGradGradGrad

                          Input orientation:                          
 ---------------------------------------------------------------------
 Center     Atomic      Atomic             Coordinates (Angstroms)
 Number     Number       Type             X           Y           Z
 ---------------------------------------------------------------------
      1          6           0        1.285262    2.510988    0.599322
      2          6           0        1.631732    1.138679    0.043503
      3          6           0        2.992655    0.984026   -0.296848
      4          6           0        3.589483   -0.267681   -0.486381
      5          6           0        2.836865   -1.400179   -0.162211
      6          6           0        1.488572   -1.250083    0.177820
      7          9           0        0.929852   -2.331320    0.753268
      8          6           0        0.756664   -0.020034    0.043881
      9          6           0       -0.736634    0.020660   -0.018647
     10          6           0       -1.596019   -1.144016   -0.095686
     11          8           0       -1.080369   -2.339638   -0.469344
     12          6           0       -2.990837   -1.062030    0.113675
     13          6           0       -3.642444    0.170695    0.186608
     14          6           0       -2.888102    1.329167   -0.028908
     15          6           0       -1.502499    1.219836   -0.187397
     16          9           0       -0.899717    2.355286   -0.597578
     17          1           0        0.416668    2.486262    1.281278
     18          1           0        2.157874    2.858616    1.189552
     19          1           0        1.086688    3.274255   -0.177267
     20          1           0        3.614741    1.892467   -0.343750
     21          1           0        4.648885   -0.355420   -0.771352
     22          1           0        3.274014   -2.407352   -0.097232
     23          1           0       -1.812722   -2.984392   -0.499860
     24          1           0       -3.566111   -2.003056    0.145875
     25          1           0       -4.731153    0.223608    0.335805
     26          1           0       -3.342129    2.324965   -0.128487
 ---------------------------------------------------------------------
                    Distance matrix (angstroms):
                    1          2          3          4          5
     1  C    0.000000
     2  C    1.520594   0.000000
     3  C    2.459659   1.411336   0.000000
     4  C    3.769507   2.468079   1.399606   0.000000
     5  C    4.276053   2.817883   2.393080   1.397881   0.000000
     6  C    3.790072   2.396814   2.734743   2.412489   1.398587
     7  F    4.857773   3.610719   4.043442   3.587335   2.311239
     8  C    2.644617   1.452019   2.474649   2.892640   2.504897
     9  C    3.266754   2.619730   3.861744   4.360872   3.848284
    10  C    4.705727   3.955812   5.062111   5.273523   4.440779
    11  O    5.501529   4.440404   5.259850   5.108895   4.040004
    12  C    5.593508   5.120175   6.336959   6.655199   5.844020
    13  C    5.470795   5.364178   6.702222   7.276391   6.676135
    14  C    4.382732   4.524426   5.896967   6.687176   6.343686
    15  C    3.171374   3.143773   4.502666   5.313227   5.069043
    16  F    2.496187   2.880860   4.137796   5.200504   5.315554
    17  H    1.104596   2.196462   3.373856   4.558023   4.800566
    18  H    1.109355   2.132707   2.533838   3.825178   4.519472
    19  H    1.106842   2.215061   2.981972   4.347970   4.991360
    20  H    2.588131   2.156499   1.102024   2.164999   3.388151
    21  H    4.626986   3.464034   2.182285   1.100563   2.178529
    22  H    5.350737   3.910400   3.408878   2.197533   1.099872
    23  H    6.403507   5.399928   6.235480   6.046861   4.923657
    24  H    6.642140   6.074417   7.220531   7.390115   6.438671
    25  H    6.441956   6.434990   7.786893   8.375580   7.756262
    26  H    4.687969   5.116263   6.477341   7.409261   7.215110
                    6          7          8          9         10
     6  C    0.000000
     7  F    1.346248   0.000000
     8  C    1.437584   2.423895   0.000000
     9  C    2.570005   2.984097   1.495160   0.000000
    10  C    3.098509   2.917266   2.611118   1.449465   0.000000
    11  O    2.864508   2.352836   3.003107   2.427403   1.354632
    12  C    4.483813   4.170369   3.890295   2.504228   1.412823
    13  C    5.324097   5.242812   4.405554   2.916912   2.448675
    14  C    5.084343   5.346751   3.887154   2.518157   2.791160
    15  C    3.896201   4.405893   2.587390   1.432847   2.367478
    16  F    4.393615   5.209260   2.966010   2.410858   3.603033
    17  H    4.040652   4.873525   2.815718   3.016472   4.373312
    18  H    4.284037   5.351058   3.400379   4.229884   5.636011
    19  H    4.556010   5.684449   3.318156   3.733034   5.169593
    20  H    3.829915   5.123715   3.460711   4.748033   6.036041
    21  H    3.418908   4.478823   3.990798   5.450855   6.330659
    22  H    2.145397   2.494840   3.472211   4.688999   5.031227
    23  H    3.790200   3.085214   3.960406   3.227982   1.896655
    24  H    5.110558   4.548666   4.757012   3.482590   2.162767
    25  H    6.393880   6.224862   5.500974   4.015347   3.447556
    26  H    6.017513   6.380306   4.725340   3.480014   3.883788
                   11         12         13         14         15
    11  O    0.000000
    12  C    2.371093   0.000000
    13  C    3.646406   1.396254   0.000000
    14  C    4.113638   2.397647   1.399120   0.000000
    15  C    3.595489   2.740932   2.412455   1.398917   0.000000
    16  F    4.700148   4.068994   3.593040   2.308675   1.349386
    17  H    5.347439   5.056161   4.799640   3.738578   2.728378
    18  H    6.345076   6.560351   6.471052   5.411630   4.240274
    19  H    6.024718   5.959381   5.668260   4.427678   3.305242
    20  H    6.322226   7.250652   7.477467   6.534784   5.163625
    21  H    6.070641   7.723207   8.363052   7.758559   6.376674
    22  H    4.370778   6.411141   7.386765   7.206797   5.998308
    23  H    0.976208   2.336633   3.711293   4.470462   4.227222
    24  H    2.582769   1.103406   2.175472   3.404990   3.841431
    25  H    4.532849   2.175065   1.100157   2.179934   3.419125
    26  H    5.195215   3.413765   2.197807   1.098940   2.146863
                   16         17         18         19         20
    16  F    0.000000
    17  H    2.297852   0.000000
    18  H    3.577155   1.782936   0.000000
    19  H    2.228670   1.788075   1.785606   0.000000
    20  H    4.545213   3.636066   2.325278   2.885846   0.000000
    21  H    6.177792   5.495463   4.514456   5.120227   2.511035
    22  H    6.352409   5.831995   5.534618   6.088633   4.320337
    23  H    5.418052   6.170145   7.263642   6.905165   7.298321
    24  H    5.163092   6.107834   7.582158   7.042937   8.184098
    25  H    4.482762   5.702068   7.425015   6.589154   8.538198
    26  H    2.487235   4.017712   5.680849   4.529674   6.973624
                   21         22         23         24         25
    21  H    0.000000
    22  H    2.560300   0.000000
    23  H    6.981230   5.135170   0.000000
    24  H    8.428652   6.856374   2.110537   0.000000
    25  H    9.462885   8.437545   4.416655   2.520204   0.000000
    26  H    8.453050   8.134442   5.537714   4.342489   2.561378
                   26
    26  H    0.000000
 Stoichiometry    C13H10F2O
 Framework group  C1[X(C13H10F2O)]
 Deg. of freedom    72
 Full point group                 C1      NOp   1
 Largest Abelian subgroup         C1      NOp   1
 Largest concise Abelian subgroup C1      NOp   1
                         Standard orientation:                         
 ---------------------------------------------------------------------
 Center     Atomic      Atomic             Coordinates (Angstroms)
 Number     Number       Type             X           Y           Z
 ---------------------------------------------------------------------
      1          6           0        1.207784    2.529318    0.676497
      2          6           0        1.593684    1.178961    0.093553
      3          6           0        2.959727    1.068385   -0.243447
      4          6           0        3.591071   -0.162440   -0.456448
      5          6           0        2.868075   -1.321477   -0.159830
      6          6           0        1.514782   -1.215107    0.176814
      7          9           0        0.983158   -2.323000    0.726662
      8          6           0        0.750363   -0.002721    0.065313
      9          6           0       -0.743212   -0.001075   -0.003508
     10          6           0       -1.570368   -1.186651   -0.109196
     11          8           0       -1.020912   -2.359715   -0.505487
     12          6           0       -2.967768   -1.146839    0.095149
     13          6           0       -3.652864    0.066007    0.190914
     14          6           0       -2.929307    1.248746    0.003481
     15          6           0       -1.540592    1.180277   -0.150625
     16          9           0       -0.967091    2.340038   -0.533891
     17          1           0        0.337305    2.466684    1.353604
     18          1           0        2.068147    2.887810    1.278102
     19          1           0        0.991871    3.303229   -0.084780
     20          1           0        3.557144    1.994093   -0.268209
     21          1           0        4.653658   -0.215463   -0.738117
     22          1           0        3.332094   -2.317621   -0.113991
     23          1           0       -1.735378   -3.023231   -0.553098
     24          1           0       -3.517445   -2.103536    0.104751
     25          1           0       -4.743228    0.086310    0.335966
     26          1           0       -3.409743    2.233799   -0.077270
 ---------------------------------------------------------------------
 Rotational constants (GHZ):           0.8459283           0.4753091           0.3174602
 Standard basis: def2SVP (5D, 7F)
 There are   290 symmetry adapted cartesian basis functions of A   symmetry.
 There are   274 symmetry adapted basis functions of A   symmetry.
   274 basis functions,   470 primitive gaussians,   290 cartesian basis functions
    57 alpha electrons       57 beta electrons
       nuclear repulsion energy      1071.7792745226 Hartrees.
 NAtoms=   26 NActive=   26 NUniq=   26 SFac= 1.00D+00 NAtFMM=   60 NAOKFM=F Big=F
 Integral buffers will be    131072 words long.
 Raffenetti 2 integral format.
 Two-electron integral symmetry is turned on.
 Nuclear repulsion after empirical dispersion term =     1071.7278120466 Hartrees.
 One-electron integrals computed using PRISM.
   1 Symmetry operations used in ECPInt.
 ECPInt:  NShTT=    8001 NPrTT=   29641 LenC2=    7596 LenP2D=   20272.
 LDataN:  DoStor=T MaxTD1= 4 Len=   56
 NBasis=   274 RedAO= T EigKep=  3.41D-04  NBF=   274
 NBsUse=   274 1.00D-06 EigRej= -1.00D+00 NBFU=   274
 Initial guess from the checkpoint file:  "/scratch/gaussian_tmp/Gau-230055.chk"
 B after Tr=     0.000000    0.000000    0.000000
         Rot=    1.000000    0.000050   -0.000492    0.000086 Ang=   0.06 deg.
 ExpMin= 1.22D-01 ExpMax= 2.89D+03 ExpMxC= 4.35D+02 IAcc=3 IRadAn=         5 AccDes= 0.00D+00
 Harris functional with IExCor=  404 and IRadAn=       5 diagonalized for initial guess.
 HarFok:  IExCor=  404 AccDes= 0.00D+00 IRadAn=         5 IDoV= 1 UseB2=F ITyADJ=14
 ICtDFT=  3500011 ScaDFX=  1.000000  1.000000  1.000000  1.000000
 FoFCou: FMM=F IPFlag=           0 FMFlag=      100000 FMFlg1=           0
         NFxFlg=           0 DoJE=T BraDBF=F KetDBF=T FulRan=T
         wScrn=  0.000000 ICntrl=       500 IOpCl=  0 I1Cent=   200000004 NGrid=           0
         NMat0=    1 NMatS0=      1 NMatT0=    0 NMatD0=    1 NMtDS0=    0 NMtDT0=    0
 Petite list used in FoFCou.
 Requested convergence on RMS density matrix=1.00D-08 within 128 cycles.
 Requested convergence on MAX density matrix=1.00D-06.
 Requested convergence on             energy=1.00D-06.
 No special actions if energy rises.
 Integral accuracy reduced to 1.0D-05 until final iterations.
 Initial convergence to 1.0D-05 achieved.  Increase integral accuracy.
 SCF Done:  E(RB-P86) =  -775.744456466     A.U. after   12 cycles
            NFock= 12  Conv=0.81D-08     -V/T= 2.0104
 DoSCS=F DFT=T ScalE2(SS,OS)=  1.000000  1.000000
 Range of M.O.s used for correlation:     1   274
 NBasis=   274 NAE=    57 NBE=    57 NFC=     0 NFV=     0
 NROrb=    274 NOA=    57 NOB=    57 NVA=   217 NVB=   217
 Symmetrizing basis deriv contribution to polar:
 IMax=3 JMax=2 DiffMx= 0.00D+00
   1 Symmetry operations used in ECPInt.
 ECPInt:  NShTT=    8001 NPrTT=   29641 LenC2=    7596 LenP2D=   20272.
 LDataN:  DoStor=T MaxTD1= 5 Len=  102
 Calling FoFJK, ICntrl=      2527 FMM=F ISym2X=0 I1Cent= 0 IOpClX= 0 NMat=1 NMatS=1 NMatT=0.
 ***** Axes restored to original set *****
 -------------------------------------------------------------------
 Center     Atomic                   Forces (Hartrees/Bohr)
 Number     Number              X              Y              Z
 -------------------------------------------------------------------
      1        6          -0.000108686   -0.000033037   -0.000023665
      2        6           0.000036644   -0.000073384   -0.000040976
      3        6           0.000000643    0.000047550   -0.000191527
      4        6           0.000027726    0.000067144    0.000046648
      5        6          -0.000072462   -0.000030993   -0.000044500
      6        6           0.000010928    0.000164624    0.000185573
      7        9          -0.001150761   -0.000085574   -0.000528767
      8        6          -0.000010157    0.000046614    0.000421779
      9        6           0.000006096    0.000030893    0.000214745
     10        6           0.000133951    0.000165861   -0.000569106
     11        8           0.000940782   -0.000350221   -0.000002320
     12        6           0.000118548   -0.000034426    0.000322168
     13        6          -0.000019287    0.000063103   -0.000340315
     14        6          -0.000032953    0.000111519    0.000411084
     15        6           0.000044183   -0.000026889    0.000207768
     16        9           0.000061636   -0.000027540   -0.000420956
     17        1          -0.000041924    0.000031202   -0.000048367
     18        1          -0.000023175   -0.000025088    0.000041617
     19        1           0.000025226    0.000003321   -0.000010233
     20        1           0.000006266   -0.000003103    0.000026753
     21        1          -0.000006054   -0.000001828   -0.000021568
     22        1           0.000002602   -0.000000650    0.000007868
     23        1           0.000036487   -0.000033037    0.000251281
     24        1          -0.000007010   -0.000009091   -0.000011499
     25        1           0.000019673    0.000005187    0.000131923
     26        1           0.000001075   -0.000002155   -0.000015405
 -------------------------------------------------------------------
 Cartesian Forces:  Max     0.001150761 RMS     0.000229182

 GradGradGradGradGradGradGradGradGradGradGradGradGradGradGradGradGradGrad
 Berny optimization.
 FormGI is forming the generalized inverse of G from B-inverse, IUseBI=4.
 Internal  Forces:  Max     0.002572210 RMS     0.000495109
 Search for a saddle point.
 Step number   5 out of a maximum of  140
 All quantities printed in internal units (Hartrees-Bohrs-Radians)
 Swapping is turned off.
 Update second derivatives using D2CorX and points    1    2    3    4    5
 ITU=  0  0  0  0  0
     Eigenvalues ---   -0.02963   0.00069   0.00511   0.01127   0.01415
     Eigenvalues ---    0.01528   0.01577   0.01581   0.01594   0.01694
     Eigenvalues ---    0.01796   0.02025   0.02096   0.02218   0.02389
     Eigenvalues ---    0.02623   0.02803   0.02907   0.03012   0.03407
     Eigenvalues ---    0.03738   0.05229   0.05504   0.09872   0.09951
     Eigenvalues ---    0.10794   0.10842   0.10960   0.11446   0.11558
     Eigenvalues ---    0.12984   0.13342   0.14628   0.15360   0.16203
     Eigenvalues ---    0.16966   0.17310   0.17479   0.17736   0.18012
     Eigenvalues ---    0.19456   0.20088   0.21715   0.24862   0.26553
     Eigenvalues ---    0.27108   0.28755   0.30677   0.32269   0.32733
     Eigenvalues ---    0.33162   0.33511   0.33675   0.34079   0.34189
     Eigenvalues ---    0.34452   0.34582   0.34684   0.34970   0.36646
     Eigenvalues ---    0.39428   0.41690   0.42944   0.44614   0.46251
     Eigenvalues ---    0.46683   0.46899   0.49214   0.49314   0.49659
     Eigenvalues ---    0.65583   1.66632
 Eigenvectors required to have negative eigenvalues:
                          D32       D31       D34       D33       A25
   1                    0.49636   0.47983   0.42536   0.40884   0.12413
                          D4        A26       D6        A24       D2
   1                   -0.11856  -0.11455  -0.11377   0.11058  -0.10920
 RFO step:  Lambda0=4.046179755D-06 Lambda=-1.16824375D-04.
 Linear search not attempted -- option 19 set.
 Iteration  1 RMS(Cart)=  0.03777604 RMS(Int)=  0.00083376
 Iteration  2 RMS(Cart)=  0.00105761 RMS(Int)=  0.00002934
 Iteration  3 RMS(Cart)=  0.00000253 RMS(Int)=  0.00002929
 Iteration  4 RMS(Cart)=  0.00000000 RMS(Int)=  0.00002929
 Variable       Old X    -DE/DX   Delta X   Delta X   Delta X     New X
                                 (Linear)    (Quad)   (Total)
    R1        2.87351  -0.00000   0.00000  -0.00082  -0.00082   2.87268
    R2        2.08738   0.00000   0.00000   0.00109   0.00109   2.08848
    R3        2.09638  -0.00000   0.00000  -0.00027  -0.00027   2.09610
    R4        2.09163   0.00000   0.00000  -0.00059  -0.00059   2.09104
    R5        2.66704   0.00006   0.00000   0.00041   0.00041   2.66745
    R6        2.74392  -0.00031   0.00000  -0.00005  -0.00004   2.74388
    R7        2.64487   0.00024   0.00000  -0.00049  -0.00050   2.64437
    R8        2.08252  -0.00000   0.00000  -0.00015  -0.00015   2.08237
    R9        2.64161   0.00031   0.00000  -0.00025  -0.00026   2.64135
   R10        2.07976  -0.00000   0.00000  -0.00002  -0.00002   2.07974
   R11        2.64295  -0.00007   0.00000  -0.00042  -0.00043   2.64252
   R12        2.07846   0.00000   0.00000  -0.00003  -0.00003   2.07842
   R13        2.54404   0.00032   0.00000   0.00069   0.00069   2.54473
   R14        2.71664  -0.00101   0.00000   0.00011   0.00012   2.71676
   R15        2.82544  -0.00131   0.00000  -0.00119  -0.00119   2.82426
   R16        2.73909  -0.00083   0.00000   0.00095   0.00093   2.74002
   R17        2.70769  -0.00023   0.00000   0.00108   0.00105   2.70874
   R18        2.55988   0.00064   0.00000  -0.00071  -0.00071   2.55917
   R19        2.66985  -0.00005   0.00000   0.00025   0.00026   2.67011
   R20        1.84477  -0.00001   0.00000   0.00024   0.00024   1.84500
   R21        2.63854   0.00032   0.00000   0.00051   0.00053   2.63907
   R22        2.08514   0.00001   0.00000   0.00005   0.00005   2.08519
   R23        2.64395   0.00022   0.00000   0.00113   0.00115   2.64511
   R24        2.07900  -0.00000   0.00000   0.00002   0.00002   2.07902
   R25        2.64357   0.00004   0.00000  -0.00044  -0.00045   2.64312
   R26        2.07670  -0.00000   0.00000   0.00010   0.00010   2.07679
   R27        2.54997   0.00013   0.00000   0.00005   0.00005   2.55002
    A1        1.96561   0.00003   0.00000  -0.00124  -0.00124   1.96437
    A2        1.87345   0.00000   0.00000   0.00146   0.00146   1.87491
    A3        1.98970  -0.00002   0.00000   0.00085   0.00085   1.99055
    A4        1.87242  -0.00000   0.00000  -0.00024  -0.00024   1.87218
    A5        1.88339  -0.00002   0.00000  -0.00071  -0.00071   1.88269
    A6        1.87374   0.00002   0.00000  -0.00011  -0.00011   1.87362
    A7        1.98970   0.00039   0.00000  -0.00034  -0.00035   1.98934
    A8        2.19293   0.00001   0.00000   0.00051   0.00050   2.19343
    A9        2.08719  -0.00041   0.00000   0.00077   0.00079   2.08798
   A10        2.14343  -0.00013   0.00000   0.00068   0.00068   2.14411
   A11        2.05360   0.00006   0.00000  -0.00010  -0.00010   2.05350
   A12        2.08375   0.00007   0.00000  -0.00042  -0.00042   2.08333
   A13        2.05280   0.00016   0.00000   0.00011   0.00010   2.05289
   A14        2.11395  -0.00007   0.00000  -0.00005  -0.00004   2.11391
   A15        2.11031  -0.00007   0.00000   0.00012   0.00013   2.11044
   A16        2.08114  -0.00022   0.00000   0.00010   0.00009   2.08123
   A17        2.14312   0.00013   0.00000  -0.00014  -0.00014   2.14298
   A18        2.05677   0.00010   0.00000   0.00004   0.00004   2.05681
   A19        2.00185   0.00119   0.00000  -0.00162  -0.00163   2.00022
   A20        2.16517  -0.00011   0.00000   0.00163   0.00165   2.16682
   A21        2.11266  -0.00105   0.00000   0.00001  -0.00000   2.11266
   A22        1.95627   0.00080   0.00000   0.00054   0.00048   1.95675
   A23        2.18974   0.00177   0.00000  -0.00098  -0.00111   2.18863
   A24        2.13610  -0.00257   0.00000  -0.00072  -0.00084   2.13526
   A25        2.18036  -0.00243   0.00000   0.00415   0.00420   2.18457
   A26        2.16705   0.00163   0.00000  -0.00031  -0.00026   2.16678
   A27        1.92764   0.00081   0.00000  -0.00258  -0.00274   1.92490
   A28        2.09228  -0.00075   0.00000  -0.00086  -0.00081   2.09148
   A29        2.13039  -0.00027   0.00000  -0.00292  -0.00302   2.12737
   A30        2.05771   0.00105   0.00000   0.00364   0.00369   2.06140
   A31        1.88178  -0.00004   0.00000   0.00391   0.00391   1.88569
   A32        2.11731  -0.00014   0.00000  -0.00131  -0.00136   2.11594
   A33        2.05958   0.00007   0.00000   0.00127   0.00128   2.06086
   A34        2.10380   0.00008   0.00000  -0.00044  -0.00043   2.10337
   A35        2.06163   0.00018   0.00000   0.00051   0.00049   2.06213
   A36        2.10758  -0.00009   0.00000  -0.00035  -0.00035   2.10723
   A37        2.11135  -0.00008   0.00000  -0.00045  -0.00045   2.11090
   A38        2.07918  -0.00014   0.00000  -0.00135  -0.00143   2.07775
   A39        2.14301   0.00007   0.00000  -0.00043  -0.00042   2.14259
   A40        2.05983   0.00007   0.00000   0.00125   0.00126   2.06108
   A41        2.19135  -0.00044   0.00000  -0.00282  -0.00293   2.18842
   A42        2.09585   0.00012   0.00000  -0.00126  -0.00122   2.09464
   A43        1.99449   0.00031   0.00000   0.00377   0.00382   1.99831
    D1       -2.66229  -0.00001   0.00000   0.02153   0.02153  -2.64076
    D2        0.30243  -0.00011   0.00000   0.02778   0.02778   0.33021
    D3       -0.60530  -0.00000   0.00000   0.02145   0.02144  -0.58385
    D4        2.35942  -0.00009   0.00000   0.02769   0.02769   2.38712
    D5        1.46746   0.00001   0.00000   0.02281   0.02281   1.49026
    D6       -1.85101  -0.00008   0.00000   0.02906   0.02906  -1.82195
    D7        2.84099   0.00006   0.00000   0.00949   0.00948   2.85048
    D8       -0.22560   0.00007   0.00000   0.00709   0.00709  -0.21850
    D9       -0.13543   0.00010   0.00000   0.00367   0.00367  -0.13176
   D10        3.08117   0.00011   0.00000   0.00128   0.00128   3.08245
   D11       -2.57423  -0.00010   0.00000  -0.01581  -0.01581  -2.59004
   D12        0.51831  -0.00013   0.00000  -0.04219  -0.04219   0.47611
   D13        0.38146  -0.00012   0.00000  -0.00935  -0.00934   0.37211
   D14       -2.80919  -0.00015   0.00000  -0.03573  -0.03572  -2.84492
   D15       -0.13943   0.00016   0.00000   0.00304   0.00303  -0.13640
   D16        3.11982  -0.00002   0.00000   0.00126   0.00126   3.12108
   D17        2.92591   0.00015   0.00000   0.00548   0.00548   2.93139
   D18       -0.09802  -0.00003   0.00000   0.00371   0.00371  -0.09431
   D19        0.13212  -0.00012   0.00000  -0.00343  -0.00342   0.12870
   D20       -2.93732  -0.00024   0.00000  -0.00340  -0.00339  -2.94071
   D21       -3.12687   0.00006   0.00000  -0.00167  -0.00167  -3.12854
   D22        0.08687  -0.00006   0.00000  -0.00164  -0.00164   0.08523
   D23       -2.89691  -0.00046   0.00000  -0.00313  -0.00313  -2.90004
   D24        0.15529  -0.00011   0.00000  -0.00292  -0.00291   0.15238
   D25        0.17609  -0.00035   0.00000  -0.00317  -0.00316   0.17293
   D26       -3.05489   0.00001   0.00000  -0.00295  -0.00295  -3.05783
   D27       -0.40381   0.00010   0.00000   0.00912   0.00911  -0.39469
   D28        2.78511   0.00000   0.00000   0.03457   0.03457   2.81968
   D29        2.64298   0.00059   0.00000   0.00927   0.00927   2.65226
   D30       -0.45129   0.00049   0.00000   0.03473   0.03473  -0.41656
   D31        3.07579   0.00040   0.00000   0.03138   0.03138   3.10717
   D32        0.08416   0.00027   0.00000   0.02011   0.02009   0.10426
   D33       -0.11964   0.00046   0.00000   0.00246   0.00248  -0.11716
   D34       -3.11127   0.00033   0.00000  -0.00881  -0.00880  -3.12008
   D35       -0.30604   0.00009   0.00000  -0.04080  -0.04081  -0.34685
   D36        2.91770  -0.00036   0.00000  -0.03899  -0.03899   2.87870
   D37        2.70323   0.00031   0.00000  -0.03077  -0.03077   2.67246
   D38       -0.35621  -0.00013   0.00000  -0.02896  -0.02895  -0.38516
   D39       -2.94424  -0.00002   0.00000   0.04342   0.04340  -2.90085
   D40        0.25947   0.00019   0.00000   0.04966   0.04965   0.30911
   D41        0.32845   0.00013   0.00000   0.03307   0.03307   0.36152
   D42       -2.75102   0.00034   0.00000   0.03931   0.03931  -2.71171
   D43       -3.09842  -0.00041   0.00000  -0.07977  -0.07976   3.10500
   D44       -0.03560  -0.00004   0.00000  -0.08181  -0.08182  -0.11741
   D45        0.18726  -0.00000   0.00000   0.01005   0.01004   0.19730
   D46       -3.02995   0.00008   0.00000   0.00272   0.00271  -3.02724
   D47       -2.87374  -0.00036   0.00000   0.01202   0.01202  -2.86172
   D48        0.19224  -0.00027   0.00000   0.00469   0.00469   0.19693
   D49        0.06192  -0.00007   0.00000   0.00910   0.00910   0.07102
   D50        3.12649   0.00008   0.00000   0.00470   0.00471   3.13120
   D51       -3.00216  -0.00015   0.00000   0.01654   0.01654  -2.98562
   D52        0.06241  -0.00001   0.00000   0.01215   0.01215   0.07456
   D53       -0.09935   0.00010   0.00000  -0.00621  -0.00620  -0.10555
   D54        2.98916   0.00002   0.00000  -0.01830  -0.01829   2.97087
   D55        3.11944  -0.00004   0.00000  -0.00181  -0.00181   3.11763
   D56       -0.07523  -0.00013   0.00000  -0.01390  -0.01389  -0.08912
   D57       -0.11502  -0.00003   0.00000  -0.01686  -0.01685  -0.13187
   D58        2.96761  -0.00023   0.00000  -0.02293  -0.02294   2.94468
   D59        3.07712   0.00006   0.00000  -0.00530  -0.00528   3.07184
   D60       -0.12343  -0.00014   0.00000  -0.01137  -0.01137  -0.13480
         Item               Value     Threshold  Converged?
 Maximum Force            0.002572     0.000450     NO 
 RMS     Force            0.000495     0.000300     NO 
 Maximum Displacement     0.170347     0.001800     NO 
 RMS     Displacement     0.037777     0.001200     NO 
 Predicted change in Energy=-5.864363D-05
 GradGradGradGradGradGradGradGradGradGradGradGradGradGradGradGradGradGrad

                          Input orientation:                          
 ---------------------------------------------------------------------
 Center     Atomic      Atomic             Coordinates (Angstroms)
 Number     Number       Type             X           Y           Z
 ---------------------------------------------------------------------
      1          6           0        1.266456    2.507252    0.580428
      2          6           0        1.631965    1.135386    0.037043
      3          6           0        3.002597    0.984367   -0.264687
      4          6           0        3.606675   -0.264736   -0.446312
      5          6           0        2.845756   -1.400843   -0.156578
      6          6           0        1.488247   -1.255069    0.145641
      7          9           0        0.914664   -2.345402    0.689285
      8          6           0        0.758455   -0.024107    0.007923
      9          6           0       -0.734217    0.017810   -0.053723
     10          6           0       -1.600094   -1.143129   -0.123350
     11          8           0       -1.100645   -2.332302   -0.536179
     12          6           0       -2.986911   -1.056409    0.132915
     13          6           0       -3.628402    0.179797    0.235868
     14          6           0       -2.877567    1.335739   -0.007630
     15          6           0       -1.499400    1.219005   -0.215812
     16          9           0       -0.905972    2.340532   -0.675090
     17          1           0        0.391767    2.476555    1.255252
     18          1           0        2.129307    2.869266    1.176063
     19          1           0        1.065231    3.263282   -0.202088
     20          1           0        3.624264    1.893888   -0.288813
     21          1           0        4.674351   -0.348724   -0.699748
     22          1           0        3.281617   -2.408443   -0.089886
     23          1           0       -1.816062   -2.994747   -0.485443
     24          1           0       -3.567674   -1.993874    0.170877
     25          1           0       -4.710480    0.237647    0.425949
     26          1           0       -3.332707    2.331567   -0.102266
 ---------------------------------------------------------------------
                    Distance matrix (angstroms):
                    1          2          3          4          5
     1  C    0.000000
     2  C    1.520158   0.000000
     3  C    2.459184   1.411552   0.000000
     4  C    3.770244   2.468492   1.399341   0.000000
     5  C    4.279086   2.818375   2.392804   1.397742   0.000000
     6  C    3.793849   2.397233   2.734355   2.412241   1.398362
     7  F    4.866606   3.613285   4.044365   3.586875   2.310150
     8  C    2.644543   1.451996   2.475381   2.894234   2.505851
     9  C    3.256096   2.618402   3.865555   4.367757   3.852189
    10  C    4.694432   3.957722   5.072571   5.290210   4.453437
    11  O    5.501932   4.452033   5.283048   5.142156   4.072566
    12  C    5.566963   5.113431   6.340115   6.666156   5.849996
    13  C    5.430967   5.350154   6.698361   7.280750   6.675864
    14  C    4.346398   4.514201   5.896259   6.693232   6.345667
    15  C    3.153338   3.142670   4.508372   5.322276   5.074199
    16  F    2.514669   2.898385   4.157466   5.215721   5.323740
    17  H    1.105174   2.195645   3.369462   4.554737   4.800994
    18  H    1.109211   2.133320   2.528091   3.825792   4.530239
    19  H    1.106528   2.215020   2.991783   4.354940   4.992635
    20  H    2.586707   2.156562   1.101944   2.164434   3.388040
    21  H    4.627008   3.464327   2.182011   1.100553   2.178474
    22  H    5.354834   3.911034   3.408748   2.197312   1.099854
    23  H    6.396091   5.405541   6.253123   6.071290   4.937735
    24  H    6.617906   6.070126   7.226901   7.405547   6.449108
    25  H    6.395212   6.417460   7.779854   8.377846   7.753753
    26  H    4.652874   5.108642   6.478998   7.417155   7.218535
                    6          7          8          9         10
     6  C    0.000000
     7  F    1.346615   0.000000
     8  C    1.437648   2.424266   0.000000
     9  C    2.568913   2.975843   1.494532   0.000000
    10  C    3.102054   2.903420   2.613847   1.449955   0.000000
    11  O    2.885771   2.358688   3.013314   2.426945   1.354256
    12  C    4.479584   4.146486   3.887034   2.502681   1.412959
    13  C    5.314798   5.217439   4.397505   2.913145   2.448102
    14  C    5.078987   5.330807   3.882019   2.516547   2.791077
    15  C    3.895860   4.399080   2.587140   1.433404   2.366086
    16  F    4.397071   5.209052   2.971253   2.410526   3.594735
    17  H    4.044567   4.883135   2.818440   3.004444   4.355475
    18  H    4.299171   5.376344   3.408137   4.224091   5.629939
    19  H    4.551413   5.681070   3.308345   3.713908   5.150400
    20  H    3.829785   5.125445   3.461159   4.750925   6.045227
    21  H    3.418685   4.477877   3.992546   5.459332   6.350747
    22  H    2.145208   2.492699   3.472891   4.692007   5.043138
    23  H    3.787242   3.042778   3.961848   3.229902   1.899011
    24  H    5.109678   4.525889   4.756251   3.482212   2.163725
    25  H    6.382084   6.195461   5.491130   4.011120   3.447140
    26  H    6.013902   6.367163   4.722176   3.479653   3.882770
                   11         12         13         14         15
    11  O    0.000000
    12  C    2.373519   0.000000
    13  C    3.646403   1.396537   0.000000
    14  C    4.109907   2.398766   1.399731   0.000000
    15  C    3.587955   2.740767   2.411766   1.398681   0.000000
    16  F    4.678950   4.064774   3.593083   2.311342   1.349414
    17  H    5.344308   5.015670   4.740886   3.685767   2.705915
    18  H    6.357725   6.532593   6.424050   5.368577   4.222345
    19  H    6.009426   5.932269   5.632928   4.393050   3.279724
    20  H    6.344024   7.251878   7.470914   6.531799   5.168436
    21  H    6.108349   7.738804   8.372003   7.768392   6.388049
    22  H    4.405587   6.416548   7.386032   7.208412   6.002696
    23  H    0.976334   2.347426   3.725935   4.484217   4.234227
    24  H    2.588569   1.103435   2.175491   3.405061   3.840557
    25  H    4.534450   2.175118   1.100168   2.180222   3.418473
    26  H    5.188647   3.413688   2.198155   1.098992   2.147488
                   16         17         18         19         20
    16  F    0.000000
    17  H    2.329990   0.000000
    18  H    3.594335   1.783126   0.000000
    19  H    2.227294   1.787829   1.785163   0.000000
    20  H    4.568559   3.629417   2.309138   2.903689   0.000000
    21  H    6.194571   5.490424   4.511250   5.130303   2.510152
    22  H    6.358548   5.832995   5.548392   6.090437   4.320536
    23  H    5.415665   6.151396   7.260384   6.895293   7.316731
    24  H    5.156297   6.069414   7.557521   7.017165   8.188405
    25  H    4.484272   5.633239   7.366870   6.550400   8.527718
    26  H    2.493442   3.966811   5.635322   4.496656   6.973221
                   21         22         23         24         25
    21  H    0.000000
    22  H    2.560094   0.000000
    23  H    7.012334   5.146508   0.000000
    24  H    8.449585   6.866779   2.121472   0.000000
    25  H    9.470274   8.434542   4.433583   2.520070   0.000000
    26  H    8.464865   8.137391   5.551275   4.340422   2.561595
                   26
    26  H    0.000000
 Stoichiometry    C13H10F2O
 Framework group  C1[X(C13H10F2O)]
 Deg. of freedom    72
 Full point group                 C1      NOp   1
 Largest Abelian subgroup         C1      NOp   1
 Largest concise Abelian subgroup C1      NOp   1
                         Standard orientation:                         
 ---------------------------------------------------------------------
 Center     Atomic      Atomic             Coordinates (Angstroms)
 Number     Number       Type             X           Y           Z
 ---------------------------------------------------------------------
      1          6           0        1.185971    2.530336    0.664434
      2          6           0        1.592772    1.179587    0.097979
      3          6           0        2.968359    1.073282   -0.200247
      4          6           0        3.608670   -0.154549   -0.401708
      5          6           0        2.879438   -1.317006   -0.136006
      6          6           0        1.517117   -1.215578    0.162674
      7          9           0        0.972819   -2.331561    0.683916
      8          6           0        0.752938   -0.003652    0.043952
      9          6           0       -0.740064   -0.003254   -0.023657
     10          6           0       -1.572065   -1.186982   -0.118176
     11          8           0       -1.037131   -2.353696   -0.550190
     12          6           0       -2.961808   -1.144574    0.133357
     13          6           0       -3.638833    0.070732    0.255758
     14          6           0       -2.920433    1.251883    0.036597
     15          6           0       -1.538669    1.178355   -0.167445
     16          9           0       -0.975764    2.324546   -0.603681
     17          1           0        0.309833    2.462395    1.334640
     18          1           0        2.035720    2.905932    1.270406
     19          1           0        0.966309    3.294436   -0.105179
     20          1           0        3.563824    2.000472   -0.205114
     21          1           0        4.679317   -0.203390   -0.651803
     22          1           0        3.343698   -2.312797   -0.085584
     23          1           0       -1.733486   -3.037111   -0.514670
     24          1           0       -3.515640   -2.098775    0.151737
     25          1           0       -4.722874    0.094192    0.441971
     26          1           0       -3.403515    2.235868   -0.042065
 ---------------------------------------------------------------------
 Rotational constants (GHZ):           0.8467269           0.4749643           0.3175608
 Standard basis: def2SVP (5D, 7F)
 There are   290 symmetry adapted cartesian basis functions of A   symmetry.
 There are   274 symmetry adapted basis functions of A   symmetry.
   274 basis functions,   470 primitive gaussians,   290 cartesian basis functions
    57 alpha electrons       57 beta electrons
       nuclear repulsion energy      1071.6647150953 Hartrees.
 NAtoms=   26 NActive=   26 NUniq=   26 SFac= 1.00D+00 NAtFMM=   60 NAOKFM=F Big=F
 Integral buffers will be    131072 words long.
 Raffenetti 2 integral format.
 Two-electron integral symmetry is turned on.
 Nuclear repulsion after empirical dispersion term =     1071.6132285921 Hartrees.
 One-electron integrals computed using PRISM.
   1 Symmetry operations used in ECPInt.
 ECPInt:  NShTT=    8001 NPrTT=   29641 LenC2=    7594 LenP2D=   20271.
 LDataN:  DoStor=T MaxTD1= 4 Len=   56
 NBasis=   274 RedAO= T EigKep=  3.51D-04  NBF=   274
 NBsUse=   274 1.00D-06 EigRej= -1.00D+00 NBFU=   274
 Initial guess from the checkpoint file:  "/scratch/gaussian_tmp/Gau-230055.chk"
 B after Tr=     0.000000    0.000000    0.000000
         Rot=    1.000000    0.000005    0.000294   -0.000309 Ang=   0.05 deg.
 ExpMin= 1.22D-01 ExpMax= 2.89D+03 ExpMxC= 4.35D+02 IAcc=3 IRadAn=         5 AccDes= 0.00D+00
 Harris functional with IExCor=  404 and IRadAn=       5 diagonalized for initial guess.
 HarFok:  IExCor=  404 AccDes= 0.00D+00 IRadAn=         5 IDoV= 1 UseB2=F ITyADJ=14
 ICtDFT=  3500011 ScaDFX=  1.000000  1.000000  1.000000  1.000000
 FoFCou: FMM=F IPFlag=           0 FMFlag=      100000 FMFlg1=           0
         NFxFlg=           0 DoJE=T BraDBF=F KetDBF=T FulRan=T
         wScrn=  0.000000 ICntrl=       500 IOpCl=  0 I1Cent=   200000004 NGrid=           0
         NMat0=    1 NMatS0=      1 NMatT0=    0 NMatD0=    1 NMtDS0=    0 NMtDT0=    0
 Petite list used in FoFCou.
 Requested convergence on RMS density matrix=1.00D-08 within 128 cycles.
 Requested convergence on MAX density matrix=1.00D-06.
 Requested convergence on             energy=1.00D-06.
 No special actions if energy rises.
 Integral accuracy reduced to 1.0D-05 until final iterations.
 Initial convergence to 1.0D-05 achieved.  Increase integral accuracy.
 SCF Done:  E(RB-P86) =  -775.744449102     A.U. after   13 cycles
            NFock= 13  Conv=0.47D-08     -V/T= 2.0104
 DoSCS=F DFT=T ScalE2(SS,OS)=  1.000000  1.000000
 Range of M.O.s used for correlation:     1   274
 NBasis=   274 NAE=    57 NBE=    57 NFC=     0 NFV=     0
 NROrb=    274 NOA=    57 NOB=    57 NVA=   217 NVB=   217
 Symmetrizing basis deriv contribution to polar:
 IMax=3 JMax=2 DiffMx= 0.00D+00
   1 Symmetry operations used in ECPInt.
 ECPInt:  NShTT=    8001 NPrTT=   29641 LenC2=    7594 LenP2D=   20271.
 LDataN:  DoStor=T MaxTD1= 5 Len=  102
 Calling FoFJK, ICntrl=      2527 FMM=F ISym2X=0 I1Cent= 0 IOpClX= 0 NMat=1 NMatS=1 NMatT=0.
 ***** Axes restored to original set *****
 -------------------------------------------------------------------
 Center     Atomic                   Forces (Hartrees/Bohr)
 Number     Number              X              Y              Z
 -------------------------------------------------------------------
      1        6          -0.000396039   -0.000235459   -0.000003968
      2        6          -0.000097513   -0.000075268   -0.000321729
      3        6          -0.000049438    0.000145997   -0.000337581
      4        6           0.000033409    0.000082128    0.000059828
      5        6          -0.000085977   -0.000063256   -0.000189242
      6        6          -0.000119742    0.000153224    0.000151252
      7        9          -0.001072904   -0.000107338   -0.000679151
      8        6          -0.000089092   -0.000200160    0.001210452
      9        6          -0.000245181   -0.000263522   -0.000761100
     10        6           0.000150515    0.000489986   -0.000040630
     11        8           0.001315183   -0.000393712    0.000778691
     12        6           0.000147774   -0.000058356    0.000290034
     13        6          -0.000014850    0.000079310   -0.000073458
     14        6          -0.000049204    0.000036447   -0.000031885
     15        6           0.000089384   -0.000075556    0.000021370
     16        9           0.001000014    0.000430598    0.000412316
     17        1          -0.000207161   -0.000028674   -0.000184374
     18        1          -0.000117502   -0.000011326    0.000064041
     19        1          -0.000151024    0.000049475   -0.000221166
     20        1           0.000004558    0.000017541    0.000022222
     21        1          -0.000009479   -0.000001393   -0.000035462
     22        1          -0.000015970   -0.000010296   -0.000005637
     23        1          -0.000044926    0.000045114   -0.000250004
     24        1           0.000023928   -0.000012680    0.000085651
     25        1          -0.000003909   -0.000002342   -0.000018906
     26        1           0.000005146    0.000009520    0.000058436
 -------------------------------------------------------------------
 Cartesian Forces:  Max     0.001315183 RMS     0.000338475

 GradGradGradGradGradGradGradGradGradGradGradGradGradGradGradGradGradGrad
 Berny optimization.
 FormGI is forming the generalized inverse of G from B-inverse, IUseBI=4.
 Internal  Forces:  Max     0.002381779 RMS     0.000554407
 Search for a saddle point.
 Step number   6 out of a maximum of  140
 All quantities printed in internal units (Hartrees-Bohrs-Radians)
 Swapping is turned off.
 Update second derivatives using D2CorX and points    1    2    3    4    5
                                                      6
 ITU=  0  0  0  0  0  0
     Eigenvalues ---   -0.02880   0.00386   0.00515   0.01163   0.01405
     Eigenvalues ---    0.01521   0.01579   0.01585   0.01593   0.01695
     Eigenvalues ---    0.01788   0.02024   0.02089   0.02219   0.02383
     Eigenvalues ---    0.02642   0.02792   0.02913   0.03013   0.03431
     Eigenvalues ---    0.03714   0.05230   0.05504   0.09872   0.09950
     Eigenvalues ---    0.10795   0.10841   0.10960   0.11445   0.11558
     Eigenvalues ---    0.12983   0.13343   0.14628   0.15370   0.16201
     Eigenvalues ---    0.16966   0.17306   0.17473   0.17731   0.18014
     Eigenvalues ---    0.19456   0.20085   0.21726   0.24865   0.26563
     Eigenvalues ---    0.27108   0.28753   0.30676   0.32269   0.32733
     Eigenvalues ---    0.33161   0.33511   0.33674   0.34079   0.34191
     Eigenvalues ---    0.34452   0.34582   0.34684   0.34970   0.36647
     Eigenvalues ---    0.39439   0.41691   0.42943   0.44617   0.46250
     Eigenvalues ---    0.46672   0.46896   0.49228   0.49316   0.49659
     Eigenvalues ---    0.66465   1.66705
 Eigenvectors required to have negative eigenvalues:
                          D32       D31       D34       D33       D4
   1                   -0.48253  -0.47696  -0.43027  -0.42469   0.12531
                          D6        D2        A25       A26       A24
   1                    0.11816   0.11790  -0.11709   0.11397  -0.10966
 RFO step:  Lambda0=3.616576519D-07 Lambda=-1.28011885D-04.
 Linear search not attempted -- option 19 set.
 Iteration  1 RMS(Cart)=  0.01777051 RMS(Int)=  0.00015718
 Iteration  2 RMS(Cart)=  0.00022199 RMS(Int)=  0.00001118
 Iteration  3 RMS(Cart)=  0.00000008 RMS(Int)=  0.00001118
 Variable       Old X    -DE/DX   Delta X   Delta X   Delta X     New X
                                 (Linear)    (Quad)   (Total)
    R1        2.87268  -0.00012   0.00000  -0.00006  -0.00006   2.87262
    R2        2.08848   0.00005   0.00000  -0.00111  -0.00111   2.08737
    R3        2.09610  -0.00006   0.00000   0.00025   0.00025   2.09635
    R4        2.09104   0.00022   0.00000   0.00078   0.00078   2.09182
    R5        2.66745  -0.00005   0.00000  -0.00046  -0.00046   2.66699
    R6        2.74388  -0.00124   0.00000  -0.00135  -0.00135   2.74253
    R7        2.64437   0.00044   0.00000   0.00056   0.00056   2.64493
    R8        2.08237   0.00002   0.00000   0.00011   0.00011   2.08248
    R9        2.64135   0.00060   0.00000   0.00071   0.00070   2.64205
   R10        2.07974  -0.00000   0.00000   0.00003   0.00003   2.07977
   R11        2.64252   0.00002   0.00000   0.00006   0.00006   2.64258
   R12        2.07842   0.00000   0.00000   0.00002   0.00002   2.07844
   R13        2.54473   0.00027   0.00000  -0.00040  -0.00040   2.54433
   R14        2.71676  -0.00119   0.00000  -0.00151  -0.00150   2.71526
   R15        2.82426  -0.00238   0.00000  -0.00176  -0.00176   2.82250
   R16        2.74002  -0.00155   0.00000  -0.00201  -0.00201   2.73801
   R17        2.70874  -0.00075   0.00000  -0.00101  -0.00101   2.70773
   R18        2.55917   0.00061   0.00000   0.00128   0.00128   2.56045
   R19        2.67011  -0.00006   0.00000  -0.00037  -0.00037   2.66973
   R20        1.84500  -0.00001   0.00000  -0.00003  -0.00003   1.84498
   R21        2.63907   0.00058   0.00000   0.00025   0.00026   2.63933
   R22        2.08519   0.00000   0.00000  -0.00003  -0.00003   2.08516
   R23        2.64511   0.00047   0.00000  -0.00015  -0.00015   2.64496
   R24        2.07902   0.00000   0.00000   0.00001   0.00001   2.07903
   R25        2.64312   0.00000   0.00000   0.00015   0.00015   2.64327
   R26        2.07679   0.00000   0.00000  -0.00004  -0.00004   2.07675
   R27        2.55002   0.00066   0.00000   0.00063   0.00063   2.55065
    A1        1.96437  -0.00013   0.00000   0.00183   0.00183   1.96620
    A2        1.87491   0.00021   0.00000  -0.00058  -0.00058   1.87433
    A3        1.99055  -0.00017   0.00000  -0.00210  -0.00210   1.98845
    A4        1.87218   0.00006   0.00000  -0.00004  -0.00004   1.87214
    A5        1.88269  -0.00004   0.00000   0.00034   0.00034   1.88303
    A6        1.87362   0.00010   0.00000   0.00061   0.00060   1.87423
    A7        1.98934   0.00159   0.00000   0.00217   0.00216   1.99150
    A8        2.19343  -0.00123   0.00000  -0.00171  -0.00172   2.19170
    A9        2.08798  -0.00034   0.00000  -0.00062  -0.00061   2.08737
   A10        2.14411  -0.00043   0.00000  -0.00124  -0.00123   2.14288
   A11        2.05350   0.00019   0.00000   0.00056   0.00056   2.05406
   A12        2.08333   0.00024   0.00000   0.00056   0.00055   2.08388
   A13        2.05289   0.00030   0.00000   0.00109   0.00108   2.05398
   A14        2.11391  -0.00013   0.00000  -0.00027  -0.00026   2.11364
   A15        2.11044  -0.00014   0.00000  -0.00066  -0.00066   2.10979
   A16        2.08123  -0.00023   0.00000  -0.00038  -0.00038   2.08085
   A17        2.14298   0.00015   0.00000  -0.00001  -0.00001   2.14297
   A18        2.05681   0.00008   0.00000   0.00049   0.00049   2.05730
   A19        2.00022   0.00135   0.00000   0.00345   0.00344   2.00366
   A20        2.16682  -0.00062   0.00000  -0.00159  -0.00157   2.16525
   A21        2.11266  -0.00070   0.00000  -0.00154  -0.00155   2.11110
   A22        1.95675   0.00150   0.00000   0.00223   0.00220   1.95894
   A23        2.18863  -0.00080   0.00000   0.00043   0.00036   2.18899
   A24        2.13526  -0.00068   0.00000  -0.00131  -0.00139   2.13387
   A25        2.18457  -0.00121   0.00000  -0.00498  -0.00497   2.17960
   A26        2.16678  -0.00040   0.00000   0.00135   0.00136   2.16814
   A27        1.92490   0.00163   0.00000   0.00343   0.00341   1.92831
   A28        2.09148  -0.00097   0.00000  -0.00039  -0.00038   2.09109
   A29        2.12737  -0.00055   0.00000   0.00009   0.00007   2.12744
   A30        2.06140   0.00154   0.00000   0.00052   0.00052   2.06192
   A31        1.88569   0.00004   0.00000  -0.00196  -0.00196   1.88372
   A32        2.11594  -0.00025   0.00000  -0.00009  -0.00009   2.11585
   A33        2.06086   0.00010   0.00000   0.00001   0.00002   2.06088
   A34        2.10337   0.00016   0.00000   0.00021   0.00021   2.10358
   A35        2.06213   0.00033   0.00000   0.00086   0.00085   2.06297
   A36        2.10723  -0.00015   0.00000  -0.00034  -0.00034   2.10689
   A37        2.11090  -0.00015   0.00000  -0.00022  -0.00022   2.11068
   A38        2.07775  -0.00032   0.00000   0.00013   0.00011   2.07786
   A39        2.14259   0.00018   0.00000   0.00017   0.00017   2.14276
   A40        2.06108   0.00015   0.00000   0.00008   0.00008   2.06116
   A41        2.18842  -0.00068   0.00000  -0.00008  -0.00010   2.18832
   A42        2.09464  -0.00049   0.00000   0.00039   0.00039   2.09503
   A43        1.99831   0.00118   0.00000  -0.00006  -0.00005   1.99826
    D1       -2.64076  -0.00028   0.00000  -0.02481  -0.02481  -2.66558
    D2        0.33021  -0.00015   0.00000  -0.02595  -0.02595   0.30426
    D3       -0.58385  -0.00015   0.00000  -0.02418  -0.02418  -0.60803
    D4        2.38712  -0.00002   0.00000  -0.02532  -0.02532   2.36180
    D5        1.49026   0.00001   0.00000  -0.02509  -0.02509   1.46518
    D6       -1.82195   0.00014   0.00000  -0.02623  -0.02622  -1.84817
    D7        2.85048   0.00031   0.00000  -0.00297  -0.00297   2.84751
    D8       -0.21850   0.00020   0.00000  -0.00110  -0.00110  -0.21960
    D9       -0.13176   0.00030   0.00000  -0.00177  -0.00177  -0.13353
   D10        3.08245   0.00019   0.00000   0.00010   0.00010   3.08255
   D11       -2.59004  -0.00057   0.00000   0.00326   0.00325  -2.58679
   D12        0.47611  -0.00023   0.00000   0.02311   0.02313   0.49924
   D13        0.37211  -0.00027   0.00000   0.00230   0.00230   0.37441
   D14       -2.84492   0.00007   0.00000   0.02215   0.02217  -2.82275
   D15       -0.13640   0.00021   0.00000   0.00084   0.00084  -0.13556
   D16        3.12108  -0.00011   0.00000  -0.00071  -0.00071   3.12037
   D17        2.93139   0.00032   0.00000  -0.00106  -0.00106   2.93033
   D18       -0.09431   0.00000   0.00000  -0.00261  -0.00261  -0.09692
   D19        0.12870  -0.00029   0.00000   0.00007   0.00007   0.12877
   D20       -2.94071  -0.00040   0.00000  -0.00160  -0.00160  -2.94231
   D21       -3.12854   0.00004   0.00000   0.00165   0.00165  -3.12689
   D22        0.08523  -0.00007   0.00000  -0.00003  -0.00003   0.08520
   D23       -2.90004  -0.00052   0.00000  -0.00415  -0.00415  -2.90419
   D24        0.15238  -0.00017   0.00000  -0.00009  -0.00008   0.15230
   D25        0.17293  -0.00041   0.00000  -0.00258  -0.00258   0.17035
   D26       -3.05783  -0.00006   0.00000   0.00149   0.00149  -3.05634
   D27       -0.39469   0.00027   0.00000  -0.00125  -0.00125  -0.39594
   D28        2.81968  -0.00005   0.00000  -0.02049  -0.02048   2.79920
   D29        2.65226   0.00074   0.00000   0.00330   0.00330   2.65555
   D30       -0.41656   0.00042   0.00000  -0.01594  -0.01594  -0.43249
   D31        3.10717   0.00006   0.00000  -0.01896  -0.01895   3.08822
   D32        0.10426  -0.00022   0.00000  -0.01723  -0.01723   0.08703
   D33       -0.11716   0.00051   0.00000   0.00297   0.00296  -0.11420
   D34       -3.12008   0.00023   0.00000   0.00470   0.00468  -3.11539
   D35       -0.34685   0.00040   0.00000   0.01399   0.01399  -0.33287
   D36        2.87870   0.00006   0.00000   0.01091   0.01091   2.88961
   D37        2.67246   0.00054   0.00000   0.01243   0.01243   2.68489
   D38       -0.38516   0.00020   0.00000   0.00935   0.00935  -0.37581
   D39       -2.90085  -0.00018   0.00000  -0.01572  -0.01573  -2.91657
   D40        0.30911  -0.00040   0.00000  -0.02044  -0.02044   0.28867
   D41        0.36152  -0.00025   0.00000  -0.01364  -0.01364   0.34788
   D42       -2.71171  -0.00047   0.00000  -0.01835  -0.01836  -2.73006
   D43        3.10500   0.00011   0.00000   0.03266   0.03266   3.13765
   D44       -0.11741   0.00034   0.00000   0.03560   0.03560  -0.08181
   D45        0.19730  -0.00019   0.00000  -0.00040  -0.00040   0.19690
   D46       -3.02724  -0.00006   0.00000   0.00150   0.00150  -3.02574
   D47       -2.86172  -0.00041   0.00000  -0.00339  -0.00338  -2.86511
   D48        0.19693  -0.00027   0.00000  -0.00149  -0.00149   0.19544
   D49        0.07102  -0.00026   0.00000  -0.00646  -0.00646   0.06456
   D50        3.13120   0.00007   0.00000  -0.00233  -0.00233   3.12886
   D51       -2.98562  -0.00040   0.00000  -0.00839  -0.00839  -2.99401
   D52        0.07456  -0.00007   0.00000  -0.00427  -0.00427   0.07029
   D53       -0.10555   0.00026   0.00000   0.00281   0.00281  -0.10274
   D54        2.97087   0.00040   0.00000   0.00978   0.00977   2.98065
   D55        3.11763  -0.00006   0.00000  -0.00132  -0.00132   3.11632
   D56       -0.08912   0.00008   0.00000   0.00565   0.00565  -0.08348
   D57       -0.13187   0.00025   0.00000   0.00838   0.00837  -0.12349
   D58        2.94468   0.00041   0.00000   0.01288   0.01288   2.95755
   D59        3.07184   0.00012   0.00000   0.00174   0.00173   3.07357
   D60       -0.13480   0.00028   0.00000   0.00624   0.00624  -0.12857
         Item               Value     Threshold  Converged?
 Maximum Force            0.002382     0.000450     NO 
 RMS     Force            0.000554     0.000300     NO 
 Maximum Displacement     0.072680     0.001800     NO 
 RMS     Displacement     0.017819     0.001200     NO 
 Predicted change in Energy=-6.452910D-05
 GradGradGradGradGradGradGradGradGradGradGradGradGradGradGradGradGradGrad

                          Input orientation:                          
 ---------------------------------------------------------------------
 Center     Atomic      Atomic             Coordinates (Angstroms)
 Number     Number       Type             X           Y           Z
 ---------------------------------------------------------------------
      1          6           0        1.273536    2.510469    0.587026
      2          6           0        1.631626    1.137576    0.041392
      3          6           0        2.997201    0.983218   -0.279815
      4          6           0        3.595598   -0.268640   -0.463527
      5          6           0        2.836939   -1.402434   -0.157481
      6          6           0        1.484069   -1.252535    0.163105
      7          9           0        0.910944   -2.338312    0.715748
      8          6           0        0.757006   -0.020487    0.028988
      9          6           0       -0.734494    0.021855   -0.037985
     10          6           0       -1.593938   -1.142193   -0.113066
     11          8           0       -1.082853   -2.332290   -0.510938
     12          6           0       -2.984030   -1.060296    0.125328
     13          6           0       -3.631881    0.173780    0.214990
     14          6           0       -2.881958    1.332790   -0.015962
     15          6           0       -1.500102    1.221847   -0.202231
     16          9           0       -0.901605    2.350968   -0.636630
     17          1           0        0.393480    2.486883    1.254153
     18          1           0        2.135075    2.862343    1.190827
     19          1           0        1.086296    3.270025   -0.196132
     20          1           0        3.620470    1.891299   -0.316346
     21          1           0        4.659045   -0.356395   -0.733026
     22          1           0        3.271914   -2.410607   -0.093565
     23          1           0       -1.804465   -2.989726   -0.494914
     24          1           0       -3.561001   -2.000144    0.161741
     25          1           0       -4.716872    0.227536    0.389022
     26          1           0       -3.338780    2.327779   -0.111061
 ---------------------------------------------------------------------
                    Distance matrix (angstroms):
                    1          2          3          4          5
     1  C    0.000000
     2  C    1.520125   0.000000
     3  C    2.460676   1.411309   0.000000
     4  C    3.770819   2.467706   1.399635   0.000000
     5  C    4.278940   2.818507   2.394156   1.398112   0.000000
     6  C    3.792654   2.397753   2.735752   2.412317   1.398393
     7  F    4.864023   3.613300   4.046749   3.589095   2.312543
     8  C    2.642715   1.451284   2.474117   2.891671   2.504131
     9  C    3.258223   2.617185   3.861120   4.360639   3.846819
    10  C    4.696218   3.952906   5.061988   5.274201   4.438735
    11  O    5.496400   4.439982   5.262400   5.113591   4.044050
    12  C    5.575876   5.112921   6.333657   6.653193   5.837869
    13  C    5.446250   5.353835   6.696622   7.272728   6.668495
    14  C    4.361038   4.518168   5.895450   6.687573   6.340920
    15  C    3.158566   3.142319   4.504297   5.315636   5.069396
    16  F    2.500802   2.889514   4.147136   5.207412   5.319241
    17  H    1.104588   2.196457   3.375415   4.560361   4.805204
    18  H    1.109343   2.132952   2.537155   3.830544   4.527568
    19  H    1.106942   2.213852   2.981282   4.346291   4.989801
    20  H    2.589894   2.156751   1.102003   2.165090   3.389371
    21  H    4.628511   3.463660   2.182130   1.100568   2.178421
    22  H    5.354783   3.911312   3.410016   2.197651   1.099865
    23  H    6.395062   5.397125   6.235907   6.046981   4.916908
    24  H    6.625651   6.068208   7.218409   7.389586   6.433724
    25  H    6.413734   6.422807   7.779802   8.370794   7.746969
    26  H    4.668421   5.113194   6.479272   7.412909   7.214995
                    6          7          8          9         10
     6  C    0.000000
     7  F    1.346402   0.000000
     8  C    1.436855   2.422324   0.000000
     9  C    2.566424   2.974217   1.493603   0.000000
    10  C    3.092341   2.896906   2.608704   1.448892   0.000000
    11  O    2.865187   2.340944   3.003504   2.426323   1.354933
    12  C    4.472392   4.141587   3.884048   2.501626   1.412762
    13  C    5.311310   5.215230   4.397120   2.912375   2.447982
    14  C    5.077220   5.329024   3.882710   2.516076   2.791767
    15  C    3.893753   4.396653   2.586772   1.432869   2.367581
    16  F    4.395026   5.206112   2.969484   2.410616   3.599391
    17  H    4.045122   4.882638   2.814264   3.003049   4.357672
    18  H    4.290949   5.363862   3.399949   4.220519   5.625121
    19  H    4.554209   5.684692   3.314601   3.727049   5.163159
    20  H    3.831158   5.127998   3.460291   4.747422   6.036012
    21  H    3.418566   4.480536   3.989914   5.451277   6.332584
    22  H    2.145554   2.496877   3.471665   4.687352   5.028495
    23  H    3.776940   3.043597   3.956259   3.228505   1.898291
    24  H    5.100163   4.518802   4.752036   3.481022   2.163548
    25  H    6.379132   6.193758   5.491309   4.010483   3.446878
    26  H    6.012794   6.365231   4.723285   3.479214   3.883965
                   11         12         13         14         15
    11  O    0.000000
    12  C    2.374295   0.000000
    13  C    3.647588   1.396672   0.000000
    14  C    4.112736   2.399425   1.399653   0.000000
    15  C    3.591837   2.741809   2.411846   1.398761   0.000000
    16  F    4.688449   4.068635   3.594414   2.311648   1.349746
    17  H    5.340369   5.026360   4.757503   3.697786   2.703150
    18  H    6.343129   6.536637   6.437268   5.382054   4.224494
    19  H    6.015833   5.951686   5.658352   4.419546   3.299170
    20  H    6.324383   7.247511   7.471867   6.533279   5.165408
    21  H    6.076420   7.723266   8.361775   7.761074   6.380258
    22  H    4.375424   6.403756   7.378119   7.203415   5.998222
    23  H    0.976320   2.344946   3.721717   4.480460   4.232688
    24  H    2.589215   1.103420   2.175731   3.406043   3.842006
    25  H    4.535277   2.175038   1.100174   2.180025   3.418457
    26  H    5.192818   3.414789   2.198166   1.098969   2.147588
                   16         17         18         19         20
    16  F    0.000000
    17  H    2.295818   0.000000
    18  H    3.580856   1.782733   0.000000
    19  H    2.233933   1.787913   1.786000   0.000000
    20  H    4.556648   3.637947   2.328282   2.887451   0.000000
    21  H    6.185462   5.498014   4.520167   5.118957   2.510855
    22  H    6.354980   5.838419   5.544914   6.087449   4.321750
    23  H    5.418325   6.154952   7.253165   6.901467   7.299740
    24  H    5.161585   6.079860   7.559636   7.035633   8.182019
    25  H    4.485219   5.654096   7.384733   6.578443   8.530940
    26  H    2.493307   3.977296   5.651881   4.525081   6.975945
                   21         22         23         24         25
    21  H    0.000000
    22  H    2.559850   0.000000
    23  H    6.983415   5.125044   0.000000
    24  H    8.430403   6.849992   2.120351   0.000000
    25  H    9.460856   8.426945   4.428796   2.519971   0.000000
    26  H    8.459127   8.133504   5.547731   4.342203   2.561297
                   26
    26  H    0.000000
 Stoichiometry    C13H10F2O
 Framework group  C1[X(C13H10F2O)]
 Deg. of freedom    72
 Full point group                 C1      NOp   1
 Largest Abelian subgroup         C1      NOp   1
 Largest concise Abelian subgroup C1      NOp   1
                         Standard orientation:                         
 ---------------------------------------------------------------------
 Center     Atomic      Atomic             Coordinates (Angstroms)
 Number     Number       Type             X           Y           Z
 ---------------------------------------------------------------------
      1          6           0        1.193371    2.531632    0.666750
      2          6           0        1.592631    1.180048    0.097021
      3          6           0        2.963430    1.070490   -0.220310
      4          6           0        3.597878   -0.160231   -0.424712
      5          6           0        2.870330   -1.320636   -0.143908
      6          6           0        1.512359   -1.215163    0.172782
      7          9           0        0.967822   -2.327031    0.701959
      8          6           0        0.751255   -0.001824    0.058406
      9          6           0       -0.740536   -0.000382   -0.015106
     10          6           0       -1.566296   -1.186612   -0.116425
     11          8           0       -1.019936   -2.353998   -0.534209
     12          6           0       -2.959185   -1.148589    0.116619
     13          6           0       -3.642149    0.064754    0.226409
     14          6           0       -2.924378    1.248682    0.021117
     15          6           0       -1.539127    1.180404   -0.160401
     16          9           0       -0.970978    2.334056   -0.570412
     17          1           0        0.311415    2.470484    1.328965
     18          1           0        2.041928    2.896151    1.281338
     19          1           0        0.988115    3.300370   -0.102816
     20          1           0        3.560860    1.996353   -0.236589
     21          1           0        4.664559   -0.212750   -0.690577
     22          1           0        3.333426   -2.317148   -0.096926
     23          1           0       -1.722683   -3.031750   -0.534178
     24          1           0       -3.509435   -2.104890    0.132406
     25          1           0       -4.728982    0.084501    0.396075
     26          1           0       -3.408801    2.231995   -0.057398
 ---------------------------------------------------------------------
 Rotational constants (GHZ):           0.8462181           0.4763479           0.3179865
 Standard basis: def2SVP (5D, 7F)
 There are   290 symmetry adapted cartesian basis functions of A   symmetry.
 There are   274 symmetry adapted basis functions of A   symmetry.
   274 basis functions,   470 primitive gaussians,   290 cartesian basis functions
    57 alpha electrons       57 beta electrons
       nuclear repulsion energy      1072.2786880779 Hartrees.
 NAtoms=   26 NActive=   26 NUniq=   26 SFac= 1.00D+00 NAtFMM=   60 NAOKFM=F Big=F
 Integral buffers will be    131072 words long.
 Raffenetti 2 integral format.
 Two-electron integral symmetry is turned on.
 Nuclear repulsion after empirical dispersion term =     1072.2271764636 Hartrees.
 One-electron integrals computed using PRISM.
   1 Symmetry operations used in ECPInt.
 ECPInt:  NShTT=    8001 NPrTT=   29641 LenC2=    7597 LenP2D=   20277.
 LDataN:  DoStor=T MaxTD1= 4 Len=   56
 NBasis=   274 RedAO= T EigKep=  3.46D-04  NBF=   274
 NBsUse=   274 1.00D-06 EigRej= -1.00D+00 NBFU=   274
 Initial guess from the checkpoint file:  "/scratch/gaussian_tmp/Gau-230055.chk"
 B after Tr=    -0.000000   -0.000000   -0.000000
         Rot=    1.000000   -0.000033    0.000105    0.000048 Ang=  -0.01 deg.
 ExpMin= 1.22D-01 ExpMax= 2.89D+03 ExpMxC= 4.35D+02 IAcc=3 IRadAn=         5 AccDes= 0.00D+00
 Harris functional with IExCor=  404 and IRadAn=       5 diagonalized for initial guess.
 HarFok:  IExCor=  404 AccDes= 0.00D+00 IRadAn=         5 IDoV= 1 UseB2=F ITyADJ=14
 ICtDFT=  3500011 ScaDFX=  1.000000  1.000000  1.000000  1.000000
 FoFCou: FMM=F IPFlag=           0 FMFlag=      100000 FMFlg1=           0
         NFxFlg=           0 DoJE=T BraDBF=F KetDBF=T FulRan=T
         wScrn=  0.000000 ICntrl=       500 IOpCl=  0 I1Cent=   200000004 NGrid=           0
         NMat0=    1 NMatS0=      1 NMatT0=    0 NMatD0=    1 NMtDS0=    0 NMtDT0=    0
 Petite list used in FoFCou.
 Requested convergence on RMS density matrix=1.00D-08 within 128 cycles.
 Requested convergence on MAX density matrix=1.00D-06.
 Requested convergence on             energy=1.00D-06.
 No special actions if energy rises.
 Integral accuracy reduced to 1.0D-05 until final iterations.
 Initial convergence to 1.0D-05 achieved.  Increase integral accuracy.
 SCF Done:  E(RB-P86) =  -775.744507815     A.U. after   11 cycles
            NFock= 11  Conv=0.91D-08     -V/T= 2.0104
 DoSCS=F DFT=T ScalE2(SS,OS)=  1.000000  1.000000
 Range of M.O.s used for correlation:     1   274
 NBasis=   274 NAE=    57 NBE=    57 NFC=     0 NFV=     0
 NROrb=    274 NOA=    57 NOB=    57 NVA=   217 NVB=   217
 Symmetrizing basis deriv contribution to polar:
 IMax=3 JMax=2 DiffMx= 0.00D+00
   1 Symmetry operations used in ECPInt.
 ECPInt:  NShTT=    8001 NPrTT=   29641 LenC2=    7597 LenP2D=   20277.
 LDataN:  DoStor=T MaxTD1= 5 Len=  102
 Calling FoFJK, ICntrl=      2527 FMM=F ISym2X=0 I1Cent= 0 IOpClX= 0 NMat=1 NMatS=1 NMatT=0.
 ***** Axes restored to original set *****
 -------------------------------------------------------------------
 Center     Atomic                   Forces (Hartrees/Bohr)
 Number     Number              X              Y              Z
 -------------------------------------------------------------------
      1        6           0.000001338   -0.000012928    0.000049382
      2        6           0.000004272    0.000016696   -0.000118856
      3        6           0.000003468   -0.000026540   -0.000015913
      4        6          -0.000009752   -0.000000984    0.000003965
      5        6           0.000003414    0.000000790    0.000011312
      6        6           0.000027798   -0.000030234    0.000086380
      7        9           0.000216820    0.000009432    0.000080851
      8        6          -0.000025866    0.000076689    0.000098962
      9        6           0.000030530   -0.000019952   -0.000082951
     10        6          -0.000045611   -0.000101045   -0.000239585
     11        8          -0.000174315    0.000071503    0.000055159
     12        6          -0.000009472    0.000001376    0.000049458
     13        6          -0.000003629   -0.000001868   -0.000027163
     14        6           0.000008896    0.000007227    0.000072188
     15        6          -0.000011054    0.000001898    0.000133247
     16        9           0.000011099   -0.000024855   -0.000118332
     17        1           0.000004171   -0.000000607    0.000020585
     18        1           0.000012187    0.000013172   -0.000022482
     19        1          -0.000019710   -0.000007320    0.000017932
     20        1           0.000001543   -0.000001166    0.000008548
     21        1          -0.000000955    0.000000825   -0.000004402
     22        1           0.000006899    0.000004101    0.000005450
     23        1          -0.000025172    0.000026981   -0.000073907
     24        1          -0.000007428   -0.000000053    0.000003605
     25        1           0.000002655    0.000000496    0.000011540
     26        1          -0.000002125   -0.000003635   -0.000004973
 -------------------------------------------------------------------
 Cartesian Forces:  Max     0.000239585 RMS     0.000058220

 GradGradGradGradGradGradGradGradGradGradGradGradGradGradGradGradGradGrad
 Berny optimization.
 FormGI is forming the generalized inverse of G from B-inverse, IUseBI=4.
 Internal  Forces:  Max     0.000602339 RMS     0.000114161
 Search for a saddle point.
 Step number   7 out of a maximum of  140
 All quantities printed in internal units (Hartrees-Bohrs-Radians)
 Swapping is turned off.
 Update second derivatives using D2CorX and points    1    2    3    4    5
                                                      6    7
 ITU=  0  0  0  0  0  0  0
     Eigenvalues ---   -0.02909   0.00194   0.00436   0.01191   0.01460
     Eigenvalues ---    0.01514   0.01571   0.01584   0.01604   0.01683
     Eigenvalues ---    0.01824   0.02025   0.02100   0.02218   0.02400
     Eigenvalues ---    0.02630   0.02827   0.02911   0.03016   0.03385
     Eigenvalues ---    0.03777   0.05232   0.05505   0.09872   0.09952
     Eigenvalues ---    0.10796   0.10842   0.10960   0.11446   0.11558
     Eigenvalues ---    0.12996   0.13350   0.14629   0.15372   0.16204
     Eigenvalues ---    0.16967   0.17308   0.17478   0.17736   0.18016
     Eigenvalues ---    0.19458   0.20089   0.21741   0.24888   0.26563
     Eigenvalues ---    0.27111   0.28769   0.30683   0.32269   0.32733
     Eigenvalues ---    0.33161   0.33511   0.33675   0.34079   0.34194
     Eigenvalues ---    0.34452   0.34583   0.34684   0.34971   0.36648
     Eigenvalues ---    0.39439   0.41691   0.42946   0.44617   0.46251
     Eigenvalues ---    0.46678   0.46898   0.49254   0.49322   0.49661
     Eigenvalues ---    0.67854   1.67313
 Eigenvectors required to have negative eigenvalues:
                          D31       D32       D33       D34       A25
   1                    0.47136   0.46986   0.43123   0.42974   0.12323
                          D4        D44       A26       A24       D6
   1                   -0.11881   0.11869  -0.11681   0.11427  -0.11171
 RFO step:  Lambda0=1.243130895D-07 Lambda=-6.86010897D-06.
 Linear search not attempted -- option 19 set.
 Iteration  1 RMS(Cart)=  0.00452216 RMS(Int)=  0.00002224
 Iteration  2 RMS(Cart)=  0.00002639 RMS(Int)=  0.00000046
 Iteration  3 RMS(Cart)=  0.00000000 RMS(Int)=  0.00000046
 Variable       Old X    -DE/DX   Delta X   Delta X   Delta X     New X
                                 (Linear)    (Quad)   (Total)
    R1        2.87262   0.00002   0.00000   0.00024   0.00024   2.87286
    R2        2.08737   0.00001   0.00000  -0.00002  -0.00002   2.08735
    R3        2.09635   0.00000   0.00000   0.00006   0.00006   2.09641
    R4        2.09182  -0.00002   0.00000  -0.00002  -0.00002   2.09180
    R5        2.66699  -0.00001   0.00000  -0.00011  -0.00011   2.66688
    R6        2.74253   0.00003   0.00000   0.00011   0.00011   2.74263
    R7        2.64493  -0.00006   0.00000   0.00007   0.00007   2.64500
    R8        2.08248  -0.00000   0.00000   0.00004   0.00004   2.08252
    R9        2.64205  -0.00005   0.00000   0.00004   0.00003   2.64208
   R10        2.07977   0.00000   0.00000   0.00000   0.00000   2.07978
   R11        2.64258   0.00001   0.00000   0.00002   0.00002   2.64260
   R12        2.07844  -0.00000   0.00000  -0.00001  -0.00001   2.07843
   R13        2.54433  -0.00007   0.00000   0.00001   0.00001   2.54434
   R14        2.71526   0.00021   0.00000   0.00010   0.00010   2.71536
   R15        2.82250   0.00023   0.00000  -0.00006  -0.00006   2.82243
   R16        2.73801   0.00022   0.00000   0.00028   0.00028   2.73829
   R17        2.70773   0.00001   0.00000   0.00005   0.00005   2.70778
   R18        2.56045  -0.00016   0.00000  -0.00019  -0.00019   2.56026
   R19        2.66973   0.00004   0.00000   0.00016   0.00016   2.66989
   R20        1.84498  -0.00000   0.00000  -0.00003  -0.00003   1.84495
   R21        2.63933  -0.00004   0.00000  -0.00003  -0.00003   2.63930
   R22        2.08516   0.00000   0.00000   0.00000   0.00000   2.08517
   R23        2.64496  -0.00006   0.00000  -0.00002  -0.00002   2.64494
   R24        2.07903  -0.00000   0.00000  -0.00001  -0.00001   2.07902
   R25        2.64327  -0.00001   0.00000  -0.00007  -0.00007   2.64321
   R26        2.07675  -0.00000   0.00000  -0.00000  -0.00000   2.07675
   R27        2.55065   0.00002   0.00000   0.00009   0.00009   2.55074
    A1        1.96620   0.00000   0.00000   0.00004   0.00004   1.96624
    A2        1.87433  -0.00000   0.00000  -0.00032  -0.00032   1.87400
    A3        1.98845   0.00002   0.00000   0.00048   0.00048   1.98892
    A4        1.87214   0.00000   0.00000  -0.00003  -0.00003   1.87211
    A5        1.88303  -0.00001   0.00000   0.00000   0.00000   1.88303
    A6        1.87423  -0.00001   0.00000  -0.00021  -0.00021   1.87402
    A7        1.99150  -0.00002   0.00000   0.00031   0.00031   1.99181
    A8        2.19170  -0.00007   0.00000  -0.00061  -0.00061   2.19109
    A9        2.08737   0.00009   0.00000  -0.00024  -0.00024   2.08713
   A10        2.14288   0.00001   0.00000  -0.00006  -0.00006   2.14281
   A11        2.05406  -0.00001   0.00000  -0.00003  -0.00003   2.05403
   A12        2.08388  -0.00001   0.00000  -0.00003  -0.00003   2.08385
   A13        2.05398  -0.00003   0.00000   0.00002   0.00002   2.05400
   A14        2.11364   0.00001   0.00000  -0.00004  -0.00004   2.11360
   A15        2.10979   0.00001   0.00000  -0.00003  -0.00003   2.10976
   A16        2.08085   0.00005   0.00000  -0.00008  -0.00008   2.08076
   A17        2.14297  -0.00003   0.00000  -0.00007  -0.00007   2.14290
   A18        2.05730  -0.00002   0.00000   0.00020   0.00021   2.05751
   A19        2.00366  -0.00022   0.00000   0.00030   0.00030   2.00396
   A20        2.16525   0.00000   0.00000  -0.00010  -0.00010   2.16514
   A21        2.11110   0.00021   0.00000  -0.00017  -0.00017   2.11094
   A22        1.95894  -0.00015   0.00000  -0.00011  -0.00011   1.95883
   A23        2.18899  -0.00041   0.00000   0.00032   0.00032   2.18931
   A24        2.13387   0.00056   0.00000  -0.00010  -0.00010   2.13377
   A25        2.17960   0.00060   0.00000   0.00031   0.00030   2.17990
   A26        2.16814  -0.00044   0.00000  -0.00013  -0.00013   2.16801
   A27        1.92831  -0.00016   0.00000  -0.00026  -0.00025   1.92806
   A28        2.09109   0.00019   0.00000   0.00039   0.00039   2.09148
   A29        2.12744  -0.00000   0.00000  -0.00007  -0.00007   2.12736
   A30        2.06192  -0.00019   0.00000  -0.00012  -0.00012   2.06180
   A31        1.88372  -0.00002   0.00000  -0.00073  -0.00073   1.88299
   A32        2.11585   0.00004   0.00000   0.00020   0.00020   2.11605
   A33        2.06088  -0.00001   0.00000  -0.00006  -0.00006   2.06082
   A34        2.10358  -0.00003   0.00000  -0.00001  -0.00001   2.10357
   A35        2.06297  -0.00003   0.00000  -0.00004  -0.00004   2.06294
   A36        2.10689   0.00001   0.00000   0.00002   0.00002   2.10691
   A37        2.11068   0.00001   0.00000   0.00006   0.00006   2.11075
   A38        2.07786   0.00001   0.00000  -0.00013  -0.00013   2.07773
   A39        2.14276  -0.00001   0.00000   0.00000   0.00000   2.14276
   A40        2.06116  -0.00000   0.00000   0.00005   0.00005   2.06121
   A41        2.18832   0.00011   0.00000   0.00028   0.00028   2.18860
   A42        2.09503  -0.00009   0.00000  -0.00045  -0.00045   2.09458
   A43        1.99826  -0.00002   0.00000   0.00005   0.00005   1.99831
    D1       -2.66558   0.00002   0.00000  -0.00183  -0.00183  -2.66741
    D2        0.30426   0.00002   0.00000  -0.00545  -0.00545   0.29881
    D3       -0.60803   0.00002   0.00000  -0.00206  -0.00206  -0.61009
    D4        2.36180   0.00003   0.00000  -0.00567  -0.00567   2.35613
    D5        1.46518   0.00002   0.00000  -0.00225  -0.00225   1.46293
    D6       -1.84817   0.00002   0.00000  -0.00586  -0.00586  -1.85403
    D7        2.84751  -0.00004   0.00000  -0.00519  -0.00519   2.84231
    D8       -0.21960  -0.00003   0.00000  -0.00332  -0.00332  -0.22293
    D9       -0.13353  -0.00003   0.00000  -0.00177  -0.00177  -0.13529
   D10        3.08255  -0.00002   0.00000   0.00010   0.00010   3.08265
   D11       -2.58679   0.00005   0.00000   0.00576   0.00576  -2.58103
   D12        0.49924   0.00007   0.00000   0.00798   0.00798   0.50722
   D13        0.37441   0.00004   0.00000   0.00201   0.00201   0.37642
   D14       -2.82275   0.00006   0.00000   0.00423   0.00423  -2.81852
   D15       -0.13556  -0.00003   0.00000  -0.00002  -0.00002  -0.13558
   D16        3.12037   0.00001   0.00000   0.00046   0.00046   3.12083
   D17        2.93033  -0.00005   0.00000  -0.00192  -0.00192   2.92841
   D18       -0.09692  -0.00001   0.00000  -0.00144  -0.00144  -0.09837
   D19        0.12877   0.00003   0.00000   0.00140   0.00140   0.13017
   D20       -2.94231   0.00005   0.00000   0.00051   0.00051  -2.94180
   D21       -3.12689  -0.00001   0.00000   0.00092   0.00092  -3.12597
   D22        0.08520   0.00001   0.00000   0.00003   0.00003   0.08523
   D23       -2.90419   0.00007   0.00000  -0.00152  -0.00152  -2.90571
   D24        0.15230   0.00002   0.00000  -0.00106  -0.00106   0.15124
   D25        0.17035   0.00005   0.00000  -0.00068  -0.00068   0.16967
   D26       -3.05634   0.00000   0.00000  -0.00022  -0.00022  -3.05657
   D27       -0.39594  -0.00003   0.00000  -0.00066  -0.00066  -0.39660
   D28        2.79920  -0.00001   0.00000  -0.00282  -0.00282   2.79638
   D29        2.65555  -0.00010   0.00000  -0.00015  -0.00015   2.65540
   D30       -0.43249  -0.00009   0.00000  -0.00231  -0.00231  -0.43480
   D31        3.08822  -0.00014   0.00000  -0.00685  -0.00685   3.08137
   D32        0.08703  -0.00012   0.00000  -0.00607  -0.00607   0.08096
   D33       -0.11420  -0.00014   0.00000  -0.00442  -0.00442  -0.11862
   D34       -3.11539  -0.00013   0.00000  -0.00364  -0.00364  -3.11903
   D35       -0.33287  -0.00004   0.00000   0.00397   0.00397  -0.32889
   D36        2.88961  -0.00001   0.00000   0.00100   0.00100   2.89061
   D37        2.68489  -0.00008   0.00000   0.00329   0.00329   2.68818
   D38       -0.37581  -0.00005   0.00000   0.00032   0.00032  -0.37549
   D39       -2.91657   0.00011   0.00000   0.00018   0.00018  -2.91639
   D40        0.28867   0.00011   0.00000   0.00261   0.00261   0.29128
   D41        0.34788   0.00006   0.00000   0.00082   0.00082   0.34870
   D42       -2.73006   0.00007   0.00000   0.00325   0.00325  -2.72681
   D43        3.13765   0.00008   0.00000   0.01411   0.01411  -3.13142
   D44       -0.08181   0.00006   0.00000   0.01697   0.01697  -0.06484
   D45        0.19690   0.00004   0.00000  -0.00075  -0.00075   0.19615
   D46       -3.02574   0.00002   0.00000   0.00115   0.00115  -3.02460
   D47       -2.86511   0.00006   0.00000  -0.00370  -0.00370  -2.86880
   D48        0.19544   0.00003   0.00000  -0.00180  -0.00180   0.19364
   D49        0.06456   0.00002   0.00000   0.00022   0.00022   0.06478
   D50        3.12886  -0.00001   0.00000   0.00088   0.00088   3.12974
   D51       -2.99401   0.00004   0.00000  -0.00172  -0.00172  -2.99573
   D52        0.07029   0.00001   0.00000  -0.00106  -0.00106   0.06923
   D53       -0.10274  -0.00003   0.00000   0.00076   0.00076  -0.10198
   D54        2.98065  -0.00005   0.00000  -0.00089  -0.00089   2.97976
   D55        3.11632  -0.00001   0.00000   0.00010   0.00010   3.11642
   D56       -0.08348  -0.00002   0.00000  -0.00155  -0.00155  -0.08502
   D57       -0.12349  -0.00004   0.00000  -0.00138  -0.00138  -0.12487
   D58        2.95755  -0.00004   0.00000  -0.00371  -0.00371   2.95384
   D59        3.07357  -0.00002   0.00000   0.00019   0.00019   3.07376
   D60       -0.12857  -0.00003   0.00000  -0.00214  -0.00214  -0.13070
         Item               Value     Threshold  Converged?
 Maximum Force            0.000602     0.000450     NO 
 RMS     Force            0.000114     0.000300     YES
 Maximum Displacement     0.025487     0.001800     NO 
 RMS     Displacement     0.004525     0.001200     NO 
 Predicted change in Energy=-3.367896D-06
 GradGradGradGradGradGradGradGradGradGradGradGradGradGradGradGradGradGrad

                          Input orientation:                          
 ---------------------------------------------------------------------
 Center     Atomic      Atomic             Coordinates (Angstroms)
 Number     Number       Type             X           Y           Z
 ---------------------------------------------------------------------
      1          6           0        1.275598    2.511021    0.587448
      2          6           0        1.631465    1.138399    0.039337
      3          6           0        2.996024    0.983081   -0.285458
      4          6           0        3.594079   -0.269432   -0.466076
      5          6           0        2.836585   -1.402161   -0.153195
      6          6           0        1.484271   -1.251304    0.169338
      7          9           0        0.911859   -2.335112    0.726573
      8          6           0        0.756837   -0.019771    0.031945
      9          6           0       -0.734607    0.021746   -0.035992
     10          6           0       -1.593687   -1.142554   -0.114140
     11          8           0       -1.081417   -2.332815   -0.509649
     12          6           0       -2.984232   -1.061312    0.122322
     13          6           0       -3.632569    0.172356    0.213807
     14          6           0       -2.882654    1.332055   -0.013626
     15          6           0       -1.500698    1.221607   -0.199179
     16          9           0       -0.902508    2.350559   -0.634589
     17          1           0        0.396028    2.487606    1.255207
     18          1           0        2.138171    2.860395    1.191279
     19          1           0        1.089091    3.272516   -0.193984
     20          1           0        3.619355    1.890986   -0.325708
     21          1           0        4.656817   -0.358047   -0.738090
     22          1           0        3.272105   -2.409895   -0.086209
     23          1           0       -1.806477   -2.986618   -0.508401
     24          1           0       -3.560819   -2.001445    0.157546
     25          1           0       -4.717706    0.225433    0.387121
     26          1           0       -3.339688    2.327016   -0.107987
 ---------------------------------------------------------------------
                    Distance matrix (angstroms):
                    1          2          3          4          5
     1  C    0.000000
     2  C    1.520250   0.000000
     3  C    2.460982   1.411253   0.000000
     4  C    3.770437   2.467648   1.399673   0.000000
     5  C    4.277643   2.818480   2.394222   1.398130   0.000000
     6  C    3.791233   2.397758   2.735820   2.412284   1.398406
     7  F    4.861756   3.613226   4.047018   3.589395   2.312782
     8  C    2.642462   1.451340   2.473947   2.891418   2.504122
     9  C    3.259768   2.617420   3.860571   4.359735   3.846383
    10  C    4.698258   3.953215   5.060941   5.272487   4.438044
    11  O    5.497444   4.439644   5.260319   5.110745   4.042761
    12  C    5.578894   5.113734   6.333189   6.651877   5.837293
    13  C    5.449685   5.354786   6.696625   7.271992   6.668114
    14  C    4.363750   4.518582   5.895297   6.687118   6.340750
    15  C    3.160567   3.142333   4.503870   5.315184   5.069348
    16  F    2.502652   2.888690   4.146136   5.206923   5.319348
    17  H    1.104579   2.196589   3.375977   4.559782   4.803145
    18  H    1.109372   2.132837   2.537907   3.829141   4.523802
    19  H    1.106930   2.214286   2.980985   4.346769   4.990792
    20  H    2.590656   2.156700   1.102022   2.165121   3.389293
    21  H    4.628309   3.463596   2.182139   1.100570   2.178422
    22  H    5.353061   3.911246   3.410015   2.197623   1.099860
    23  H    6.397195   5.397706   6.234760   6.045734   4.918810
    24  H    6.628581   6.068970   7.217744   7.387918   6.432921
    25  H    6.417455   6.423895   7.779975   8.370102   7.746503
    26  H    4.671012   5.113402   6.479113   7.412618   7.214926
                    6          7          8          9         10
     6  C    0.000000
     7  F    1.346406   0.000000
     8  C    1.436909   2.422260   0.000000
     9  C    2.566367   2.974414   1.493568   0.000000
    10  C    3.092897   2.899441   2.609012   1.449041   0.000000
    11  O    2.865911   2.345506   3.003776   2.426641   1.354832
    12  C    4.472787   4.143333   3.884401   2.501777   1.412844
    13  C    5.311388   5.215568   4.397372   2.912605   2.448178
    14  C    5.077130   5.328634   3.882707   2.516250   2.791994
    15  C    3.893729   4.396328   2.586678   1.432896   2.367517
    16  F    4.395046   5.205786   2.969202   2.410369   3.598671
    17  H    4.042627   4.878949   2.813094   3.004329   4.360291
    18  H    4.286959   5.358460   3.398161   4.221016   5.626232
    19  H    4.555558   5.685449   3.316714   3.730729   5.166867
    20  H    3.831141   5.128132   3.460191   4.747103   6.035142
    21  H    3.418535   4.480930   3.989639   5.450196   6.330368
    22  H    2.145691   2.497393   3.471775   4.687126   5.028207
    23  H    3.781490   3.055973   3.957870   3.228364   1.897708
    24  H    5.100566   4.521058   4.752363   3.481124   2.163588
    25  H    6.379083   6.193837   5.491530   4.010684   3.447049
    26  H    6.012642   6.364557   4.723189   3.479353   3.884131
                   11         12         13         14         15
    11  O    0.000000
    12  C    2.374197   0.000000
    13  C    3.647964   1.396656   0.000000
    14  C    4.113607   2.399376   1.399643   0.000000
    15  C    3.592506   2.741525   2.411714   1.398726   0.000000
    16  F    4.688455   4.067844   3.594104   2.311693   1.349794
    17  H    5.341724   5.030348   4.761774   3.700675   2.704729
    18  H    6.342581   6.539225   6.440687   5.384822   4.226152
    19  H    6.019176   5.956011   5.663158   4.424102   3.303522
    20  H    6.322309   7.247355   7.472294   6.533447   5.165174
    21  H    6.072827   7.721432   8.360703   7.760471   6.379711
    22  H    4.374746   6.403430   7.377842   7.203369   5.998351
    23  H    0.976305   2.343442   3.719585   4.478158   4.230636
    24  H    2.588896   1.103423   2.175712   3.406087   3.841798
    25  H    4.535573   2.175032   1.100171   2.180051   3.418370
    26  H    5.193760   3.414698   2.198157   1.098969   2.147588
                   16         17         18         19         20
    16  F    0.000000
    17  H    2.297021   0.000000
    18  H    3.583219   1.782728   0.000000
    19  H    2.238437   1.787897   1.785880   0.000000
    20  H    4.555641   3.639380   2.331290   2.885865   0.000000
    21  H    6.184929   5.497753   4.519337   5.119151   2.510883
    22  H    6.355316   5.835814   5.540193   6.088264   4.321518
    23  H    5.414660   6.158609   7.255117   6.903617   7.298223
    24  H    5.160817   6.083837   7.562048   7.039878   8.181653
    25  H    4.485062   5.658734   7.388690   6.583410   8.531634
    26  H    2.493534   3.979907   5.655044   4.529398   6.976089
                   21         22         23         24         25
    21  H    0.000000
    22  H    2.559776   0.000000
    23  H    6.981140   5.128631   0.000000
    24  H    8.428075   6.849459   2.119378   0.000000
    25  H    9.459821   8.426510   4.426566   2.519936   0.000000
    26  H    8.458764   8.133549   5.544888   4.342232   2.561389
                   26
    26  H    0.000000
 Stoichiometry    C13H10F2O
 Framework group  C1[X(C13H10F2O)]
 Deg. of freedom    72
 Full point group                 C1      NOp   1
 Largest Abelian subgroup         C1      NOp   1
 Largest concise Abelian subgroup C1      NOp   1
                         Standard orientation:                         
 ---------------------------------------------------------------------
 Center     Atomic      Atomic             Coordinates (Angstroms)
 Number     Number       Type             X           Y           Z
 ---------------------------------------------------------------------
      1          6           0        1.196525    2.531216    0.667611
      2          6           0        1.592971    1.180154    0.094355
      3          6           0        2.962706    1.069397   -0.226882
      4          6           0        3.596324   -0.162139   -0.429201
      5          6           0        2.869490   -1.321513   -0.142267
      6          6           0        1.512129   -1.214826    0.176680
      7          9           0        0.967897   -2.324978    0.709767
      8          6           0        0.751121   -0.001580    0.060020
      9          6           0       -0.740600   -0.000329   -0.014237
     10          6           0       -1.566436   -1.186357   -0.119360
     11          8           0       -1.019399   -2.353820   -0.535713
     12          6           0       -2.959700   -1.148611    0.111984
     13          6           0       -3.642675    0.064450    0.224576
     14          6           0       -2.924534    1.248878    0.023566
     15          6           0       -1.539253    1.180696   -0.157494
     16          9           0       -0.971034    2.334276   -0.567770
     17          1           0        0.315129    2.470088    1.330557
     18          1           0        2.046418    2.892499    1.282318
     19          1           0        0.992108    3.302514   -0.099596
     20          1           0        3.560563    1.994947   -0.246301
     21          1           0        4.662269   -0.215691   -0.697805
     22          1           0        3.332740   -2.317838   -0.093003
     23          1           0       -1.725886   -3.027483   -0.550784
     24          1           0       -3.509908   -2.104967    0.125968
     25          1           0       -4.729597    0.083814    0.393695
     26          1           0       -3.408815    2.232380   -0.053422
 ---------------------------------------------------------------------
 Rotational constants (GHZ):           0.8461299           0.4762356           0.3180391
 Standard basis: def2SVP (5D, 7F)
 There are   290 symmetry adapted cartesian basis functions of A   symmetry.
 There are   274 symmetry adapted basis functions of A   symmetry.
   274 basis functions,   470 primitive gaussians,   290 cartesian basis functions
    57 alpha electrons       57 beta electrons
       nuclear repulsion energy      1072.2071341231 Hartrees.
 NAtoms=   26 NActive=   26 NUniq=   26 SFac= 1.00D+00 NAtFMM=   60 NAOKFM=F Big=F
 Integral buffers will be    131072 words long.
 Raffenetti 2 integral format.
 Two-electron integral symmetry is turned on.
 Nuclear repulsion after empirical dispersion term =     1072.1556270206 Hartrees.
 One-electron integrals computed using PRISM.
   1 Symmetry operations used in ECPInt.
 ECPInt:  NShTT=    8001 NPrTT=   29641 LenC2=    7597 LenP2D=   20276.
 LDataN:  DoStor=T MaxTD1= 4 Len=   56
 NBasis=   274 RedAO= T EigKep=  3.46D-04  NBF=   274
 NBsUse=   274 1.00D-06 EigRej= -1.00D+00 NBFU=   274
 Initial guess from the checkpoint file:  "/scratch/gaussian_tmp/Gau-230055.chk"
 B after Tr=     0.000000   -0.000000    0.000000
         Rot=    1.000000    0.000033   -0.000050    0.000107 Ang=   0.01 deg.
 ExpMin= 1.22D-01 ExpMax= 2.89D+03 ExpMxC= 4.35D+02 IAcc=3 IRadAn=         5 AccDes= 0.00D+00
 Harris functional with IExCor=  404 and IRadAn=       5 diagonalized for initial guess.
 HarFok:  IExCor=  404 AccDes= 0.00D+00 IRadAn=         5 IDoV= 1 UseB2=F ITyADJ=14
 ICtDFT=  3500011 ScaDFX=  1.000000  1.000000  1.000000  1.000000
 FoFCou: FMM=F IPFlag=           0 FMFlag=      100000 FMFlg1=           0
         NFxFlg=           0 DoJE=T BraDBF=F KetDBF=T FulRan=T
         wScrn=  0.000000 ICntrl=       500 IOpCl=  0 I1Cent=   200000004 NGrid=           0
         NMat0=    1 NMatS0=      1 NMatT0=    0 NMatD0=    1 NMtDS0=    0 NMtDT0=    0
 Petite list used in FoFCou.
 Requested convergence on RMS density matrix=1.00D-08 within 128 cycles.
 Requested convergence on MAX density matrix=1.00D-06.
 Requested convergence on             energy=1.00D-06.
 No special actions if energy rises.
 Integral accuracy reduced to 1.0D-05 until final iterations.
 Initial convergence to 1.0D-05 achieved.  Increase integral accuracy.
 SCF Done:  E(RB-P86) =  -775.744508828     A.U. after   11 cycles
            NFock= 11  Conv=0.49D-08     -V/T= 2.0104
 DoSCS=F DFT=T ScalE2(SS,OS)=  1.000000  1.000000
 Range of M.O.s used for correlation:     1   274
 NBasis=   274 NAE=    57 NBE=    57 NFC=     0 NFV=     0
 NROrb=    274 NOA=    57 NOB=    57 NVA=   217 NVB=   217
 Symmetrizing basis deriv contribution to polar:
 IMax=3 JMax=2 DiffMx= 0.00D+00
   1 Symmetry operations used in ECPInt.
 ECPInt:  NShTT=    8001 NPrTT=   29641 LenC2=    7597 LenP2D=   20276.
 LDataN:  DoStor=T MaxTD1= 5 Len=  102
 Calling FoFJK, ICntrl=      2527 FMM=F ISym2X=0 I1Cent= 0 IOpClX= 0 NMat=1 NMatS=1 NMatT=0.
 ***** Axes restored to original set *****
 -------------------------------------------------------------------
 Center     Atomic                   Forces (Hartrees/Bohr)
 Number     Number              X              Y              Z
 -------------------------------------------------------------------
      1        6          -0.000066184   -0.000000860   -0.000077563
      2        6           0.000007439   -0.000021726    0.000077100
      3        6           0.000006129    0.000000814    0.000043792
      4        6           0.000003724   -0.000005486    0.000000408
      5        6           0.000004636    0.000005844   -0.000018156
      6        6          -0.000039996   -0.000006394    0.000011120
      7        9          -0.000107305    0.000009340   -0.000056025
      8        6          -0.000019698   -0.000024417   -0.000074527
      9        6          -0.000030606   -0.000041706    0.000026453
     10        6           0.000051931    0.000029165    0.000067105
     11        8           0.000107430    0.000002612   -0.000034489
     12        6           0.000009219    0.000009226    0.000006443
     13        6          -0.000003608   -0.000003171   -0.000002054
     14        6           0.000003410   -0.000000264    0.000008428
     15        6           0.000011412   -0.000005286   -0.000055367
     16        9           0.000121194    0.000061980    0.000097495
     17        1          -0.000003182   -0.000013485    0.000009106
     18        1          -0.000004360    0.000014668   -0.000024588
     19        1          -0.000063151   -0.000002827   -0.000038344
     20        1          -0.000000188   -0.000000918   -0.000005583
     21        1           0.000000361    0.000000552    0.000001122
     22        1          -0.000004376   -0.000001541   -0.000000226
     23        1           0.000013270   -0.000004178    0.000042709
     24        1           0.000002258   -0.000002627   -0.000005620
     25        1           0.000000354    0.000000033    0.000002676
     26        1          -0.000000115    0.000000653   -0.000001417
 -------------------------------------------------------------------
 Cartesian Forces:  Max     0.000121194 RMS     0.000036994

 GradGradGradGradGradGradGradGradGradGradGradGradGradGradGradGradGradGrad
 Berny optimization.
 FormGI is forming the generalized inverse of G from B-inverse, IUseBI=4.
 Internal  Forces:  Max     0.000290729 RMS     0.000068499
 Search for a saddle point.
 Step number   8 out of a maximum of  140
 All quantities printed in internal units (Hartrees-Bohrs-Radians)
 Swapping is turned off.
 Update second derivatives using D2CorX and points    1    2    3    4    5
                                                      6    7    8
 ITU=  0  0  0  0  0  0  0  0
     Eigenvalues ---   -0.02968   0.00252   0.00396   0.01101   0.01446
     Eigenvalues ---    0.01521   0.01551   0.01585   0.01609   0.01660
     Eigenvalues ---    0.01829   0.02024   0.02087   0.02218   0.02398
     Eigenvalues ---    0.02622   0.02839   0.02907   0.03011   0.03355
     Eigenvalues ---    0.03791   0.05233   0.05506   0.09873   0.09951
     Eigenvalues ---    0.10796   0.10843   0.10960   0.11447   0.11558
     Eigenvalues ---    0.12998   0.13352   0.14630   0.15377   0.16204
     Eigenvalues ---    0.16966   0.17308   0.17478   0.17737   0.18016
     Eigenvalues ---    0.19459   0.20090   0.21752   0.24892   0.26568
     Eigenvalues ---    0.27112   0.28771   0.30684   0.32269   0.32733
     Eigenvalues ---    0.33161   0.33511   0.33675   0.34079   0.34196
     Eigenvalues ---    0.34452   0.34583   0.34684   0.34972   0.36648
     Eigenvalues ---    0.39443   0.41690   0.42946   0.44616   0.46251
     Eigenvalues ---    0.46678   0.46897   0.49264   0.49328   0.49662
     Eigenvalues ---    0.68749   1.67298
 Eigenvectors required to have negative eigenvalues:
                          D31       D32       D33       D34       A25
   1                   -0.48989  -0.48370  -0.43574  -0.42955  -0.12207
                          A26       A24       D40       A23       D42
   1                    0.11633  -0.11457  -0.11446   0.10697  -0.09824
 RFO step:  Lambda0=4.704866820D-07 Lambda=-3.60536071D-06.
 Linear search not attempted -- option 19 set.
 Iteration  1 RMS(Cart)=  0.00423638 RMS(Int)=  0.00000583
 Iteration  2 RMS(Cart)=  0.00001061 RMS(Int)=  0.00000021
 Iteration  3 RMS(Cart)=  0.00000000 RMS(Int)=  0.00000021
 Variable       Old X    -DE/DX   Delta X   Delta X   Delta X     New X
                                 (Linear)    (Quad)   (Total)
    R1        2.87286  -0.00002   0.00000  -0.00018  -0.00018   2.87267
    R2        2.08735   0.00001   0.00000   0.00019   0.00019   2.08755
    R3        2.09641  -0.00001   0.00000  -0.00009  -0.00009   2.09632
    R4        2.09180   0.00004   0.00000  -0.00008  -0.00008   2.09171
    R5        2.66688   0.00000   0.00000   0.00006   0.00006   2.66694
    R6        2.74263  -0.00016   0.00000   0.00002   0.00002   2.74265
    R7        2.64500   0.00006   0.00000  -0.00006  -0.00006   2.64494
    R8        2.08252  -0.00000   0.00000  -0.00004  -0.00004   2.08248
    R9        2.64208   0.00006   0.00000  -0.00008  -0.00008   2.64201
   R10        2.07978  -0.00000   0.00000  -0.00000  -0.00000   2.07977
   R11        2.64260   0.00000   0.00000  -0.00001  -0.00001   2.64260
   R12        2.07843  -0.00000   0.00000   0.00000   0.00000   2.07844
   R13        2.54434   0.00002   0.00000  -0.00005  -0.00005   2.54429
   R14        2.71536  -0.00014   0.00000  -0.00005  -0.00005   2.71532
   R15        2.82243  -0.00029   0.00000  -0.00010  -0.00010   2.82233
   R16        2.73829  -0.00019   0.00000  -0.00008  -0.00008   2.73821
   R17        2.70778  -0.00009   0.00000  -0.00001  -0.00001   2.70777
   R18        2.56026   0.00004   0.00000   0.00007   0.00007   2.56033
   R19        2.66989  -0.00001   0.00000  -0.00003  -0.00003   2.66986
   R20        1.84495  -0.00001   0.00000   0.00002   0.00002   1.84497
   R21        2.63930   0.00006   0.00000   0.00006   0.00006   2.63935
   R22        2.08517   0.00000   0.00000   0.00001   0.00001   2.08518
   R23        2.64494   0.00006   0.00000   0.00004   0.00004   2.64498
   R24        2.07902   0.00000   0.00000   0.00000   0.00000   2.07902
   R25        2.64321  -0.00000   0.00000   0.00002   0.00002   2.64323
   R26        2.07675   0.00000   0.00000   0.00000   0.00000   2.07675
   R27        2.55074   0.00007   0.00000  -0.00003  -0.00003   2.55071
    A1        1.96624  -0.00002   0.00000  -0.00052  -0.00052   1.96573
    A2        1.87400   0.00003   0.00000   0.00045   0.00045   1.87446
    A3        1.98892  -0.00003   0.00000   0.00001   0.00001   1.98893
    A4        1.87211   0.00001   0.00000   0.00016   0.00016   1.87227
    A5        1.88303  -0.00000   0.00000  -0.00020  -0.00020   1.88283
    A6        1.87402   0.00002   0.00000   0.00014   0.00014   1.87416
    A7        1.99181   0.00021   0.00000  -0.00013  -0.00013   1.99168
    A8        2.19109  -0.00015   0.00000   0.00031   0.00030   2.19140
    A9        2.08713  -0.00005   0.00000   0.00019   0.00019   2.08732
   A10        2.14281  -0.00004   0.00000   0.00012   0.00012   2.14294
   A11        2.05403   0.00002   0.00000  -0.00002  -0.00002   2.05402
   A12        2.08385   0.00002   0.00000  -0.00002  -0.00002   2.08383
   A13        2.05400   0.00004   0.00000  -0.00002  -0.00002   2.05398
   A14        2.11360  -0.00002   0.00000   0.00002   0.00002   2.11362
   A15        2.10976  -0.00002   0.00000   0.00004   0.00004   2.10980
   A16        2.08076  -0.00003   0.00000   0.00007   0.00007   2.08083
   A17        2.14290   0.00002   0.00000   0.00004   0.00004   2.14294
   A18        2.05751   0.00001   0.00000  -0.00015  -0.00015   2.05736
   A19        2.00396   0.00015   0.00000  -0.00030  -0.00030   2.00366
   A20        2.16514  -0.00007   0.00000   0.00016   0.00016   2.16530
   A21        2.11094  -0.00008   0.00000   0.00014   0.00014   2.11108
   A22        1.95883   0.00019   0.00000   0.00010   0.00010   1.95894
   A23        2.18931  -0.00015   0.00000  -0.00017  -0.00017   2.18914
   A24        2.13377  -0.00004   0.00000  -0.00005  -0.00005   2.13372
   A25        2.17990  -0.00011   0.00000   0.00029   0.00029   2.18019
   A26        2.16801  -0.00008   0.00000  -0.00010  -0.00010   2.16791
   A27        1.92806   0.00019   0.00000  -0.00001  -0.00001   1.92805
   A28        2.09148  -0.00011   0.00000   0.00005   0.00005   2.09153
   A29        2.12736  -0.00006   0.00000  -0.00023  -0.00023   2.12713
   A30        2.06180   0.00017   0.00000   0.00012   0.00012   2.06192
   A31        1.88299  -0.00000   0.00000   0.00003   0.00003   1.88303
   A32        2.11605  -0.00003   0.00000  -0.00006  -0.00006   2.11599
   A33        2.06082   0.00001   0.00000  -0.00001  -0.00001   2.06081
   A34        2.10357   0.00002   0.00000   0.00001   0.00001   2.10358
   A35        2.06294   0.00003   0.00000   0.00003   0.00003   2.06296
   A36        2.10691  -0.00001   0.00000  -0.00003  -0.00003   2.10688
   A37        2.11075  -0.00002   0.00000  -0.00002  -0.00002   2.11072
   A38        2.07773  -0.00003   0.00000  -0.00008  -0.00008   2.07765
   A39        2.14276   0.00002   0.00000   0.00003   0.00003   2.14278
   A40        2.06121   0.00001   0.00000   0.00006   0.00006   2.06127
   A41        2.18860  -0.00009   0.00000  -0.00016  -0.00016   2.18844
   A42        2.09458  -0.00005   0.00000   0.00001   0.00001   2.09459
   A43        1.99831   0.00014   0.00000   0.00019   0.00019   1.99849
    D1       -2.66741  -0.00001   0.00000   0.00578   0.00578  -2.66163
    D2        0.29881   0.00003   0.00000   0.00820   0.00820   0.30701
    D3       -0.61009   0.00001   0.00000   0.00597   0.00597  -0.60412
    D4        2.35613   0.00005   0.00000   0.00839   0.00839   2.36452
    D5        1.46293   0.00003   0.00000   0.00646   0.00646   1.46939
    D6       -1.85403   0.00007   0.00000   0.00888   0.00888  -1.84515
    D7        2.84231   0.00007   0.00000   0.00404   0.00404   2.84636
    D8       -0.22293   0.00004   0.00000   0.00263   0.00263  -0.22030
    D9       -0.13529   0.00004   0.00000   0.00177   0.00177  -0.13353
   D10        3.08265   0.00002   0.00000   0.00035   0.00035   3.08300
   D11       -2.58103  -0.00011   0.00000  -0.00462  -0.00462  -2.58565
   D12        0.50722  -0.00011   0.00000  -0.00692  -0.00692   0.50030
   D13        0.37642  -0.00004   0.00000  -0.00211  -0.00211   0.37431
   D14       -2.81852  -0.00004   0.00000  -0.00441  -0.00441  -2.82293
   D15       -0.13558   0.00003   0.00000  -0.00004  -0.00004  -0.13562
   D16        3.12083  -0.00001   0.00000  -0.00046  -0.00046   3.12037
   D17        2.92841   0.00005   0.00000   0.00140   0.00140   2.92981
   D18       -0.09837   0.00001   0.00000   0.00098   0.00098  -0.09739
   D19        0.13017  -0.00004   0.00000  -0.00117  -0.00117   0.12900
   D20       -2.94180  -0.00004   0.00000  -0.00052  -0.00052  -2.94232
   D21       -3.12597   0.00000   0.00000  -0.00075  -0.00075  -3.12672
   D22        0.08523  -0.00000   0.00000  -0.00010  -0.00010   0.08514
   D23       -2.90571  -0.00003   0.00000   0.00076   0.00076  -2.90495
   D24        0.15124  -0.00002   0.00000   0.00071   0.00071   0.15195
   D25        0.16967  -0.00003   0.00000   0.00014   0.00014   0.16981
   D26       -3.05657  -0.00002   0.00000   0.00010   0.00010  -3.05647
   D27       -0.39660   0.00004   0.00000   0.00093   0.00093  -0.39567
   D28        2.79638   0.00004   0.00000   0.00315   0.00315   2.79953
   D29        2.65540   0.00006   0.00000   0.00086   0.00086   2.65626
   D30       -0.43480   0.00006   0.00000   0.00308   0.00308  -0.43172
   D31        3.08137  -0.00003   0.00000   0.00551   0.00551   3.08689
   D32        0.08096  -0.00007   0.00000   0.00369   0.00369   0.08465
   D33       -0.11862  -0.00002   0.00000   0.00300   0.00300  -0.11561
   D34       -3.11903  -0.00006   0.00000   0.00118   0.00118  -3.11785
   D35       -0.32889   0.00001   0.00000  -0.00414  -0.00414  -0.33304
   D36        2.89061   0.00001   0.00000  -0.00318  -0.00318   2.88743
   D37        2.68818   0.00003   0.00000  -0.00255  -0.00255   2.68564
   D38       -0.37549   0.00002   0.00000  -0.00159  -0.00159  -0.37708
   D39       -2.91639  -0.00001   0.00000   0.00273   0.00273  -2.91366
   D40        0.29128  -0.00007   0.00000   0.00206   0.00206   0.29334
   D41        0.34870  -0.00002   0.00000   0.00112   0.00112   0.34982
   D42       -2.72681  -0.00009   0.00000   0.00044   0.00044  -2.72637
   D43       -3.13142  -0.00004   0.00000  -0.00244  -0.00244  -3.13386
   D44       -0.06484  -0.00004   0.00000  -0.00338  -0.00338  -0.06822
   D45        0.19615  -0.00003   0.00000   0.00109   0.00109   0.19724
   D46       -3.02460  -0.00002   0.00000   0.00033   0.00033  -3.02427
   D47       -2.86880  -0.00003   0.00000   0.00204   0.00204  -2.86676
   D48        0.19364  -0.00002   0.00000   0.00128   0.00128   0.19492
   D49        0.06478  -0.00002   0.00000   0.00005   0.00005   0.06483
   D50        3.12974   0.00001   0.00000  -0.00032  -0.00032   3.12941
   D51       -2.99573  -0.00003   0.00000   0.00082   0.00082  -2.99491
   D52        0.06923   0.00000   0.00000   0.00045   0.00045   0.06968
   D53       -0.10198   0.00003   0.00000  -0.00054  -0.00054  -0.10252
   D54        2.97976   0.00005   0.00000  -0.00028  -0.00028   2.97948
   D55        3.11642  -0.00000   0.00000  -0.00016  -0.00016   3.11626
   D56       -0.08502   0.00001   0.00000   0.00010   0.00010  -0.08493
   D57       -0.12487   0.00002   0.00000  -0.00008  -0.00008  -0.12496
   D58        2.95384   0.00007   0.00000   0.00056   0.00056   2.95440
   D59        3.07376   0.00001   0.00000  -0.00033  -0.00033   3.07343
   D60       -0.13070   0.00006   0.00000   0.00031   0.00031  -0.13040
         Item               Value     Threshold  Converged?
 Maximum Force            0.000291     0.000450     YES
 RMS     Force            0.000068     0.000300     YES
 Maximum Displacement     0.017115     0.001800     NO 
 RMS     Displacement     0.004235     0.001200     NO 
 Predicted change in Energy=-1.567439D-06
 GradGradGradGradGradGradGradGradGradGradGradGradGradGradGradGradGradGrad

                          Input orientation:                          
 ---------------------------------------------------------------------
 Center     Atomic      Atomic             Coordinates (Angstroms)
 Number     Number       Type             X           Y           Z
 ---------------------------------------------------------------------
      1          6           0        1.273145    2.510705    0.585446
      2          6           0        1.631678    1.137733    0.040224
      3          6           0        2.997442    0.983116   -0.279949
      4          6           0        3.596156   -0.268876   -0.461756
      5          6           0        2.837529   -1.402396   -0.154716
      6          6           0        1.484381   -1.252329    0.164656
      7          9           0        0.910838   -2.337749    0.717516
      8          6           0        0.757193   -0.020523    0.028702
      9          6           0       -0.734197    0.021299   -0.039021
     10          6           0       -1.593945   -1.142613   -0.114798
     11          8           0       -1.083550   -2.332892   -0.512796
     12          6           0       -2.983756   -1.060477    0.125554
     13          6           0       -3.631214    0.173650    0.217517
     14          6           0       -2.881392    1.332744   -0.013412
     15          6           0       -1.499938    1.221375   -0.202197
     16          9           0       -0.901967    2.349483   -0.640037
     17          1           0        0.394859    2.486041    1.255017
     18          1           0        2.135756    2.864524    1.186544
     19          1           0        1.082310    3.269452   -0.197551
     20          1           0        3.620701    1.891192   -0.316789
     21          1           0        4.659783   -0.356769   -0.730498
     22          1           0        3.272662   -2.410403   -0.089307
     23          1           0       -1.808378   -2.986950   -0.507199
     24          1           0       -3.560785   -2.000268    0.162742
     25          1           0       -4.715874    0.227445    0.393576
     26          1           0       -3.338216    2.327798   -0.107828
 ---------------------------------------------------------------------
                    Distance matrix (angstroms):
                    1          2          3          4          5
     1  C    0.000000
     2  C    1.520153   0.000000
     3  C    2.460820   1.411286   0.000000
     4  C    3.770820   2.467733   1.399641   0.000000
     5  C    4.278726   2.818570   2.394144   1.398090   0.000000
     6  C    3.792376   2.397828   2.735734   2.412294   1.398401
     7  F    4.863766   3.613490   4.046850   3.589130   2.312534
     8  C    2.642591   1.451349   2.474120   2.891701   2.504199
     9  C    3.258301   2.617264   3.861123   4.360604   3.846754
    10  C    4.696518   3.953309   5.062295   5.274556   4.439261
    11  O    5.497325   4.441118   5.263518   5.114921   4.045850
    12  C    5.575487   5.112890   6.333675   6.653330   5.838049
    13  C    5.445176   5.353402   6.696401   7.272696   6.668366
    14  C    4.359634   4.517600   5.895250   6.687662   6.340900
    15  C    3.157966   3.142098   4.504358   5.315862   5.069521
    16  F    2.501783   2.889714   4.147531   5.207754   5.319395
    17  H    1.104681   2.196219   3.374662   4.559076   4.803533
    18  H    1.109326   2.133061   2.536296   3.829864   4.527479
    19  H    1.106887   2.214174   2.983597   4.348447   4.990871
    20  H    2.590143   2.156704   1.102004   2.165067   3.389300
    21  H    4.628545   3.463664   2.182123   1.100568   2.178410
    22  H    5.354500   3.911378   3.409994   2.197613   1.099862
    23  H    6.396395   5.398765   6.237705   6.049708   4.921331
    24  H    6.625288   6.068256   7.218510   7.389825   6.434022
    25  H    6.412366   6.422219   7.779454   8.370649   7.746670
    26  H    4.666769   5.112535   6.479070   7.413062   7.215010
                    6          7          8          9         10
     6  C    0.000000
     7  F    1.346382   0.000000
     8  C    1.436883   2.422315   0.000000
     9  C    2.566263   2.973818   1.493513   0.000000
    10  C    3.092932   2.897419   2.609124   1.448999   0.000000
    11  O    2.867199   2.343347   3.004764   2.426669   1.354869
    12  C    4.472425   4.141220   3.884017   2.501567   1.412830
    13  C    5.310887   5.214149   4.396757   2.912340   2.448151
    14  C    5.076839   5.328019   3.882320   2.516146   2.791987
    15  C    3.893579   4.396030   2.586555   1.432888   2.367470
    16  F    4.394911   5.205704   2.969335   2.410354   3.598533
    17  H    4.043681   4.880993   2.813894   3.004040   4.358768
    18  H    4.291506   5.365077   3.400666   4.221678   5.626838
    19  H    4.554049   5.683965   3.313733   3.724960   5.160960
    20  H    3.831107   5.128069   3.460303   4.747504   6.036332
    21  H    3.418553   4.480582   3.989944   5.451247   6.332910
    22  H    2.145595   2.496889   3.471748   4.687283   5.029096
    23  H    3.781872   3.052134   3.958413   3.228407   1.897772
    24  H    5.100305   4.518526   4.752083   3.480953   2.163575
    25  H    6.378503   6.192337   5.490818   4.010409   3.447019
    26  H    6.012404   6.364195   4.722883   3.479308   3.884106
                   11         12         13         14         15
    11  O    0.000000
    12  C    2.374302   0.000000
    13  C    3.647834   1.396685   0.000000
    14  C    4.113211   2.399437   1.399664   0.000000
    15  C    3.592027   2.741530   2.411685   1.398735   0.000000
    16  F    4.687621   4.067899   3.594222   2.311826   1.349778
    17  H    5.341626   5.026780   4.757396   3.697679   2.704277
    18  H    6.345456   6.537640   6.437216   5.381266   4.224549
    19  H    6.014697   5.948578   5.654518   4.415391   3.295853
    20  H    6.325447   7.247543   7.471660   6.533079   5.165533
    21  H    6.077691   7.723452   8.361860   7.761313   6.380580
    22  H    4.377435   6.404001   7.378006   7.203422   5.998355
    23  H    0.976318   2.343755   3.719857   4.478274   4.230621
    24  H    2.589147   1.103427   2.175748   3.406108   3.841777
    25  H    4.535483   2.175043   1.100172   2.180057   3.418345
    26  H    5.193221   3.414750   2.198193   1.098970   2.147636
                   16         17         18         19         20
    16  F    0.000000
    17  H    2.300356   0.000000
    18  H    3.581819   1.782879   0.000000
    19  H    2.231478   1.787813   1.785898   0.000000
    20  H    4.557307   3.637372   2.326466   2.890890   0.000000
    21  H    6.185875   5.496673   4.519124   5.121701   2.510812
    22  H    6.355104   5.836447   5.544836   6.088523   4.321644
    23  H    5.414493   6.157376   7.257044   6.898878   7.301193
    24  H    5.160823   6.080062   7.560750   7.032644   8.182124
    25  H    4.485229   5.653577   7.384295   6.574357   8.530601
    26  H    2.493797   3.977215   5.650472   4.520598   6.975730
                   21         22         23         24         25
    21  H    0.000000
    22  H    2.559814   0.000000
    23  H    6.986044   5.130692   0.000000
    24  H    8.430700   6.850382   2.119739   0.000000
    25  H    9.460855   8.426631   4.426879   2.519964   0.000000
    26  H    8.459468   8.133547   5.544948   4.342223   2.561412
                   26
    26  H    0.000000
 Stoichiometry    C13H10F2O
 Framework group  C1[X(C13H10F2O)]
 Deg. of freedom    72
 Full point group                 C1      NOp   1
 Largest Abelian subgroup         C1      NOp   1
 Largest concise Abelian subgroup C1      NOp   1
                         Standard orientation:                         
 ---------------------------------------------------------------------
 Center     Atomic      Atomic             Coordinates (Angstroms)
 Number     Number       Type             X           Y           Z
 ---------------------------------------------------------------------
      1          6           0        1.193373    2.531680    0.665739
      2          6           0        1.592799    1.180114    0.096007
      3          6           0        2.963740    1.070150   -0.220471
      4          6           0        3.598281   -0.160778   -0.423377
      5          6           0        2.870596   -1.320887   -0.141818
      6          6           0        1.512399   -1.215101    0.173833
      7          9           0        0.967311   -2.326687    0.702982
      8          6           0        0.751368   -0.001818    0.058032
      9          6           0       -0.740304   -0.000620   -0.016082
     10          6           0       -1.566570   -1.186549   -0.118336
     11          8           0       -1.021124   -2.354104   -0.536633
     12          6           0       -2.959162   -1.148158    0.116829
     13          6           0       -3.641538    0.065282    0.229330
     14          6           0       -2.923703    1.249233    0.024315
     15          6           0       -1.538861    1.180394   -0.159895
     16          9           0       -0.971053    2.333108   -0.573109
     17          1           0        0.313267    2.469414    1.330462
     18          1           0        2.043081    2.897918    1.277678
     19          1           0        0.984588    3.299750   -0.103465
     20          1           0        3.561308    1.995924   -0.236864
     21          1           0        4.665106   -0.213539   -0.688613
     22          1           0        3.333685   -2.317345   -0.093663
     23          1           0       -1.727244   -3.028257   -0.547093
     24          1           0       -3.509625   -2.104335    0.133185
     25          1           0       -4.728029    0.085165    0.401145
     26          1           0       -3.407983    2.232696   -0.053193
 ---------------------------------------------------------------------
 Rotational constants (GHZ):           0.8462097           0.4762871           0.3180074
 Standard basis: def2SVP (5D, 7F)
 There are   290 symmetry adapted cartesian basis functions of A   symmetry.
 There are   274 symmetry adapted basis functions of A   symmetry.
   274 basis functions,   470 primitive gaussians,   290 cartesian basis functions
    57 alpha electrons       57 beta electrons
       nuclear repulsion energy      1072.2422985286 Hartrees.
 NAtoms=   26 NActive=   26 NUniq=   26 SFac= 1.00D+00 NAtFMM=   60 NAOKFM=F Big=F
 Integral buffers will be    131072 words long.
 Raffenetti 2 integral format.
 Two-electron integral symmetry is turned on.
 Nuclear repulsion after empirical dispersion term =     1072.1907878459 Hartrees.
 One-electron integrals computed using PRISM.
   1 Symmetry operations used in ECPInt.
 ECPInt:  NShTT=    8001 NPrTT=   29641 LenC2=    7597 LenP2D=   20278.
 LDataN:  DoStor=T MaxTD1= 4 Len=   56
 NBasis=   274 RedAO= T EigKep=  3.46D-04  NBF=   274
 NBsUse=   274 1.00D-06 EigRej= -1.00D+00 NBFU=   274
 Initial guess from the checkpoint file:  "/scratch/gaussian_tmp/Gau-230055.chk"
 B after Tr=     0.000000    0.000000    0.000000
         Rot=    1.000000    0.000001    0.000036   -0.000045 Ang=   0.01 deg.
 Requested convergence on RMS density matrix=1.00D-08 within 128 cycles.
 Requested convergence on MAX density matrix=1.00D-06.
 Requested convergence on             energy=1.00D-06.
 No special actions if energy rises.
 SCF Done:  E(RB-P86) =  -775.744510392     A.U. after    9 cycles
            NFock=  9  Conv=0.64D-08     -V/T= 2.0104
 DoSCS=F DFT=T ScalE2(SS,OS)=  1.000000  1.000000
 Range of M.O.s used for correlation:     1   274
 NBasis=   274 NAE=    57 NBE=    57 NFC=     0 NFV=     0
 NROrb=    274 NOA=    57 NOB=    57 NVA=   217 NVB=   217
 Symmetrizing basis deriv contribution to polar:
 IMax=3 JMax=2 DiffMx= 0.00D+00
   1 Symmetry operations used in ECPInt.
 ECPInt:  NShTT=    8001 NPrTT=   29641 LenC2=    7597 LenP2D=   20278.
 LDataN:  DoStor=T MaxTD1= 5 Len=  102
 Calling FoFJK, ICntrl=      2527 FMM=F ISym2X=0 I1Cent= 0 IOpClX= 0 NMat=1 NMatS=1 NMatT=0.
 ***** Axes restored to original set *****
 -------------------------------------------------------------------
 Center     Atomic                   Forces (Hartrees/Bohr)
 Number     Number              X              Y              Z
 -------------------------------------------------------------------
      1        6          -0.000017140   -0.000005442   -0.000007621
      2        6          -0.000003842    0.000005624   -0.000021901
      3        6          -0.000001243   -0.000002449   -0.000009319
      4        6          -0.000002194   -0.000003676    0.000002413
      5        6           0.000006219    0.000002207    0.000005864
      6        6          -0.000002917   -0.000011870    0.000029181
      7        9           0.000032151    0.000008052    0.000000925
      8        6          -0.000000586    0.000000232    0.000005226
      9        6          -0.000006190   -0.000037807    0.000000488
     10        6           0.000004523   -0.000010070   -0.000028748
     11        8          -0.000026812    0.000039568   -0.000022935
     12        6          -0.000006135    0.000004205   -0.000003620
     13        6          -0.000001569   -0.000004415   -0.000005306
     14        6           0.000003634   -0.000001657    0.000011426
     15        6          -0.000001965    0.000003644    0.000019063
     16        9           0.000041241    0.000014340    0.000019392
     17        1          -0.000008416   -0.000001868   -0.000003743
     18        1          -0.000003895    0.000002952   -0.000003459
     19        1          -0.000008933    0.000000603   -0.000006920
     20        1          -0.000000118   -0.000000742   -0.000001365
     21        1          -0.000000102    0.000000562   -0.000000819
     22        1           0.000001382    0.000001139    0.000001932
     23        1           0.000005336   -0.000001960    0.000023810
     24        1          -0.000002005    0.000000310   -0.000005812
     25        1           0.000000956   -0.000000132    0.000005134
     26        1          -0.000001380   -0.000001349   -0.000003286
 -------------------------------------------------------------------
 Cartesian Forces:  Max     0.000041241 RMS     0.000012572

 GradGradGradGradGradGradGradGradGradGradGradGradGradGradGradGradGradGrad
 Berny optimization.
 FormGI is forming the generalized inverse of G from B-inverse, IUseBI=4.
 Internal  Forces:  Max     0.000171218 RMS     0.000032530
 Search for a saddle point.
 Step number   9 out of a maximum of  140
 All quantities printed in internal units (Hartrees-Bohrs-Radians)
 Swapping is turned off.
 Update second derivatives using D2CorX and points    1    2    3    4    5
                                                      6    7    8    9
 ITU=  0  0  0  0  0  0  0  0  0
     Eigenvalues ---   -0.02882   0.00355   0.00589   0.01041   0.01440
     Eigenvalues ---    0.01518   0.01549   0.01584   0.01602   0.01665
     Eigenvalues ---    0.01843   0.02025   0.02093   0.02217   0.02406
     Eigenvalues ---    0.02615   0.02851   0.02901   0.03011   0.03324
     Eigenvalues ---    0.03845   0.05235   0.05507   0.09873   0.09951
     Eigenvalues ---    0.10797   0.10843   0.10960   0.11447   0.11558
     Eigenvalues ---    0.13004   0.13355   0.14631   0.15382   0.16203
     Eigenvalues ---    0.16966   0.17308   0.17478   0.17738   0.18018
     Eigenvalues ---    0.19460   0.20092   0.21761   0.24899   0.26575
     Eigenvalues ---    0.27113   0.28777   0.30685   0.32270   0.32733
     Eigenvalues ---    0.33161   0.33511   0.33675   0.34079   0.34200
     Eigenvalues ---    0.34452   0.34583   0.34684   0.34973   0.36648
     Eigenvalues ---    0.39450   0.41690   0.42947   0.44616   0.46251
     Eigenvalues ---    0.46677   0.46897   0.49272   0.49335   0.49662
     Eigenvalues ---    0.69789   1.67678
 Eigenvectors required to have negative eigenvalues:
                          D32       D31       D34       D33       A25
   1                   -0.48434  -0.48116  -0.43762  -0.43444  -0.11866
                          A26       A24       D4        A23       D2
   1                    0.11728  -0.11639   0.11140   0.11015   0.10545
 RFO step:  Lambda0=6.885119644D-08 Lambda=-2.97169545D-07.
 Linear search not attempted -- option 19 set.
 Iteration  1 RMS(Cart)=  0.00120977 RMS(Int)=  0.00000104
 Iteration  2 RMS(Cart)=  0.00000111 RMS(Int)=  0.00000002
 Iteration  3 RMS(Cart)=  0.00000000 RMS(Int)=  0.00000002
 Variable       Old X    -DE/DX   Delta X   Delta X   Delta X     New X
                                 (Linear)    (Quad)   (Total)
    R1        2.87267  -0.00000   0.00000   0.00002   0.00002   2.87269
    R2        2.08755   0.00000   0.00000   0.00002   0.00002   2.08756
    R3        2.09632  -0.00000   0.00000   0.00000   0.00000   2.09632
    R4        2.09171   0.00001   0.00000  -0.00001  -0.00001   2.09170
    R5        2.66694  -0.00000   0.00000  -0.00002  -0.00002   2.66692
    R6        2.74265  -0.00003   0.00000   0.00006   0.00006   2.74271
    R7        2.64494   0.00000   0.00000  -0.00002  -0.00002   2.64492
    R8        2.08248  -0.00000   0.00000  -0.00000  -0.00000   2.08248
    R9        2.64201   0.00000   0.00000  -0.00004  -0.00004   2.64197
   R10        2.07977   0.00000   0.00000  -0.00000  -0.00000   2.07977
   R11        2.64260   0.00001   0.00000   0.00004   0.00004   2.64263
   R12        2.07844  -0.00000   0.00000  -0.00000  -0.00000   2.07844
   R13        2.54429  -0.00002   0.00000  -0.00004  -0.00004   2.54426
   R14        2.71532   0.00002   0.00000   0.00004   0.00004   2.71535
   R15        2.82233  -0.00001   0.00000   0.00012   0.00012   2.82245
   R16        2.73821  -0.00001   0.00000  -0.00011  -0.00011   2.73810
   R17        2.70777  -0.00002   0.00000   0.00007   0.00007   2.70783
   R18        2.56033  -0.00004   0.00000  -0.00016  -0.00016   2.56017
   R19        2.66986   0.00001   0.00000   0.00003   0.00003   2.66989
   R20        1.84497  -0.00000   0.00000  -0.00000  -0.00000   1.84497
   R21        2.63935   0.00000   0.00000  -0.00003  -0.00003   2.63932
   R22        2.08518   0.00000   0.00000   0.00000   0.00000   2.08518
   R23        2.64498   0.00000   0.00000   0.00002   0.00002   2.64500
   R24        2.07902  -0.00000   0.00000  -0.00000  -0.00000   2.07902
   R25        2.64323  -0.00000   0.00000  -0.00002  -0.00002   2.64320
   R26        2.07675  -0.00000   0.00000   0.00000   0.00000   2.07675
   R27        2.55071   0.00002   0.00000   0.00000   0.00000   2.55071
    A1        1.96573  -0.00001   0.00000  -0.00001  -0.00001   1.96572
    A2        1.87446   0.00001   0.00000  -0.00000  -0.00000   1.87445
    A3        1.98893  -0.00001   0.00000   0.00001   0.00001   1.98895
    A4        1.87227   0.00000   0.00000  -0.00001  -0.00001   1.87226
    A5        1.88283  -0.00000   0.00000   0.00002   0.00002   1.88285
    A6        1.87416   0.00000   0.00000  -0.00001  -0.00001   1.87415
    A7        1.99168   0.00005   0.00000  -0.00005  -0.00005   1.99163
    A8        2.19140  -0.00006   0.00000  -0.00007  -0.00007   2.19133
    A9        2.08732   0.00001   0.00000   0.00009   0.00009   2.08741
   A10        2.14294  -0.00001   0.00000  -0.00001  -0.00001   2.14293
   A11        2.05402   0.00000   0.00000   0.00000   0.00000   2.05402
   A12        2.08383   0.00000   0.00000  -0.00000  -0.00000   2.08383
   A13        2.05398   0.00000   0.00000  -0.00003  -0.00003   2.05394
   A14        2.11362  -0.00000   0.00000   0.00002   0.00002   2.11364
   A15        2.10980  -0.00000   0.00000   0.00002   0.00002   2.10982
   A16        2.08083   0.00000   0.00000   0.00009   0.00009   2.08092
   A17        2.14294  -0.00000   0.00000  -0.00002  -0.00002   2.14293
   A18        2.05736  -0.00000   0.00000  -0.00006  -0.00006   2.05730
   A19        2.00366  -0.00002   0.00000  -0.00020  -0.00020   2.00346
   A20        2.16530  -0.00002   0.00000   0.00000   0.00000   2.16530
   A21        2.11108   0.00004   0.00000   0.00021   0.00021   2.11129
   A22        1.95894   0.00001   0.00000  -0.00004  -0.00004   1.95890
   A23        2.18914  -0.00017   0.00000  -0.00042  -0.00042   2.18872
   A24        2.13372   0.00016   0.00000   0.00046   0.00046   2.13419
   A25        2.18019   0.00014   0.00000   0.00042   0.00042   2.18062
   A26        2.16791  -0.00015   0.00000  -0.00033  -0.00033   2.16758
   A27        1.92805   0.00001   0.00000  -0.00003  -0.00003   1.92802
   A28        2.09153   0.00001   0.00000  -0.00013  -0.00013   2.09140
   A29        2.12713  -0.00001   0.00000   0.00007   0.00007   2.12720
   A30        2.06192  -0.00001   0.00000   0.00006   0.00006   2.06199
   A31        1.88303  -0.00001   0.00000   0.00022   0.00022   1.88324
   A32        2.11599  -0.00000   0.00000  -0.00001  -0.00001   2.11599
   A33        2.06081   0.00000   0.00000   0.00001   0.00001   2.06083
   A34        2.10358  -0.00000   0.00000  -0.00002  -0.00002   2.10357
   A35        2.06296   0.00000   0.00000  -0.00002  -0.00002   2.06294
   A36        2.10688   0.00000   0.00000   0.00002   0.00002   2.10690
   A37        2.11072  -0.00000   0.00000   0.00000   0.00000   2.11072
   A38        2.07765  -0.00000   0.00000   0.00001   0.00001   2.07766
   A39        2.14278   0.00000   0.00000  -0.00003  -0.00003   2.14276
   A40        2.06127   0.00000   0.00000   0.00001   0.00001   2.06128
   A41        2.18844   0.00000   0.00000  -0.00000  -0.00000   2.18844
   A42        2.09459  -0.00004   0.00000  -0.00002  -0.00002   2.09457
   A43        1.99849   0.00004   0.00000   0.00001   0.00001   1.99851
    D1       -2.66163  -0.00001   0.00000  -0.00040  -0.00040  -2.66203
    D2        0.30701   0.00000   0.00000  -0.00059  -0.00059   0.30642
    D3       -0.60412  -0.00001   0.00000  -0.00042  -0.00042  -0.60454
    D4        2.36452   0.00001   0.00000  -0.00061  -0.00061   2.36391
    D5        1.46939  -0.00000   0.00000  -0.00043  -0.00043   1.46896
    D6       -1.84515   0.00001   0.00000  -0.00062  -0.00062  -1.84577
    D7        2.84636   0.00001   0.00000  -0.00032  -0.00032   2.84603
    D8       -0.22030   0.00001   0.00000  -0.00019  -0.00019  -0.22049
    D9       -0.13353   0.00000   0.00000  -0.00013  -0.00013  -0.13366
   D10        3.08300  -0.00000   0.00000   0.00000   0.00000   3.08300
   D11       -2.58565  -0.00002   0.00000   0.00007   0.00007  -2.58558
   D12        0.50030  -0.00002   0.00000   0.00022   0.00022   0.50051
   D13        0.37431  -0.00000   0.00000  -0.00014  -0.00014   0.37416
   D14       -2.82293   0.00000   0.00000   0.00000   0.00000  -2.82292
   D15       -0.13562   0.00000   0.00000   0.00018   0.00018  -0.13545
   D16        3.12037  -0.00000   0.00000   0.00013   0.00013   3.12050
   D17        2.92981   0.00000   0.00000   0.00004   0.00004   2.92985
   D18       -0.09739   0.00000   0.00000  -0.00000  -0.00000  -0.09739
   D19        0.12900  -0.00000   0.00000   0.00006   0.00006   0.12906
   D20       -2.94232  -0.00000   0.00000  -0.00018  -0.00018  -2.94250
   D21       -3.12672  -0.00000   0.00000   0.00010   0.00010  -3.12662
   D22        0.08514   0.00000   0.00000  -0.00014  -0.00014   0.08500
   D23       -2.90495   0.00001   0.00000  -0.00057  -0.00057  -2.90552
   D24        0.15195  -0.00001   0.00000  -0.00036  -0.00036   0.15159
   D25        0.16981   0.00001   0.00000  -0.00034  -0.00034   0.16947
   D26       -3.05647  -0.00001   0.00000  -0.00013  -0.00013  -3.05660
   D27       -0.39567   0.00001   0.00000   0.00041   0.00041  -0.39526
   D28        2.79953   0.00001   0.00000   0.00030   0.00030   2.79983
   D29        2.65626  -0.00001   0.00000   0.00061   0.00061   2.65688
   D30       -0.43172  -0.00000   0.00000   0.00050   0.00050  -0.43122
   D31        3.08689  -0.00006   0.00000   0.00085   0.00085   3.08774
   D32        0.08465  -0.00007   0.00000   0.00029   0.00029   0.08494
   D33       -0.11561  -0.00006   0.00000   0.00099   0.00099  -0.11462
   D34       -3.11785  -0.00006   0.00000   0.00043   0.00043  -3.11742
   D35       -0.33304   0.00000   0.00000  -0.00032  -0.00032  -0.33335
   D36        2.88743   0.00001   0.00000  -0.00034  -0.00034   2.88709
   D37        2.68564  -0.00001   0.00000   0.00015   0.00015   2.68579
   D38       -0.37708   0.00000   0.00000   0.00013   0.00013  -0.37695
   D39       -2.91366   0.00001   0.00000   0.00059   0.00059  -2.91307
   D40        0.29334  -0.00001   0.00000   0.00067   0.00067   0.29401
   D41        0.34982  -0.00000   0.00000   0.00006   0.00006   0.34988
   D42       -2.72637  -0.00002   0.00000   0.00014   0.00014  -2.72623
   D43       -3.13386  -0.00002   0.00000  -0.00350  -0.00350  -3.13736
   D44       -0.06822  -0.00003   0.00000  -0.00348  -0.00348  -0.07170
   D45        0.19724  -0.00000   0.00000  -0.00025  -0.00025   0.19699
   D46       -3.02427  -0.00001   0.00000  -0.00038  -0.00038  -3.02465
   D47       -2.86676   0.00001   0.00000  -0.00027  -0.00027  -2.86703
   D48        0.19492   0.00000   0.00000  -0.00040  -0.00040   0.19452
   D49        0.06483  -0.00000   0.00000   0.00020   0.00020   0.06502
   D50        3.12941   0.00000   0.00000   0.00016   0.00016   3.12958
   D51       -2.99491   0.00000   0.00000   0.00032   0.00032  -2.99458
   D52        0.06968   0.00001   0.00000   0.00029   0.00029   0.06997
   D53       -0.10252   0.00000   0.00000  -0.00000  -0.00000  -0.10252
   D54        2.97948   0.00001   0.00000  -0.00023  -0.00023   2.97926
   D55        3.11626  -0.00000   0.00000   0.00003   0.00003   3.11628
   D56       -0.08493   0.00000   0.00000  -0.00020  -0.00020  -0.08512
   D57       -0.12496  -0.00000   0.00000  -0.00013  -0.00013  -0.12508
   D58        2.95440   0.00002   0.00000  -0.00021  -0.00021   2.95419
   D59        3.07343  -0.00000   0.00000   0.00009   0.00009   3.07352
   D60       -0.13040   0.00002   0.00000   0.00001   0.00001  -0.13039
         Item               Value     Threshold  Converged?
 Maximum Force            0.000171     0.000450     YES
 RMS     Force            0.000033     0.000300     YES
 Maximum Displacement     0.006973     0.001800     NO 
 RMS     Displacement     0.001210     0.001200     NO 
 Predicted change in Energy=-1.141529D-07
 GradGradGradGradGradGradGradGradGradGradGradGradGradGradGradGradGradGrad

                          Input orientation:                          
 ---------------------------------------------------------------------
 Center     Atomic      Atomic             Coordinates (Angstroms)
 Number     Number       Type             X           Y           Z
 ---------------------------------------------------------------------
      1          6           0        1.272277    2.510029    0.585939
      2          6           0        1.631381    1.137408    0.040176
      3          6           0        2.997248    0.983481   -0.279838
      4          6           0        3.596568   -0.268201   -0.461723
      5          6           0        2.838335   -1.402075   -0.155119
      6          6           0        1.484986   -1.252764    0.163842
      7          9           0        0.911891   -2.338923    0.715666
      8          6           0        0.757297   -0.021188    0.028269
      9          6           0       -0.734144    0.020736   -0.039657
     10          6           0       -1.594451   -1.142727   -0.114850
     11          8           0       -1.084586   -2.333268   -0.512457
     12          6           0       -2.984202   -1.059901    0.125692
     13          6           0       -3.631045    0.174536    0.217605
     14          6           0       -2.880723    1.333221   -0.013804
     15          6           0       -1.499394    1.221145   -0.202995
     16          9           0       -0.901035    2.348791   -0.641497
     17          1           0        0.393647    2.484817    1.255054
     18          1           0        2.134500    2.863702    1.187679
     19          1           0        1.081705    3.269159   -0.196742
     20          1           0        3.620109    1.891843   -0.316357
     21          1           0        4.660299   -0.355583   -0.730218
     22          1           0        3.273852   -2.409930   -0.089940
     23          1           0       -1.808829   -2.987933   -0.503509
     24          1           0       -3.561705   -1.999398    0.162949
     25          1           0       -4.715627    0.228893    0.393965
     26          1           0       -3.337134    2.328440   -0.108488
 ---------------------------------------------------------------------
                    Distance matrix (angstroms):
                    1          2          3          4          5
     1  C    0.000000
     2  C    1.520164   0.000000
     3  C    2.460781   1.411275   0.000000
     4  C    3.770740   2.467712   1.399633   0.000000
     5  C    4.278581   2.818485   2.394094   1.398068   0.000000
     6  C    3.792363   2.397842   2.735796   2.412358   1.398422
     7  F    4.864056   3.613701   4.046988   3.589099   2.312388
     8  C    2.642586   1.451382   2.474201   2.891810   2.504236
     9  C    3.257863   2.617067   3.861069   4.360813   3.847120
    10  C    4.695941   3.953358   5.062774   5.275585   4.440549
    11  O    5.497163   4.441562   5.264628   5.116667   4.047731
    12  C    5.574391   5.112640   6.333846   6.654200   5.839339
    13  C    5.443598   5.352731   6.695977   7.272956   6.669145
    14  C    4.357979   4.516673   5.894374   6.687338   6.341092
    15  C    3.156865   3.141321   4.503574   5.315442   5.069465
    16  F    2.501176   2.888816   4.146261   5.206669   5.318689
    17  H    1.104690   2.196229   3.374706   4.559072   4.803438
    18  H    1.109326   2.133068   2.536370   3.829750   4.527178
    19  H    1.106881   2.214189   2.983376   4.348294   4.990782
    20  H    2.590098   2.156694   1.102003   2.165057   3.389257
    21  H    4.628466   3.463651   2.182126   1.100568   2.178403
    22  H    5.354355   3.911299   3.409957   2.197584   1.099862
    23  H    6.395912   5.398988   6.238632   6.051199   4.922647
    24  H    6.624291   6.068176   7.218967   7.391084   6.435719
    25  H    6.410572   6.421454   7.778937   8.370896   7.747509
    26  H    4.664962   5.111438   6.477860   7.412391   7.214939
                    6          7          8          9         10
     6  C    0.000000
     7  F    1.346362   0.000000
     8  C    1.436903   2.422459   0.000000
     9  C    2.566662   2.974548   1.493576   0.000000
    10  C    3.093980   2.898688   2.609416   1.448940   0.000000
    11  O    2.868375   2.343979   3.005101   2.426455   1.354784
    12  C    4.473510   4.142886   3.884228   2.501575   1.412844
    13  C    5.311671   5.215726   4.396783   2.912365   2.448146
    14  C    5.077233   5.329230   3.882188   2.516165   2.791957
    15  C    3.893754   4.396853   2.586413   1.432923   2.367424
    16  F    4.394641   5.206079   2.969083   2.410375   3.598456
    17  H    4.043671   4.881392   2.813770   3.003312   4.357550
    18  H    4.291317   5.365154   3.400516   4.221129   5.626111
    19  H    4.554167   5.684357   3.313948   3.724813   5.160742
    20  H    3.831174   5.128245   3.460368   4.747328   6.036626
    21  H    3.418609   4.480490   3.990056   5.451468   6.334049
    22  H    2.145572   2.496579   3.471759   4.687718   5.030587
    23  H    3.782247   3.051215   3.958455   3.228342   1.897840
    24  H    5.101623   4.520380   4.752392   3.480961   2.163595
    25  H    6.379332   6.194040   5.490826   4.010432   3.447024
    26  H    6.012656   6.365353   4.722692   3.479338   3.884068
                   11         12         13         14         15
    11  O    0.000000
    12  C    2.374286   0.000000
    13  C    3.647810   1.396670   0.000000
    14  C    4.113138   2.399417   1.399673   0.000000
    15  C    3.591891   2.741507   2.411686   1.398722   0.000000
    16  F    4.687432   4.067843   3.594217   2.311828   1.349780
    17  H    5.340712   5.024972   4.755191   3.695629   2.703031
    18  H    6.345193   6.536328   6.435384   5.379442   4.223405
    19  H    6.014955   5.947800   5.653175   4.413860   3.294916
    20  H    6.326466   7.247422   7.470843   6.531800   5.164494
    21  H    6.079668   7.724444   8.362163   7.760949   6.380114
    22  H    4.379542   6.405647   7.379136   7.203873   5.998448
    23  H    0.976316   2.344078   3.720441   4.478967   4.231122
    24  H    2.589162   1.103428   2.175725   3.406072   3.841736
    25  H    4.535496   2.175039   1.100171   2.180066   3.418344
    26  H    5.193138   3.414712   2.198187   1.098971   2.147632
                   16         17         18         19         20
    16  F    0.000000
    17  H    2.300350   0.000000
    18  H    3.581269   1.782880   0.000000
    19  H    2.230727   1.787827   1.785887   0.000000
    20  H    4.555794   3.637446   2.326729   2.890467   0.000000
    21  H    6.184654   5.496681   4.519047   5.121492   2.510816
    22  H    6.354473   5.836364   5.544514   6.088429   4.321621
    23  H    5.415141   6.155845   7.256141   6.899311   7.302096
    24  H    5.160722   6.078296   7.559534   7.031950   8.182294
    25  H    4.485227   5.651137   7.382170   6.572763   8.529622
    26  H    2.493811   3.975227   5.648481   4.518726   6.974028
                   21         22         23         24         25
    21  H    0.000000
    22  H    2.559792   0.000000
    23  H    6.987867   5.132132   0.000000
    24  H    8.432154   6.852542   2.119892   0.000000
    25  H    9.461152   8.427890   4.427517   2.519957   0.000000
    26  H    8.458692   8.133735   5.545771   4.342153   2.561406
                   26
    26  H    0.000000
 Stoichiometry    C13H10F2O
 Framework group  C1[X(C13H10F2O)]
 Deg. of freedom    72
 Full point group                 C1      NOp   1
 Largest Abelian subgroup         C1      NOp   1
 Largest concise Abelian subgroup C1      NOp   1
                         Standard orientation:                         
 ---------------------------------------------------------------------
 Center     Atomic      Atomic             Coordinates (Angstroms)
 Number     Number       Type             X           Y           Z
 ---------------------------------------------------------------------
      1          6           0        1.192126    2.531214    0.666599
      2          6           0        1.592263    1.180075    0.096323
      3          6           0        2.963303    1.070944   -0.219963
      4          6           0        3.598570   -0.159587   -0.422945
      5          6           0        2.871405   -1.320109   -0.141852
      6          6           0        1.513014   -1.215219    0.173353
      7          9           0        0.968505   -2.327574    0.701431
      8          6           0        0.751365   -0.002264    0.057931
      9          6           0       -0.740359   -0.001112   -0.016407
     10          6           0       -1.567076   -1.186703   -0.118100
     11          8           0       -1.022029   -2.354482   -0.536021
     12          6           0       -2.959636   -1.147770    0.117249
     13          6           0       -3.641532    0.065926    0.229715
     14          6           0       -2.923301    1.249569    0.024241
     15          6           0       -1.538553    1.180171   -0.160369
     16          9           0       -0.970452    2.332511   -0.574229
     17          1           0        0.311690    2.468301    1.330839
     18          1           0        2.041401    2.897362    1.279193
     19          1           0        0.983525    3.299658   -0.102273
     20          1           0        3.560368    1.997047   -0.236011
     21          1           0        4.665492   -0.211728   -0.687910
     22          1           0        3.334975   -2.316353   -0.093931
     23          1           0       -1.727493   -3.029362   -0.543158
     24          1           0       -3.510485   -2.103724    0.133656
     25          1           0       -4.727967    0.086255    0.401826
     26          1           0       -3.407272    2.233164   -0.053524
 ---------------------------------------------------------------------
 Rotational constants (GHZ):           0.8462154           0.4762605           0.3179892
 Standard basis: def2SVP (5D, 7F)
 There are   290 symmetry adapted cartesian basis functions of A   symmetry.
 There are   274 symmetry adapted basis functions of A   symmetry.
   274 basis functions,   470 primitive gaussians,   290 cartesian basis functions
    57 alpha electrons       57 beta electrons
       nuclear repulsion energy      1072.2311581732 Hartrees.
 NAtoms=   26 NActive=   26 NUniq=   26 SFac= 1.00D+00 NAtFMM=   60 NAOKFM=F Big=F
 Integral buffers will be    131072 words long.
 Raffenetti 2 integral format.
 Two-electron integral symmetry is turned on.
 Nuclear repulsion after empirical dispersion term =     1072.1796470156 Hartrees.
 One-electron integrals computed using PRISM.
   1 Symmetry operations used in ECPInt.
 ECPInt:  NShTT=    8001 NPrTT=   29641 LenC2=    7596 LenP2D=   20275.
 LDataN:  DoStor=T MaxTD1= 4 Len=   56
 NBasis=   274 RedAO= T EigKep=  3.46D-04  NBF=   274
 NBsUse=   274 1.00D-06 EigRej= -1.00D+00 NBFU=   274
 Initial guess from the checkpoint file:  "/scratch/gaussian_tmp/Gau-230055.chk"
 B after Tr=     0.000000   -0.000000   -0.000000
         Rot=    1.000000   -0.000028    0.000003   -0.000038 Ang=  -0.01 deg.
 Requested convergence on RMS density matrix=1.00D-08 within 128 cycles.
 Requested convergence on MAX density matrix=1.00D-06.
 Requested convergence on             energy=1.00D-06.
 No special actions if energy rises.
 SCF Done:  E(RB-P86) =  -775.744510543     A.U. after    8 cycles
            NFock=  8  Conv=0.56D-08     -V/T= 2.0104
 DoSCS=F DFT=T ScalE2(SS,OS)=  1.000000  1.000000
 Range of M.O.s used for correlation:     1   274
 NBasis=   274 NAE=    57 NBE=    57 NFC=     0 NFV=     0
 NROrb=    274 NOA=    57 NOB=    57 NVA=   217 NVB=   217
 Symmetrizing basis deriv contribution to polar:
 IMax=3 JMax=2 DiffMx= 0.00D+00
   1 Symmetry operations used in ECPInt.
 ECPInt:  NShTT=    8001 NPrTT=   29641 LenC2=    7596 LenP2D=   20275.
 LDataN:  DoStor=T MaxTD1= 5 Len=  102
 Calling FoFJK, ICntrl=      2527 FMM=F ISym2X=0 I1Cent= 0 IOpClX= 0 NMat=1 NMatS=1 NMatT=0.
 ***** Axes restored to original set *****
 -------------------------------------------------------------------
 Center     Atomic                   Forces (Hartrees/Bohr)
 Number     Number              X              Y              Z
 -------------------------------------------------------------------
      1        6          -0.000007265   -0.000005526    0.000005899
      2        6          -0.000004468    0.000001954   -0.000001705
      3        6           0.000001348    0.000000599   -0.000004971
      4        6           0.000000456    0.000002423    0.000002218
      5        6          -0.000002547   -0.000000224   -0.000004396
      6        6          -0.000002585    0.000001409    0.000005795
      7        9          -0.000014629   -0.000001913   -0.000004418
      8        6           0.000000033   -0.000000525   -0.000014745
      9        6           0.000001097    0.000013084    0.000023729
     10        6          -0.000001374   -0.000001007   -0.000007980
     11        8           0.000019901   -0.000018456    0.000006887
     12        6           0.000002524    0.000000695    0.000002148
     13        6          -0.000000690    0.000001944   -0.000001189
     14        6          -0.000001302    0.000000534    0.000004907
     15        6           0.000002132   -0.000001629    0.000000013
     16        9           0.000016115    0.000005768   -0.000006636
     17        1          -0.000003960    0.000000356   -0.000002606
     18        1          -0.000002256   -0.000000046    0.000000393
     19        1          -0.000002371    0.000000907   -0.000002991
     20        1          -0.000000262    0.000000506   -0.000000983
     21        1          -0.000000215    0.000000396   -0.000001234
     22        1          -0.000000017    0.000000228    0.000000806
     23        1           0.000000022   -0.000000347   -0.000000723
     24        1           0.000000448   -0.000000486    0.000000874
     25        1           0.000000101   -0.000000357    0.000000644
     26        1          -0.000000234   -0.000000287    0.000000267
 -------------------------------------------------------------------
 Cartesian Forces:  Max     0.000023729 RMS     0.000005915

 GradGradGradGradGradGradGradGradGradGradGradGradGradGradGradGradGradGrad
 Berny optimization.
 FormGI is forming the generalized inverse of G from B-inverse, IUseBI=4.
 Internal  Forces:  Max     0.000039081 RMS     0.000008556
 Search for a saddle point.
 Step number  10 out of a maximum of  140
 All quantities printed in internal units (Hartrees-Bohrs-Radians)
 Swapping is turned off.
 Update second derivatives using D2CorX and points    1    2    3    4    5
                                                      6    7    8    9   10
 ITU=  0  0  0  0  0  0  0  0  0  0
     Eigenvalues ---   -0.03015   0.00401   0.00666   0.01076   0.01432
     Eigenvalues ---    0.01525   0.01558   0.01587   0.01623   0.01654
     Eigenvalues ---    0.01844   0.02027   0.02106   0.02217   0.02423
     Eigenvalues ---    0.02608   0.02868   0.02903   0.03010   0.03339
     Eigenvalues ---    0.03916   0.05236   0.05508   0.09873   0.09951
     Eigenvalues ---    0.10797   0.10843   0.10961   0.11447   0.11558
     Eigenvalues ---    0.13013   0.13360   0.14632   0.15383   0.16203
     Eigenvalues ---    0.16966   0.17307   0.17480   0.17740   0.18019
     Eigenvalues ---    0.19460   0.20094   0.21764   0.24909   0.26572
     Eigenvalues ---    0.27116   0.28788   0.30688   0.32270   0.32734
     Eigenvalues ---    0.33161   0.33511   0.33675   0.34079   0.34201
     Eigenvalues ---    0.34452   0.34584   0.34684   0.34974   0.36648
     Eigenvalues ---    0.39451   0.41690   0.42949   0.44616   0.46251
     Eigenvalues ---    0.46678   0.46897   0.49280   0.49344   0.49664
     Eigenvalues ---    0.70926   1.67786
 Eigenvectors required to have negative eigenvalues:
                          D31       D32       D33       D34       A26
   1                   -0.48292  -0.48116  -0.43513  -0.43337   0.12073
                          A25       A24       A23       D4        D2
   1                   -0.12046  -0.11944   0.11460   0.10560   0.10002
 RFO step:  Lambda0=1.158027628D-08 Lambda=-2.54592583D-08.
 Linear search not attempted -- option 19 set.
 Iteration  1 RMS(Cart)=  0.00035363 RMS(Int)=  0.00000003
 Iteration  2 RMS(Cart)=  0.00000005 RMS(Int)=  0.00000000
 Variable       Old X    -DE/DX   Delta X   Delta X   Delta X     New X
                                 (Linear)    (Quad)   (Total)
    R1        2.87269  -0.00000   0.00000  -0.00001  -0.00001   2.87269
    R2        2.08756   0.00000   0.00000  -0.00001  -0.00001   2.08755
    R3        2.09632  -0.00000   0.00000   0.00000   0.00000   2.09632
    R4        2.09170   0.00000   0.00000   0.00001   0.00001   2.09171
    R5        2.66692   0.00000   0.00000   0.00000   0.00000   2.66692
    R6        2.74271  -0.00002   0.00000  -0.00003  -0.00003   2.74268
    R7        2.64492   0.00001   0.00000   0.00001   0.00001   2.64493
    R8        2.08248   0.00000   0.00000   0.00000   0.00000   2.08249
    R9        2.64197   0.00001   0.00000   0.00002   0.00002   2.64198
   R10        2.07977   0.00000   0.00000   0.00000   0.00000   2.07977
   R11        2.64263  -0.00000   0.00000  -0.00001  -0.00001   2.64263
   R12        2.07844   0.00000   0.00000   0.00000   0.00000   2.07844
   R13        2.54426   0.00001   0.00000   0.00001   0.00001   2.54426
   R14        2.71535  -0.00002   0.00000  -0.00002  -0.00002   2.71533
   R15        2.82245  -0.00004   0.00000  -0.00007  -0.00007   2.82238
   R16        2.73810  -0.00001   0.00000   0.00002   0.00002   2.73812
   R17        2.70783  -0.00001   0.00000  -0.00002  -0.00002   2.70781
   R18        2.56017   0.00002   0.00000   0.00005   0.00005   2.56022
   R19        2.66989   0.00000   0.00000  -0.00001  -0.00001   2.66988
   R20        1.84497   0.00000   0.00000   0.00000   0.00000   1.84497
   R21        2.63932   0.00001   0.00000   0.00001   0.00001   2.63934
   R22        2.08518  -0.00000   0.00000  -0.00000  -0.00000   2.08518
   R23        2.64500   0.00001   0.00000   0.00001   0.00001   2.64500
   R24        2.07902  -0.00000   0.00000   0.00000   0.00000   2.07902
   R25        2.64320  -0.00000   0.00000   0.00000   0.00000   2.64320
   R26        2.07675   0.00000   0.00000   0.00000   0.00000   2.07675
   R27        2.55071   0.00001   0.00000   0.00002   0.00002   2.55073
    A1        1.96572  -0.00000   0.00000   0.00001   0.00001   1.96573
    A2        1.87445   0.00000   0.00000  -0.00001  -0.00001   1.87445
    A3        1.98895  -0.00000   0.00000  -0.00001  -0.00001   1.98894
    A4        1.87226   0.00000   0.00000  -0.00000  -0.00000   1.87226
    A5        1.88285  -0.00000   0.00000  -0.00001  -0.00001   1.88284
    A6        1.87415   0.00000   0.00000   0.00001   0.00001   1.87416
    A7        1.99163   0.00003   0.00000   0.00006   0.00006   1.99169
    A8        2.19133  -0.00002   0.00000  -0.00003  -0.00003   2.19130
    A9        2.08741  -0.00000   0.00000  -0.00004  -0.00004   2.08737
   A10        2.14293  -0.00001   0.00000  -0.00002  -0.00002   2.14291
   A11        2.05402   0.00000   0.00000   0.00001   0.00001   2.05403
   A12        2.08383   0.00000   0.00000   0.00000   0.00000   2.08383
   A13        2.05394   0.00000   0.00000   0.00003   0.00003   2.05397
   A14        2.11364  -0.00000   0.00000  -0.00001  -0.00001   2.11363
   A15        2.10982  -0.00000   0.00000  -0.00001  -0.00001   2.10981
   A16        2.08092  -0.00000   0.00000  -0.00002  -0.00002   2.08090
   A17        2.14293   0.00000   0.00000  -0.00000  -0.00000   2.14293
   A18        2.05730   0.00000   0.00000   0.00002   0.00002   2.05732
   A19        2.00346   0.00002   0.00000   0.00008   0.00008   2.00354
   A20        2.16530  -0.00001   0.00000  -0.00003  -0.00003   2.16527
   A21        2.11129  -0.00001   0.00000  -0.00005  -0.00005   2.11124
   A22        1.95890   0.00002   0.00000   0.00004   0.00004   1.95895
   A23        2.18872  -0.00001   0.00000   0.00005   0.00005   2.18878
   A24        2.13419  -0.00001   0.00000  -0.00010  -0.00010   2.13409
   A25        2.18062  -0.00001   0.00000  -0.00015  -0.00015   2.18047
   A26        2.16758  -0.00001   0.00000   0.00007   0.00007   2.16765
   A27        1.92802   0.00003   0.00000   0.00005   0.00005   1.92807
   A28        2.09140  -0.00000   0.00000   0.00000   0.00000   2.09141
   A29        2.12720  -0.00002   0.00000  -0.00004  -0.00004   2.12716
   A30        2.06199   0.00002   0.00000   0.00004   0.00004   2.06203
   A31        1.88324   0.00000   0.00000  -0.00002  -0.00002   1.88322
   A32        2.11599  -0.00000   0.00000  -0.00001  -0.00001   2.11598
   A33        2.06083   0.00000   0.00000   0.00001   0.00001   2.06084
   A34        2.10357   0.00000   0.00000  -0.00001  -0.00001   2.10356
   A35        2.06294   0.00001   0.00000   0.00003   0.00003   2.06297
   A36        2.10690  -0.00000   0.00000  -0.00001  -0.00001   2.10689
   A37        2.11072  -0.00000   0.00000  -0.00001  -0.00001   2.11071
   A38        2.07766  -0.00000   0.00000  -0.00001  -0.00001   2.07764
   A39        2.14276   0.00000   0.00000  -0.00000  -0.00000   2.14275
   A40        2.06128   0.00000   0.00000   0.00001   0.00001   2.06129
   A41        2.18844  -0.00001   0.00000  -0.00004  -0.00004   2.18840
   A42        2.09457  -0.00001   0.00000  -0.00000  -0.00000   2.09457
   A43        1.99851   0.00002   0.00000   0.00004   0.00004   1.99855
    D1       -2.66203  -0.00000   0.00000  -0.00016  -0.00016  -2.66219
    D2        0.30642  -0.00000   0.00000  -0.00022  -0.00022   0.30620
    D3       -0.60454  -0.00000   0.00000  -0.00016  -0.00016  -0.60470
    D4        2.36391  -0.00000   0.00000  -0.00022  -0.00022   2.36369
    D5        1.46896   0.00000   0.00000  -0.00015  -0.00015   1.46881
    D6       -1.84577   0.00000   0.00000  -0.00022  -0.00022  -1.84599
    D7        2.84603  -0.00000   0.00000  -0.00015  -0.00015   2.84589
    D8       -0.22049  -0.00000   0.00000  -0.00010  -0.00010  -0.22059
    D9       -0.13366   0.00000   0.00000  -0.00009  -0.00009  -0.13374
   D10        3.08300   0.00000   0.00000  -0.00004  -0.00004   3.08296
   D11       -2.58558  -0.00000   0.00000   0.00018   0.00018  -2.58540
   D12        0.50051  -0.00000   0.00000   0.00013   0.00013   0.50064
   D13        0.37416   0.00000   0.00000   0.00012   0.00012   0.37429
   D14       -2.82292  -0.00000   0.00000   0.00007   0.00007  -2.82285
   D15       -0.13545   0.00000   0.00000   0.00002   0.00002  -0.13543
   D16        3.12050  -0.00000   0.00000   0.00001   0.00001   3.12051
   D17        2.92985   0.00000   0.00000  -0.00003  -0.00003   2.92982
   D18       -0.09739  -0.00000   0.00000  -0.00004  -0.00004  -0.09743
   D19        0.12906  -0.00000   0.00000   0.00002   0.00002   0.12908
   D20       -2.94250  -0.00000   0.00000   0.00003   0.00003  -2.94247
   D21       -3.12662   0.00000   0.00000   0.00003   0.00003  -3.12659
   D22        0.08500  -0.00000   0.00000   0.00004   0.00004   0.08504
   D23       -2.90552  -0.00000   0.00000  -0.00000  -0.00000  -2.90553
   D24        0.15159  -0.00000   0.00000   0.00002   0.00002   0.15161
   D25        0.16947  -0.00000   0.00000  -0.00002  -0.00002   0.16946
   D26       -3.05660  -0.00000   0.00000   0.00001   0.00001  -3.05659
   D27       -0.39526  -0.00000   0.00000  -0.00009  -0.00009  -0.39535
   D28        2.79983   0.00000   0.00000  -0.00005  -0.00005   2.79978
   D29        2.65688   0.00000   0.00000  -0.00007  -0.00007   2.65681
   D30       -0.43122   0.00001   0.00000  -0.00002  -0.00002  -0.43124
   D31        3.08774   0.00001   0.00000  -0.00048  -0.00048   3.08726
   D32        0.08494   0.00001   0.00000  -0.00022  -0.00022   0.08472
   D33       -0.11462   0.00000   0.00000  -0.00053  -0.00053  -0.11515
   D34       -3.11742   0.00001   0.00000  -0.00027  -0.00027  -3.11769
   D35       -0.33335   0.00001   0.00000   0.00023   0.00023  -0.33312
   D36        2.88709   0.00000   0.00000   0.00017   0.00017   2.88726
   D37        2.68579   0.00000   0.00000   0.00001   0.00001   2.68580
   D38       -0.37695  -0.00000   0.00000  -0.00006  -0.00006  -0.37701
   D39       -2.91307  -0.00000   0.00000  -0.00011  -0.00011  -2.91318
   D40        0.29401  -0.00000   0.00000  -0.00013  -0.00013   0.29388
   D41        0.34988   0.00000   0.00000   0.00012   0.00012   0.35000
   D42       -2.72623   0.00000   0.00000   0.00011   0.00011  -2.72612
   D43       -3.13736  -0.00000   0.00000   0.00026   0.00026  -3.13711
   D44       -0.07170   0.00000   0.00000   0.00032   0.00032  -0.07138
   D45        0.19699  -0.00000   0.00000  -0.00002  -0.00002   0.19697
   D46       -3.02465  -0.00000   0.00000   0.00002   0.00002  -3.02463
   D47       -2.86703  -0.00001   0.00000  -0.00008  -0.00008  -2.86711
   D48        0.19452  -0.00000   0.00000  -0.00005  -0.00005   0.19447
   D49        0.06502  -0.00000   0.00000   0.00001   0.00001   0.06504
   D50        3.12958   0.00000   0.00000   0.00004   0.00004   3.12962
   D51       -2.99458  -0.00000   0.00000  -0.00002  -0.00002  -2.99460
   D52        0.06997  -0.00000   0.00000   0.00001   0.00001   0.06998
   D53       -0.10252   0.00000   0.00000   0.00005   0.00005  -0.10248
   D54        2.97926   0.00000   0.00000  -0.00002  -0.00002   2.97923
   D55        3.11628  -0.00000   0.00000   0.00002   0.00002   3.11630
   D56       -0.08512  -0.00000   0.00000  -0.00005  -0.00005  -0.08517
   D57       -0.12508   0.00000   0.00000  -0.00012  -0.00012  -0.12520
   D58        2.95419  -0.00000   0.00000  -0.00011  -0.00011   2.95409
   D59        3.07352   0.00000   0.00000  -0.00005  -0.00005   3.07347
   D60       -0.13039  -0.00000   0.00000  -0.00004  -0.00004  -0.13042
         Item               Value     Threshold  Converged?
 Maximum Force            0.000039     0.000450     YES
 RMS     Force            0.000009     0.000300     YES
 Maximum Displacement     0.001302     0.001800     YES
 RMS     Displacement     0.000354     0.001200     YES
 Predicted change in Energy=-6.939356D-09
 Optimization completed.
    -- Stationary point found.
                           ----------------------------
                           !   Optimized Parameters   !
                           ! (Angstroms and Degrees)  !
 --------------------------                            --------------------------
 ! Name  Definition              Value          Derivative Info.                !
 --------------------------------------------------------------------------------
 ! R1    R(1,2)                  1.5202         -DE/DX =    0.0                 !
 ! R2    R(1,17)                 1.1047         -DE/DX =    0.0                 !
 ! R3    R(1,18)                 1.1093         -DE/DX =    0.0                 !
 ! R4    R(1,19)                 1.1069         -DE/DX =    0.0                 !
 ! R5    R(2,3)                  1.4113         -DE/DX =    0.0                 !
 ! R6    R(2,8)                  1.4514         -DE/DX =    0.0                 !
 ! R7    R(3,4)                  1.3996         -DE/DX =    0.0                 !
 ! R8    R(3,20)                 1.102          -DE/DX =    0.0                 !
 ! R9    R(4,5)                  1.3981         -DE/DX =    0.0                 !
 ! R10   R(4,21)                 1.1006         -DE/DX =    0.0                 !
 ! R11   R(5,6)                  1.3984         -DE/DX =    0.0                 !
 ! R12   R(5,22)                 1.0999         -DE/DX =    0.0                 !
 ! R13   R(6,7)                  1.3464         -DE/DX =    0.0                 !
 ! R14   R(6,8)                  1.4369         -DE/DX =    0.0                 !
 ! R15   R(8,9)                  1.4936         -DE/DX =    0.0                 !
 ! R16   R(9,10)                 1.4489         -DE/DX =    0.0                 !
 ! R17   R(9,15)                 1.4329         -DE/DX =    0.0                 !
 ! R18   R(10,11)                1.3548         -DE/DX =    0.0                 !
 ! R19   R(10,12)                1.4128         -DE/DX =    0.0                 !
 ! R20   R(11,23)                0.9763         -DE/DX =    0.0                 !
 ! R21   R(12,13)                1.3967         -DE/DX =    0.0                 !
 ! R22   R(12,24)                1.1034         -DE/DX =    0.0                 !
 ! R23   R(13,14)                1.3997         -DE/DX =    0.0                 !
 ! R24   R(13,25)                1.1002         -DE/DX =    0.0                 !
 ! R25   R(14,15)                1.3987         -DE/DX =    0.0                 !
 ! R26   R(14,26)                1.099          -DE/DX =    0.0                 !
 ! R27   R(15,16)                1.3498         -DE/DX =    0.0                 !
 ! A1    A(2,1,17)             112.6274         -DE/DX =    0.0                 !
 ! A2    A(2,1,18)             107.3982         -DE/DX =    0.0                 !
 ! A3    A(2,1,19)             113.9584         -DE/DX =    0.0                 !
 ! A4    A(17,1,18)            107.2724         -DE/DX =    0.0                 !
 ! A5    A(17,1,19)            107.8791         -DE/DX =    0.0                 !
 ! A6    A(18,1,19)            107.381          -DE/DX =    0.0                 !
 ! A7    A(1,2,3)              114.1118         -DE/DX =    0.0                 !
 ! A8    A(1,2,8)              125.5542         -DE/DX =    0.0                 !
 ! A9    A(3,2,8)              119.5997         -DE/DX =    0.0                 !
 ! A10   A(2,3,4)              122.7809         -DE/DX =    0.0                 !
 ! A11   A(2,3,20)             117.6864         -DE/DX =    0.0                 !
 ! A12   A(4,3,20)             119.3947         -DE/DX =    0.0                 !
 ! A13   A(3,4,5)              117.6823         -DE/DX =    0.0                 !
 ! A14   A(3,4,21)             121.1027         -DE/DX =    0.0                 !
 ! A15   A(5,4,21)             120.8839         -DE/DX =    0.0                 !
 ! A16   A(4,5,6)              119.2282         -DE/DX =    0.0                 !
 ! A17   A(4,5,22)             122.7808         -DE/DX =    0.0                 !
 ! A18   A(6,5,22)             117.8744         -DE/DX =    0.0                 !
 ! A19   A(5,6,7)              114.7898         -DE/DX =    0.0                 !
 ! A20   A(5,6,8)              124.0627         -DE/DX =    0.0                 !
 ! A21   A(7,6,8)              120.9681         -DE/DX =    0.0                 !
 ! A22   A(2,8,6)              112.2368         -DE/DX =    0.0                 !
 ! A23   A(2,8,9)              125.4047         -DE/DX =    0.0                 !
 ! A24   A(6,8,9)              122.2798         -DE/DX =    0.0                 !
 ! A25   A(8,9,10)             124.9402         -DE/DX =    0.0                 !
 ! A26   A(8,9,15)             124.1931         -DE/DX =    0.0                 !
 ! A27   A(10,9,15)            110.4674         -DE/DX =    0.0                 !
 ! A28   A(9,10,11)            119.8285         -DE/DX =    0.0                 !
 ! A29   A(9,10,12)            121.8796         -DE/DX =    0.0                 !
 ! A30   A(11,10,12)           118.1431         -DE/DX =    0.0                 !
 ! A31   A(10,11,23)           107.9019         -DE/DX =    0.0                 !
 ! A32   A(10,12,13)           121.2371         -DE/DX =    0.0                 !
 ! A33   A(10,12,24)           118.0766         -DE/DX =    0.0                 !
 ! A34   A(13,12,24)           120.5255         -DE/DX =    0.0                 !
 ! A35   A(12,13,14)           118.1978         -DE/DX =    0.0                 !
 ! A36   A(12,13,25)           120.7164         -DE/DX =    0.0                 !
 ! A37   A(14,13,25)           120.9356         -DE/DX =    0.0                 !
 ! A38   A(13,14,15)           119.0409         -DE/DX =    0.0                 !
 ! A39   A(13,14,26)           122.771          -DE/DX =    0.0                 !
 ! A40   A(15,14,26)           118.1026         -DE/DX =    0.0                 !
 ! A41   A(9,15,14)            125.3883         -DE/DX =    0.0                 !
 ! A42   A(9,15,16)            120.0103         -DE/DX =    0.0                 !
 ! A43   A(14,15,16)           114.5061         -DE/DX =    0.0                 !
 ! D1    D(17,1,2,3)          -152.5233         -DE/DX =    0.0                 !
 ! D2    D(17,1,2,8)            17.5566         -DE/DX =    0.0                 !
 ! D3    D(18,1,2,3)           -34.6377         -DE/DX =    0.0                 !
 ! D4    D(18,1,2,8)           135.4422         -DE/DX =    0.0                 !
 ! D5    D(19,1,2,3)            84.1653         -DE/DX =    0.0                 !
 ! D6    D(19,1,2,8)          -105.7548         -DE/DX =    0.0                 !
 ! D7    D(1,2,3,4)            163.0658         -DE/DX =    0.0                 !
 ! D8    D(1,2,3,20)           -12.6332         -DE/DX =    0.0                 !
 ! D9    D(8,2,3,4)             -7.6581         -DE/DX =    0.0                 !
 ! D10   D(8,2,3,20)           176.643          -DE/DX =    0.0                 !
 ! D11   D(1,2,8,6)           -148.143          -DE/DX =    0.0                 !
 ! D12   D(1,2,8,9)             28.6773         -DE/DX =    0.0                 !
 ! D13   D(3,2,8,6)             21.438          -DE/DX =    0.0                 !
 ! D14   D(3,2,8,9)           -161.7417         -DE/DX =    0.0                 !
 ! D15   D(2,3,4,5)             -7.7606         -DE/DX =    0.0                 !
 ! D16   D(2,3,4,21)           178.7915         -DE/DX =    0.0                 !
 ! D17   D(20,3,4,5)           167.8679         -DE/DX =    0.0                 !
 ! D18   D(20,3,4,21)           -5.58           -DE/DX =    0.0                 !
 ! D19   D(3,4,5,6)              7.3949         -DE/DX =    0.0                 !
 ! D20   D(3,4,5,22)          -168.593          -DE/DX =    0.0                 !
 ! D21   D(21,4,5,6)          -179.1421         -DE/DX =    0.0                 !
 ! D22   D(21,4,5,22)            4.87           -DE/DX =    0.0                 !
 ! D23   D(4,5,6,7)           -166.4743         -DE/DX =    0.0                 !
 ! D24   D(4,5,6,8)              8.6855         -DE/DX =    0.0                 !
 ! D25   D(22,5,6,7)             9.7101         -DE/DX =    0.0                 !
 ! D26   D(22,5,6,8)          -175.1301         -DE/DX =    0.0                 !
 ! D27   D(5,6,8,2)            -22.6468         -DE/DX =    0.0                 !
 ! D28   D(5,6,8,9)            160.4186         -DE/DX =    0.0                 !
 ! D29   D(7,6,8,2)            152.2278         -DE/DX =    0.0                 !
 ! D30   D(7,6,8,9)            -24.7069         -DE/DX =    0.0                 !
 ! D31   D(2,8,9,10)           176.9143         -DE/DX =    0.0                 !
 ! D32   D(2,8,9,15)             4.8667         -DE/DX =    0.0                 !
 ! D33   D(6,8,9,10)            -6.5673         -DE/DX =    0.0                 !
 ! D34   D(6,8,9,15)          -178.6149         -DE/DX =    0.0                 !
 ! D35   D(8,9,10,11)          -19.0997         -DE/DX =    0.0                 !
 ! D36   D(8,9,10,12)          165.4182         -DE/DX =    0.0                 !
 ! D37   D(15,9,10,11)         153.8842         -DE/DX =    0.0                 !
 ! D38   D(15,9,10,12)         -21.5979         -DE/DX =    0.0                 !
 ! D39   D(8,9,15,14)         -166.9066         -DE/DX =    0.0                 !
 ! D40   D(8,9,15,16)           16.8454         -DE/DX =    0.0                 !
 ! D41   D(10,9,15,14)          20.0464         -DE/DX =    0.0                 !
 ! D42   D(10,9,15,16)        -156.2016         -DE/DX =    0.0                 !
 ! D43   D(9,10,11,23)        -179.7577         -DE/DX =    0.0                 !
 ! D44   D(12,10,11,23)         -4.1082         -DE/DX =    0.0                 !
 ! D45   D(9,10,12,13)          11.2864         -DE/DX =    0.0                 !
 ! D46   D(9,10,12,24)        -173.2995         -DE/DX =    0.0                 !
 ! D47   D(11,10,12,13)       -164.2688         -DE/DX =    0.0                 !
 ! D48   D(11,10,12,24)         11.1453         -DE/DX =    0.0                 !
 ! D49   D(10,12,13,14)          3.7256         -DE/DX =    0.0                 !
 ! D50   D(10,12,13,25)        179.3117         -DE/DX =    0.0                 !
 ! D51   D(24,12,13,14)       -171.5769         -DE/DX =    0.0                 !
 ! D52   D(24,12,13,25)          4.0092         -DE/DX =    0.0                 !
 ! D53   D(12,13,14,15)         -5.8742         -DE/DX =    0.0                 !
 ! D54   D(12,13,14,26)        170.6988         -DE/DX =    0.0                 !
 ! D55   D(25,13,14,15)        178.5499         -DE/DX =    0.0                 !
 ! D56   D(25,13,14,26)         -4.8772         -DE/DX =    0.0                 !
 ! D57   D(13,14,15,9)          -7.1668         -DE/DX =    0.0                 !
 ! D58   D(13,14,15,16)        169.2629         -DE/DX =    0.0                 !
 ! D59   D(26,14,15,9)         176.0998         -DE/DX =    0.0                 !
 ! D60   D(26,14,15,16)         -7.4706         -DE/DX =    0.0                 !
 --------------------------------------------------------------------------------
 GradGradGradGradGradGradGradGradGradGradGradGradGradGradGradGradGradGrad

                          Input orientation:                          
 ---------------------------------------------------------------------
 Center     Atomic      Atomic             Coordinates (Angstroms)
 Number     Number       Type             X           Y           Z
 ---------------------------------------------------------------------
      1          6           0        1.272277    2.510029    0.585939
      2          6           0        1.631381    1.137408    0.040176
      3          6           0        2.997248    0.983481   -0.279838
      4          6           0        3.596568   -0.268201   -0.461723
      5          6           0        2.838335   -1.402075   -0.155119
      6          6           0        1.484986   -1.252764    0.163842
      7          9           0        0.911891   -2.338923    0.715666
      8          6           0        0.757297   -0.021188    0.028269
      9          6           0       -0.734144    0.020736   -0.039657
     10          6           0       -1.594451   -1.142727   -0.114850
     11          8           0       -1.084586   -2.333268   -0.512457
     12          6           0       -2.984202   -1.059901    0.125692
     13          6           0       -3.631045    0.174536    0.217605
     14          6           0       -2.880723    1.333221   -0.013804
     15          6           0       -1.499394    1.221145   -0.202995
     16          9           0       -0.901035    2.348791   -0.641497
     17          1           0        0.393647    2.484817    1.255054
     18          1           0        2.134500    2.863702    1.187679
     19          1           0        1.081705    3.269159   -0.196742
     20          1           0        3.620109    1.891843   -0.316357
     21          1           0        4.660299   -0.355583   -0.730218
     22          1           0        3.273852   -2.409930   -0.089940
     23          1           0       -1.808829   -2.987933   -0.503509
     24          1           0       -3.561705   -1.999398    0.162949
     25          1           0       -4.715627    0.228893    0.393965
     26          1           0       -3.337134    2.328440   -0.108488
 ---------------------------------------------------------------------
                    Distance matrix (angstroms):
                    1          2          3          4          5
     1  C    0.000000
     2  C    1.520164   0.000000
     3  C    2.460781   1.411275   0.000000
     4  C    3.770740   2.467712   1.399633   0.000000
     5  C    4.278581   2.818485   2.394094   1.398068   0.000000
     6  C    3.792363   2.397842   2.735796   2.412358   1.398422
     7  F    4.864056   3.613701   4.046988   3.589099   2.312388
     8  C    2.642586   1.451382   2.474201   2.891810   2.504236
     9  C    3.257863   2.617067   3.861069   4.360813   3.847120
    10  C    4.695941   3.953358   5.062774   5.275585   4.440549
    11  O    5.497163   4.441562   5.264628   5.116667   4.047731
    12  C    5.574391   5.112640   6.333846   6.654200   5.839339
    13  C    5.443598   5.352731   6.695977   7.272956   6.669145
    14  C    4.357979   4.516673   5.894374   6.687338   6.341092
    15  C    3.156865   3.141321   4.503574   5.315442   5.069465
    16  F    2.501176   2.888816   4.146261   5.206669   5.318689
    17  H    1.104690   2.196229   3.374706   4.559072   4.803438
    18  H    1.109326   2.133068   2.536370   3.829750   4.527178
    19  H    1.106881   2.214189   2.983376   4.348294   4.990782
    20  H    2.590098   2.156694   1.102003   2.165057   3.389257
    21  H    4.628466   3.463651   2.182126   1.100568   2.178403
    22  H    5.354355   3.911299   3.409957   2.197584   1.099862
    23  H    6.395912   5.398988   6.238632   6.051199   4.922647
    24  H    6.624291   6.068176   7.218967   7.391084   6.435719
    25  H    6.410572   6.421454   7.778937   8.370896   7.747509
    26  H    4.664962   5.111438   6.477860   7.412391   7.214939
                    6          7          8          9         10
     6  C    0.000000
     7  F    1.346362   0.000000
     8  C    1.436903   2.422459   0.000000
     9  C    2.566662   2.974548   1.493576   0.000000
    10  C    3.093980   2.898688   2.609416   1.448940   0.000000
    11  O    2.868375   2.343979   3.005101   2.426455   1.354784
    12  C    4.473510   4.142886   3.884228   2.501575   1.412844
    13  C    5.311671   5.215726   4.396783   2.912365   2.448146
    14  C    5.077233   5.329230   3.882188   2.516165   2.791957
    15  C    3.893754   4.396853   2.586413   1.432923   2.367424
    16  F    4.394641   5.206079   2.969083   2.410375   3.598456
    17  H    4.043671   4.881392   2.813770   3.003312   4.357550
    18  H    4.291317   5.365154   3.400516   4.221129   5.626111
    19  H    4.554167   5.684357   3.313948   3.724813   5.160742
    20  H    3.831174   5.128245   3.460368   4.747328   6.036626
    21  H    3.418609   4.480490   3.990056   5.451468   6.334049
    22  H    2.145572   2.496579   3.471759   4.687718   5.030587
    23  H    3.782247   3.051215   3.958455   3.228342   1.897840
    24  H    5.101623   4.520380   4.752392   3.480961   2.163595
    25  H    6.379332   6.194040   5.490826   4.010432   3.447024
    26  H    6.012656   6.365353   4.722692   3.479338   3.884068
                   11         12         13         14         15
    11  O    0.000000
    12  C    2.374286   0.000000
    13  C    3.647810   1.396670   0.000000
    14  C    4.113138   2.399417   1.399673   0.000000
    15  C    3.591891   2.741507   2.411686   1.398722   0.000000
    16  F    4.687432   4.067843   3.594217   2.311828   1.349780
    17  H    5.340712   5.024972   4.755191   3.695629   2.703031
    18  H    6.345193   6.536328   6.435384   5.379442   4.223405
    19  H    6.014955   5.947800   5.653175   4.413860   3.294916
    20  H    6.326466   7.247422   7.470843   6.531800   5.164494
    21  H    6.079668   7.724444   8.362163   7.760949   6.380114
    22  H    4.379542   6.405647   7.379136   7.203873   5.998448
    23  H    0.976316   2.344078   3.720441   4.478967   4.231122
    24  H    2.589162   1.103428   2.175725   3.406072   3.841736
    25  H    4.535496   2.175039   1.100171   2.180066   3.418344
    26  H    5.193138   3.414712   2.198187   1.098971   2.147632
                   16         17         18         19         20
    16  F    0.000000
    17  H    2.300350   0.000000
    18  H    3.581269   1.782880   0.000000
    19  H    2.230727   1.787827   1.785887   0.000000
    20  H    4.555794   3.637446   2.326729   2.890467   0.000000
    21  H    6.184654   5.496681   4.519047   5.121492   2.510816
    22  H    6.354473   5.836364   5.544514   6.088429   4.321621
    23  H    5.415141   6.155845   7.256141   6.899311   7.302096
    24  H    5.160722   6.078296   7.559534   7.031950   8.182294
    25  H    4.485227   5.651137   7.382170   6.572763   8.529622
    26  H    2.493811   3.975227   5.648481   4.518726   6.974028
                   21         22         23         24         25
    21  H    0.000000
    22  H    2.559792   0.000000
    23  H    6.987867   5.132132   0.000000
    24  H    8.432154   6.852542   2.119892   0.000000
    25  H    9.461152   8.427890   4.427517   2.519957   0.000000
    26  H    8.458692   8.133735   5.545771   4.342153   2.561406
                   26
    26  H    0.000000
 Stoichiometry    C13H10F2O
 Framework group  C1[X(C13H10F2O)]
 Deg. of freedom    72
 Full point group                 C1      NOp   1
 Largest Abelian subgroup         C1      NOp   1
 Largest concise Abelian subgroup C1      NOp   1
                         Standard orientation:                         
 ---------------------------------------------------------------------
 Center     Atomic      Atomic             Coordinates (Angstroms)
 Number     Number       Type             X           Y           Z
 ---------------------------------------------------------------------
      1          6           0        1.192126    2.531214    0.666599
      2          6           0        1.592263    1.180075    0.096323
      3          6           0        2.963303    1.070944   -0.219963
      4          6           0        3.598570   -0.159587   -0.422945
      5          6           0        2.871405   -1.320109   -0.141852
      6          6           0        1.513014   -1.215219    0.173353
      7          9           0        0.968505   -2.327574    0.701431
      8          6           0        0.751365   -0.002264    0.057931
      9          6           0       -0.740359   -0.001112   -0.016407
     10          6           0       -1.567076   -1.186703   -0.118100
     11          8           0       -1.022029   -2.354482   -0.536021
     12          6           0       -2.959636   -1.147770    0.117249
     13          6           0       -3.641532    0.065926    0.229715
     14          6           0       -2.923301    1.249569    0.024241
     15          6           0       -1.538553    1.180171   -0.160369
     16          9           0       -0.970452    2.332511   -0.574229
     17          1           0        0.311690    2.468301    1.330839
     18          1           0        2.041401    2.897362    1.279193
     19          1           0        0.983525    3.299658   -0.102273
     20          1           0        3.560368    1.997047   -0.236011
     21          1           0        4.665492   -0.211728   -0.687910
     22          1           0        3.334975   -2.316353   -0.093931
     23          1           0       -1.727493   -3.029362   -0.543158
     24          1           0       -3.510485   -2.103724    0.133656
     25          1           0       -4.727967    0.086255    0.401826
     26          1           0       -3.407272    2.233164   -0.053524
 ---------------------------------------------------------------------
 Rotational constants (GHZ):           0.8462154           0.4762605           0.3179892

 **********************************************************************

            Population analysis using the SCF Density.

 **********************************************************************

 Orbital symmetries:
       Occupied  (A) (A) (A) (A) (A) (A) (A) (A) (A) (A) (A) (A)
                 (A) (A) (A) (A) (A) (A) (A) (A) (A) (A) (A) (A)
                 (A) (A) (A) (A) (A) (A) (A) (A) (A) (A) (A) (A)
                 (A) (A) (A) (A) (A) (A) (A) (A) (A) (A) (A) (A)
                 (A) (A) (A) (A) (A) (A) (A) (A) (A)
       Virtual   (A) (A) (A) (A) (A) (A) (A) (A) (A) (A) (A) (A)
                 (A) (A) (A) (A) (A) (A) (A) (A) (A) (A) (A) (A)
                 (A) (A) (A) (A) (A) (A) (A) (A) (A) (A) (A) (A)
                 (A) (A) (A) (A) (A) (A) (A) (A) (A) (A) (A) (A)
                 (A) (A) (A) (A) (A) (A) (A) (A) (A) (A) (A) (A)
                 (A) (A) (A) (A) (A) (A) (A) (A) (A) (A) (A) (A)
                 (A) (A) (A) (A) (A) (A) (A) (A) (A) (A) (A) (A)
                 (A) (A) (A) (A) (A) (A) (A) (A) (A) (A) (A) (A)
                 (A) (A) (A) (A) (A) (A) (A) (A) (A) (A) (A) (A)
                 (A) (A) (A) (A) (A) (A) (A) (A) (A) (A) (A) (A)
                 (A) (A) (A) (A) (A) (A) (A) (A) (A) (A) (A) (A)
                 (A) (A) (A) (A) (A) (A) (A) (A) (A) (A) (A) (A)
                 (A) (A) (A) (A) (A) (A) (A) (A) (A) (A) (A) (A)
                 (A) (A) (A) (A) (A) (A) (A) (A) (A) (A) (A) (A)
                 (A) (A) (A) (A) (A) (A) (A) (A) (A) (A) (A) (A)
                 (A) (A) (A) (A) (A) (A) (A) (A) (A) (A) (A) (A)
                 (A) (A) (A) (A) (A) (A) (A) (A) (A) (A) (A) (A)
                 (A) (A) (A) (A) (A) (A) (A) (A) (A) (A) (A) (A)
                 (A)
 The electronic state is 1-A.
 Alpha  occ. eigenvalues --  -24.30213 -24.29066 -18.82124 -10.00301  -9.99456
 Alpha  occ. eigenvalues --   -9.99279  -9.94628  -9.94387  -9.93402  -9.93131
 Alpha  occ. eigenvalues --   -9.92342  -9.92019  -9.91844  -9.91423  -9.91065
 Alpha  occ. eigenvalues --   -9.91058  -1.11148  -1.10059  -0.97916  -0.78495
 Alpha  occ. eigenvalues --   -0.77018  -0.70856  -0.68891  -0.66670  -0.65496
 Alpha  occ. eigenvalues --   -0.61323  -0.57663  -0.57266  -0.53478  -0.52715
 Alpha  occ. eigenvalues --   -0.51456  -0.47623  -0.46175  -0.45445  -0.44424
 Alpha  occ. eigenvalues --   -0.42548  -0.42132  -0.41594  -0.40770  -0.39610
 Alpha  occ. eigenvalues --   -0.37908  -0.37599  -0.36915  -0.36566  -0.35198
 Alpha  occ. eigenvalues --   -0.34545  -0.33180  -0.31992  -0.31836  -0.31008
 Alpha  occ. eigenvalues --   -0.30423  -0.29510  -0.28500  -0.25972  -0.20955
 Alpha  occ. eigenvalues --   -0.20352  -0.19186
 Alpha virt. eigenvalues --   -0.08453  -0.03358  -0.03218  -0.01989   0.01663
 Alpha virt. eigenvalues --    0.03346   0.04974   0.05571   0.07188   0.08626
 Alpha virt. eigenvalues --    0.09502   0.09725   0.11267   0.11964   0.12540
 Alpha virt. eigenvalues --    0.13162   0.13993   0.16273   0.18399   0.19044
 Alpha virt. eigenvalues --    0.19990   0.20608   0.24240   0.26011   0.26869
 Alpha virt. eigenvalues --    0.27902   0.29153   0.29544   0.30041   0.31085
 Alpha virt. eigenvalues --    0.32934   0.35395   0.36410   0.37164   0.38191
 Alpha virt. eigenvalues --    0.39088   0.39568   0.41225   0.42238   0.42530
 Alpha virt. eigenvalues --    0.42950   0.43646   0.44163   0.45523   0.45966
 Alpha virt. eigenvalues --    0.47129   0.48145   0.49387   0.50298   0.51586
 Alpha virt. eigenvalues --    0.52622   0.53544   0.54230   0.54654   0.55888
 Alpha virt. eigenvalues --    0.56621   0.57458   0.58788   0.59210   0.59690
 Alpha virt. eigenvalues --    0.60928   0.61210   0.62232   0.62602   0.63093
 Alpha virt. eigenvalues --    0.64186   0.64327   0.65604   0.66304   0.66925
 Alpha virt. eigenvalues --    0.67663   0.68665   0.70182   0.71726   0.71949
 Alpha virt. eigenvalues --    0.73288   0.73454   0.74830   0.76624   0.78364
 Alpha virt. eigenvalues --    0.79373   0.79477   0.81845   0.86989   0.90493
 Alpha virt. eigenvalues --    0.93200   0.93549   0.96910   0.98706   1.01545
 Alpha virt. eigenvalues --    1.03799   1.04774   1.07089   1.07380   1.11195
 Alpha virt. eigenvalues --    1.13600   1.14923   1.15792   1.18763   1.20851
 Alpha virt. eigenvalues --    1.21500   1.22887   1.23765   1.25612   1.26617
 Alpha virt. eigenvalues --    1.29179   1.31478   1.32253   1.34909   1.36379
 Alpha virt. eigenvalues --    1.36950   1.40579   1.42704   1.43793   1.44341
 Alpha virt. eigenvalues --    1.49722   1.52481   1.54711   1.57569   1.58376
 Alpha virt. eigenvalues --    1.59817   1.60610   1.61196   1.62032   1.63663
 Alpha virt. eigenvalues --    1.63738   1.64023   1.65110   1.65867   1.66317
 Alpha virt. eigenvalues --    1.67763   1.68861   1.70793   1.71413   1.72507
 Alpha virt. eigenvalues --    1.72920   1.73922   1.75436   1.77065   1.77439
 Alpha virt. eigenvalues --    1.79129   1.80899   1.81978   1.84076   1.85801
 Alpha virt. eigenvalues --    1.86768   1.87656   1.91404   1.93097   1.94293
 Alpha virt. eigenvalues --    1.95235   1.95888   1.97722   1.98987   1.99796
 Alpha virt. eigenvalues --    2.01138   2.02464   2.04574   2.07328   2.08284
 Alpha virt. eigenvalues --    2.09102   2.10208   2.11708   2.15017   2.16184
 Alpha virt. eigenvalues --    2.18311   2.18617   2.19532   2.20952   2.22295
 Alpha virt. eigenvalues --    2.23711   2.25162   2.30020   2.34590   2.36244
 Alpha virt. eigenvalues --    2.36803   2.38331   2.44258   2.46419   2.46661
 Alpha virt. eigenvalues --    2.47172   2.49235   2.52616   2.55024   2.56461
 Alpha virt. eigenvalues --    2.60063   2.61926   2.63254   2.65568   2.69031
 Alpha virt. eigenvalues --    2.70051   2.77261   2.78050   2.80463   2.82509
 Alpha virt. eigenvalues --    2.84829   2.86648   2.87226   2.89197   2.91779
 Alpha virt. eigenvalues --    2.92378   3.00447   3.01685   3.02401   3.04021
 Alpha virt. eigenvalues --    3.07027   3.16689   3.20185   3.21672   3.23150
 Alpha virt. eigenvalues --    3.35082   3.41150   3.42499   3.47441   3.67080
 Alpha virt. eigenvalues --    3.75309   3.77478
          Condensed to atoms (all electrons):
               1          2          3          4          5          6
     1  C    4.576420   0.435224  -0.071668   0.012889   0.000043   0.008551
     2  C    0.435224   5.221710   0.346854   0.061171  -0.122488   0.028895
     3  C   -0.071668   0.346854   5.097801   0.294193   0.083998  -0.128414
     4  C    0.012889   0.061171   0.294193   5.078510   0.231959   0.085713
     5  C    0.000043  -0.122488   0.083998   0.231959   5.254886   0.318307
     6  C    0.008551   0.028895  -0.128414   0.085713   0.318307   5.048176
     7  F   -0.000018   0.001105   0.000130   0.005141  -0.064904   0.381455
     8  C   -0.065910   0.297533   0.038271  -0.089869  -0.015052   0.222098
     9  C   -0.020952  -0.047036   0.014586   0.000354   0.013215  -0.058838
    10  C    0.000077   0.009793   0.000048  -0.000217   0.000926  -0.033613
    11  O   -0.000003   0.000278  -0.000009   0.000010  -0.002222   0.001929
    12  C   -0.000022  -0.000006   0.000000   0.000001  -0.000045   0.000621
    13  C    0.000016  -0.000150   0.000001  -0.000000   0.000002  -0.000103
    14  C   -0.000963   0.000829  -0.000019   0.000000  -0.000002   0.000014
    15  C   -0.001729  -0.023220   0.000307  -0.000075  -0.000061   0.012892
    16  F    0.004783  -0.002209  -0.000542   0.000004  -0.000003   0.000218
    17  H    0.370823  -0.003963   0.008407  -0.000800   0.000181  -0.000896
    18  H    0.374309  -0.019594  -0.017924   0.001544   0.000030  -0.000023
    19  H    0.359954  -0.004402  -0.000762  -0.000099  -0.000055  -0.000191
    20  H   -0.016842  -0.068184   0.425058  -0.067039   0.013492  -0.000389
    21  H   -0.000438   0.015122  -0.067600   0.430240  -0.070725   0.013557
    22  H    0.000022  -0.000599   0.012263  -0.066087   0.409536  -0.055984
    23  H    0.000000   0.000028  -0.000001  -0.000000   0.000051  -0.000638
    24  H    0.000000   0.000001  -0.000000   0.000000   0.000000   0.000040
    25  H    0.000000   0.000000  -0.000000   0.000000  -0.000000   0.000001
    26  H   -0.000019   0.000027  -0.000000   0.000000  -0.000000  -0.000000
               7          8          9         10         11         12
     1  C   -0.000018  -0.065910  -0.020952   0.000077  -0.000003  -0.000022
     2  C    0.001105   0.297533  -0.047036   0.009793   0.000278  -0.000006
     3  C    0.000130   0.038271   0.014586   0.000048  -0.000009   0.000000
     4  C    0.005141  -0.089869   0.000354  -0.000217   0.000010   0.000001
     5  C   -0.064904  -0.015052   0.013215   0.000926  -0.002222  -0.000045
     6  C    0.381455   0.222098  -0.058838  -0.033613   0.001929   0.000621
     7  F    8.913509  -0.078443   0.003551   0.002270  -0.014726  -0.000790
     8  C   -0.078443   5.511330   0.191831  -0.044680   0.008898   0.013269
     9  C    0.003551   0.191831   5.658889   0.205338  -0.089896   0.016649
    10  C    0.002270  -0.044680   0.205338   5.174603   0.443085   0.255204
    11  O   -0.014726   0.008898  -0.089896   0.443085   7.549923  -0.073524
    12  C   -0.000790   0.013269   0.016649   0.255204  -0.073524   5.316065
    13  C    0.000000  -0.000067  -0.091676   0.101598   0.004693   0.237545
    14  C   -0.000000   0.012766  -0.006350  -0.133537   0.000486   0.092246
    15  C    0.000301  -0.050964   0.204435   0.064222  -0.000009  -0.145920
    16  F   -0.000000  -0.002518  -0.073166   0.001797  -0.000001   0.000123
    17  H   -0.000005  -0.012531   0.005700   0.000087   0.000001   0.000001
    18  H    0.000002   0.005792  -0.000587   0.000010  -0.000000  -0.000000
    19  H    0.000000   0.000748   0.003195   0.000008   0.000000  -0.000004
    20  H    0.000004   0.015238  -0.000305   0.000003  -0.000000  -0.000000
    21  H   -0.000080  -0.001590   0.000018   0.000001   0.000000   0.000000
    22  H    0.001969   0.018156  -0.000367   0.000046   0.000045   0.000000
    23  H    0.001875  -0.000515   0.013363  -0.010078   0.313671  -0.027862
    24  H    0.000004  -0.000320   0.015583  -0.074281  -0.007366   0.408640
    25  H    0.000000   0.000008  -0.001821   0.014605  -0.000104  -0.063014
    26  H   -0.000000  -0.000247   0.018179  -0.000904   0.000006   0.013667
              13         14         15         16         17         18
     1  C    0.000016  -0.000963  -0.001729   0.004783   0.370823   0.374309
     2  C   -0.000150   0.000829  -0.023220  -0.002209  -0.003963  -0.019594
     3  C    0.000001  -0.000019   0.000307  -0.000542   0.008407  -0.017924
     4  C   -0.000000   0.000000  -0.000075   0.000004  -0.000800   0.001544
     5  C    0.000002  -0.000002  -0.000061  -0.000003   0.000181   0.000030
     6  C   -0.000103   0.000014   0.012892   0.000218  -0.000896  -0.000023
     7  F    0.000000  -0.000000   0.000301  -0.000000  -0.000005   0.000002
     8  C   -0.000067   0.012766  -0.050964  -0.002518  -0.012531   0.005792
     9  C   -0.091676  -0.006350   0.204435  -0.073166   0.005700  -0.000587
    10  C    0.101598  -0.133537   0.064222   0.001797   0.000087   0.000010
    11  O    0.004693   0.000486  -0.000009  -0.000001   0.000001  -0.000000
    12  C    0.237545   0.092246  -0.145920   0.000123   0.000001  -0.000000
    13  C    5.097424   0.215022   0.109703   0.005033   0.000087  -0.000002
    14  C    0.215022   5.251224   0.311814  -0.060999  -0.001384   0.000048
    15  C    0.109703   0.311814   5.061832   0.363990   0.006300   0.000125
    16  F    0.005033  -0.060999   0.363990   8.921325  -0.005127   0.001524
    17  H    0.000087  -0.001384   0.006300  -0.005127   0.647659  -0.027535
    18  H   -0.000002   0.000048   0.000125   0.001524  -0.027535   0.666528
    19  H    0.000001  -0.000087  -0.002404   0.004452  -0.019607  -0.022429
    20  H    0.000000   0.000000   0.000029  -0.000011   0.000416   0.004569
    21  H   -0.000000   0.000000   0.000001   0.000000   0.000011  -0.000014
    22  H    0.000000  -0.000000  -0.000001  -0.000000  -0.000001  -0.000002
    23  H    0.000792  -0.000145   0.000216   0.000002  -0.000000  -0.000000
    24  H   -0.048883   0.013248  -0.000330   0.000003  -0.000001  -0.000000
    25  H    0.427142  -0.067285   0.013582  -0.000081  -0.000003   0.000000
    26  H   -0.067892   0.414861  -0.058133   0.001733   0.000062  -0.000003
              19         20         21         22         23         24
     1  C    0.359954  -0.016842  -0.000438   0.000022   0.000000   0.000000
     2  C   -0.004402  -0.068184   0.015122  -0.000599   0.000028   0.000001
     3  C   -0.000762   0.425058  -0.067600   0.012263  -0.000001  -0.000000
     4  C   -0.000099  -0.067039   0.430240  -0.066087  -0.000000   0.000000
     5  C   -0.000055   0.013492  -0.070725   0.409536   0.000051   0.000000
     6  C   -0.000191  -0.000389   0.013557  -0.055984  -0.000638   0.000040
     7  F    0.000000   0.000004  -0.000080   0.001969   0.001875   0.000004
     8  C    0.000748   0.015238  -0.001590   0.018156  -0.000515  -0.000320
     9  C    0.003195  -0.000305   0.000018  -0.000367   0.013363   0.015583
    10  C    0.000008   0.000003   0.000001   0.000046  -0.010078  -0.074281
    11  O    0.000000  -0.000000   0.000000   0.000045   0.313671  -0.007366
    12  C   -0.000004  -0.000000   0.000000   0.000000  -0.027862   0.408640
    13  C    0.000001   0.000000  -0.000000   0.000000   0.000792  -0.048883
    14  C   -0.000087   0.000000   0.000000  -0.000000  -0.000145   0.013248
    15  C   -0.002404   0.000029   0.000001  -0.000001   0.000216  -0.000330
    16  F    0.004452  -0.000011   0.000000  -0.000000   0.000002   0.000003
    17  H   -0.019607   0.000416   0.000011  -0.000001  -0.000000  -0.000001
    18  H   -0.022429   0.004569  -0.000014  -0.000002  -0.000000  -0.000000
    19  H    0.628205   0.002152   0.000014  -0.000001  -0.000000  -0.000000
    20  H    0.002152   0.711518  -0.012541  -0.000375   0.000000   0.000000
    21  H    0.000014  -0.012541   0.701022  -0.012513   0.000000  -0.000000
    22  H   -0.000001  -0.000375  -0.012513   0.684834  -0.000002  -0.000000
    23  H   -0.000000   0.000000   0.000000  -0.000002   0.517757   0.010828
    24  H   -0.000000   0.000000  -0.000000  -0.000000   0.010828   0.711238
    25  H    0.000000  -0.000000   0.000000  -0.000000  -0.000049  -0.013653
    26  H    0.000033  -0.000000  -0.000000   0.000000  -0.000006  -0.000336
              25         26
     1  C    0.000000  -0.000019
     2  C    0.000000   0.000027
     3  C   -0.000000  -0.000000
     4  C    0.000000   0.000000
     5  C   -0.000000  -0.000000
     6  C    0.000001  -0.000000
     7  F    0.000000  -0.000000
     8  C    0.000008  -0.000247
     9  C   -0.001821   0.018179
    10  C    0.014605  -0.000904
    11  O   -0.000104   0.000006
    12  C   -0.063014   0.013667
    13  C    0.427142  -0.067892
    14  C   -0.067285   0.414861
    15  C    0.013582  -0.058133
    16  F   -0.000081   0.001733
    17  H   -0.000003   0.000062
    18  H    0.000000  -0.000003
    19  H    0.000000   0.000033
    20  H   -0.000000  -0.000000
    21  H    0.000000  -0.000000
    22  H   -0.000000   0.000000
    23  H   -0.000049  -0.000006
    24  H   -0.013653  -0.000336
    25  H    0.692057  -0.012268
    26  H   -0.012268   0.681788
 Mulliken charges:
               1
     1  C    0.035453
     2  C   -0.126721
     3  C   -0.034978
     4  C    0.022457
     5  C   -0.051070
     6  C    0.156621
     7  F   -0.152349
     8  C    0.026767
     9  C    0.026109
    10  C    0.023588
    11  O   -0.135165
    12  C   -0.042842
    13  C    0.009715
    14  C   -0.041787
    15  C    0.133098
    16  F   -0.160330
    17  H    0.032119
    18  H    0.033630
    19  H    0.051276
    20  H   -0.006793
    21  H    0.005513
    22  H    0.009060
    23  H    0.180712
    24  H   -0.014417
    25  H    0.010882
    26  H    0.009452
 Sum of Mulliken charges =  -0.00000
 Mulliken charges with hydrogens summed into heavy atoms:
               1
     1  C    0.152478
     2  C   -0.126721
     3  C   -0.041771
     4  C    0.027970
     5  C   -0.042010
     6  C    0.156621
     7  F   -0.152349
     8  C    0.026767
     9  C    0.026109
    10  C    0.023588
    11  O    0.045547
    12  C   -0.057259
    13  C    0.020598
    14  C   -0.032335
    15  C    0.133098
    16  F   -0.160330
 APT charges:
               1
     1  C   -0.617193
     2  C   -0.570887
     3  C   -0.524331
     4  C   -0.420992
     5  C   -0.430705
     6  C   -0.402842
     7  F    0.149046
     8  C   -0.446032
     9  C   -0.442018
    10  C   -0.346398
    11  O   -0.570254
    12  C   -0.565259
    13  C   -0.394157
    14  C   -0.479987
    15  C   -0.393374
    16  F    0.116251
    17  H    0.093479
    18  H    0.560332
    19  H    0.405783
    20  H    0.651372
    21  H    0.868620
    22  H    0.666026
    23  H    0.875466
    24  H    0.657483
    25  H    0.888658
    26  H    0.671915
 Sum of APT charges =  -0.00000
 APT charges with hydrogens summed into heavy atoms:
               1
     1  C    0.442400
     2  C   -0.570887
     3  C    0.127042
     4  C    0.447628
     5  C    0.235321
     6  C   -0.402842
     7  F    0.149046
     8  C   -0.446032
     9  C   -0.442018
    10  C   -0.346398
    11  O    0.305212
    12  C    0.092224
    13  C    0.494501
    14  C    0.191929
    15  C   -0.393374
    16  F    0.116251
 Electronic spatial extent (au):  <R**2>=           3344.9614
 Charge=             -0.0000 electrons
 Dipole moment (field-independent basis, Debye):
    X=             -1.3900    Y=             -0.8371    Z=              0.0558  Tot=              1.6236
 Quadrupole moment (field-independent basis, Debye-Ang):
   XX=            -77.4107   YY=            -82.5093   ZZ=            -95.2818
   XY=              5.7948   XZ=             -0.5180   YZ=              2.5091
 Traceless Quadrupole moment (field-independent basis, Debye-Ang):
   XX=              7.6566   YY=              2.5580   ZZ=            -10.2145
   XY=              5.7948   XZ=             -0.5180   YZ=              2.5091
 Octapole moment (field-independent basis, Debye-Ang**2):
  XXX=            -14.0504  YYY=            -31.9384  ZZZ=             -0.5279  XYY=            -17.8179
  XXY=            -15.0548  XXZ=             -3.8919  XZZ=             -0.9237  YZZ=             -2.7719
  YYZ=             -3.7807  XYZ=             -1.4104
 Hexadecapole moment (field-independent basis, Debye-Ang**3):
 XXXX=          -2594.1289 YYYY=          -1247.1422 ZZZZ=           -175.9872 XXXY=            -17.4068
 XXXZ=            -29.9025 YYYX=             48.9966 YYYZ=              3.6880 ZZZX=             20.8231
 ZZZY=            -16.7390 XXYY=           -608.8952 XXZZ=           -545.5621 YYZZ=           -259.4798
 XXYZ=              2.5623 YYXZ=             13.3291 ZZXY=             -3.6323
 N-N= 1.072179647016D+03 E-N=-3.956197969231D+03  KE= 7.677410298543D+02
  Exact polarizability:       0.000       0.000       0.000       0.000       0.000       0.000
 Approx polarizability:     476.379      -3.058     380.446     -36.201      -1.428     130.025
 Rotating derivatives to standard orientation.
 ***** Axes restored to original set *****
 -------------------------------------------------------------------
 Center     Atomic                   Forces (Hartrees/Bohr)
 Number     Number              X              Y              Z
 -------------------------------------------------------------------
      1        6          -0.000007265   -0.000005526    0.000005899
      2        6          -0.000004468    0.000001954   -0.000001705
      3        6           0.000001348    0.000000599   -0.000004971
      4        6           0.000000456    0.000002423    0.000002218
      5        6          -0.000002547   -0.000000224   -0.000004396
      6        6          -0.000002585    0.000001409    0.000005795
      7        9          -0.000014629   -0.000001913   -0.000004418
      8        6           0.000000033   -0.000000525   -0.000014745
      9        6           0.000001097    0.000013084    0.000023729
     10        6          -0.000001374   -0.000001007   -0.000007980
     11        8           0.000019901   -0.000018456    0.000006887
     12        6           0.000002524    0.000000695    0.000002148
     13        6          -0.000000690    0.000001944   -0.000001189
     14        6          -0.000001302    0.000000534    0.000004907
     15        6           0.000002132   -0.000001629    0.000000013
     16        9           0.000016115    0.000005768   -0.000006636
     17        1          -0.000003960    0.000000356   -0.000002606
     18        1          -0.000002256   -0.000000046    0.000000393
     19        1          -0.000002371    0.000000907   -0.000002991
     20        1          -0.000000262    0.000000506   -0.000000983
     21        1          -0.000000215    0.000000396   -0.000001234
     22        1          -0.000000017    0.000000228    0.000000806
     23        1           0.000000022   -0.000000347   -0.000000723
     24        1           0.000000448   -0.000000486    0.000000874
     25        1           0.000000101   -0.000000357    0.000000644
     26        1          -0.000000234   -0.000000287    0.000000267
 -------------------------------------------------------------------
 Cartesian Forces:  Max     0.000023729 RMS     0.000005915
 Unable to Open any file for archive entry.
 1\1\GINC-SEMLSCPN087\FTS\RBP86\def2SVP\C13H10F2O1\USER-ID\03-Dec-2025\
 0\\# opt=(TS,recalcFC=15,noeigentest) freq bp86 def2svp empiricaldispe
 rsion=GD3BJ\\g_opt_ts_confs.log\\0,1\C,1.2722769236,2.5100286287,0.585
 9390488\C,1.6313807066,1.1374084719,0.0401762195\C,2.9972481694,0.9834
 806749,-0.2798379905\C,3.5965680661,-0.2682007709,-0.4617230397\C,2.83
 83352873,-1.4020749126,-0.1551185805\C,1.4849864481,-1.2527638696,0.16
 38422786\F,0.9118906803,-2.3389232933,0.7156657718\C,0.7572970171,-0.0
 211882301,0.0282693958\C,-0.7341440614,0.0207359283,-0.0396571752\C,-1
 .5944511106,-1.142727033,-0.1148502808\O,-1.084586424,-2.3332676828,-0
 .5124573377\C,-2.9842017765,-1.0599008815,0.1256916835\C,-3.6310446585
 ,0.1745355511,0.2176048969\C,-2.8807232006,1.3332212897,-0.013803992\C
 ,-1.4993942539,1.2211450356,-0.2029945238\F,-0.9010347459,2.3487912493
 ,-0.6414973075\H,0.3936467949,2.4848170421,1.2550537038\H,2.1344997691
 ,2.863701816,1.1876788008\H,1.0817050392,3.2691588195,-0.1967415066\H,
 3.6201090463,1.8918428978,-0.3163574802\H,4.6602991124,-0.3555827255,-
 0.7302183998\H,3.2738523577,-2.4099304047,-0.0899402543\H,-1.808828884
 3,-2.9879328157,-0.503509127\H,-3.5617048911,-1.9993977385,0.162948775
 6\H,-4.7156272336,0.2288930353,0.3939645777\H,-3.3371341778,2.32843991
 79,-0.1084881573\\Version=ES64L-G16RevC.02\State=1-A\HF=-775.7445105\R
 MSD=5.607e-09\RMSF=5.915e-06\Dipole=-0.5558232,-0.3132556,0.0306788\Po
 lar=0.,0.,0.,0.,0.,0.\Quadrupole=5.9288128,1.7297419,-7.6585547,4.1951
 657,-0.4785739,1.6761811\PG=C01 [X(C13H10F2O1)]\\@
 The archive entry for this job was punched.


 IN-LAWS ARE LIKE SEEDS. YOU DON'T NEED THEM
 BUT THEY COME WITH THE TOMATO.
 Job cpu time:       0 days  0 hours 49 minutes 59.9 seconds.
 Elapsed time:       0 days  0 hours  6 minutes 30.9 seconds.
 File lengths (MBytes):  RWF=    233 Int=      0 D2E=      0 Chk=      8 Scr=      1
 Normal termination of Gaussian 16 at Wed Dec  3 11:52:27 2025.
 Link1:  Proceeding to internal job step number  2.
 ------------------------------------------------------------------
 #N Geom=AllCheck Guess=TCheck SCRF=Check GenChk RBP86/def2SVP Freq
 ------------------------------------------------------------------
 1/5=1,10=4,11=1,29=7,30=1,38=1,40=1,71=15/1,3;
 2/12=2,40=1/2;
 3/5=43,7=101,11=2,14=-4,25=1,30=1,70=2,71=2,74=404,116=1,124=41,140=1/1,2,3;
 4/5=101/1;
 5/5=2,38=6,98=1/2;
 8/6=4,10=90,11=11/1;
 11/6=1,8=1,9=11,15=111,16=1/1,2,10;
 10/6=1/2;
 6/7=2,8=2,9=2,10=2,28=1/1;
 7/8=1,10=1,25=1/1,2,3,16;
 1/5=1,10=4,11=1,30=1,71=15/3;
 99//99;
 Structure from the checkpoint file:  "/scratch/gaussian_tmp/Gau-230055.chk"
 ------------------
 g_opt_ts_confs.log
 ------------------
 Charge =  0 Multiplicity = 1
 Redundant internal coordinates found in file.  (old form).
 C,0,1.2722769236,2.5100286287,0.5859390488
 C,0,1.6313807066,1.1374084719,0.0401762195
 C,0,2.9972481694,0.9834806749,-0.2798379905
 C,0,3.5965680661,-0.2682007709,-0.4617230397
 C,0,2.8383352873,-1.4020749126,-0.1551185805
 C,0,1.4849864481,-1.2527638696,0.1638422786
 F,0,0.9118906803,-2.3389232933,0.7156657718
 C,0,0.7572970171,-0.0211882301,0.0282693958
 C,0,-0.7341440614,0.0207359283,-0.0396571752
 C,0,-1.5944511106,-1.142727033,-0.1148502808
 O,0,-1.084586424,-2.3332676828,-0.5124573377
 C,0,-2.9842017765,-1.0599008815,0.1256916835
 C,0,-3.6310446585,0.1745355511,0.2176048969
 C,0,-2.8807232006,1.3332212897,-0.013803992
 C,0,-1.4993942539,1.2211450356,-0.2029945238
 F,0,-0.9010347459,2.3487912493,-0.6414973075
 H,0,0.3936467949,2.4848170421,1.2550537038
 H,0,2.1344997691,2.863701816,1.1876788008
 H,0,1.0817050392,3.2691588195,-0.1967415066
 H,0,3.6201090463,1.8918428978,-0.3163574802
 H,0,4.6602991124,-0.3555827255,-0.7302183998
 H,0,3.2738523577,-2.4099304047,-0.0899402543
 H,0,-1.8088288843,-2.9879328157,-0.503509127
 H,0,-3.5617048911,-1.9993977385,0.1629487756
 H,0,-4.7156272336,0.2288930353,0.3939645777
 H,0,-3.3371341778,2.3284399179,-0.1084881573
 Recover connectivity data from disk.

 GradGradGradGradGradGradGradGradGradGradGradGradGradGradGradGradGradGrad
 Berny optimization.
 Initialization pass.
                           ----------------------------
                           !    Initial Parameters    !
                           ! (Angstroms and Degrees)  !
 --------------------------                            --------------------------
 ! Name  Definition              Value          Derivative Info.                !
 --------------------------------------------------------------------------------
 ! R1    R(1,2)                  1.5202         calculate D2E/DX2 analytically  !
 ! R2    R(1,17)                 1.1047         calculate D2E/DX2 analytically  !
 ! R3    R(1,18)                 1.1093         calculate D2E/DX2 analytically  !
 ! R4    R(1,19)                 1.1069         calculate D2E/DX2 analytically  !
 ! R5    R(2,3)                  1.4113         calculate D2E/DX2 analytically  !
 ! R6    R(2,8)                  1.4514         calculate D2E/DX2 analytically  !
 ! R7    R(3,4)                  1.3996         calculate D2E/DX2 analytically  !
 ! R8    R(3,20)                 1.102          calculate D2E/DX2 analytically  !
 ! R9    R(4,5)                  1.3981         calculate D2E/DX2 analytically  !
 ! R10   R(4,21)                 1.1006         calculate D2E/DX2 analytically  !
 ! R11   R(5,6)                  1.3984         calculate D2E/DX2 analytically  !
 ! R12   R(5,22)                 1.0999         calculate D2E/DX2 analytically  !
 ! R13   R(6,7)                  1.3464         calculate D2E/DX2 analytically  !
 ! R14   R(6,8)                  1.4369         calculate D2E/DX2 analytically  !
 ! R15   R(8,9)                  1.4936         calculate D2E/DX2 analytically  !
 ! R16   R(9,10)                 1.4489         calculate D2E/DX2 analytically  !
 ! R17   R(9,15)                 1.4329         calculate D2E/DX2 analytically  !
 ! R18   R(10,11)                1.3548         calculate D2E/DX2 analytically  !
 ! R19   R(10,12)                1.4128         calculate D2E/DX2 analytically  !
 ! R20   R(11,23)                0.9763         calculate D2E/DX2 analytically  !
 ! R21   R(12,13)                1.3967         calculate D2E/DX2 analytically  !
 ! R22   R(12,24)                1.1034         calculate D2E/DX2 analytically  !
 ! R23   R(13,14)                1.3997         calculate D2E/DX2 analytically  !
 ! R24   R(13,25)                1.1002         calculate D2E/DX2 analytically  !
 ! R25   R(14,15)                1.3987         calculate D2E/DX2 analytically  !
 ! R26   R(14,26)                1.099          calculate D2E/DX2 analytically  !
 ! R27   R(15,16)                1.3498         calculate D2E/DX2 analytically  !
 ! A1    A(2,1,17)             112.6274         calculate D2E/DX2 analytically  !
 ! A2    A(2,1,18)             107.3982         calculate D2E/DX2 analytically  !
 ! A3    A(2,1,19)             113.9584         calculate D2E/DX2 analytically  !
 ! A4    A(17,1,18)            107.2724         calculate D2E/DX2 analytically  !
 ! A5    A(17,1,19)            107.8791         calculate D2E/DX2 analytically  !
 ! A6    A(18,1,19)            107.381          calculate D2E/DX2 analytically  !
 ! A7    A(1,2,3)              114.1118         calculate D2E/DX2 analytically  !
 ! A8    A(1,2,8)              125.5542         calculate D2E/DX2 analytically  !
 ! A9    A(3,2,8)              119.5997         calculate D2E/DX2 analytically  !
 ! A10   A(2,3,4)              122.7809         calculate D2E/DX2 analytically  !
 ! A11   A(2,3,20)             117.6864         calculate D2E/DX2 analytically  !
 ! A12   A(4,3,20)             119.3947         calculate D2E/DX2 analytically  !
 ! A13   A(3,4,5)              117.6823         calculate D2E/DX2 analytically  !
 ! A14   A(3,4,21)             121.1027         calculate D2E/DX2 analytically  !
 ! A15   A(5,4,21)             120.8839         calculate D2E/DX2 analytically  !
 ! A16   A(4,5,6)              119.2282         calculate D2E/DX2 analytically  !
 ! A17   A(4,5,22)             122.7808         calculate D2E/DX2 analytically  !
 ! A18   A(6,5,22)             117.8744         calculate D2E/DX2 analytically  !
 ! A19   A(5,6,7)              114.7898         calculate D2E/DX2 analytically  !
 ! A20   A(5,6,8)              124.0627         calculate D2E/DX2 analytically  !
 ! A21   A(7,6,8)              120.9681         calculate D2E/DX2 analytically  !
 ! A22   A(2,8,6)              112.2368         calculate D2E/DX2 analytically  !
 ! A23   A(2,8,9)              125.4047         calculate D2E/DX2 analytically  !
 ! A24   A(6,8,9)              122.2798         calculate D2E/DX2 analytically  !
 ! A25   A(8,9,10)             124.9402         calculate D2E/DX2 analytically  !
 ! A26   A(8,9,15)             124.1931         calculate D2E/DX2 analytically  !
 ! A27   A(10,9,15)            110.4674         calculate D2E/DX2 analytically  !
 ! A28   A(9,10,11)            119.8285         calculate D2E/DX2 analytically  !
 ! A29   A(9,10,12)            121.8796         calculate D2E/DX2 analytically  !
 ! A30   A(11,10,12)           118.1431         calculate D2E/DX2 analytically  !
 ! A31   A(10,11,23)           107.9019         calculate D2E/DX2 analytically  !
 ! A32   A(10,12,13)           121.2371         calculate D2E/DX2 analytically  !
 ! A33   A(10,12,24)           118.0766         calculate D2E/DX2 analytically  !
 ! A34   A(13,12,24)           120.5255         calculate D2E/DX2 analytically  !
 ! A35   A(12,13,14)           118.1978         calculate D2E/DX2 analytically  !
 ! A36   A(12,13,25)           120.7164         calculate D2E/DX2 analytically  !
 ! A37   A(14,13,25)           120.9356         calculate D2E/DX2 analytically  !
 ! A38   A(13,14,15)           119.0409         calculate D2E/DX2 analytically  !
 ! A39   A(13,14,26)           122.771          calculate D2E/DX2 analytically  !
 ! A40   A(15,14,26)           118.1026         calculate D2E/DX2 analytically  !
 ! A41   A(9,15,14)            125.3883         calculate D2E/DX2 analytically  !
 ! A42   A(9,15,16)            120.0103         calculate D2E/DX2 analytically  !
 ! A43   A(14,15,16)           114.5061         calculate D2E/DX2 analytically  !
 ! D1    D(17,1,2,3)          -152.5233         calculate D2E/DX2 analytically  !
 ! D2    D(17,1,2,8)            17.5566         calculate D2E/DX2 analytically  !
 ! D3    D(18,1,2,3)           -34.6377         calculate D2E/DX2 analytically  !
 ! D4    D(18,1,2,8)           135.4422         calculate D2E/DX2 analytically  !
 ! D5    D(19,1,2,3)            84.1653         calculate D2E/DX2 analytically  !
 ! D6    D(19,1,2,8)          -105.7548         calculate D2E/DX2 analytically  !
 ! D7    D(1,2,3,4)            163.0658         calculate D2E/DX2 analytically  !
 ! D8    D(1,2,3,20)           -12.6332         calculate D2E/DX2 analytically  !
 ! D9    D(8,2,3,4)             -7.6581         calculate D2E/DX2 analytically  !
 ! D10   D(8,2,3,20)           176.643          calculate D2E/DX2 analytically  !
 ! D11   D(1,2,8,6)           -148.143          calculate D2E/DX2 analytically  !
 ! D12   D(1,2,8,9)             28.6773         calculate D2E/DX2 analytically  !
 ! D13   D(3,2,8,6)             21.438          calculate D2E/DX2 analytically  !
 ! D14   D(3,2,8,9)           -161.7417         calculate D2E/DX2 analytically  !
 ! D15   D(2,3,4,5)             -7.7606         calculate D2E/DX2 analytically  !
 ! D16   D(2,3,4,21)           178.7915         calculate D2E/DX2 analytically  !
 ! D17   D(20,3,4,5)           167.8679         calculate D2E/DX2 analytically  !
 ! D18   D(20,3,4,21)           -5.58           calculate D2E/DX2 analytically  !
 ! D19   D(3,4,5,6)              7.3949         calculate D2E/DX2 analytically  !
 ! D20   D(3,4,5,22)          -168.593          calculate D2E/DX2 analytically  !
 ! D21   D(21,4,5,6)          -179.1421         calculate D2E/DX2 analytically  !
 ! D22   D(21,4,5,22)            4.87           calculate D2E/DX2 analytically  !
 ! D23   D(4,5,6,7)           -166.4743         calculate D2E/DX2 analytically  !
 ! D24   D(4,5,6,8)              8.6855         calculate D2E/DX2 analytically  !
 ! D25   D(22,5,6,7)             9.7101         calculate D2E/DX2 analytically  !
 ! D26   D(22,5,6,8)          -175.1301         calculate D2E/DX2 analytically  !
 ! D27   D(5,6,8,2)            -22.6468         calculate D2E/DX2 analytically  !
 ! D28   D(5,6,8,9)            160.4186         calculate D2E/DX2 analytically  !
 ! D29   D(7,6,8,2)            152.2278         calculate D2E/DX2 analytically  !
 ! D30   D(7,6,8,9)            -24.7069         calculate D2E/DX2 analytically  !
 ! D31   D(2,8,9,10)           176.9143         calculate D2E/DX2 analytically  !
 ! D32   D(2,8,9,15)             4.8667         calculate D2E/DX2 analytically  !
 ! D33   D(6,8,9,10)            -6.5673         calculate D2E/DX2 analytically  !
 ! D34   D(6,8,9,15)          -178.6149         calculate D2E/DX2 analytically  !
 ! D35   D(8,9,10,11)          -19.0997         calculate D2E/DX2 analytically  !
 ! D36   D(8,9,10,12)          165.4182         calculate D2E/DX2 analytically  !
 ! D37   D(15,9,10,11)         153.8842         calculate D2E/DX2 analytically  !
 ! D38   D(15,9,10,12)         -21.5979         calculate D2E/DX2 analytically  !
 ! D39   D(8,9,15,14)         -166.9066         calculate D2E/DX2 analytically  !
 ! D40   D(8,9,15,16)           16.8454         calculate D2E/DX2 analytically  !
 ! D41   D(10,9,15,14)          20.0464         calculate D2E/DX2 analytically  !
 ! D42   D(10,9,15,16)        -156.2016         calculate D2E/DX2 analytically  !
 ! D43   D(9,10,11,23)        -179.7577         calculate D2E/DX2 analytically  !
 ! D44   D(12,10,11,23)         -4.1082         calculate D2E/DX2 analytically  !
 ! D45   D(9,10,12,13)          11.2864         calculate D2E/DX2 analytically  !
 ! D46   D(9,10,12,24)        -173.2995         calculate D2E/DX2 analytically  !
 ! D47   D(11,10,12,13)       -164.2688         calculate D2E/DX2 analytically  !
 ! D48   D(11,10,12,24)         11.1453         calculate D2E/DX2 analytically  !
 ! D49   D(10,12,13,14)          3.7256         calculate D2E/DX2 analytically  !
 ! D50   D(10,12,13,25)        179.3117         calculate D2E/DX2 analytically  !
 ! D51   D(24,12,13,14)       -171.5769         calculate D2E/DX2 analytically  !
 ! D52   D(24,12,13,25)          4.0092         calculate D2E/DX2 analytically  !
 ! D53   D(12,13,14,15)         -5.8742         calculate D2E/DX2 analytically  !
 ! D54   D(12,13,14,26)        170.6988         calculate D2E/DX2 analytically  !
 ! D55   D(25,13,14,15)        178.5499         calculate D2E/DX2 analytically  !
 ! D56   D(25,13,14,26)         -4.8772         calculate D2E/DX2 analytically  !
 ! D57   D(13,14,15,9)          -7.1668         calculate D2E/DX2 analytically  !
 ! D58   D(13,14,15,16)        169.2629         calculate D2E/DX2 analytically  !
 ! D59   D(26,14,15,9)         176.0998         calculate D2E/DX2 analytically  !
 ! D60   D(26,14,15,16)         -7.4706         calculate D2E/DX2 analytically  !
 --------------------------------------------------------------------------------
 Trust Radius=3.00D-01 FncErr=1.00D-07 GrdErr=1.00D-07 EigMax=2.50D+02 EigMin=1.00D-04
 Number of steps in this run=      2 maximum allowed number of steps=      2.
 Search for a saddle point of order  1.
 GradGradGradGradGradGradGradGradGradGradGradGradGradGradGradGradGradGrad

                          Input orientation:                          
 ---------------------------------------------------------------------
 Center     Atomic      Atomic             Coordinates (Angstroms)
 Number     Number       Type             X           Y           Z
 ---------------------------------------------------------------------
      1          6           0        1.272277    2.510029    0.585939
      2          6           0        1.631381    1.137408    0.040176
      3          6           0        2.997248    0.983481   -0.279838
      4          6           0        3.596568   -0.268201   -0.461723
      5          6           0        2.838335   -1.402075   -0.155119
      6          6           0        1.484986   -1.252764    0.163842
      7          9           0        0.911891   -2.338923    0.715666
      8          6           0        0.757297   -0.021188    0.028269
      9          6           0       -0.734144    0.020736   -0.039657
     10          6           0       -1.594451   -1.142727   -0.114850
     11          8           0       -1.084586   -2.333268   -0.512457
     12          6           0       -2.984202   -1.059901    0.125692
     13          6           0       -3.631045    0.174536    0.217605
     14          6           0       -2.880723    1.333221   -0.013804
     15          6           0       -1.499394    1.221145   -0.202995
     16          9           0       -0.901035    2.348791   -0.641497
     17          1           0        0.393647    2.484817    1.255054
     18          1           0        2.134500    2.863702    1.187679
     19          1           0        1.081705    3.269159   -0.196742
     20          1           0        3.620109    1.891843   -0.316357
     21          1           0        4.660299   -0.355583   -0.730218
     22          1           0        3.273852   -2.409930   -0.089940
     23          1           0       -1.808829   -2.987933   -0.503509
     24          1           0       -3.561705   -1.999398    0.162949
     25          1           0       -4.715627    0.228893    0.393965
     26          1           0       -3.337134    2.328440   -0.108488
 ---------------------------------------------------------------------
                    Distance matrix (angstroms):
                    1          2          3          4          5
     1  C    0.000000
     2  C    1.520164   0.000000
     3  C    2.460781   1.411275   0.000000
     4  C    3.770740   2.467712   1.399633   0.000000
     5  C    4.278581   2.818485   2.394094   1.398068   0.000000
     6  C    3.792363   2.397842   2.735796   2.412358   1.398422
     7  F    4.864056   3.613701   4.046988   3.589099   2.312388
     8  C    2.642586   1.451382   2.474201   2.891810   2.504236
     9  C    3.257863   2.617067   3.861069   4.360813   3.847120
    10  C    4.695941   3.953358   5.062774   5.275585   4.440549
    11  O    5.497163   4.441562   5.264628   5.116667   4.047731
    12  C    5.574391   5.112640   6.333846   6.654200   5.839339
    13  C    5.443598   5.352731   6.695977   7.272956   6.669145
    14  C    4.357979   4.516673   5.894374   6.687338   6.341092
    15  C    3.156865   3.141321   4.503574   5.315442   5.069465
    16  F    2.501176   2.888816   4.146261   5.206669   5.318689
    17  H    1.104690   2.196229   3.374706   4.559072   4.803438
    18  H    1.109326   2.133068   2.536370   3.829750   4.527178
    19  H    1.106881   2.214189   2.983376   4.348294   4.990782
    20  H    2.590098   2.156694   1.102003   2.165057   3.389257
    21  H    4.628466   3.463651   2.182126   1.100568   2.178403
    22  H    5.354355   3.911299   3.409957   2.197584   1.099862
    23  H    6.395912   5.398988   6.238632   6.051199   4.922647
    24  H    6.624291   6.068176   7.218967   7.391084   6.435719
    25  H    6.410572   6.421454   7.778937   8.370896   7.747509
    26  H    4.664962   5.111438   6.477860   7.412391   7.214939
                    6          7          8          9         10
     6  C    0.000000
     7  F    1.346362   0.000000
     8  C    1.436903   2.422459   0.000000
     9  C    2.566662   2.974548   1.493576   0.000000
    10  C    3.093980   2.898688   2.609416   1.448940   0.000000
    11  O    2.868375   2.343979   3.005101   2.426455   1.354784
    12  C    4.473510   4.142886   3.884228   2.501575   1.412844
    13  C    5.311671   5.215726   4.396783   2.912365   2.448146
    14  C    5.077233   5.329230   3.882188   2.516165   2.791957
    15  C    3.893754   4.396853   2.586413   1.432923   2.367424
    16  F    4.394641   5.206079   2.969083   2.410375   3.598456
    17  H    4.043671   4.881392   2.813770   3.003312   4.357550
    18  H    4.291317   5.365154   3.400516   4.221129   5.626111
    19  H    4.554167   5.684357   3.313948   3.724813   5.160742
    20  H    3.831174   5.128245   3.460368   4.747328   6.036626
    21  H    3.418609   4.480490   3.990056   5.451468   6.334049
    22  H    2.145572   2.496579   3.471759   4.687718   5.030587
    23  H    3.782247   3.051215   3.958455   3.228342   1.897840
    24  H    5.101623   4.520380   4.752392   3.480961   2.163595
    25  H    6.379332   6.194040   5.490826   4.010432   3.447024
    26  H    6.012656   6.365353   4.722692   3.479338   3.884068
                   11         12         13         14         15
    11  O    0.000000
    12  C    2.374286   0.000000
    13  C    3.647810   1.396670   0.000000
    14  C    4.113138   2.399417   1.399673   0.000000
    15  C    3.591891   2.741507   2.411686   1.398722   0.000000
    16  F    4.687432   4.067843   3.594217   2.311828   1.349780
    17  H    5.340712   5.024972   4.755191   3.695629   2.703031
    18  H    6.345193   6.536328   6.435384   5.379442   4.223405
    19  H    6.014955   5.947800   5.653175   4.413860   3.294916
    20  H    6.326466   7.247422   7.470843   6.531800   5.164494
    21  H    6.079668   7.724444   8.362163   7.760949   6.380114
    22  H    4.379542   6.405647   7.379136   7.203873   5.998448
    23  H    0.976316   2.344078   3.720441   4.478967   4.231122
    24  H    2.589162   1.103428   2.175725   3.406072   3.841736
    25  H    4.535496   2.175039   1.100171   2.180066   3.418344
    26  H    5.193138   3.414712   2.198187   1.098971   2.147632
                   16         17         18         19         20
    16  F    0.000000
    17  H    2.300350   0.000000
    18  H    3.581269   1.782880   0.000000
    19  H    2.230727   1.787827   1.785887   0.000000
    20  H    4.555794   3.637446   2.326729   2.890467   0.000000
    21  H    6.184654   5.496681   4.519047   5.121492   2.510816
    22  H    6.354473   5.836364   5.544514   6.088429   4.321621
    23  H    5.415141   6.155845   7.256141   6.899311   7.302096
    24  H    5.160722   6.078296   7.559534   7.031950   8.182294
    25  H    4.485227   5.651137   7.382170   6.572763   8.529622
    26  H    2.493811   3.975227   5.648481   4.518726   6.974028
                   21         22         23         24         25
    21  H    0.000000
    22  H    2.559792   0.000000
    23  H    6.987867   5.132132   0.000000
    24  H    8.432154   6.852542   2.119892   0.000000
    25  H    9.461152   8.427890   4.427517   2.519957   0.000000
    26  H    8.458692   8.133735   5.545771   4.342153   2.561406
                   26
    26  H    0.000000
 Stoichiometry    C13H10F2O
 Framework group  C1[X(C13H10F2O)]
 Deg. of freedom    72
 Full point group                 C1      NOp   1
 Largest Abelian subgroup         C1      NOp   1
 Largest concise Abelian subgroup C1      NOp   1
                         Standard orientation:                         
 ---------------------------------------------------------------------
 Center     Atomic      Atomic             Coordinates (Angstroms)
 Number     Number       Type             X           Y           Z
 ---------------------------------------------------------------------
      1          6           0        1.192126    2.531214    0.666599
      2          6           0        1.592263    1.180075    0.096323
      3          6           0        2.963303    1.070944   -0.219963
      4          6           0        3.598570   -0.159587   -0.422945
      5          6           0        2.871405   -1.320109   -0.141852
      6          6           0        1.513014   -1.215219    0.173353
      7          9           0        0.968505   -2.327574    0.701431
      8          6           0        0.751365   -0.002264    0.057931
      9          6           0       -0.740359   -0.001112   -0.016407
     10          6           0       -1.567076   -1.186703   -0.118100
     11          8           0       -1.022029   -2.354482   -0.536021
     12          6           0       -2.959636   -1.147770    0.117249
     13          6           0       -3.641532    0.065926    0.229715
     14          6           0       -2.923301    1.249569    0.024241
     15          6           0       -1.538553    1.180171   -0.160369
     16          9           0       -0.970452    2.332511   -0.574229
     17          1           0        0.311690    2.468301    1.330839
     18          1           0        2.041401    2.897362    1.279193
     19          1           0        0.983525    3.299658   -0.102273
     20          1           0        3.560368    1.997047   -0.236011
     21          1           0        4.665492   -0.211728   -0.687910
     22          1           0        3.334975   -2.316353   -0.093931
     23          1           0       -1.727493   -3.029362   -0.543158
     24          1           0       -3.510485   -2.103724    0.133656
     25          1           0       -4.727967    0.086255    0.401826
     26          1           0       -3.407272    2.233164   -0.053524
 ---------------------------------------------------------------------
 Rotational constants (GHZ):           0.8462154           0.4762605           0.3179892
 Standard basis: def2SVP (5D, 7F)
 There are   290 symmetry adapted cartesian basis functions of A   symmetry.
 There are   274 symmetry adapted basis functions of A   symmetry.
   274 basis functions,   470 primitive gaussians,   290 cartesian basis functions
    57 alpha electrons       57 beta electrons
       nuclear repulsion energy      1072.2311581732 Hartrees.
 NAtoms=   26 NActive=   26 NUniq=   26 SFac= 1.00D+00 NAtFMM=   60 NAOKFM=F Big=F
 Integral buffers will be    131072 words long.
 Raffenetti 2 integral format.
 Two-electron integral symmetry is turned on.
 Nuclear repulsion after empirical dispersion term =     1072.1796470156 Hartrees.
 One-electron integrals computed using PRISM.
   1 Symmetry operations used in ECPInt.
 ECPInt:  NShTT=    8001 NPrTT=   29641 LenC2=    7596 LenP2D=   20275.
 LDataN:  DoStor=T MaxTD1= 4 Len=   56
 NBasis=   274 RedAO= T EigKep=  3.46D-04  NBF=   274
 NBsUse=   274 1.00D-06 EigRej= -1.00D+00 NBFU=   274
 Initial guess from the checkpoint file:  "/scratch/gaussian_tmp/Gau-230055.chk"
 B after Tr=    -0.000000    0.000000    0.000000
         Rot=    1.000000   -0.000000   -0.000000    0.000000 Ang=   0.00 deg.
 Requested convergence on RMS density matrix=1.00D-08 within 128 cycles.
 Requested convergence on MAX density matrix=1.00D-06.
 Requested convergence on             energy=1.00D-06.
 No special actions if energy rises.
 SCF Done:  E(RB-P86) =  -775.744510543     A.U. after    1 cycles
            NFock=  1  Conv=0.37D-08     -V/T= 2.0104
 DoSCS=F DFT=T ScalE2(SS,OS)=  1.000000  1.000000
 Range of M.O.s used for correlation:     1   274
 NBasis=   274 NAE=    57 NBE=    57 NFC=     0 NFV=     0
 NROrb=    274 NOA=    57 NOB=    57 NVA=   217 NVB=   217
   1 Symmetry operations used in ECPInt.
 ECPInt:  NShTT=    8001 NPrTT=   29641 LenC2=    7596 LenP2D=   20275.
 LDataN:  DoStor=T MaxTD1= 5 Len=  102
 Symmetrizing basis deriv contribution to polar:
 IMax=3 JMax=2 DiffMx= 0.00D+00
 G2DrvN: will do    27 centers at a time, making    1 passes.
 Calling FoFCou, ICntrl=  3507 FMM=F I1Cent=   0 AccDes= 0.00D+00.
 End of G2Drv F.D. properties file   721 does not exist.
 End of G2Drv F.D. properties file   722 does not exist.
 End of G2Drv F.D. properties file   788 does not exist.
          IDoAtm=11111111111111111111111111
          Differentiating once with respect to electric field.
                with respect to dipole field.
          Differentiating once with respect to nuclear coordinates.
 Keep J ints in memory in canonical form, NReq=722056073.
          There are    81 degrees of freedom in the 1st order CPHF.  IDoFFX=6 NUNeed=     3.
     78 vectors produced by pass  0 Test12= 1.53D-14 1.23D-09 XBig12= 7.18D+02 2.11D+01.
 AX will form    78 AO Fock derivatives at one time.
     78 vectors produced by pass  1 Test12= 1.53D-14 1.23D-09 XBig12= 1.68D+02 2.93D+00.
     78 vectors produced by pass  2 Test12= 1.53D-14 1.23D-09 XBig12= 1.33D+00 1.04D-01.
     78 vectors produced by pass  3 Test12= 1.53D-14 1.23D-09 XBig12= 2.08D-03 4.91D-03.
     75 vectors produced by pass  4 Test12= 1.53D-14 1.23D-09 XBig12= 1.22D-06 8.97D-05.
     27 vectors produced by pass  5 Test12= 1.53D-14 1.23D-09 XBig12= 2.68D-10 9.47D-07.
      3 vectors produced by pass  6 Test12= 1.53D-14 1.23D-09 XBig12= 3.64D-14 1.20D-08.
 InvSVY:  IOpt=1 It=  1 EMax= 1.78D-14
 Solved reduced A of dimension   417 with    81 vectors.
 Isotropic polarizability for W=    0.000000      159.20 Bohr**3.
 End of Minotr F.D. properties file   721 does not exist.
 End of Minotr F.D. properties file   722 does not exist.
 End of Minotr F.D. properties file   788 does not exist.

 **********************************************************************

            Population analysis using the SCF Density.

 **********************************************************************

 Orbital symmetries:
       Occupied  (A) (A) (A) (A) (A) (A) (A) (A) (A) (A) (A) (A)
                 (A) (A) (A) (A) (A) (A) (A) (A) (A) (A) (A) (A)
                 (A) (A) (A) (A) (A) (A) (A) (A) (A) (A) (A) (A)
                 (A) (A) (A) (A) (A) (A) (A) (A) (A) (A) (A) (A)
                 (A) (A) (A) (A) (A) (A) (A) (A) (A)
       Virtual   (A) (A) (A) (A) (A) (A) (A) (A) (A) (A) (A) (A)
                 (A) (A) (A) (A) (A) (A) (A) (A) (A) (A) (A) (A)
                 (A) (A) (A) (A) (A) (A) (A) (A) (A) (A) (A) (A)
                 (A) (A) (A) (A) (A) (A) (A) (A) (A) (A) (A) (A)
                 (A) (A) (A) (A) (A) (A) (A) (A) (A) (A) (A) (A)
                 (A) (A) (A) (A) (A) (A) (A) (A) (A) (A) (A) (A)
                 (A) (A) (A) (A) (A) (A) (A) (A) (A) (A) (A) (A)
                 (A) (A) (A) (A) (A) (A) (A) (A) (A) (A) (A) (A)
                 (A) (A) (A) (A) (A) (A) (A) (A) (A) (A) (A) (A)
                 (A) (A) (A) (A) (A) (A) (A) (A) (A) (A) (A) (A)
                 (A) (A) (A) (A) (A) (A) (A) (A) (A) (A) (A) (A)
                 (A) (A) (A) (A) (A) (A) (A) (A) (A) (A) (A) (A)
                 (A) (A) (A) (A) (A) (A) (A) (A) (A) (A) (A) (A)
                 (A) (A) (A) (A) (A) (A) (A) (A) (A) (A) (A) (A)
                 (A) (A) (A) (A) (A) (A) (A) (A) (A) (A) (A) (A)
                 (A) (A) (A) (A) (A) (A) (A) (A) (A) (A) (A) (A)
                 (A) (A) (A) (A) (A) (A) (A) (A) (A) (A) (A) (A)
                 (A) (A) (A) (A) (A) (A) (A) (A) (A) (A) (A) (A)
                 (A)
 The electronic state is 1-A.
 Alpha  occ. eigenvalues --  -24.30213 -24.29066 -18.82124 -10.00301  -9.99456
 Alpha  occ. eigenvalues --   -9.99279  -9.94628  -9.94387  -9.93402  -9.93131
 Alpha  occ. eigenvalues --   -9.92342  -9.92019  -9.91844  -9.91423  -9.91065
 Alpha  occ. eigenvalues --   -9.91058  -1.11148  -1.10059  -0.97916  -0.78495
 Alpha  occ. eigenvalues --   -0.77018  -0.70856  -0.68891  -0.66670  -0.65496
 Alpha  occ. eigenvalues --   -0.61323  -0.57663  -0.57266  -0.53478  -0.52715
 Alpha  occ. eigenvalues --   -0.51456  -0.47623  -0.46175  -0.45445  -0.44424
 Alpha  occ. eigenvalues --   -0.42548  -0.42132  -0.41594  -0.40770  -0.39610
 Alpha  occ. eigenvalues --   -0.37908  -0.37599  -0.36915  -0.36566  -0.35198
 Alpha  occ. eigenvalues --   -0.34545  -0.33180  -0.31992  -0.31836  -0.31008
 Alpha  occ. eigenvalues --   -0.30423  -0.29510  -0.28500  -0.25972  -0.20955
 Alpha  occ. eigenvalues --   -0.20352  -0.19186
 Alpha virt. eigenvalues --   -0.08453  -0.03358  -0.03218  -0.01989   0.01663
 Alpha virt. eigenvalues --    0.03346   0.04974   0.05571   0.07188   0.08626
 Alpha virt. eigenvalues --    0.09502   0.09725   0.11267   0.11964   0.12540
 Alpha virt. eigenvalues --    0.13162   0.13993   0.16273   0.18399   0.19044
 Alpha virt. eigenvalues --    0.19990   0.20608   0.24240   0.26011   0.26869
 Alpha virt. eigenvalues --    0.27902   0.29153   0.29544   0.30041   0.31085
 Alpha virt. eigenvalues --    0.32934   0.35395   0.36410   0.37164   0.38191
 Alpha virt. eigenvalues --    0.39088   0.39568   0.41225   0.42238   0.42530
 Alpha virt. eigenvalues --    0.42950   0.43646   0.44163   0.45523   0.45966
 Alpha virt. eigenvalues --    0.47129   0.48145   0.49387   0.50298   0.51586
 Alpha virt. eigenvalues --    0.52622   0.53544   0.54230   0.54654   0.55888
 Alpha virt. eigenvalues --    0.56621   0.57458   0.58788   0.59210   0.59690
 Alpha virt. eigenvalues --    0.60928   0.61210   0.62232   0.62602   0.63093
 Alpha virt. eigenvalues --    0.64186   0.64327   0.65604   0.66304   0.66925
 Alpha virt. eigenvalues --    0.67663   0.68665   0.70182   0.71726   0.71949
 Alpha virt. eigenvalues --    0.73288   0.73454   0.74830   0.76624   0.78364
 Alpha virt. eigenvalues --    0.79373   0.79477   0.81845   0.86989   0.90493
 Alpha virt. eigenvalues --    0.93200   0.93549   0.96910   0.98706   1.01545
 Alpha virt. eigenvalues --    1.03799   1.04774   1.07089   1.07380   1.11195
 Alpha virt. eigenvalues --    1.13600   1.14923   1.15792   1.18763   1.20851
 Alpha virt. eigenvalues --    1.21500   1.22887   1.23765   1.25612   1.26617
 Alpha virt. eigenvalues --    1.29179   1.31478   1.32253   1.34909   1.36379
 Alpha virt. eigenvalues --    1.36950   1.40579   1.42704   1.43793   1.44341
 Alpha virt. eigenvalues --    1.49722   1.52481   1.54711   1.57569   1.58376
 Alpha virt. eigenvalues --    1.59817   1.60610   1.61196   1.62032   1.63663
 Alpha virt. eigenvalues --    1.63738   1.64023   1.65110   1.65867   1.66317
 Alpha virt. eigenvalues --    1.67763   1.68861   1.70793   1.71413   1.72507
 Alpha virt. eigenvalues --    1.72920   1.73922   1.75436   1.77065   1.77439
 Alpha virt. eigenvalues --    1.79129   1.80899   1.81978   1.84076   1.85801
 Alpha virt. eigenvalues --    1.86768   1.87656   1.91404   1.93097   1.94293
 Alpha virt. eigenvalues --    1.95235   1.95888   1.97722   1.98987   1.99796
 Alpha virt. eigenvalues --    2.01138   2.02464   2.04574   2.07328   2.08284
 Alpha virt. eigenvalues --    2.09102   2.10208   2.11708   2.15017   2.16184
 Alpha virt. eigenvalues --    2.18311   2.18617   2.19532   2.20952   2.22295
 Alpha virt. eigenvalues --    2.23711   2.25162   2.30020   2.34590   2.36244
 Alpha virt. eigenvalues --    2.36803   2.38331   2.44258   2.46419   2.46661
 Alpha virt. eigenvalues --    2.47172   2.49235   2.52616   2.55024   2.56461
 Alpha virt. eigenvalues --    2.60063   2.61926   2.63254   2.65568   2.69031
 Alpha virt. eigenvalues --    2.70051   2.77261   2.78050   2.80463   2.82509
 Alpha virt. eigenvalues --    2.84829   2.86648   2.87226   2.89197   2.91779
 Alpha virt. eigenvalues --    2.92378   3.00447   3.01685   3.02401   3.04021
 Alpha virt. eigenvalues --    3.07027   3.16689   3.20185   3.21672   3.23150
 Alpha virt. eigenvalues --    3.35082   3.41150   3.42499   3.47441   3.67080
 Alpha virt. eigenvalues --    3.75309   3.77478
          Condensed to atoms (all electrons):
               1          2          3          4          5          6
     1  C    4.576420   0.435224  -0.071668   0.012889   0.000043   0.008551
     2  C    0.435224   5.221711   0.346854   0.061171  -0.122488   0.028895
     3  C   -0.071668   0.346854   5.097801   0.294193   0.083998  -0.128414
     4  C    0.012889   0.061171   0.294193   5.078509   0.231959   0.085713
     5  C    0.000043  -0.122488   0.083998   0.231959   5.254886   0.318307
     6  C    0.008551   0.028895  -0.128414   0.085713   0.318307   5.048176
     7  F   -0.000018   0.001105   0.000130   0.005141  -0.064904   0.381455
     8  C   -0.065910   0.297533   0.038271  -0.089869  -0.015052   0.222098
     9  C   -0.020952  -0.047036   0.014586   0.000354   0.013215  -0.058838
    10  C    0.000077   0.009793   0.000048  -0.000217   0.000926  -0.033613
    11  O   -0.000003   0.000278  -0.000009   0.000010  -0.002222   0.001929
    12  C   -0.000022  -0.000006   0.000000   0.000001  -0.000045   0.000621
    13  C    0.000016  -0.000150   0.000001  -0.000000   0.000002  -0.000103
    14  C   -0.000963   0.000829  -0.000019   0.000000  -0.000002   0.000014
    15  C   -0.001729  -0.023220   0.000307  -0.000075  -0.000061   0.012892
    16  F    0.004783  -0.002209  -0.000542   0.000004  -0.000003   0.000218
    17  H    0.370823  -0.003963   0.008407  -0.000800   0.000181  -0.000896
    18  H    0.374309  -0.019594  -0.017924   0.001544   0.000030  -0.000023
    19  H    0.359954  -0.004402  -0.000762  -0.000099  -0.000055  -0.000191
    20  H   -0.016842  -0.068184   0.425058  -0.067039   0.013492  -0.000389
    21  H   -0.000438   0.015122  -0.067600   0.430240  -0.070725   0.013557
    22  H    0.000022  -0.000599   0.012263  -0.066087   0.409536  -0.055984
    23  H    0.000000   0.000028  -0.000001  -0.000000   0.000051  -0.000638
    24  H    0.000000   0.000001  -0.000000   0.000000   0.000000   0.000040
    25  H    0.000000   0.000000  -0.000000   0.000000  -0.000000   0.000001
    26  H   -0.000019   0.000027  -0.000000   0.000000  -0.000000  -0.000000
               7          8          9         10         11         12
     1  C   -0.000018  -0.065910  -0.020952   0.000077  -0.000003  -0.000022
     2  C    0.001105   0.297533  -0.047036   0.009793   0.000278  -0.000006
     3  C    0.000130   0.038271   0.014586   0.000048  -0.000009   0.000000
     4  C    0.005141  -0.089869   0.000354  -0.000217   0.000010   0.000001
     5  C   -0.064904  -0.015052   0.013215   0.000926  -0.002222  -0.000045
     6  C    0.381455   0.222098  -0.058838  -0.033613   0.001929   0.000621
     7  F    8.913509  -0.078443   0.003551   0.002270  -0.014726  -0.000790
     8  C   -0.078443   5.511330   0.191832  -0.044680   0.008898   0.013269
     9  C    0.003551   0.191832   5.658887   0.205338  -0.089896   0.016649
    10  C    0.002270  -0.044680   0.205338   5.174603   0.443085   0.255204
    11  O   -0.014726   0.008898  -0.089896   0.443085   7.549923  -0.073524
    12  C   -0.000790   0.013269   0.016649   0.255204  -0.073524   5.316065
    13  C    0.000000  -0.000067  -0.091676   0.101598   0.004693   0.237545
    14  C   -0.000000   0.012766  -0.006350  -0.133537   0.000486   0.092245
    15  C    0.000301  -0.050964   0.204435   0.064222  -0.000009  -0.145920
    16  F   -0.000000  -0.002518  -0.073166   0.001797  -0.000001   0.000123
    17  H   -0.000005  -0.012531   0.005700   0.000087   0.000001   0.000001
    18  H    0.000002   0.005792  -0.000587   0.000010  -0.000000  -0.000000
    19  H    0.000000   0.000748   0.003195   0.000008   0.000000  -0.000004
    20  H    0.000004   0.015238  -0.000305   0.000003  -0.000000  -0.000000
    21  H   -0.000080  -0.001590   0.000018   0.000001   0.000000   0.000000
    22  H    0.001969   0.018156  -0.000367   0.000046   0.000045   0.000000
    23  H    0.001875  -0.000515   0.013363  -0.010078   0.313671  -0.027862
    24  H    0.000004  -0.000320   0.015583  -0.074281  -0.007366   0.408640
    25  H    0.000000   0.000008  -0.001821   0.014605  -0.000104  -0.063014
    26  H   -0.000000  -0.000247   0.018179  -0.000904   0.000006   0.013667
              13         14         15         16         17         18
     1  C    0.000016  -0.000963  -0.001729   0.004783   0.370823   0.374309
     2  C   -0.000150   0.000829  -0.023220  -0.002209  -0.003963  -0.019594
     3  C    0.000001  -0.000019   0.000307  -0.000542   0.008407  -0.017924
     4  C   -0.000000   0.000000  -0.000075   0.000004  -0.000800   0.001544
     5  C    0.000002  -0.000002  -0.000061  -0.000003   0.000181   0.000030
     6  C   -0.000103   0.000014   0.012892   0.000218  -0.000896  -0.000023
     7  F    0.000000  -0.000000   0.000301  -0.000000  -0.000005   0.000002
     8  C   -0.000067   0.012766  -0.050964  -0.002518  -0.012531   0.005792
     9  C   -0.091676  -0.006350   0.204435  -0.073166   0.005700  -0.000587
    10  C    0.101598  -0.133537   0.064222   0.001797   0.000087   0.000010
    11  O    0.004693   0.000486  -0.000009  -0.000001   0.000001  -0.000000
    12  C    0.237545   0.092245  -0.145920   0.000123   0.000001  -0.000000
    13  C    5.097424   0.215022   0.109703   0.005033   0.000087  -0.000002
    14  C    0.215022   5.251224   0.311814  -0.060999  -0.001384   0.000048
    15  C    0.109703   0.311814   5.061831   0.363990   0.006300   0.000125
    16  F    0.005033  -0.060999   0.363990   8.921325  -0.005127   0.001524
    17  H    0.000087  -0.001384   0.006300  -0.005127   0.647659  -0.027535
    18  H   -0.000002   0.000048   0.000125   0.001524  -0.027535   0.666528
    19  H    0.000001  -0.000087  -0.002404   0.004452  -0.019607  -0.022429
    20  H    0.000000   0.000000   0.000029  -0.000011   0.000416   0.004569
    21  H   -0.000000   0.000000   0.000001   0.000000   0.000011  -0.000014
    22  H    0.000000  -0.000000  -0.000001  -0.000000  -0.000001  -0.000002
    23  H    0.000792  -0.000145   0.000216   0.000002  -0.000000  -0.000000
    24  H   -0.048883   0.013248  -0.000330   0.000003  -0.000001  -0.000000
    25  H    0.427142  -0.067285   0.013582  -0.000081  -0.000003   0.000000
    26  H   -0.067892   0.414861  -0.058133   0.001733   0.000062  -0.000003
              19         20         21         22         23         24
     1  C    0.359954  -0.016842  -0.000438   0.000022   0.000000   0.000000
     2  C   -0.004402  -0.068184   0.015122  -0.000599   0.000028   0.000001
     3  C   -0.000762   0.425058  -0.067600   0.012263  -0.000001  -0.000000
     4  C   -0.000099  -0.067039   0.430240  -0.066087  -0.000000   0.000000
     5  C   -0.000055   0.013492  -0.070725   0.409536   0.000051   0.000000
     6  C   -0.000191  -0.000389   0.013557  -0.055984  -0.000638   0.000040
     7  F    0.000000   0.000004  -0.000080   0.001969   0.001875   0.000004
     8  C    0.000748   0.015238  -0.001590   0.018156  -0.000515  -0.000320
     9  C    0.003195  -0.000305   0.000018  -0.000367   0.013363   0.015583
    10  C    0.000008   0.000003   0.000001   0.000046  -0.010078  -0.074281
    11  O    0.000000  -0.000000   0.000000   0.000045   0.313671  -0.007366
    12  C   -0.000004  -0.000000   0.000000   0.000000  -0.027862   0.408640
    13  C    0.000001   0.000000  -0.000000   0.000000   0.000792  -0.048883
    14  C   -0.000087   0.000000   0.000000  -0.000000  -0.000145   0.013248
    15  C   -0.002404   0.000029   0.000001  -0.000001   0.000216  -0.000330
    16  F    0.004452  -0.000011   0.000000  -0.000000   0.000002   0.000003
    17  H   -0.019607   0.000416   0.000011  -0.000001  -0.000000  -0.000001
    18  H   -0.022429   0.004569  -0.000014  -0.000002  -0.000000  -0.000000
    19  H    0.628205   0.002152   0.000014  -0.000001  -0.000000  -0.000000
    20  H    0.002152   0.711518  -0.012541  -0.000375   0.000000   0.000000
    21  H    0.000014  -0.012541   0.701022  -0.012513   0.000000  -0.000000
    22  H   -0.000001  -0.000375  -0.012513   0.684834  -0.000002  -0.000000
    23  H   -0.000000   0.000000   0.000000  -0.000002   0.517757   0.010828
    24  H   -0.000000   0.000000  -0.000000  -0.000000   0.010828   0.711238
    25  H    0.000000  -0.000000   0.000000  -0.000000  -0.000049  -0.013653
    26  H    0.000033  -0.000000  -0.000000   0.000000  -0.000006  -0.000336
              25         26
     1  C    0.000000  -0.000019
     2  C    0.000000   0.000027
     3  C   -0.000000  -0.000000
     4  C    0.000000   0.000000
     5  C   -0.000000  -0.000000
     6  C    0.000001  -0.000000
     7  F    0.000000  -0.000000
     8  C    0.000008  -0.000247
     9  C   -0.001821   0.018179
    10  C    0.014605  -0.000904
    11  O   -0.000104   0.000006
    12  C   -0.063014   0.013667
    13  C    0.427142  -0.067892
    14  C   -0.067285   0.414861
    15  C    0.013582  -0.058133
    16  F   -0.000081   0.001733
    17  H   -0.000003   0.000062
    18  H    0.000000  -0.000003
    19  H    0.000000   0.000033
    20  H   -0.000000  -0.000000
    21  H    0.000000  -0.000000
    22  H   -0.000000   0.000000
    23  H   -0.000049  -0.000006
    24  H   -0.013653  -0.000336
    25  H    0.692056  -0.012268
    26  H   -0.012268   0.681788
 Mulliken charges:
               1
     1  C    0.035453
     2  C   -0.126721
     3  C   -0.034978
     4  C    0.022457
     5  C   -0.051070
     6  C    0.156621
     7  F   -0.152349
     8  C    0.026767
     9  C    0.026110
    10  C    0.023589
    11  O   -0.135165
    12  C   -0.042843
    13  C    0.009715
    14  C   -0.041787
    15  C    0.133099
    16  F   -0.160330
    17  H    0.032119
    18  H    0.033630
    19  H    0.051276
    20  H   -0.006793
    21  H    0.005513
    22  H    0.009060
    23  H    0.180712
    24  H   -0.014417
    25  H    0.010883
    26  H    0.009452
 Sum of Mulliken charges =  -0.00000
 Mulliken charges with hydrogens summed into heavy atoms:
               1
     1  C    0.152478
     2  C   -0.126721
     3  C   -0.041771
     4  C    0.027970
     5  C   -0.042010
     6  C    0.156621
     7  F   -0.152349
     8  C    0.026767
     9  C    0.026110
    10  C    0.023589
    11  O    0.045547
    12  C   -0.057260
    13  C    0.020597
    14  C   -0.032335
    15  C    0.133099
    16  F   -0.160330
 APT charges:
               1
     1  C    0.025286
     2  C    0.104685
     3  C   -0.144320
     4  C    0.016370
     5  C   -0.130134
     6  C    0.433170
     7  F   -0.417744
     8  C    0.014768
     9  C   -0.068722
    10  C    0.431879
    11  O   -0.540120
    12  C   -0.144648
    13  C    0.059665
    14  C   -0.253817
    15  C    0.529484
    16  F   -0.441841
    17  H    0.005094
    18  H   -0.015315
    19  H    0.015780
    20  H    0.023886
    21  H    0.031385
    22  H    0.056898
    23  H    0.283801
    24  H    0.021908
    25  H    0.041791
    26  H    0.060811
 Sum of APT charges =   0.00000
 APT charges with hydrogens summed into heavy atoms:
               1
     1  C    0.030845
     2  C    0.104685
     3  C   -0.120434
     4  C    0.047755
     5  C   -0.073237
     6  C    0.433170
     7  F   -0.417744
     8  C    0.014768
     9  C   -0.068722
    10  C    0.431879
    11  O   -0.256319
    12  C   -0.122740
    13  C    0.101456
    14  C   -0.193006
    15  C    0.529484
    16  F   -0.441841
 Electronic spatial extent (au):  <R**2>=           3344.9615
 Charge=             -0.0000 electrons
 Dipole moment (field-independent basis, Debye):
    X=             -1.3900    Y=             -0.8371    Z=              0.0558  Tot=              1.6235
 Quadrupole moment (field-independent basis, Debye-Ang):
   XX=            -77.4108   YY=            -82.5093   ZZ=            -95.2818
   XY=              5.7947   XZ=             -0.5180   YZ=              2.5091
 Traceless Quadrupole moment (field-independent basis, Debye-Ang):
   XX=              7.6565   YY=              2.5580   ZZ=            -10.2145
   XY=              5.7947   XZ=             -0.5180   YZ=              2.5091
 Octapole moment (field-independent basis, Debye-Ang**2):
  XXX=            -14.0502  YYY=            -31.9384  ZZZ=             -0.5279  XYY=            -17.8179
  XXY=            -15.0548  XXZ=             -3.8919  XZZ=             -0.9237  YZZ=             -2.7719
  YYZ=             -3.7807  XYZ=             -1.4104
 Hexadecapole moment (field-independent basis, Debye-Ang**3):
 XXXX=          -2594.1296 YYYY=          -1247.1423 ZZZZ=           -175.9872 XXXY=            -17.4068
 XXXZ=            -29.9025 YYYX=             48.9966 YYYZ=              3.6879 ZZZX=             20.8231
 ZZZY=            -16.7390 XXYY=           -608.8952 XXZZ=           -545.5621 YYZZ=           -259.4798
 XXYZ=              2.5623 YYXZ=             13.3291 ZZXY=             -3.6323
 N-N= 1.072179647016D+03 E-N=-3.956197963953D+03  KE= 7.677410302618D+02
  Exact polarizability:     239.868       1.544     166.785     -12.286       3.178      70.943
 Approx polarizability:     476.379      -3.058     380.446     -36.201      -1.428     130.025
   1 Symmetry operations used in ECPInt.
 ECPInt:  NShTT=    8001 NPrTT=   29641 LenC2=    7596 LenP2D=   20275.
 LDataN:  DoStor=T MaxTD1= 6 Len=  172
 Calling FoFJK, ICntrl=    100527 FMM=F ISym2X=0 I1Cent= 0 IOpClX= 0 NMat=1 NMatS=1 NMatT=0.
 Full mass-weighted force constant matrix:
 Low frequencies ---  -66.2216   -1.8083    0.0005    0.0007    0.0009    1.9464
 Low frequencies ---    4.4466   53.7911  128.4391
 ******    1 imaginary frequencies (negative Signs) ****** 
 Diagonal vibrational polarizability:
        8.7743866      17.7718800      36.7058950
 Harmonic frequencies (cm**-1), IR intensities (KM/Mole), Raman scattering
 activities (A**4/AMU), depolarization ratios for plane and unpolarized
 incident light, reduced masses (AMU), force constants (mDyne/A),
 and normal coordinates:
                      1                      2                      3
                      A                      A                      A
 Frequencies --    -66.2213                53.7909               128.4391
 Red. masses --      5.7930                 5.6400                 5.4976
 Frc consts  --      0.0150                 0.0096                 0.0534
 IR Inten    --      0.7143                 1.0633                 0.7009
  Atom  AN      X      Y      Z        X      Y      Z        X      Y      Z
     1   6     0.12   0.08  -0.21    -0.06   0.03  -0.13    -0.10  -0.11   0.22
     2   6     0.05   0.01  -0.09     0.01   0.00  -0.02    -0.04  -0.01   0.03
     3   6     0.05  -0.08  -0.08     0.05  -0.00   0.15    -0.07   0.00  -0.07
     4   6    -0.00  -0.12   0.01     0.08  -0.00   0.24    -0.11  -0.01  -0.14
     5   6    -0.05  -0.07   0.09     0.04  -0.00   0.13    -0.07  -0.02  -0.04
     6   6    -0.05   0.02   0.08    -0.00  -0.00  -0.04    -0.04  -0.01   0.06
     7   9    -0.10   0.08   0.17    -0.07  -0.03  -0.15    -0.05   0.06   0.21
     8   6     0.00   0.04  -0.01     0.01   0.00  -0.08    -0.02  -0.01   0.02
     9   6     0.00   0.04  -0.01     0.01   0.00  -0.09     0.02   0.02  -0.02
    10   6     0.05   0.01  -0.10     0.00   0.00  -0.04     0.05   0.01  -0.06
    11   8     0.11   0.07  -0.20    -0.05   0.03  -0.18     0.11   0.09  -0.19
    12   6     0.05  -0.07  -0.09     0.04  -0.00   0.16     0.07  -0.02   0.04
    13   6    -0.00  -0.11  -0.00     0.06   0.00   0.27     0.09  -0.01   0.13
    14   6    -0.05  -0.07   0.09     0.02   0.00   0.15     0.05   0.01   0.04
    15   6    -0.05   0.01   0.09    -0.00  -0.00  -0.04     0.04   0.02  -0.06
    16   9    -0.10   0.07   0.19    -0.05  -0.03  -0.18     0.04  -0.02  -0.19
    17   1     0.20   0.16  -0.09    -0.07   0.04  -0.14    -0.17  -0.24   0.12
    18   1     0.20   0.15  -0.35    -0.09   0.13  -0.15    -0.16  -0.23   0.39
    19   1     0.03  -0.01  -0.27    -0.09  -0.05  -0.20    -0.01   0.03   0.34
    20   1     0.09  -0.10  -0.14     0.05  -0.00   0.21    -0.05  -0.01  -0.09
    21   1    -0.00  -0.18   0.02     0.11   0.00   0.38    -0.13  -0.02  -0.25
    22   1    -0.09  -0.08   0.16     0.02  -0.00   0.17    -0.05  -0.01  -0.04
    23   1     0.16   0.03  -0.23    -0.03   0.01  -0.07     0.20  -0.00  -0.11
    24   1     0.09  -0.10  -0.17     0.03   0.00   0.22     0.07  -0.01   0.05
    25   1    -0.00  -0.17   0.00     0.08   0.00   0.43     0.11  -0.01   0.23
    26   1    -0.09  -0.08   0.17     0.01  -0.00   0.19     0.01  -0.01   0.05
                      4                      5                      6
                      A                      A                      A
 Frequencies --    177.5774               194.4468               204.4371
 Red. masses --      4.6884                 6.8617                 4.4012
 Frc consts  --      0.0871                 0.1529                 0.1084
 IR Inten    --      1.8504                 1.6859                 3.2891
  Atom  AN      X      Y      Z        X      Y      Z        X      Y      Z
     1   6    -0.02  -0.02   0.01     0.12   0.20   0.00     0.05  -0.09   0.15
     2   6    -0.07   0.02  -0.13     0.02   0.12   0.11     0.02   0.01  -0.12
     3   6    -0.09   0.07  -0.22     0.01   0.04   0.10     0.02   0.00  -0.11
     4   6     0.00   0.08   0.02    -0.06   0.02  -0.05     0.04  -0.01   0.05
     5   6     0.08   0.08   0.23    -0.09   0.02  -0.13     0.03   0.01   0.12
     6   6     0.04   0.02   0.07    -0.05   0.11  -0.02    -0.01   0.04  -0.04
     7   9    -0.00   0.01   0.00    -0.20   0.19  -0.02    -0.09   0.09  -0.03
     8   6    -0.01  -0.03  -0.04     0.00   0.11   0.06     0.01   0.03  -0.15
     9   6    -0.00  -0.08  -0.03     0.02  -0.10   0.06     0.00   0.01  -0.13
    10   6    -0.05  -0.05  -0.08     0.02  -0.11   0.02     0.01  -0.02   0.02
    11   8    -0.10  -0.09  -0.03    -0.11  -0.15  -0.08    -0.05  -0.05  -0.00
    12   6    -0.07   0.04  -0.16     0.02  -0.05   0.06     0.05  -0.03   0.22
    13   6     0.01   0.07   0.02     0.04  -0.04   0.00     0.01  -0.04   0.01
    14   6     0.08   0.05   0.17     0.05  -0.05  -0.06    -0.03  -0.05  -0.20
    15   6     0.05  -0.04   0.07     0.05  -0.11   0.02    -0.02  -0.01  -0.11
    16   9     0.12  -0.09   0.04     0.21  -0.20   0.01    -0.00   0.08   0.14
    17   1    -0.01  -0.06   0.02     0.15   0.34   0.06     0.05  -0.23   0.14
    18   1    -0.00  -0.14   0.06     0.18   0.24  -0.11     0.06  -0.24   0.23
    19   1     0.01   0.09   0.11     0.10   0.12  -0.09     0.05   0.09   0.33
    20   1    -0.15   0.11  -0.37     0.07   0.00   0.14     0.03   0.00  -0.10
    21   1     0.01   0.11   0.06    -0.08   0.00  -0.12     0.07  -0.03   0.15
    22   1     0.15   0.12   0.40    -0.14  -0.01  -0.24     0.03   0.02   0.26
    23   1    -0.15  -0.03  -0.11    -0.26   0.00  -0.30    -0.07  -0.03   0.12
    24   1    -0.13   0.08  -0.26    -0.01  -0.04   0.10     0.08  -0.05   0.43
    25   1     0.02   0.11   0.04     0.04  -0.02  -0.01     0.02  -0.04   0.07
    26   1     0.14   0.09   0.29     0.07  -0.04  -0.12    -0.06  -0.07  -0.26
                      7                      8                      9
                      A                      A                      A
 Frequencies --    214.4086               282.3160               305.2186
 Red. masses --      5.8280                 3.8064                 3.3616
 Frc consts  --      0.1579                 0.1787                 0.1845
 IR Inten    --      2.8443                 5.0955                 1.2849
  Atom  AN      X      Y      Z        X      Y      Z        X      Y      Z
     1   6    -0.03  -0.06   0.05     0.02  -0.09   0.09    -0.06  -0.06  -0.05
     2   6     0.03  -0.00  -0.04     0.10   0.01  -0.06    -0.02  -0.04  -0.07
     3   6     0.09  -0.02   0.16     0.10  -0.02  -0.08     0.01   0.01   0.06
     4   6     0.05  -0.02   0.04     0.09  -0.05   0.02     0.06   0.04   0.04
     5   6    -0.02  -0.03  -0.15     0.04  -0.02   0.03     0.05   0.01  -0.08
     6   6    -0.01   0.03  -0.14     0.02   0.05  -0.04     0.04  -0.02  -0.06
     7   9    -0.02   0.18   0.14    -0.08   0.10  -0.07     0.11   0.03   0.14
     8   6     0.00   0.03  -0.21     0.05   0.05  -0.02    -0.01  -0.05  -0.09
     9   6    -0.00  -0.02  -0.20     0.02   0.04   0.18    -0.03  -0.04   0.04
    10   6    -0.01  -0.03  -0.11     0.02   0.04   0.12    -0.08   0.01   0.03
    11   8    -0.02  -0.15   0.19    -0.00   0.05   0.04    -0.04   0.09  -0.13
    12   6    -0.02   0.01  -0.18    -0.01  -0.01  -0.04    -0.08   0.03   0.08
    13   6     0.01   0.00   0.05    -0.07  -0.04  -0.09    -0.06   0.06  -0.02
    14   6     0.03   0.02   0.19    -0.05  -0.02   0.07    -0.02   0.03  -0.07
    15   6    -0.01   0.00  -0.03    -0.04  -0.00   0.12    -0.01  -0.04   0.04
    16   9    -0.05   0.03  -0.00    -0.09  -0.07  -0.14     0.07  -0.09   0.06
    17   1     0.00  -0.18   0.08     0.12  -0.34   0.22     0.20  -0.22   0.30
    18   1    -0.03  -0.04   0.04     0.04  -0.00   0.00     0.09   0.16  -0.40
    19   1    -0.13  -0.02   0.12    -0.27  -0.05   0.22    -0.53  -0.15   0.00
    20   1     0.13  -0.05   0.38     0.12  -0.03  -0.09    -0.01   0.02   0.18
    21   1     0.08  -0.03   0.14     0.10  -0.09   0.08     0.08   0.08   0.13
    22   1    -0.05  -0.04  -0.15    -0.01  -0.03   0.09     0.08   0.03  -0.06
    23   1    -0.05  -0.11   0.27    -0.16   0.22  -0.48     0.04   0.00  -0.10
    24   1    -0.04   0.02  -0.22     0.03  -0.03  -0.17    -0.10   0.05   0.10
    25   1     0.03  -0.00   0.13    -0.10  -0.08  -0.25    -0.07   0.10  -0.07
    26   1     0.04   0.04   0.40    -0.06  -0.03  -0.02     0.03   0.05  -0.15
                     10                     11                     12
                      A                      A                      A
 Frequencies --    311.2140               320.4232               333.7050
 Red. masses --      1.3489                 5.5594                 2.1131
 Frc consts  --      0.0770                 0.3363                 0.1386
 IR Inten    --      0.3065                 1.3736                29.9026
  Atom  AN      X      Y      Z        X      Y      Z        X      Y      Z
     1   6    -0.00  -0.02  -0.04    -0.14  -0.00  -0.05     0.15   0.03   0.07
     2   6    -0.01  -0.01  -0.05    -0.13   0.03  -0.14     0.02   0.02  -0.00
     3   6     0.01  -0.00   0.01    -0.12   0.00  -0.01     0.02  -0.02  -0.02
     4   6     0.03   0.01   0.04    -0.11  -0.01   0.14     0.02  -0.02   0.01
     5   6     0.01  -0.00  -0.04    -0.12  -0.03  -0.02    -0.02   0.02   0.03
     6   6     0.00  -0.00  -0.05    -0.13  -0.04  -0.13    -0.02   0.04  -0.01
     7   9     0.01   0.03   0.03    -0.11  -0.03  -0.09     0.04  -0.00  -0.03
     8   6    -0.01  -0.01  -0.04    -0.07  -0.00  -0.11    -0.04   0.03  -0.01
     9   6    -0.02  -0.00   0.05     0.00   0.03   0.06    -0.07   0.01  -0.02
    10   6    -0.02   0.00   0.04     0.10   0.00   0.10    -0.06   0.01  -0.01
    11   8     0.01   0.04  -0.02     0.22   0.07   0.11     0.06   0.08  -0.01
    12   6    -0.02  -0.01   0.01     0.10  -0.03   0.01    -0.07  -0.03  -0.03
    13   6    -0.03  -0.00  -0.02     0.11  -0.01  -0.08    -0.06  -0.03   0.03
    14   6    -0.02  -0.00   0.01     0.08   0.03   0.03    -0.07  -0.01   0.03
    15   6    -0.01  -0.01   0.04     0.07   0.04   0.08    -0.06  -0.01  -0.02
    16   9     0.03  -0.03   0.02     0.15  -0.02   0.05     0.04  -0.08  -0.05
    17   1    -0.31   0.14  -0.45     0.03  -0.11   0.16     0.19   0.07   0.13
    18   1    -0.20  -0.30   0.40    -0.03   0.06  -0.24     0.22  -0.03   0.01
    19   1     0.56   0.12  -0.06    -0.38   0.01   0.04     0.13   0.07   0.11
    20   1    -0.00   0.01   0.06    -0.09  -0.02   0.05     0.02  -0.02  -0.01
    21   1     0.05   0.01   0.12    -0.05  -0.00   0.35     0.02  -0.04   0.04
    22   1     0.01   0.00  -0.02    -0.10  -0.02   0.05    -0.05   0.00   0.06
    23   1     0.02   0.03  -0.09     0.35  -0.06   0.22     0.36  -0.25   0.73
    24   1    -0.02  -0.01  -0.01     0.08  -0.02  -0.06    -0.07  -0.03  -0.11
    25   1    -0.03  -0.00  -0.06     0.09  -0.03  -0.21    -0.06  -0.03   0.05
    26   1    -0.01  -0.00  -0.02     0.03   0.01  -0.00    -0.09  -0.02   0.05
                     13                     14                     15
                      A                      A                      A
 Frequencies --    372.6882               441.5126               467.9951
 Red. masses --      1.7283                 4.6309                 4.2791
 Frc consts  --      0.1414                 0.5319                 0.5522
 IR Inten    --     33.6322                 3.1119                 2.7235
  Atom  AN      X      Y      Z        X      Y      Z        X      Y      Z
     1   6    -0.10  -0.03  -0.04     0.18   0.09   0.08     0.07   0.01   0.00
     2   6     0.03  -0.01   0.02    -0.09   0.03  -0.06    -0.10  -0.12   0.22
     3   6     0.03   0.01  -0.00    -0.10   0.02  -0.03    -0.14  -0.06   0.03
     4   6     0.02   0.00  -0.03    -0.04   0.04   0.12    -0.00   0.05  -0.08
     5   6     0.04  -0.01  -0.01    -0.03  -0.01  -0.07     0.17  -0.05   0.08
     6   6     0.04   0.00   0.02    -0.03  -0.06  -0.09     0.10  -0.06  -0.15
     7   9    -0.07   0.05  -0.02     0.07  -0.05   0.09    -0.10   0.13  -0.02
     8   6     0.05  -0.01   0.03    -0.03  -0.03  -0.04    -0.01  -0.10  -0.07
     9   6     0.04  -0.02   0.04     0.02  -0.02   0.07    -0.01  -0.04  -0.03
    10   6     0.01  -0.01   0.03     0.03  -0.07   0.08    -0.07  -0.01   0.06
    11   8    -0.06  -0.00  -0.07    -0.12  -0.10  -0.11     0.08   0.09   0.04
    12   6     0.01   0.01   0.01     0.04  -0.04   0.06    -0.08  -0.04   0.03
    13   6     0.01   0.01  -0.05     0.07  -0.02  -0.11    -0.01   0.01  -0.03
    14   6     0.05  -0.01   0.00     0.08  -0.00   0.06     0.06  -0.03   0.02
    15   6     0.04  -0.01   0.04     0.08   0.06   0.09     0.05  -0.01  -0.03
    16   9    -0.04   0.02   0.02    -0.11   0.13  -0.11    -0.03   0.05  -0.02
    17   1    -0.15  -0.09  -0.11     0.26   0.22   0.20     0.09   0.33   0.06
    18   1    -0.18   0.03   0.04     0.34  -0.11  -0.03     0.18   0.06  -0.18
    19   1    -0.08  -0.06  -0.06     0.19   0.16   0.14     0.14  -0.19  -0.21
    20   1     0.02   0.01  -0.03    -0.09   0.02   0.03    -0.24   0.00  -0.09
    21   1     0.01   0.01  -0.09     0.01   0.10   0.34    -0.02   0.23  -0.18
    22   1     0.04  -0.01  -0.05     0.04   0.03   0.00     0.29   0.02   0.30
    23   1     0.16  -0.24   0.84    -0.14  -0.09   0.21     0.15   0.02  -0.21
    24   1    -0.02   0.02  -0.12    -0.02  -0.01  -0.08    -0.09  -0.03   0.00
    25   1    -0.01   0.03  -0.16     0.03  -0.00  -0.37    -0.02   0.10  -0.07
    26   1     0.07   0.00  -0.05     0.03  -0.04  -0.06     0.09  -0.01   0.07
                     16                     17                     18
                      A                      A                      A
 Frequencies --    482.1100               505.9147               512.8706
 Red. masses --      4.1475                 5.3154                 6.3181
 Frc consts  --      0.5680                 0.8016                 0.9792
 IR Inten    --      5.2503                 3.5328                11.8572
  Atom  AN      X      Y      Z        X      Y      Z        X      Y      Z
     1   6     0.01   0.01   0.01     0.08  -0.10  -0.05    -0.07   0.26   0.11
     2   6    -0.03   0.01  -0.04     0.05  -0.03  -0.14     0.02   0.21  -0.03
     3   6    -0.05   0.00  -0.12     0.09   0.13   0.08     0.01   0.05  -0.04
     4   6     0.05   0.01   0.17     0.01   0.13  -0.03    -0.10  -0.05   0.02
     5   6     0.02  -0.06  -0.14    -0.06   0.15  -0.04     0.03  -0.16  -0.01
     6   6     0.04  -0.03  -0.07    -0.04  -0.01   0.18     0.04  -0.14  -0.05
     7   9    -0.03   0.06   0.01    -0.12  -0.07   0.00    -0.02  -0.12   0.06
     8   6     0.03  -0.02   0.18     0.00  -0.05  -0.01     0.17   0.02  -0.11
     9   6     0.02  -0.03   0.17     0.00  -0.01  -0.02     0.16  -0.01  -0.13
    10   6    -0.04   0.00  -0.03    -0.12  -0.01   0.15    -0.02   0.14   0.03
    11   8     0.02   0.01   0.02    -0.02   0.11   0.03    -0.06   0.17   0.05
    12   6    -0.07   0.00  -0.16    -0.15  -0.15  -0.01    -0.04   0.05   0.01
    13   6     0.02   0.02   0.20    -0.01  -0.08  -0.01    -0.12  -0.02  -0.04
    14   6     0.04  -0.06  -0.15     0.13  -0.14   0.05     0.06  -0.13   0.04
    15   6     0.04  -0.05  -0.12     0.12  -0.01  -0.14     0.05  -0.15  -0.08
    16   9    -0.04   0.05   0.02     0.05   0.11  -0.01    -0.06  -0.10   0.04
    17   1     0.05  -0.03   0.06     0.13  -0.16   0.01    -0.11   0.16   0.05
    18   1     0.04  -0.03  -0.02     0.11  -0.17  -0.07    -0.11   0.21   0.20
    19   1    -0.04   0.04   0.06     0.03  -0.01   0.05    -0.07   0.35   0.19
    20   1    -0.08   0.02  -0.21     0.06   0.15   0.30     0.18  -0.06  -0.07
    21   1     0.12   0.07   0.44    -0.01   0.02  -0.11    -0.08  -0.02   0.09
    22   1     0.04  -0.06  -0.18    -0.03   0.15  -0.34     0.18  -0.10   0.04
    23   1     0.06  -0.03   0.02     0.04   0.06  -0.21    -0.06   0.18   0.02
    24   1    -0.09   0.02  -0.21    -0.16  -0.15  -0.22     0.10  -0.04  -0.01
    25   1     0.08   0.10   0.55    -0.01   0.12  -0.05    -0.12   0.05  -0.04
    26   1     0.09  -0.03  -0.11     0.13  -0.13   0.29     0.23  -0.04   0.18
                     19                     20                     21
                      A                      A                      A
 Frequencies --    524.1634               537.3505               567.8126
 Red. masses --      4.9385                 5.0688                 3.8910
 Frc consts  --      0.7994                 0.8623                 0.7391
 IR Inten    --      5.6324                 4.9069                 1.5899
  Atom  AN      X      Y      Z        X      Y      Z        X      Y      Z
     1   6    -0.12   0.10   0.03    -0.09  -0.00  -0.02    -0.01  -0.02   0.00
     2   6    -0.02   0.10  -0.02    -0.01  -0.02   0.08    -0.01  -0.02   0.03
     3   6    -0.01  -0.15   0.00    -0.03  -0.04  -0.04    -0.04  -0.01  -0.13
     4   6     0.00  -0.19  -0.02     0.02  -0.03   0.02     0.09   0.01   0.16
     5   6    -0.03  -0.09   0.05     0.03  -0.04   0.01     0.03  -0.04  -0.16
     6   6     0.02   0.17   0.04     0.01  -0.01  -0.09     0.07   0.01   0.09
     7   9     0.18   0.09  -0.07     0.07   0.03   0.03    -0.04   0.03  -0.01
     8   6    -0.05   0.09   0.02    -0.01   0.02   0.03     0.00  -0.02   0.20
     9   6    -0.06  -0.05   0.00    -0.01   0.13   0.02    -0.02  -0.00  -0.18
    10   6    -0.11  -0.12   0.13    -0.00   0.13  -0.02    -0.03  -0.00  -0.07
    11   8     0.04  -0.01  -0.05    -0.21   0.06   0.02     0.05   0.01   0.01
    12   6    -0.13  -0.10   0.04     0.02  -0.14  -0.05    -0.00  -0.01   0.15
    13   6     0.03   0.03  -0.03    -0.00  -0.23   0.02    -0.06  -0.00  -0.16
    14   6     0.11  -0.01   0.04    -0.05  -0.13   0.03    -0.03   0.04   0.15
    15   6     0.08  -0.00  -0.09    -0.00   0.16  -0.01    -0.03   0.01  -0.04
    16   9     0.00   0.10   0.01     0.23   0.09  -0.03     0.03  -0.01  -0.01
    17   1    -0.16  -0.06  -0.02    -0.08   0.00  -0.02     0.01  -0.03   0.02
    18   1    -0.20   0.12   0.13    -0.11   0.12  -0.06    -0.01  -0.00  -0.01
    19   1    -0.16   0.16   0.10    -0.12  -0.09  -0.10    -0.03  -0.02  -0.00
    20   1     0.10  -0.22  -0.03    -0.05  -0.03  -0.17    -0.12   0.04  -0.32
    21   1    -0.01  -0.20  -0.08     0.03   0.01   0.06     0.12   0.06   0.26
    22   1    -0.27  -0.20   0.08     0.03  -0.04   0.16    -0.03  -0.08  -0.42
    23   1     0.13  -0.11  -0.26    -0.35   0.20   0.21     0.07  -0.02  -0.08
    24   1    -0.28  -0.02  -0.13     0.20  -0.25  -0.11     0.03  -0.03   0.39
    25   1     0.02   0.20  -0.12    -0.00  -0.26   0.04    -0.08  -0.02  -0.29
    26   1     0.14   0.01   0.17    -0.30  -0.25   0.11    -0.02   0.06   0.30
                     22                     23                     24
                      A                      A                      A
 Frequencies --    576.4878               598.5942               610.0311
 Red. masses --      4.1807                 4.4189                 5.4325
 Frc consts  --      0.8186                 0.9329                 1.1911
 IR Inten    --      6.4423                 7.6267                 0.7299
  Atom  AN      X      Y      Z        X      Y      Z        X      Y      Z
     1   6     0.03   0.03   0.00    -0.05   0.09   0.02     0.05  -0.13  -0.03
     2   6    -0.16   0.03  -0.21     0.08   0.06   0.02    -0.00  -0.08   0.07
     3   6    -0.13  -0.11   0.15     0.11   0.07  -0.04    -0.05  -0.03  -0.03
     4   6    -0.02  -0.03  -0.04     0.03   0.00  -0.02    -0.05  -0.02   0.05
     5   6     0.12  -0.09  -0.02     0.02  -0.01   0.00    -0.17   0.10   0.03
     6   6     0.15   0.06   0.22    -0.01  -0.07  -0.04    -0.11   0.13  -0.02
     7   9    -0.01   0.06  -0.07    -0.06  -0.06   0.03     0.12   0.08  -0.04
     8   6     0.00  -0.05  -0.01     0.03  -0.00  -0.03    -0.06   0.03   0.04
     9   6     0.02  -0.00   0.01    -0.05  -0.04  -0.00     0.09  -0.03  -0.05
    10   6     0.00   0.07  -0.11    -0.15  -0.05  -0.21    -0.03   0.14  -0.19
    11   8    -0.02   0.03   0.04     0.09  -0.04   0.05    -0.07   0.12   0.06
    12   6     0.02   0.01  -0.02    -0.17  -0.11   0.04     0.01   0.02   0.03
    13   6    -0.01  -0.04   0.03    -0.02  -0.01   0.03     0.02  -0.01  -0.04
    14   6    -0.01  -0.03  -0.04     0.03  -0.02  -0.06     0.20  -0.16  -0.02
    15   6     0.01   0.04   0.13     0.07   0.11   0.28     0.15  -0.11   0.12
    16   9     0.00   0.00  -0.03     0.03   0.07  -0.06    -0.10  -0.08   0.00
    17   1     0.11   0.02   0.12    -0.09  -0.01  -0.03     0.04  -0.03  -0.05
    18   1     0.16  -0.27  -0.01    -0.13   0.17   0.09     0.05  -0.09  -0.06
    19   1     0.05   0.25   0.22    -0.09   0.07   0.02     0.09  -0.21  -0.12
    20   1    -0.09  -0.13   0.37     0.15   0.04  -0.09    -0.10  -0.00  -0.08
    21   1    -0.05   0.16  -0.19     0.04  -0.07  -0.00    -0.05  -0.12   0.10
    22   1     0.05  -0.14  -0.34     0.09   0.02   0.05    -0.33   0.04   0.10
    23   1    -0.05   0.07   0.09     0.21  -0.17  -0.10    -0.09   0.14   0.11
    24   1     0.11  -0.04   0.14    -0.19  -0.09   0.44     0.16  -0.06   0.34
    25   1    -0.00  -0.06   0.07    -0.02   0.14   0.04     0.03   0.14  -0.00
    26   1    -0.06  -0.07  -0.23    -0.07  -0.10  -0.47     0.35  -0.10  -0.20
                     25                     26                     27
                      A                      A                      A
 Frequencies --    683.3312               721.4822               735.6233
 Red. masses --      2.3782                 1.8747                 6.7947
 Frc consts  --      0.6543                 0.5750                 2.1664
 IR Inten    --     44.9560                 9.3107                11.1776
  Atom  AN      X      Y      Z        X      Y      Z        X      Y      Z
     1   6     0.00  -0.00  -0.02     0.00  -0.02  -0.02    -0.06   0.17   0.06
     2   6    -0.01   0.02  -0.09    -0.01   0.02  -0.07    -0.06  -0.01  -0.02
     3   6     0.02  -0.00   0.07     0.00  -0.01   0.03     0.04  -0.13  -0.01
     4   6    -0.02   0.00  -0.09    -0.01   0.00  -0.08     0.36  -0.01  -0.09
     5   6     0.02   0.00   0.05     0.00   0.01   0.01     0.07   0.12  -0.02
     6   6    -0.02  -0.04  -0.11    -0.01  -0.02  -0.08    -0.05  -0.01  -0.03
     7   9    -0.00   0.01   0.00    -0.00   0.01   0.00    -0.09  -0.09   0.06
     8   6     0.01   0.01   0.11     0.00   0.01   0.19    -0.16  -0.02   0.01
     9   6    -0.01  -0.00   0.16     0.01   0.00  -0.11    -0.14   0.00   0.03
    10   6    -0.01   0.01  -0.12    -0.01   0.00  -0.02    -0.05   0.05  -0.08
    11   8     0.01  -0.02  -0.00     0.01  -0.00   0.01    -0.09   0.12   0.07
    12   6    -0.00  -0.00   0.03     0.01   0.01   0.06     0.08  -0.09   0.02
    13   6    -0.03  -0.00  -0.12    -0.02   0.01   0.07     0.33  -0.01  -0.05
    14   6     0.01   0.01   0.05     0.00  -0.01   0.03     0.09   0.08   0.00
    15   6    -0.01  -0.02  -0.11     0.00  -0.00  -0.00    -0.03  -0.03  -0.05
    16   9     0.00   0.02  -0.00     0.01  -0.00   0.01    -0.10  -0.11   0.04
    17   1     0.03  -0.08   0.01     0.03  -0.09   0.00    -0.06   0.14   0.07
    18   1     0.02  -0.08   0.01     0.01  -0.08   0.01    -0.07   0.10   0.11
    19   1    -0.02   0.09   0.08    -0.01   0.07   0.07    -0.07   0.24   0.13
    20   1     0.08  -0.04   0.26     0.06  -0.04   0.25    -0.13  -0.02  -0.06
    21   1     0.02   0.01   0.07     0.06   0.02   0.22     0.35  -0.00  -0.14
    22   1     0.11   0.06   0.34     0.11   0.07   0.37    -0.09   0.04  -0.03
    23   1     0.02  -0.04   0.08     0.00   0.01  -0.07    -0.10   0.15   0.03
    24   1     0.09  -0.05   0.57    -0.08   0.05  -0.50    -0.05  -0.02  -0.16
    25   1     0.03   0.02   0.25    -0.10  -0.01  -0.41     0.32  -0.01  -0.17
    26   1     0.08   0.07   0.46    -0.05  -0.07  -0.41    -0.04   0.00  -0.09
                     28                     29                     30
                      A                      A                      A
 Frequencies --    750.0770               758.5737               783.8061
 Red. masses --      2.6150                 1.7739                 6.2072
 Frc consts  --      0.8668                 0.6014                 2.2468
 IR Inten    --     49.5081                17.1595                 0.7295
  Atom  AN      X      Y      Z        X      Y      Z        X      Y      Z
     1   6    -0.01   0.01   0.00    -0.01  -0.00   0.02     0.07  -0.11  -0.04
     2   6    -0.01  -0.00  -0.01     0.02  -0.01   0.07     0.08   0.04  -0.01
     3   6    -0.01  -0.03  -0.02    -0.03   0.00  -0.10     0.03   0.16   0.01
     4   6     0.04  -0.00  -0.07    -0.02  -0.01  -0.05    -0.29   0.02   0.06
     5   6    -0.01   0.02  -0.04    -0.02  -0.01  -0.09     0.04  -0.17   0.02
     6   6    -0.00   0.00   0.00     0.04   0.04   0.14     0.08  -0.03  -0.01
     7   9    -0.01  -0.01   0.00    -0.01  -0.01  -0.02     0.05   0.06  -0.03
     8   6    -0.02   0.00   0.10     0.00  -0.01  -0.10     0.08   0.02   0.06
     9   6     0.01  -0.00  -0.18    -0.01  -0.00   0.07    -0.08   0.02  -0.05
    10   6     0.03  -0.03   0.19    -0.01   0.01  -0.05    -0.10  -0.00  -0.01
    11   8    -0.02   0.03  -0.03     0.00  -0.00   0.01    -0.08   0.10   0.04
    12   6    -0.02  -0.00  -0.13     0.01  -0.01   0.03    -0.03  -0.19  -0.00
    13   6     0.02  -0.00  -0.02     0.01  -0.00  -0.00     0.35  -0.01  -0.06
    14   6    -0.01   0.00  -0.09     0.00   0.01   0.02    -0.02   0.17  -0.04
    15   6     0.02   0.03   0.15    -0.01  -0.01  -0.04    -0.08   0.03   0.01
    16   9    -0.01  -0.02  -0.01     0.00   0.00   0.00    -0.07  -0.10   0.03
    17   1    -0.01  -0.00   0.00    -0.05   0.10  -0.03     0.04  -0.18  -0.08
    18   1    -0.01  -0.00   0.01    -0.02   0.12  -0.02     0.01  -0.04  -0.00
    19   1    -0.01   0.02   0.02     0.03  -0.13  -0.12     0.04  -0.12  -0.05
    20   1     0.03  -0.05   0.26     0.13  -0.09   0.51     0.22   0.04   0.01
    21   1     0.14   0.02   0.33     0.15   0.01   0.61    -0.29   0.04   0.05
    22   1     0.06   0.07   0.34     0.11   0.07   0.38     0.25  -0.07  -0.02
    23   1    -0.00   0.01   0.01    -0.00  -0.00   0.01    -0.02   0.05  -0.02
    24   1     0.08  -0.05   0.47    -0.02   0.01  -0.08    -0.24  -0.06  -0.03
    25   1     0.09   0.01   0.43     0.00  -0.01  -0.07     0.37   0.01   0.02
    26   1     0.05   0.06   0.32    -0.02  -0.01  -0.04    -0.24   0.07   0.11
                     31                     32                     33
                      A                      A                      A
 Frequencies --    806.5954               842.1682               920.5401
 Red. masses --      1.5028                 1.4130                 1.2804
 Frc consts  --      0.5761                 0.5905                 0.6393
 IR Inten    --      6.0757                 4.7236                 0.3809
  Atom  AN      X      Y      Z        X      Y      Z        X      Y      Z
     1   6    -0.00   0.00  -0.00     0.00  -0.00  -0.02    -0.00  -0.00  -0.00
     2   6    -0.00  -0.00   0.00    -0.01  -0.00  -0.01    -0.00   0.00   0.00
     3   6    -0.00  -0.01   0.00     0.03  -0.01   0.10    -0.01  -0.01   0.00
     4   6     0.01   0.00  -0.00     0.00   0.01   0.01     0.00   0.00  -0.00
     5   6    -0.00   0.00  -0.00    -0.04  -0.02  -0.12    -0.00   0.01   0.00
     6   6    -0.00  -0.00   0.00     0.03   0.01   0.07    -0.00   0.00  -0.00
     7   9    -0.00  -0.00  -0.00    -0.01  -0.01  -0.01    -0.00  -0.00   0.00
     8   6    -0.00  -0.00   0.00     0.01   0.02  -0.03     0.01   0.00   0.00
     9   6     0.00   0.01  -0.01     0.00   0.00   0.01     0.01   0.00  -0.02
    10   6    -0.02   0.01  -0.06    -0.00  -0.00  -0.00     0.00  -0.00   0.01
    11   8     0.01  -0.01   0.01     0.00  -0.00   0.00     0.00  -0.00   0.00
    12   6     0.03  -0.00   0.12    -0.01  -0.00  -0.00     0.00  -0.01   0.05
    13   6    -0.02   0.01  -0.02     0.00   0.00  -0.00    -0.03  -0.01  -0.13
    14   6    -0.03  -0.02  -0.13     0.00   0.00   0.00     0.01   0.02   0.06
    15   6     0.02   0.01   0.08    -0.00  -0.00  -0.01    -0.00   0.00   0.00
    16   9    -0.00  -0.00  -0.02    -0.00  -0.00   0.00     0.00   0.00   0.00
    17   1    -0.00   0.00   0.00     0.04  -0.07   0.02     0.00  -0.00   0.00
    18   1    -0.00  -0.00   0.00     0.02  -0.10   0.01     0.00  -0.01  -0.00
    19   1    -0.00   0.01   0.00    -0.01   0.10   0.08     0.00   0.00   0.00
    20   1    -0.01   0.00  -0.01    -0.15   0.09  -0.64    -0.01  -0.00  -0.00
    21   1     0.01   0.00   0.00    -0.02   0.03  -0.07     0.01   0.00   0.01
    22   1    -0.00   0.00   0.01     0.14   0.10   0.67    -0.01   0.00  -0.01
    23   1     0.00  -0.00  -0.02     0.00  -0.00  -0.00    -0.00   0.00  -0.01
    24   1    -0.08   0.05  -0.60    -0.01  -0.00   0.01    -0.06   0.02  -0.35
    25   1     0.01   0.02   0.13     0.00   0.01   0.00     0.12   0.03   0.81
    26   1     0.10   0.11   0.74    -0.00  -0.00  -0.01    -0.05  -0.05  -0.42
                     34                     35                     36
                      A                      A                      A
 Frequencies --    928.1170               937.0887               975.3414
 Red. masses --      3.1388                 1.3413                 1.8444
 Frc consts  --      1.5930                 0.6940                 1.0337
 IR Inten    --     24.3810                 1.6169                32.6984
  Atom  AN      X      Y      Z        X      Y      Z        X      Y      Z
     1   6     0.10  -0.09  -0.06    -0.01   0.02  -0.00    -0.11  -0.06   0.04
     2   6     0.02   0.11   0.05     0.00  -0.02   0.00    -0.05   0.01  -0.02
     3   6    -0.14  -0.11   0.03     0.03  -0.01   0.07     0.03   0.01   0.00
     4   6     0.01   0.04  -0.03    -0.04  -0.01  -0.12     0.04  -0.01  -0.02
     5   6     0.08  -0.02   0.01    -0.01   0.03   0.06    -0.02  -0.01   0.01
     6   6    -0.01   0.06  -0.03     0.00  -0.01   0.00     0.00   0.00  -0.01
     7   9    -0.04  -0.11   0.05     0.01   0.02  -0.00    -0.00  -0.02   0.01
     8   6     0.01   0.23  -0.03     0.02  -0.03  -0.02     0.07   0.07   0.01
     9   6     0.02   0.12   0.01     0.01  -0.02   0.00     0.06   0.11  -0.00
    10   6     0.01   0.01  -0.00    -0.00  -0.00  -0.00     0.02   0.03  -0.00
    11   8     0.02  -0.05  -0.01    -0.00   0.01   0.00     0.02  -0.05  -0.02
    12   6    -0.06  -0.04   0.01     0.00  -0.00  -0.00    -0.08  -0.07   0.01
    13   6    -0.00   0.02   0.00     0.01  -0.00   0.00     0.01   0.02   0.00
    14   6     0.04  -0.03  -0.00    -0.01   0.01  -0.00     0.01   0.01  -0.00
    15   6    -0.00   0.02  -0.01    -0.00  -0.00  -0.00    -0.01   0.03  -0.01
    16   9    -0.01  -0.04   0.01     0.00   0.01  -0.00    -0.02  -0.05   0.01
    17   1     0.01  -0.51  -0.24     0.01   0.01   0.03     0.03   0.59   0.28
    18   1    -0.14   0.08   0.15     0.01  -0.03   0.01     0.27  -0.32  -0.34
    19   1    -0.11  -0.11  -0.02    -0.01   0.06   0.04     0.29  -0.11  -0.12
    20   1    -0.17  -0.10  -0.07    -0.10   0.06  -0.47     0.02   0.02  -0.02
    21   1     0.08   0.48   0.18     0.17  -0.05   0.73     0.05  -0.05   0.00
    22   1     0.06  -0.05  -0.19    -0.10  -0.03  -0.38    -0.11  -0.06  -0.00
    23   1    -0.02  -0.01   0.01     0.01  -0.00  -0.00    -0.06   0.02   0.03
    24   1    -0.10  -0.02   0.04    -0.00  -0.00   0.00    -0.12  -0.05   0.02
    25   1    -0.01   0.22  -0.04     0.00  -0.04  -0.02     0.00   0.23  -0.03
    26   1     0.08  -0.02  -0.00    -0.03   0.01   0.01    -0.02   0.00   0.01
                     37                     38                     39
                      A                      A                      A
 Frequencies --    979.7487              1000.8662              1019.6313
 Red. masses --      4.7463                 1.7802                 2.6568
 Frc consts  --      2.6843                 1.0507                 1.6274
 IR Inten    --     10.3488                 8.5130                18.6381
  Atom  AN      X      Y      Z        X      Y      Z        X      Y      Z
     1   6     0.01   0.06  -0.07    -0.04   0.06  -0.13     0.07   0.08   0.08
     2   6     0.02  -0.02   0.06     0.03  -0.07   0.12     0.01  -0.07  -0.09
     3   6    -0.14  -0.16  -0.03     0.02   0.03  -0.04    -0.01  -0.03   0.02
     4   6     0.03   0.00   0.04    -0.02   0.00   0.00    -0.03  -0.01   0.02
     5   6    -0.13   0.20   0.00     0.01  -0.02   0.01    -0.02   0.06  -0.01
     6   6    -0.02  -0.04  -0.01     0.01  -0.02   0.01    -0.00  -0.07   0.03
     7   9     0.01   0.03  -0.01     0.01   0.02  -0.01     0.02   0.06  -0.03
     8   6     0.25  -0.06  -0.02    -0.04  -0.02  -0.02    -0.01  -0.14   0.01
     9   6     0.25  -0.05   0.01    -0.05   0.08   0.00     0.01   0.16  -0.00
    10   6    -0.01   0.01  -0.03     0.02   0.02   0.01     0.05   0.07   0.02
    11   8    -0.01   0.02   0.01     0.02  -0.04  -0.02     0.05  -0.09  -0.04
    12   6    -0.10  -0.14   0.01    -0.01   0.01   0.00    -0.07  -0.05   0.01
    13   6     0.04  -0.01   0.02    -0.01   0.01  -0.00    -0.01   0.03   0.00
    14   6    -0.14   0.18  -0.01     0.04  -0.05   0.00     0.04  -0.03   0.00
    15   6    -0.01  -0.04  -0.01    -0.00   0.05  -0.01    -0.01   0.09  -0.03
    16   9     0.01   0.02  -0.00    -0.02  -0.04   0.01    -0.03  -0.08   0.03
    17   1     0.08  -0.29  -0.00     0.19  -0.23   0.17    -0.14  -0.08  -0.21
    18   1    -0.02  -0.17   0.11     0.06  -0.46   0.05    -0.22   0.52   0.21
    19   1    -0.11   0.33   0.24    -0.05   0.59   0.41    -0.16  -0.17  -0.11
    20   1    -0.15  -0.16   0.22     0.05   0.02   0.14    -0.08   0.01  -0.05
    21   1    -0.04  -0.06  -0.17    -0.01  -0.07   0.04    -0.05  -0.17  -0.01
    22   1    -0.19   0.19   0.05     0.08   0.01  -0.06     0.17   0.15  -0.01
    23   1     0.05  -0.04  -0.01    -0.06   0.04   0.03    -0.17   0.13   0.10
    24   1    -0.17  -0.10   0.03    -0.01   0.00   0.00    -0.06  -0.06   0.01
    25   1     0.01  -0.14  -0.08    -0.00   0.19   0.00    -0.00   0.44  -0.02
    26   1    -0.24   0.14   0.03     0.03  -0.06  -0.00    -0.05  -0.08   0.01
                     40                     41                     42
                      A                      A                      A
 Frequencies --   1071.7789              1081.3333              1127.9224
 Red. masses --      1.6220                 1.3555                 1.1558
 Frc consts  --      1.0978                 0.9338                 0.8664
 IR Inten    --      2.5562                 7.9618                 8.6332
  Atom  AN      X      Y      Z        X      Y      Z        X      Y      Z
     1   6     0.02   0.01  -0.01    -0.03  -0.01   0.01    -0.01  -0.01  -0.00
     2   6    -0.01  -0.02   0.00     0.01   0.02   0.00     0.01   0.01   0.00
     3   6     0.01   0.07   0.00     0.01  -0.10  -0.01     0.01  -0.01  -0.00
     4   6     0.02   0.00  -0.02    -0.06  -0.02   0.03    -0.01   0.01   0.00
     5   6     0.01  -0.06   0.00     0.02   0.09  -0.01     0.00   0.01  -0.00
     6   6    -0.01   0.01   0.00     0.00  -0.01   0.00    -0.00   0.01  -0.00
     7   9     0.00  -0.00  -0.00    -0.00   0.00   0.00    -0.00  -0.00   0.00
     8   6    -0.04  -0.02   0.00    -0.02   0.04  -0.00    -0.01  -0.01   0.00
     9   6     0.01   0.01  -0.00    -0.04   0.00  -0.00    -0.01  -0.08   0.00
    10   6     0.04   0.02  -0.00     0.00  -0.01  -0.00     0.02  -0.01  -0.00
    11   8     0.00  -0.01  -0.00    -0.01   0.01   0.00    -0.01   0.02   0.01
    12   6    -0.01  -0.13   0.00     0.02  -0.03  -0.00     0.03  -0.03  -0.00
    13   6    -0.07  -0.01   0.03    -0.03  -0.01   0.01    -0.02   0.04   0.01
    14   6     0.01   0.13  -0.01     0.02   0.03  -0.00    -0.01   0.02  -0.00
    15   6     0.00  -0.02   0.00    -0.00  -0.01   0.01    -0.00  -0.01   0.00
    16   9    -0.00   0.01  -0.00     0.00   0.01  -0.00     0.00   0.01  -0.00
    17   1     0.00  -0.07  -0.03    -0.00   0.09   0.06     0.00   0.01   0.01
    18   1    -0.04   0.04   0.05     0.05  -0.07  -0.07     0.02  -0.02  -0.02
    19   1    -0.05   0.02   0.02     0.06  -0.01  -0.02     0.02   0.00  -0.00
    20   1    -0.11   0.14   0.05     0.25  -0.25  -0.11     0.16  -0.11  -0.05
    21   1     0.04   0.05   0.01    -0.08  -0.18   0.01    -0.01   0.16  -0.00
    22   1    -0.21  -0.17   0.08     0.63   0.37  -0.20    -0.03  -0.01   0.01
    23   1    -0.13   0.13   0.08    -0.01   0.01   0.00    -0.00   0.01   0.01
    24   1     0.28  -0.32  -0.09     0.13  -0.10  -0.03     0.52  -0.33  -0.10
    25   1    -0.09  -0.10   0.00    -0.03  -0.12   0.01    -0.02   0.64  -0.02
    26   1     0.61   0.42  -0.13     0.32   0.18  -0.06    -0.32  -0.12   0.05
                     43                     44                     45
                      A                      A                      A
 Frequencies --   1131.2410              1158.9420              1206.6989
 Red. masses --      1.2161                 1.4741                 2.1298
 Frc consts  --      0.9169                 1.1665                 1.8272
 IR Inten    --      3.1943                45.6756                 7.7527
  Atom  AN      X      Y      Z        X      Y      Z        X      Y      Z
     1   6    -0.03   0.02   0.01     0.00  -0.01  -0.01    -0.04   0.05   0.02
     2   6     0.05  -0.03  -0.02    -0.01   0.02   0.01     0.11  -0.14  -0.05
     3   6     0.02  -0.05  -0.01     0.02   0.01  -0.00     0.03  -0.02  -0.01
     4   6    -0.03   0.05   0.01    -0.00  -0.00   0.00    -0.02  -0.01   0.00
     5   6    -0.01   0.02   0.00     0.01   0.00  -0.00     0.02  -0.09   0.01
     6   6    -0.01  -0.01   0.01     0.00   0.02  -0.01    -0.13   0.05   0.02
     7   9     0.00   0.01  -0.00    -0.01  -0.01   0.01     0.02   0.01  -0.01
     8   6     0.01  -0.06   0.00    -0.05  -0.00   0.00    -0.09   0.06   0.00
     9   6    -0.02   0.02  -0.00    -0.00  -0.10  -0.01     0.11  -0.01   0.00
    10   6    -0.01   0.01   0.00     0.10   0.02  -0.01     0.01  -0.00  -0.01
    11   8     0.01  -0.01  -0.00     0.06   0.01  -0.01    -0.01   0.01   0.00
    12   6    -0.00   0.01   0.00    -0.06  -0.02   0.01    -0.02  -0.02   0.00
    13   6    -0.00  -0.01  -0.00     0.01  -0.01  -0.00    -0.00   0.01   0.00
    14   6     0.01  -0.01  -0.00    -0.01   0.00  -0.00    -0.04   0.04  -0.00
    15   6     0.00   0.02  -0.00    -0.03  -0.06   0.02     0.05  -0.05   0.00
    16   9    -0.00  -0.01   0.00     0.02   0.04  -0.01     0.00   0.01  -0.00
    17   1    -0.01   0.08   0.04     0.00  -0.03  -0.01    -0.01   0.19   0.08
    18   1     0.01   0.01  -0.03     0.01  -0.03  -0.01    -0.03   0.07   0.01
    19   1     0.03   0.04   0.01    -0.01  -0.01   0.00    -0.00   0.10   0.06
    20   1     0.41  -0.31  -0.12     0.14  -0.07  -0.04    -0.40   0.26   0.11
    21   1    -0.01   0.74  -0.02    -0.00  -0.00   0.00     0.01   0.48  -0.01
    22   1    -0.26  -0.09   0.07     0.05   0.02  -0.01     0.52   0.13  -0.12
    23   1    -0.01   0.01   0.00    -0.51   0.58   0.31     0.04  -0.04  -0.01
    24   1    -0.09   0.06   0.02    -0.42   0.18   0.05    -0.06   0.00   0.02
    25   1    -0.00  -0.17   0.01     0.01   0.12  -0.01    -0.01  -0.05   0.00
    26   1     0.13   0.05  -0.02    -0.08  -0.03   0.03    -0.24  -0.06   0.03
                     46                     47                     48
                      A                      A                      A
 Frequencies --   1222.4131              1244.5993              1257.3933
 Red. masses --      2.2781                 2.1494                 5.2512
 Frc consts  --      2.0057                 1.9617                 4.8916
 IR Inten    --     34.0414                69.4362                41.3599
  Atom  AN      X      Y      Z        X      Y      Z        X      Y      Z
     1   6     0.03  -0.02  -0.02     0.03   0.01  -0.00    -0.03   0.08   0.03
     2   6    -0.08   0.04   0.03    -0.09  -0.05   0.01     0.10  -0.26  -0.08
     3   6     0.02   0.05   0.00     0.04   0.04  -0.00     0.01  -0.07  -0.01
     4   6     0.01  -0.00  -0.00    -0.01   0.02   0.00    -0.19   0.04   0.05
     5   6     0.04  -0.01  -0.01     0.03  -0.01  -0.01     0.08   0.10  -0.03
     6   6     0.00   0.04  -0.01     0.03   0.04  -0.01     0.24   0.28  -0.14
     7   9    -0.01  -0.02   0.01    -0.01  -0.01   0.01    -0.08  -0.14   0.07
     8   6    -0.13  -0.03  -0.00    -0.13  -0.02   0.00     0.04   0.06   0.02
     9   6     0.12  -0.00   0.01     0.16   0.08   0.00    -0.03  -0.02   0.00
    10   6    -0.03   0.05   0.01     0.06  -0.02  -0.02     0.04  -0.06  -0.02
    11   8     0.02  -0.04  -0.01    -0.06   0.02   0.02    -0.01   0.03   0.01
    12   6    -0.05  -0.01   0.01     0.01  -0.04  -0.01    -0.01  -0.00   0.00
    13   6    -0.04   0.01   0.01     0.03  -0.01  -0.00    -0.04  -0.00   0.01
    14   6     0.01   0.10  -0.01    -0.07  -0.03   0.01     0.03   0.02  -0.01
    15   6     0.17   0.07  -0.04    -0.07  -0.08   0.03     0.04   0.07  -0.02
    16   9    -0.04  -0.06   0.02     0.03   0.04  -0.01    -0.02  -0.03   0.01
    17   1     0.01  -0.08  -0.05    -0.03  -0.04  -0.08    -0.02   0.22   0.08
    18   1    -0.03   0.00   0.03    -0.03   0.02   0.06    -0.09   0.17   0.07
    19   1    -0.03  -0.02   0.00    -0.12   0.01   0.03    -0.05   0.14   0.10
    20   1     0.42  -0.20  -0.13     0.42  -0.20  -0.10    -0.16   0.01   0.07
    21   1     0.01  -0.15   0.00    -0.01  -0.13   0.01    -0.23  -0.39   0.07
    22   1     0.03  -0.01  -0.01    -0.02  -0.03  -0.00    -0.45  -0.12   0.14
    23   1    -0.02  -0.00   0.01     0.33  -0.36  -0.19    -0.04   0.06   0.02
    24   1     0.13  -0.12  -0.02    -0.33   0.17   0.07    -0.02  -0.00  -0.01
    25   1    -0.06  -0.53   0.03     0.03   0.39  -0.02    -0.05  -0.07   0.01
    26   1    -0.52  -0.15   0.08     0.21   0.10  -0.04    -0.09  -0.03   0.03
                     49                     50                     51
                      A                      A                      A
 Frequencies --   1310.1591              1319.7929              1338.2347
 Red. masses --      4.6945                 6.3365                 1.2903
 Frc consts  --      4.7478                 6.5030                 1.3615
 IR Inten    --     15.6880                23.1142                 4.7223
  Atom  AN      X      Y      Z        X      Y      Z        X      Y      Z
     1   6    -0.04  -0.04  -0.02     0.05  -0.03  -0.00     0.03  -0.13  -0.04
     2   6     0.16   0.18   0.01    -0.20  -0.09   0.01     0.01   0.04   0.01
     3   6    -0.12   0.05   0.04     0.14  -0.06  -0.05    -0.02   0.00   0.00
     4   6     0.01  -0.12   0.00     0.04   0.12  -0.02     0.00  -0.01  -0.00
     5   6     0.09   0.03  -0.03    -0.18  -0.06   0.06     0.01   0.01  -0.00
     6   6    -0.12   0.12  -0.02     0.09  -0.20   0.04    -0.01   0.01  -0.00
     7   9    -0.00  -0.01   0.01     0.03   0.05  -0.03    -0.00  -0.00   0.00
     8   6    -0.02  -0.21   0.01     0.04   0.22  -0.01     0.00  -0.02  -0.00
     9   6     0.03  -0.07   0.01    -0.04  -0.09   0.01     0.00  -0.01  -0.00
    10   6     0.17  -0.10  -0.04     0.19  -0.21  -0.07    -0.01   0.03   0.01
    11   8    -0.07   0.08   0.04    -0.08   0.14   0.05     0.01  -0.01  -0.00
    12   6     0.03  -0.04  -0.00     0.05  -0.06  -0.01    -0.01   0.01   0.00
    13   6    -0.09  -0.08   0.02    -0.15  -0.04   0.03     0.02  -0.01  -0.00
    14   6     0.04   0.03  -0.01     0.08   0.06  -0.02    -0.00  -0.01   0.00
    15   6     0.00   0.23  -0.06     0.08   0.22  -0.06    -0.02  -0.00   0.00
    16   9    -0.04  -0.07   0.02    -0.04  -0.07   0.03     0.00   0.00  -0.00
    17   1     0.11  -0.08   0.17    -0.07   0.15  -0.14    -0.05   0.56  -0.08
    18   1     0.04  -0.05  -0.12    -0.13   0.23   0.10    -0.20   0.45  -0.04
    19   1     0.33  -0.00  -0.08    -0.22   0.09   0.17    -0.12   0.39   0.49
    20   1    -0.15   0.07  -0.07     0.05   0.01   0.11    -0.01  -0.00  -0.01
    21   1     0.02   0.06  -0.01     0.05   0.15  -0.02     0.00  -0.02   0.00
    22   1     0.12   0.04   0.04     0.08   0.04  -0.12    -0.01  -0.00   0.01
    23   1     0.21  -0.19  -0.13     0.07  -0.00  -0.04     0.01  -0.01  -0.01
    24   1    -0.42   0.21   0.06    -0.40   0.18   0.06     0.04  -0.01  -0.01
    25   1    -0.10   0.30  -0.00    -0.17   0.14   0.02     0.02   0.00  -0.00
    26   1     0.11   0.08   0.01    -0.12  -0.01   0.05     0.04   0.01  -0.00
                     52                     53                     54
                      A                      A                      A
 Frequencies --   1350.0986              1395.3859              1424.8159
 Red. masses --      5.6982                 1.6103                 1.4429
 Frc consts  --      6.1195                 1.8473                 1.7258
 IR Inten    --      8.2326                 7.9286                33.6737
  Atom  AN      X      Y      Z        X      Y      Z        X      Y      Z
     1   6     0.00   0.04   0.01    -0.06  -0.02   0.01    -0.01  -0.00  -0.04
     2   6    -0.05  -0.04   0.00     0.06   0.04  -0.01    -0.08  -0.07  -0.01
     3   6     0.06  -0.01  -0.02     0.01  -0.06  -0.01    -0.02   0.05   0.01
     4   6    -0.00   0.01  -0.00    -0.03   0.06   0.01     0.04  -0.00  -0.01
     5   6    -0.04  -0.02   0.02     0.01   0.02  -0.01    -0.03  -0.04   0.01
     6   6     0.02   0.03  -0.01     0.06  -0.11   0.02    -0.04   0.06  -0.01
     7   9    -0.00  -0.02   0.00     0.00   0.02  -0.01     0.00  -0.01   0.00
     8   6    -0.00   0.05   0.00    -0.12   0.04  -0.01     0.08   0.01   0.00
     9   6     0.06  -0.26   0.00     0.03  -0.01   0.00     0.00  -0.02  -0.00
    10   6     0.12   0.27   0.04     0.01   0.02   0.00    -0.05  -0.00   0.01
    11   8     0.00  -0.08  -0.02    -0.00  -0.00  -0.00     0.01  -0.00  -0.00
    12   6    -0.24   0.14   0.05    -0.01  -0.00   0.00     0.02   0.02  -0.00
    13   6     0.08  -0.19  -0.01     0.00  -0.00   0.00     0.02  -0.01  -0.00
    14   6     0.17   0.03  -0.04     0.00   0.01  -0.00    -0.04  -0.02   0.01
    15   6    -0.26   0.15  -0.01    -0.00  -0.03   0.01     0.01   0.03  -0.01
    16   9     0.00  -0.00   0.00     0.00   0.01  -0.00    -0.00  -0.01   0.00
    17   1    -0.00  -0.11  -0.01     0.13  -0.32   0.21     0.37  -0.11   0.47
    18   1     0.03  -0.09   0.04    -0.04   0.41  -0.23    -0.36   0.32   0.30
    19   1    -0.04  -0.09  -0.10     0.65   0.18  -0.00     0.36   0.01  -0.11
    20   1    -0.02   0.04   0.04    -0.15   0.04   0.04     0.21  -0.10  -0.06
    21   1     0.00   0.11  -0.00    -0.05  -0.14   0.02     0.05   0.01  -0.02
    22   1     0.11   0.05  -0.05    -0.22  -0.08   0.05     0.16   0.04  -0.04
    23   1     0.35  -0.42  -0.24     0.03  -0.04  -0.02    -0.06   0.06   0.03
    24   1     0.25  -0.12  -0.15    -0.02   0.00   0.00     0.03   0.01   0.00
    25   1     0.10  -0.07  -0.03     0.00  -0.00  -0.00     0.02   0.08  -0.01
    26   1     0.14   0.02   0.07    -0.04  -0.01   0.01     0.12   0.06  -0.03
                     55                     56                     57
                      A                      A                      A
 Frequencies --   1429.9655              1434.2231              1453.7536
 Red. masses --      1.6098                 2.1544                 3.2459
 Frc consts  --      1.9394                 2.6110                 4.0417
 IR Inten    --    120.0452                52.8813                22.4730
  Atom  AN      X      Y      Z        X      Y      Z        X      Y      Z
     1   6     0.01   0.00  -0.04     0.02  -0.02  -0.05     0.00  -0.02  -0.02
     2   6     0.08   0.00  -0.03    -0.01   0.12   0.02    -0.09   0.07   0.03
     3   6    -0.07  -0.01   0.02     0.11  -0.06  -0.03     0.09   0.01  -0.02
     4   6    -0.01   0.04   0.00    -0.05  -0.05   0.02    -0.01  -0.12   0.00
     5   6     0.07   0.02  -0.02    -0.05   0.05   0.01    -0.09   0.03   0.02
     6   6    -0.04  -0.09   0.03     0.13  -0.02  -0.03     0.10   0.07  -0.04
     7   9     0.01   0.02  -0.01    -0.02  -0.01   0.01    -0.01  -0.02   0.01
     8   6    -0.03   0.04  -0.00    -0.09  -0.03  -0.00     0.01  -0.11   0.00
     9   6    -0.02   0.02  -0.00     0.04  -0.02   0.00    -0.02   0.13  -0.00
    10   6     0.07  -0.01  -0.01    -0.07   0.06   0.02     0.13  -0.11  -0.04
    11   8    -0.02   0.01   0.01     0.02  -0.03  -0.01    -0.03   0.04   0.02
    12   6    -0.04  -0.01   0.01     0.06  -0.00  -0.01    -0.11  -0.02   0.02
    13   6    -0.02   0.02   0.00     0.01  -0.04   0.00    -0.00   0.14  -0.01
    14   6     0.06   0.02  -0.01    -0.08  -0.00   0.01     0.11  -0.03  -0.02
    15   6    -0.03  -0.05   0.01     0.06   0.03  -0.02    -0.12  -0.10   0.04
    16   9     0.01   0.02  -0.01    -0.01  -0.01   0.00     0.02   0.03  -0.01
    17   1     0.26   0.34   0.36     0.21   0.24   0.26     0.14  -0.11   0.15
    18   1    -0.28  -0.20   0.48    -0.21  -0.21   0.40    -0.12   0.15   0.07
    19   1    -0.23  -0.19  -0.14    -0.20  -0.21  -0.15     0.19   0.01  -0.04
    20   1     0.07  -0.10  -0.05    -0.34   0.24   0.13    -0.16   0.19   0.08
    21   1    -0.02  -0.21   0.01    -0.05   0.28   0.01     0.01   0.39  -0.02
    22   1    -0.18  -0.11   0.07    -0.03   0.08  -0.02     0.15   0.16  -0.07
    23   1     0.06  -0.06  -0.03    -0.01  -0.00   0.00     0.03  -0.02  -0.01
    24   1     0.01  -0.04  -0.02    -0.10   0.10   0.04     0.19  -0.22  -0.07
    25   1    -0.02  -0.13   0.01     0.01   0.21  -0.01    -0.01  -0.46   0.02
    26   1    -0.15  -0.08   0.04     0.12   0.10  -0.04    -0.21  -0.21   0.07
                     58                     59                     60
                      A                      A                      A
 Frequencies --   1464.1251              1561.8302              1576.9581
 Red. masses --      3.6355                 6.4849                 6.6931
 Frc consts  --      4.5917                 9.3201                 9.8066
 IR Inten    --      2.1119                33.6183                23.8676
  Atom  AN      X      Y      Z        X      Y      Z        X      Y      Z
     1   6     0.00  -0.01  -0.00    -0.01  -0.01  -0.01     0.01   0.01   0.00
     2   6    -0.05  -0.01   0.01     0.08   0.14   0.01    -0.05  -0.04   0.00
     3   6     0.02   0.01  -0.00     0.05  -0.22  -0.03     0.03   0.03  -0.00
     4   6     0.00  -0.03  -0.00     0.05   0.45  -0.03    -0.04  -0.11   0.01
     5   6    -0.02   0.00   0.00    -0.16  -0.26   0.07     0.11   0.09  -0.04
     6   6     0.00   0.05  -0.01    -0.02   0.18  -0.04    -0.06  -0.06   0.03
     7   9    -0.00  -0.01   0.01     0.00  -0.02   0.00     0.00   0.01  -0.00
     8   6     0.10  -0.02   0.00     0.01  -0.20   0.01     0.02   0.09  -0.00
     9   6    -0.22   0.02  -0.02    -0.02  -0.02  -0.00    -0.04  -0.21   0.00
    10   6     0.09   0.24   0.03     0.05   0.07   0.00     0.13   0.20   0.02
    11   8    -0.03  -0.06  -0.01    -0.01  -0.01   0.00    -0.03  -0.02   0.00
    12   6     0.09  -0.10  -0.02     0.01  -0.08  -0.00     0.04  -0.22  -0.02
    13   6    -0.10  -0.06   0.02     0.01   0.15  -0.01     0.04   0.43  -0.02
    14   6     0.06   0.13  -0.02    -0.04  -0.07   0.01    -0.17  -0.24   0.05
    15   6     0.12  -0.18   0.02    -0.01   0.02  -0.00     0.02   0.15  -0.03
    16   9    -0.01   0.03  -0.01     0.00  -0.00  -0.00     0.00  -0.01   0.00
    17   1     0.04  -0.09   0.03     0.02   0.12   0.04    -0.03  -0.03  -0.04
    18   1    -0.04   0.14  -0.03    -0.01  -0.11   0.06     0.01   0.01  -0.02
    19   1     0.13   0.05   0.02    -0.08  -0.06  -0.04    -0.01   0.00   0.00
    20   1     0.01   0.02   0.01    -0.12  -0.13   0.04    -0.01   0.06   0.01
    21   1     0.01   0.08  -0.01     0.02  -0.52  -0.00    -0.04   0.10   0.01
    22   1     0.06   0.04  -0.02     0.28  -0.09  -0.08    -0.15  -0.03   0.06
    23   1     0.30  -0.37  -0.19     0.07  -0.09  -0.05     0.19  -0.23  -0.11
    24   1    -0.45   0.22   0.09    -0.06  -0.05   0.01    -0.17  -0.12   0.03
    25   1    -0.12   0.14   0.02     0.00  -0.19   0.01     0.03  -0.47   0.01
    26   1    -0.36  -0.06   0.06     0.04  -0.04  -0.01     0.25  -0.06  -0.05
                     61                     62                     63
                      A                      A                      A
 Frequencies --   1599.0438              1608.2298              2976.1377
 Red. masses --      6.7591                 7.3285                 1.0391
 Frc consts  --     10.1826                11.1677                 5.4225
 IR Inten    --      7.8179                61.9358                19.5357
  Atom  AN      X      Y      Z        X      Y      Z        X      Y      Z
     1   6     0.01  -0.01  -0.01    -0.01   0.00   0.01    -0.01  -0.05  -0.02
     2   6    -0.22   0.06   0.05     0.13  -0.01  -0.03    -0.00   0.00   0.00
     3   6     0.27  -0.17  -0.08    -0.16   0.09   0.04    -0.00   0.00   0.00
     4   6    -0.15   0.08   0.04     0.09  -0.04  -0.02     0.00  -0.00   0.00
     5   6     0.29   0.05  -0.08    -0.17  -0.03   0.04     0.00   0.00  -0.00
     6   6    -0.29   0.03   0.06     0.17  -0.04  -0.03    -0.00   0.00   0.00
     7   9     0.02   0.01  -0.01    -0.01   0.00   0.00     0.00  -0.00   0.00
     8   6     0.12  -0.06  -0.00    -0.06   0.02   0.00     0.00   0.00   0.00
     9   6    -0.07   0.06  -0.00    -0.16   0.04  -0.00    -0.00  -0.00   0.00
    10   6     0.12  -0.08  -0.03     0.27  -0.01  -0.04     0.00   0.00  -0.00
    11   8    -0.01   0.02   0.01    -0.03   0.01   0.01     0.00  -0.00  -0.00
    12   6    -0.17   0.12   0.03    -0.29   0.15   0.05    -0.00  -0.00   0.00
    13   6     0.08  -0.10  -0.01     0.15  -0.07  -0.02    -0.00  -0.00  -0.00
    14   6    -0.13   0.00   0.02    -0.30  -0.06   0.05    -0.00   0.00  -0.00
    15   6     0.15  -0.03  -0.01     0.32  -0.05  -0.03     0.00  -0.00   0.00
    16   9    -0.01  -0.01   0.00    -0.01  -0.01   0.00     0.00   0.00   0.00
    17   1     0.03  -0.11  -0.00    -0.03   0.07  -0.02    -0.35  -0.04   0.25
    18   1    -0.04   0.08   0.02     0.04  -0.06  -0.02     0.56   0.22   0.39
    19   1     0.06  -0.00  -0.01    -0.05  -0.01   0.01    -0.11   0.36  -0.38
    20   1    -0.32   0.21   0.14     0.16  -0.11  -0.07    -0.01  -0.01  -0.00
    21   1    -0.18  -0.10   0.06     0.10   0.05  -0.04     0.00  -0.00  -0.00
    22   1    -0.26  -0.21   0.14     0.13   0.12  -0.07    -0.00   0.00  -0.00
    23   1     0.02  -0.01  -0.01     0.13  -0.14  -0.07    -0.00  -0.00  -0.00
    24   1     0.21  -0.10  -0.06     0.27  -0.18  -0.09     0.00   0.00   0.00
    25   1     0.09   0.11  -0.03     0.18   0.09  -0.04     0.00   0.00   0.00
    26   1     0.11   0.13  -0.04     0.25   0.22  -0.09     0.00  -0.00   0.00
                     64                     65                     66
                      A                      A                      A
 Frequencies --   3050.2081              3080.8309              3085.7099
 Red. masses --      1.1005                 1.0897                 1.1026
 Frc consts  --      6.0323                 6.0936                 6.1857
 IR Inten    --      9.0071                11.4741                 6.7057
  Atom  AN      X      Y      Z        X      Y      Z        X      Y      Z
     1   6    -0.07   0.02  -0.06    -0.00   0.00  -0.00    -0.06  -0.03   0.06
     2   6    -0.00  -0.00   0.00    -0.00   0.00  -0.00    -0.00  -0.00  -0.00
     3   6     0.00   0.00   0.00    -0.00  -0.00   0.00     0.01   0.01   0.00
     4   6    -0.00  -0.00   0.00     0.00  -0.00  -0.00    -0.00  -0.00   0.00
     5   6     0.00   0.00  -0.00    -0.00   0.00  -0.00     0.00  -0.00  -0.00
     6   6    -0.00   0.00   0.00    -0.00  -0.00   0.00    -0.00   0.00   0.00
     7   9     0.00   0.00  -0.00     0.00   0.00  -0.00     0.00   0.00  -0.00
     8   6    -0.00  -0.00  -0.00    -0.00  -0.00   0.00     0.00   0.00  -0.00
     9   6     0.00  -0.00   0.00     0.00   0.00   0.00     0.00  -0.00   0.00
    10   6    -0.00  -0.00   0.00     0.00  -0.00  -0.00     0.00   0.00   0.00
    11   8     0.00  -0.00  -0.00    -0.00   0.00   0.00    -0.00  -0.00  -0.00
    12   6     0.00  -0.00  -0.00    -0.04  -0.07   0.00    -0.00  -0.00  -0.00
    13   6    -0.00   0.00   0.00     0.01   0.00  -0.00    -0.00   0.00   0.00
    14   6    -0.00  -0.00   0.00    -0.00   0.00  -0.00     0.00  -0.00   0.00
    15   6     0.00   0.00  -0.00    -0.00   0.00  -0.00     0.00   0.00   0.00
    16   9    -0.00  -0.00  -0.00     0.00   0.00   0.00    -0.00   0.00  -0.00
    17   1     0.20   0.02  -0.17     0.00   0.00  -0.00     0.69   0.05  -0.50
    18   1     0.51   0.22   0.35     0.00   0.00   0.00     0.12   0.04   0.10
    19   1     0.13  -0.48   0.49     0.00  -0.00   0.00    -0.11   0.32  -0.33
    20   1    -0.01  -0.02  -0.00     0.00   0.00  -0.00    -0.06  -0.09   0.00
    21   1     0.00  -0.00  -0.00    -0.00   0.00   0.00     0.03  -0.00  -0.01
    22   1     0.00  -0.00  -0.00     0.00  -0.00   0.00    -0.00   0.01  -0.00
    23   1    -0.00   0.00   0.00     0.00   0.01   0.00     0.00   0.00  -0.00
    24   1    -0.00  -0.00  -0.00     0.49   0.85  -0.02     0.00   0.00  -0.00
    25   1     0.00  -0.00  -0.00    -0.17   0.00   0.03     0.00  -0.00  -0.00
    26   1    -0.00   0.00  -0.00     0.01  -0.02   0.00    -0.00   0.00  -0.00
                     67                     68                     69
                      A                      A                      A
 Frequencies --   3094.6647              3118.4911              3124.1939
 Red. masses --      1.0884                 1.0911                 1.0909
 Frc consts  --      6.1412                 6.2518                 6.2736
 IR Inten    --      8.1864                 9.4744                 5.1022
  Atom  AN      X      Y      Z        X      Y      Z        X      Y      Z
     1   6    -0.01  -0.00   0.01    -0.00  -0.00  -0.00     0.00   0.00  -0.00
     2   6     0.00  -0.00  -0.00     0.00  -0.00  -0.00    -0.00  -0.00  -0.00
     3   6    -0.04  -0.07   0.00    -0.01  -0.03   0.00     0.00   0.00   0.00
     4   6     0.02   0.00  -0.01    -0.07   0.01   0.02     0.00  -0.00  -0.00
     5   6    -0.00   0.00  -0.00     0.02  -0.03   0.00    -0.00   0.00   0.00
     6   6    -0.00   0.00  -0.00    -0.00  -0.00   0.00     0.00   0.00  -0.00
     7   9     0.00   0.00   0.00     0.00   0.00  -0.00    -0.00  -0.00   0.00
     8   6     0.00   0.00   0.00     0.00   0.00  -0.00     0.00  -0.00  -0.00
     9   6    -0.00  -0.00   0.00     0.00  -0.00  -0.00    -0.00   0.00  -0.00
    10   6    -0.00   0.00   0.00     0.00  -0.00  -0.00     0.00  -0.00  -0.00
    11   8     0.00  -0.00  -0.00    -0.00   0.00   0.00    -0.00   0.00   0.00
    12   6     0.00   0.00  -0.00    -0.00  -0.00   0.00    -0.01  -0.02   0.00
    13   6    -0.00   0.00   0.00    -0.00   0.00   0.00    -0.08   0.00   0.01
    14   6    -0.00   0.00  -0.00     0.00  -0.00   0.00     0.02  -0.03   0.00
    15   6     0.00  -0.00   0.00     0.00   0.00  -0.00    -0.00  -0.00   0.00
    16   9     0.00   0.00  -0.00    -0.00  -0.00   0.00     0.00   0.00  -0.00
    17   1     0.08   0.01  -0.06     0.00   0.00  -0.00    -0.00  -0.00   0.00
    18   1     0.03   0.01   0.03     0.00   0.00   0.00    -0.00  -0.00  -0.00
    19   1    -0.01   0.03  -0.03    -0.00   0.00  -0.00     0.00   0.00  -0.00
    20   1     0.51   0.79  -0.01     0.16   0.26  -0.00    -0.00  -0.00   0.00
    21   1    -0.30   0.01   0.08     0.79  -0.04  -0.20    -0.00   0.00   0.00
    22   1     0.03  -0.06   0.00    -0.21   0.43  -0.02     0.00  -0.00   0.00
    23   1    -0.00  -0.00  -0.00     0.00   0.00   0.00     0.00   0.00   0.00
    24   1    -0.00  -0.00   0.00     0.00   0.00  -0.00     0.08   0.14  -0.00
    25   1     0.00  -0.00  -0.00     0.00  -0.00  -0.00     0.89  -0.02  -0.14
    26   1     0.00  -0.00   0.00    -0.00   0.00  -0.00    -0.18   0.35  -0.03
                     70                     71                     72
                      A                      A                      A
 Frequencies --   3134.9893              3143.0573              3684.0896
 Red. masses --      1.0973                 1.0966                 1.0655
 Frc consts  --      6.3541                 6.3826                 8.5207
 IR Inten    --      4.5884                 1.3797                78.0982
  Atom  AN      X      Y      Z        X      Y      Z        X      Y      Z
     1   6     0.00   0.00  -0.00     0.00   0.00  -0.00     0.00  -0.00   0.00
     2   6    -0.00   0.00   0.00     0.00  -0.00   0.00     0.00  -0.00   0.00
     3   6     0.00   0.01   0.00    -0.00  -0.00   0.00    -0.00  -0.00   0.00
     4   6     0.04   0.00  -0.01    -0.00   0.00   0.00     0.00  -0.00  -0.00
     5   6     0.03  -0.07   0.00    -0.00   0.00  -0.00    -0.00   0.00  -0.00
     6   6    -0.00  -0.00   0.00     0.00   0.00  -0.00     0.00   0.00   0.00
     7   9     0.00   0.00  -0.00    -0.00  -0.00   0.00    -0.00  -0.00   0.00
     8   6    -0.00   0.00  -0.00    -0.00  -0.00  -0.00    -0.00  -0.00  -0.00
     9   6    -0.00  -0.00  -0.00    -0.00   0.00  -0.00     0.00   0.00   0.00
    10   6     0.00  -0.00  -0.00    -0.00   0.00   0.00    -0.00  -0.00   0.00
    11   8    -0.00   0.00   0.00     0.00   0.00  -0.00    -0.04  -0.04  -0.00
    12   6    -0.00  -0.00   0.00     0.00   0.01   0.00     0.00   0.00   0.00
    13   6     0.00  -0.00  -0.00     0.04   0.00  -0.01    -0.00  -0.00  -0.00
    14   6     0.00  -0.00   0.00     0.04  -0.07   0.01     0.00   0.00  -0.00
    15   6     0.00   0.00  -0.00    -0.00  -0.00   0.00    -0.00  -0.00  -0.00
    16   9    -0.00  -0.00   0.00     0.00   0.00  -0.00     0.00   0.00  -0.00
    17   1    -0.00  -0.00   0.00    -0.00  -0.00   0.00    -0.00  -0.00   0.00
    18   1    -0.00  -0.00  -0.00    -0.00  -0.00  -0.00     0.00   0.00   0.00
    19   1     0.00  -0.00   0.00     0.00  -0.00   0.00    -0.00   0.00  -0.00
    20   1    -0.05  -0.08   0.00     0.00   0.00  -0.00     0.00   0.00   0.00
    21   1    -0.46   0.02   0.11     0.00  -0.00  -0.00     0.00  -0.00   0.00
    22   1    -0.37   0.79  -0.04     0.00  -0.00   0.00     0.00  -0.00  -0.00
    23   1     0.00   0.00  -0.00    -0.00   0.00  -0.00     0.71   0.70   0.01
    24   1     0.00   0.00  -0.00    -0.02  -0.04   0.00    -0.00  -0.01   0.00
    25   1    -0.00   0.00   0.00    -0.38   0.00   0.06    -0.00   0.00   0.00
    26   1    -0.00   0.00  -0.00    -0.41   0.82  -0.06     0.00  -0.00   0.00

 -------------------
 - Thermochemistry -
 -------------------
 Temperature   298.150 Kelvin.  Pressure   1.00000 Atm.
 Atom     1 has atomic number  6 and mass  12.00000
 Atom     2 has atomic number  6 and mass  12.00000
 Atom     3 has atomic number  6 and mass  12.00000
 Atom     4 has atomic number  6 and mass  12.00000
 Atom     5 has atomic number  6 and mass  12.00000
 Atom     6 has atomic number  6 and mass  12.00000
 Atom     7 has atomic number  9 and mass  18.99840
 Atom     8 has atomic number  6 and mass  12.00000
 Atom     9 has atomic number  6 and mass  12.00000
 Atom    10 has atomic number  6 and mass  12.00000
 Atom    11 has atomic number  8 and mass  15.99491
 Atom    12 has atomic number  6 and mass  12.00000
 Atom    13 has atomic number  6 and mass  12.00000
 Atom    14 has atomic number  6 and mass  12.00000
 Atom    15 has atomic number  6 and mass  12.00000
 Atom    16 has atomic number  9 and mass  18.99840
 Atom    17 has atomic number  1 and mass   1.00783
 Atom    18 has atomic number  1 and mass   1.00783
 Atom    19 has atomic number  1 and mass   1.00783
 Atom    20 has atomic number  1 and mass   1.00783
 Atom    21 has atomic number  1 and mass   1.00783
 Atom    22 has atomic number  1 and mass   1.00783
 Atom    23 has atomic number  1 and mass   1.00783
 Atom    24 has atomic number  1 and mass   1.00783
 Atom    25 has atomic number  1 and mass   1.00783
 Atom    26 has atomic number  1 and mass   1.00783
 Molecular mass:   220.06997 amu.
 Principal axes and moments of inertia in atomic units:
                           1         2         3
     Eigenvalues --  2132.720793789.399545675.48032
           X            0.99928   0.03767  -0.00357
           Y           -0.03759   0.99909   0.02025
           Z            0.00432  -0.02010   0.99979
 This molecule is an asymmetric top.
 Rotational symmetry number  1.
 Warning -- assumption of classical behavior for rotation
           may cause significant error
 Rotational temperatures (Kelvin)      0.04061     0.02286     0.01526
 Rotational constants (GHZ):           0.84622     0.47626     0.31799
    1 imaginary frequencies ignored.
 Zero-point vibrational energy     501401.6 (Joules/Mol)
                                  119.83787 (Kcal/Mol)
 Warning -- explicit consideration of  23 degrees of freedom as
           vibrations may cause significant error
 Vibrational temperatures:     77.39   184.80   255.49   279.77   294.14
          (Kelvin)            308.49   406.19   439.14   447.77   461.02
                              480.13   536.22   635.24   673.34   693.65
                              727.90   737.91   754.15   773.13   816.96
                              829.44   861.24   877.70   983.16  1038.05
                             1058.40  1079.19  1091.42  1127.72  1160.51
                             1211.69  1324.45  1335.35  1348.26  1403.30
                             1409.64  1440.02  1467.02  1542.05  1555.80
                             1622.83  1627.60  1667.46  1736.17  1758.78
                             1790.70  1809.11  1885.03  1898.89  1925.42
                             1942.49  2007.65  2049.99  2057.40  2063.53
                             2091.63  2106.55  2247.13  2268.89  2300.67
                             2313.88  4282.00  4388.57  4432.63  4439.65
                             4452.53  4486.81  4495.02  4510.55  4522.16
                             5300.58
 
 Zero-point correction=                           0.190974 (Hartree/Particle)
 Thermal correction to Energy=                    0.203514
 Thermal correction to Enthalpy=                  0.204458
 Thermal correction to Gibbs Free Energy=         0.152947
 Sum of electronic and zero-point Energies=           -775.553537
 Sum of electronic and thermal Energies=              -775.540996
 Sum of electronic and thermal Enthalpies=            -775.540052
 Sum of electronic and thermal Free Energies=         -775.591563
 
                     E (Thermal)             CV                S
                      KCal/Mol        Cal/Mol-Kelvin    Cal/Mol-Kelvin
 Total                  127.707             52.175            108.414
 Electronic               0.000              0.000              0.000
 Translational            0.889              2.981             42.069
 Rotational               0.889              2.981             32.195
 Vibrational            125.930             46.214             34.150
 Vibration     1          0.596              1.976              4.673
 Vibration     2          0.611              1.925              2.969
 Vibration     3          0.628              1.870              2.354
 Vibration     4          0.635              1.848              2.185
 Vibration     5          0.640              1.834              2.093
 Vibration     6          0.644              1.819              2.006
 Vibration     7          0.681              1.706              1.520
 Vibration     8          0.696              1.664              1.388
 Vibration     9          0.700              1.652              1.356
 Vibration    10          0.706              1.634              1.308
 Vibration    11          0.715              1.608              1.242
 Vibration    12          0.744              1.528              1.069
 Vibration    13          0.801              1.380              0.822
 Vibration    14          0.825              1.321              0.743
 Vibration    15          0.838              1.290              0.704
 Vibration    16          0.861              1.237              0.644
 Vibration    17          0.868              1.221              0.627
 Vibration    18          0.879              1.197              0.600
 Vibration    19          0.892              1.167              0.571
 Vibration    20          0.924              1.101              0.508
 Vibration    21          0.933              1.082              0.492
 Vibration    22          0.957              1.035              0.452
 Vibration    23          0.969              1.011              0.433
                       Q            Log10(Q)             Ln(Q)
 Total Bot       0.445963D-70        -70.350701       -161.988476
 Total V=0       0.309793D+18         17.491072         40.274681
 Vib (Bot)       0.143352D-84        -84.843595       -195.359598
 Vib (Bot)    1  0.384162D+01          0.584514          1.345894
 Vib (Bot)    2  0.158787D+01          0.200814          0.462392
 Vib (Bot)    3  0.113200D+01          0.053846          0.123985
 Vib (Bot)    4  0.102760D+01          0.011823          0.027224
 Vib (Bot)    5  0.973667D+00         -0.011590         -0.026686
 Vib (Bot)    6  0.924692D+00         -0.034003         -0.078295
 Vib (Bot)    7  0.680181D+00         -0.167376         -0.385397
 Vib (Bot)    8  0.621241D+00         -0.206740         -0.476036
 Vib (Bot)    9  0.607168D+00         -0.216691         -0.498949
 Vib (Bot)   10  0.586520D+00         -0.231717         -0.533548
 Vib (Bot)   11  0.558633D+00         -0.252873         -0.582262
 Vib (Bot)   12  0.487603D+00         -0.311933         -0.718253
 Vib (Bot)   13  0.391070D+00         -0.407745         -0.938868
 Vib (Bot)   14  0.361026D+00         -0.442461         -1.018804
 Vib (Bot)   15  0.346277D+00         -0.460577         -1.060517
 Vib (Bot)   16  0.323153D+00         -0.490591         -1.129628
 Vib (Bot)   17  0.316778D+00         -0.499245         -1.149554
 Vib (Bot)   18  0.306768D+00         -0.513190         -1.181664
 Vib (Bot)   19  0.295582D+00         -0.529321         -1.218808
 Vib (Bot)   20  0.271635D+00         -0.566015         -1.303298
 Vib (Bot)   21  0.265257D+00         -0.576333         -1.327056
 Vib (Bot)   22  0.249811D+00         -0.602389         -1.387051
 Vib (Bot)   23  0.242245D+00         -0.615745         -1.417806
 Vib (V=0)       0.995813D+03          2.998178          6.903559
 Vib (V=0)    1  0.437402D+01          0.640881          1.475682
 Vib (V=0)    2  0.216473D+01          0.335404          0.772296
 Vib (V=0)    3  0.173751D+01          0.239926          0.552451
 Vib (V=0)    4  0.164278D+01          0.215581          0.496393
 Vib (V=0)    5  0.159454D+01          0.202637          0.466588
 Vib (V=0)    6  0.155122D+01          0.190672          0.439039
 Vib (V=0)    7  0.134418D+01          0.128459          0.295787
 Vib (V=0)    8  0.129746D+01          0.113094          0.260407
 Vib (V=0)    9  0.128655D+01          0.109425          0.251960
 Vib (V=0)   10  0.127072D+01          0.104049          0.239582
 Vib (V=0)   11  0.124971D+01          0.096811          0.222915
 Vib (V=0)   12  0.119840D+01          0.078600          0.180984
 Vib (V=0)   13  0.113477D+01          0.054909          0.126432
 Vib (V=0)   14  0.111672D+01          0.047943          0.110393
 Vib (V=0)   15  0.110820D+01          0.044618          0.102737
 Vib (V=0)   16  0.109534D+01          0.039548          0.091064
 Vib (V=0)   17  0.109190D+01          0.038184          0.087921
 Vib (V=0)   18  0.108661D+01          0.036072          0.083059
 Vib (V=0)   19  0.108083D+01          0.033759          0.077734
 Vib (V=0)   20  0.106902D+01          0.028986          0.066744
 Vib (V=0)   21  0.106600D+01          0.027759          0.063918
 Vib (V=0)   22  0.105893D+01          0.024868          0.057261
 Vib (V=0)   23  0.105559D+01          0.023496          0.054102
 Electronic      0.100000D+01          0.000000          0.000000
 Translational   0.128320D+09          8.108295         18.670039
 Rotational      0.242437D+07          6.384599         14.701083
 ***** Axes restored to original set *****
 -------------------------------------------------------------------
 Center     Atomic                   Forces (Hartrees/Bohr)
 Number     Number              X              Y              Z
 -------------------------------------------------------------------
      1        6          -0.000007275   -0.000005515    0.000005918
      2        6          -0.000004454    0.000001902   -0.000001711
      3        6           0.000001360    0.000000567   -0.000004983
      4        6           0.000000440    0.000002423    0.000002233
      5        6          -0.000002533   -0.000000203   -0.000004408
      6        6          -0.000002549    0.000001443    0.000005777
      7        9          -0.000014638   -0.000001917   -0.000004415
      8        6          -0.000000049   -0.000000528   -0.000014762
      9        6           0.000000988    0.000013106    0.000023737
     10        6          -0.000001269   -0.000000823   -0.000007955
     11        8           0.000019922   -0.000018447    0.000006877
     12        6           0.000002615    0.000000618    0.000002129
     13        6          -0.000000678    0.000001993   -0.000001190
     14        6          -0.000001227    0.000000574    0.000004892
     15        6           0.000002244   -0.000001708   -0.000000010
     16        9           0.000016066    0.000005694   -0.000006600
     17        1          -0.000003944    0.000000357   -0.000002618
     18        1          -0.000002258   -0.000000046    0.000000393
     19        1          -0.000002373    0.000000912   -0.000002996
     20        1          -0.000000271    0.000000494   -0.000000979
     21        1          -0.000000250    0.000000400   -0.000001224
     22        1          -0.000000028    0.000000251    0.000000807
     23        1          -0.000000017   -0.000000390   -0.000000722
     24        1           0.000000409   -0.000000533    0.000000882
     25        1           0.000000019   -0.000000355    0.000000660
     26        1          -0.000000248   -0.000000269    0.000000270
 -------------------------------------------------------------------
 Cartesian Forces:  Max     0.000023737 RMS     0.000005913
 FormGI is forming the generalized inverse of G from B-inverse, IUseBI=4.

 GradGradGradGradGradGradGradGradGradGradGradGradGradGradGradGradGradGrad
 Berny optimization.
 Internal  Forces:  Max     0.000039166 RMS     0.000008561
 Search for a saddle point.
 Step number   1 out of a maximum of    2
 All quantities printed in internal units (Hartrees-Bohrs-Radians)
 Swapping is turned off.
 Second derivative matrix not updated -- analytic derivatives used.
 ITU=  0
     Eigenvalues ---   -0.02925   0.00389   0.00617   0.01100   0.01436
     Eigenvalues ---    0.01536   0.01581   0.01597   0.01613   0.01674
     Eigenvalues ---    0.01793   0.02035   0.02109   0.02213   0.02407
     Eigenvalues ---    0.02600   0.02868   0.02898   0.03040   0.03356
     Eigenvalues ---    0.03819   0.05234   0.05488   0.09832   0.09893
     Eigenvalues ---    0.10723   0.10787   0.10968   0.11183   0.11491
     Eigenvalues ---    0.13107   0.13328   0.14481   0.15488   0.16470
     Eigenvalues ---    0.17145   0.17478   0.17797   0.18075   0.18243
     Eigenvalues ---    0.19645   0.20221   0.21829   0.25861   0.27485
     Eigenvalues ---    0.27976   0.29562   0.30932   0.32199   0.32799
     Eigenvalues ---    0.33318   0.33568   0.34009   0.34185   0.34413
     Eigenvalues ---    0.34557   0.34636   0.34846   0.35100   0.36692
     Eigenvalues ---    0.40796   0.41872   0.43300   0.44233   0.45978
     Eigenvalues ---    0.46368   0.46945   0.49051   0.49483   0.49876
     Eigenvalues ---    0.70212   1.59149
 Eigenvectors required to have negative eigenvalues:
                          D31       D32       D33       D34       A25
   1                    0.47681   0.45695   0.45237   0.43251   0.13556
                          A26       A24       A23       D4        D2
   1                   -0.13144   0.12501  -0.11901  -0.10803  -0.10220
 Angle between quadratic step and forces=  81.10 degrees.
 Linear search not attempted -- option 19 set.
 Iteration  1 RMS(Cart)=  0.00034684 RMS(Int)=  0.00000003
 Iteration  2 RMS(Cart)=  0.00000006 RMS(Int)=  0.00000000
 Variable       Old X    -DE/DX   Delta X   Delta X   Delta X     New X
                                 (Linear)    (Quad)   (Total)
    R1        2.87269  -0.00000   0.00000  -0.00001  -0.00001   2.87269
    R2        2.08756   0.00000   0.00000  -0.00001  -0.00001   2.08755
    R3        2.09632  -0.00000   0.00000   0.00000   0.00000   2.09632
    R4        2.09170   0.00000   0.00000   0.00001   0.00001   2.09171
    R5        2.66692   0.00000   0.00000  -0.00000  -0.00000   2.66692
    R6        2.74271  -0.00002   0.00000  -0.00004  -0.00004   2.74268
    R7        2.64492   0.00001   0.00000   0.00001   0.00001   2.64494
    R8        2.08248   0.00000   0.00000   0.00000   0.00000   2.08249
    R9        2.64197   0.00001   0.00000   0.00002   0.00002   2.64199
   R10        2.07977  -0.00000   0.00000   0.00000   0.00000   2.07977
   R11        2.64263  -0.00000   0.00000  -0.00001  -0.00001   2.64263
   R12        2.07844   0.00000   0.00000   0.00000   0.00000   2.07844
   R13        2.54426   0.00001   0.00000   0.00001   0.00001   2.54426
   R14        2.71535  -0.00002   0.00000  -0.00003  -0.00003   2.71533
   R15        2.82245  -0.00004   0.00000  -0.00009  -0.00009   2.82236
   R16        2.73810  -0.00001   0.00000   0.00000   0.00000   2.73810
   R17        2.70783  -0.00001   0.00000  -0.00002  -0.00002   2.70781
   R18        2.56017   0.00002   0.00000   0.00004   0.00004   2.56021
   R19        2.66989   0.00000   0.00000  -0.00001  -0.00001   2.66988
   R20        1.84497   0.00000   0.00000   0.00000   0.00000   1.84497
   R21        2.63932   0.00001   0.00000   0.00002   0.00002   2.63934
   R22        2.08518   0.00000   0.00000  -0.00000  -0.00000   2.08518
   R23        2.64500   0.00001   0.00000   0.00001   0.00001   2.64501
   R24        2.07902   0.00000   0.00000   0.00000   0.00000   2.07902
   R25        2.64320  -0.00000   0.00000  -0.00000  -0.00000   2.64320
   R26        2.07675   0.00000   0.00000   0.00000   0.00000   2.07675
   R27        2.55071   0.00001   0.00000   0.00002   0.00002   2.55074
    A1        1.96572  -0.00000   0.00000  -0.00000  -0.00000   1.96572
    A2        1.87445   0.00000   0.00000  -0.00000  -0.00000   1.87445
    A3        1.98895  -0.00000   0.00000   0.00000   0.00000   1.98895
    A4        1.87226   0.00000   0.00000   0.00000   0.00000   1.87226
    A5        1.88285  -0.00000   0.00000  -0.00001  -0.00001   1.88284
    A6        1.87415   0.00000   0.00000   0.00001   0.00001   1.87416
    A7        1.99163   0.00003   0.00000   0.00010   0.00010   1.99172
    A8        2.19133  -0.00002   0.00000  -0.00007  -0.00007   2.19126
    A9        2.08741  -0.00000   0.00000  -0.00004  -0.00004   2.08737
   A10        2.14293  -0.00001   0.00000  -0.00003  -0.00003   2.14290
   A11        2.05402   0.00000   0.00000   0.00002   0.00002   2.05403
   A12        2.08383   0.00000   0.00000   0.00001   0.00001   2.08384
   A13        2.05394   0.00000   0.00000   0.00003   0.00003   2.05398
   A14        2.11364  -0.00000   0.00000  -0.00001  -0.00001   2.11363
   A15        2.10982  -0.00000   0.00000  -0.00002  -0.00002   2.10980
   A16        2.08092  -0.00000   0.00000  -0.00003  -0.00003   2.08090
   A17        2.14293   0.00000   0.00000  -0.00000  -0.00000   2.14293
   A18        2.05730   0.00000   0.00000   0.00003   0.00003   2.05732
   A19        2.00346   0.00002   0.00000   0.00010   0.00010   2.00356
   A20        2.16530  -0.00001   0.00000  -0.00005  -0.00005   2.16526
   A21        2.11129  -0.00001   0.00000  -0.00005  -0.00005   2.11124
   A22        1.95890   0.00002   0.00000   0.00005   0.00005   1.95895
   A23        2.18872  -0.00001   0.00000   0.00004   0.00004   2.18876
   A24        2.13419  -0.00001   0.00000  -0.00009  -0.00009   2.13410
   A25        2.18062  -0.00001   0.00000  -0.00014  -0.00014   2.18048
   A26        2.16758  -0.00001   0.00000   0.00004   0.00004   2.16762
   A27        1.92802   0.00003   0.00000   0.00006   0.00006   1.92808
   A28        2.09140  -0.00000   0.00000  -0.00000  -0.00000   2.09140
   A29        2.12720  -0.00002   0.00000  -0.00005  -0.00005   2.12715
   A30        2.06199   0.00002   0.00000   0.00006   0.00006   2.06204
   A31        1.88324   0.00000   0.00000  -0.00002  -0.00002   1.88322
   A32        2.11599  -0.00000   0.00000  -0.00001  -0.00001   2.11598
   A33        2.06083   0.00000   0.00000   0.00002   0.00002   2.06084
   A34        2.10357   0.00000   0.00000  -0.00001  -0.00001   2.10356
   A35        2.06294   0.00001   0.00000   0.00003   0.00003   2.06297
   A36        2.10690  -0.00000   0.00000  -0.00002  -0.00002   2.10688
   A37        2.11072  -0.00000   0.00000  -0.00002  -0.00002   2.11071
   A38        2.07766  -0.00001   0.00000  -0.00002  -0.00002   2.07764
   A39        2.14276   0.00000   0.00000  -0.00001  -0.00001   2.14275
   A40        2.06128   0.00000   0.00000   0.00002   0.00002   2.06130
   A41        2.18844  -0.00001   0.00000  -0.00004  -0.00004   2.18840
   A42        2.09457  -0.00001   0.00000  -0.00001  -0.00001   2.09456
   A43        1.99851   0.00002   0.00000   0.00005   0.00005   1.99856
    D1       -2.66203  -0.00000   0.00000  -0.00015  -0.00015  -2.66218
    D2        0.30642  -0.00000   0.00000  -0.00025  -0.00025   0.30617
    D3       -0.60454  -0.00000   0.00000  -0.00015  -0.00015  -0.60469
    D4        2.36391  -0.00000   0.00000  -0.00025  -0.00025   2.36367
    D5        1.46896   0.00000   0.00000  -0.00013  -0.00013   1.46883
    D6       -1.84577   0.00000   0.00000  -0.00023  -0.00023  -1.84600
    D7        2.84603  -0.00000   0.00000  -0.00020  -0.00020   2.84584
    D8       -0.22049  -0.00000   0.00000  -0.00014  -0.00014  -0.22063
    D9       -0.13366   0.00000   0.00000  -0.00010  -0.00010  -0.13376
   D10        3.08300   0.00000   0.00000  -0.00004  -0.00004   3.08296
   D11       -2.58558  -0.00000   0.00000   0.00028   0.00028  -2.58530
   D12        0.50051  -0.00000   0.00000   0.00019   0.00019   0.50070
   D13        0.37416   0.00000   0.00000   0.00019   0.00019   0.37435
   D14       -2.82292  -0.00000   0.00000   0.00010   0.00010  -2.82283
   D15       -0.13545   0.00000   0.00000  -0.00000  -0.00000  -0.13545
   D16        3.12050  -0.00000   0.00000  -0.00001  -0.00001   3.12049
   D17        2.92985   0.00000   0.00000  -0.00007  -0.00007   2.92978
   D18       -0.09739  -0.00000   0.00000  -0.00007  -0.00007  -0.09746
   D19        0.12906  -0.00000   0.00000   0.00002   0.00002   0.12909
   D20       -2.94250  -0.00000   0.00000   0.00006   0.00006  -2.94244
   D21       -3.12662   0.00000   0.00000   0.00003   0.00003  -3.12659
   D22        0.08500  -0.00000   0.00000   0.00006   0.00006   0.08506
   D23       -2.90552  -0.00000   0.00000   0.00004   0.00004  -2.90548
   D24        0.15159  -0.00000   0.00000   0.00007   0.00007   0.15166
   D25        0.16947  -0.00000   0.00000   0.00000   0.00000   0.16948
   D26       -3.05660  -0.00000   0.00000   0.00003   0.00003  -3.05656
   D27       -0.39526  -0.00000   0.00000  -0.00018  -0.00018  -0.39544
   D28        2.79983   0.00000   0.00000  -0.00010  -0.00010   2.79974
   D29        2.65688   0.00000   0.00000  -0.00014  -0.00014   2.65673
   D30       -0.43122   0.00001   0.00000  -0.00006  -0.00006  -0.43127
   D31        3.08774   0.00001   0.00000  -0.00051  -0.00051   3.08723
   D32        0.08494   0.00001   0.00000  -0.00014  -0.00014   0.08480
   D33       -0.11462   0.00000   0.00000  -0.00060  -0.00060  -0.11522
   D34       -3.11742   0.00001   0.00000  -0.00024  -0.00024  -3.11766
   D35       -0.33335   0.00001   0.00000   0.00036   0.00036  -0.33299
   D36        2.88709   0.00000   0.00000   0.00026   0.00026   2.88736
   D37        2.68579   0.00000   0.00000   0.00004   0.00004   2.68583
   D38       -0.37695  -0.00000   0.00000  -0.00006  -0.00006  -0.37701
   D39       -2.91307  -0.00000   0.00000  -0.00020  -0.00020  -2.91327
   D40        0.29401  -0.00000   0.00000  -0.00018  -0.00018   0.29382
   D41        0.34988   0.00000   0.00000   0.00014   0.00014   0.35001
   D42       -2.72623   0.00000   0.00000   0.00015   0.00015  -2.72608
   D43       -3.13736  -0.00000   0.00000   0.00023   0.00023  -3.13713
   D44       -0.07170   0.00000   0.00000   0.00033   0.00033  -0.07138
   D45        0.19699  -0.00000   0.00000  -0.00002  -0.00002   0.19696
   D46       -3.02465  -0.00000   0.00000   0.00002   0.00002  -3.02463
   D47       -2.86703  -0.00001   0.00000  -0.00012  -0.00012  -2.86715
   D48        0.19452  -0.00000   0.00000  -0.00008  -0.00008   0.19444
   D49        0.06502  -0.00000   0.00000   0.00001   0.00001   0.06504
   D50        3.12958   0.00000   0.00000   0.00003   0.00003   3.12961
   D51       -2.99458  -0.00000   0.00000  -0.00002  -0.00002  -2.99461
   D52        0.06997  -0.00000   0.00000  -0.00001  -0.00001   0.06997
   D53       -0.10252   0.00000   0.00000   0.00005   0.00005  -0.10247
   D54        2.97926   0.00000   0.00000  -0.00003  -0.00003   2.97923
   D55        3.11628  -0.00000   0.00000   0.00004   0.00004   3.11632
   D56       -0.08512  -0.00000   0.00000  -0.00004  -0.00004  -0.08517
   D57       -0.12508   0.00000   0.00000  -0.00013  -0.00013  -0.12521
   D58        2.95419  -0.00000   0.00000  -0.00015  -0.00015   2.95405
   D59        3.07352   0.00000   0.00000  -0.00005  -0.00005   3.07347
   D60       -0.13039  -0.00000   0.00000  -0.00007  -0.00007  -0.13046
         Item               Value     Threshold  Converged?
 Maximum Force            0.000039     0.000450     YES
 RMS     Force            0.000009     0.000300     YES
 Maximum Displacement     0.001481     0.001800     YES
 RMS     Displacement     0.000347     0.001200     YES
 Predicted change in Energy=-1.044888D-08
 Optimization completed.
    -- Stationary point found.
                           ----------------------------
                           !   Optimized Parameters   !
                           ! (Angstroms and Degrees)  !
 --------------------------                            --------------------------
 ! Name  Definition              Value          Derivative Info.                !
 --------------------------------------------------------------------------------
 ! R1    R(1,2)                  1.5202         -DE/DX =    0.0                 !
 ! R2    R(1,17)                 1.1047         -DE/DX =    0.0                 !
 ! R3    R(1,18)                 1.1093         -DE/DX =    0.0                 !
 ! R4    R(1,19)                 1.1069         -DE/DX =    0.0                 !
 ! R5    R(2,3)                  1.4113         -DE/DX =    0.0                 !
 ! R6    R(2,8)                  1.4514         -DE/DX =    0.0                 !
 ! R7    R(3,4)                  1.3996         -DE/DX =    0.0                 !
 ! R8    R(3,20)                 1.102          -DE/DX =    0.0                 !
 ! R9    R(4,5)                  1.3981         -DE/DX =    0.0                 !
 ! R10   R(4,21)                 1.1006         -DE/DX =    0.0                 !
 ! R11   R(5,6)                  1.3984         -DE/DX =    0.0                 !
 ! R12   R(5,22)                 1.0999         -DE/DX =    0.0                 !
 ! R13   R(6,7)                  1.3464         -DE/DX =    0.0                 !
 ! R14   R(6,8)                  1.4369         -DE/DX =    0.0                 !
 ! R15   R(8,9)                  1.4936         -DE/DX =    0.0                 !
 ! R16   R(9,10)                 1.4489         -DE/DX =    0.0                 !
 ! R17   R(9,15)                 1.4329         -DE/DX =    0.0                 !
 ! R18   R(10,11)                1.3548         -DE/DX =    0.0                 !
 ! R19   R(10,12)                1.4128         -DE/DX =    0.0                 !
 ! R20   R(11,23)                0.9763         -DE/DX =    0.0                 !
 ! R21   R(12,13)                1.3967         -DE/DX =    0.0                 !
 ! R22   R(12,24)                1.1034         -DE/DX =    0.0                 !
 ! R23   R(13,14)                1.3997         -DE/DX =    0.0                 !
 ! R24   R(13,25)                1.1002         -DE/DX =    0.0                 !
 ! R25   R(14,15)                1.3987         -DE/DX =    0.0                 !
 ! R26   R(14,26)                1.099          -DE/DX =    0.0                 !
 ! R27   R(15,16)                1.3498         -DE/DX =    0.0                 !
 ! A1    A(2,1,17)             112.6274         -DE/DX =    0.0                 !
 ! A2    A(2,1,18)             107.3982         -DE/DX =    0.0                 !
 ! A3    A(2,1,19)             113.9584         -DE/DX =    0.0                 !
 ! A4    A(17,1,18)            107.2724         -DE/DX =    0.0                 !
 ! A5    A(17,1,19)            107.8791         -DE/DX =    0.0                 !
 ! A6    A(18,1,19)            107.381          -DE/DX =    0.0                 !
 ! A7    A(1,2,3)              114.1118         -DE/DX =    0.0                 !
 ! A8    A(1,2,8)              125.5542         -DE/DX =    0.0                 !
 ! A9    A(3,2,8)              119.5997         -DE/DX =    0.0                 !
 ! A10   A(2,3,4)              122.7809         -DE/DX =    0.0                 !
 ! A11   A(2,3,20)             117.6864         -DE/DX =    0.0                 !
 ! A12   A(4,3,20)             119.3947         -DE/DX =    0.0                 !
 ! A13   A(3,4,5)              117.6823         -DE/DX =    0.0                 !
 ! A14   A(3,4,21)             121.1027         -DE/DX =    0.0                 !
 ! A15   A(5,4,21)             120.8839         -DE/DX =    0.0                 !
 ! A16   A(4,5,6)              119.2282         -DE/DX =    0.0                 !
 ! A17   A(4,5,22)             122.7808         -DE/DX =    0.0                 !
 ! A18   A(6,5,22)             117.8744         -DE/DX =    0.0                 !
 ! A19   A(5,6,7)              114.7898         -DE/DX =    0.0                 !
 ! A20   A(5,6,8)              124.0627         -DE/DX =    0.0                 !
 ! A21   A(7,6,8)              120.9681         -DE/DX =    0.0                 !
 ! A22   A(2,8,6)              112.2368         -DE/DX =    0.0                 !
 ! A23   A(2,8,9)              125.4047         -DE/DX =    0.0                 !
 ! A24   A(6,8,9)              122.2798         -DE/DX =    0.0                 !
 ! A25   A(8,9,10)             124.9402         -DE/DX =    0.0                 !
 ! A26   A(8,9,15)             124.1931         -DE/DX =    0.0                 !
 ! A27   A(10,9,15)            110.4674         -DE/DX =    0.0                 !
 ! A28   A(9,10,11)            119.8285         -DE/DX =    0.0                 !
 ! A29   A(9,10,12)            121.8796         -DE/DX =    0.0                 !
 ! A30   A(11,10,12)           118.1431         -DE/DX =    0.0                 !
 ! A31   A(10,11,23)           107.9019         -DE/DX =    0.0                 !
 ! A32   A(10,12,13)           121.2371         -DE/DX =    0.0                 !
 ! A33   A(10,12,24)           118.0766         -DE/DX =    0.0                 !
 ! A34   A(13,12,24)           120.5255         -DE/DX =    0.0                 !
 ! A35   A(12,13,14)           118.1978         -DE/DX =    0.0                 !
 ! A36   A(12,13,25)           120.7164         -DE/DX =    0.0                 !
 ! A37   A(14,13,25)           120.9356         -DE/DX =    0.0                 !
 ! A38   A(13,14,15)           119.0409         -DE/DX =    0.0                 !
 ! A39   A(13,14,26)           122.771          -DE/DX =    0.0                 !
 ! A40   A(15,14,26)           118.1026         -DE/DX =    0.0                 !
 ! A41   A(9,15,14)            125.3883         -DE/DX =    0.0                 !
 ! A42   A(9,15,16)            120.0103         -DE/DX =    0.0                 !
 ! A43   A(14,15,16)           114.5061         -DE/DX =    0.0                 !
 ! D1    D(17,1,2,3)          -152.5233         -DE/DX =    0.0                 !
 ! D2    D(17,1,2,8)            17.5566         -DE/DX =    0.0                 !
 ! D3    D(18,1,2,3)           -34.6377         -DE/DX =    0.0                 !
 ! D4    D(18,1,2,8)           135.4422         -DE/DX =    0.0                 !
 ! D5    D(19,1,2,3)            84.1653         -DE/DX =    0.0                 !
 ! D6    D(19,1,2,8)          -105.7548         -DE/DX =    0.0                 !
 ! D7    D(1,2,3,4)            163.0658         -DE/DX =    0.0                 !
 ! D8    D(1,2,3,20)           -12.6332         -DE/DX =    0.0                 !
 ! D9    D(8,2,3,4)             -7.6581         -DE/DX =    0.0                 !
 ! D10   D(8,2,3,20)           176.643          -DE/DX =    0.0                 !
 ! D11   D(1,2,8,6)           -148.143          -DE/DX =    0.0                 !
 ! D12   D(1,2,8,9)             28.6773         -DE/DX =    0.0                 !
 ! D13   D(3,2,8,6)             21.438          -DE/DX =    0.0                 !
 ! D14   D(3,2,8,9)           -161.7417         -DE/DX =    0.0                 !
 ! D15   D(2,3,4,5)             -7.7606         -DE/DX =    0.0                 !
 ! D16   D(2,3,4,21)           178.7915         -DE/DX =    0.0                 !
 ! D17   D(20,3,4,5)           167.8679         -DE/DX =    0.0                 !
 ! D18   D(20,3,4,21)           -5.58           -DE/DX =    0.0                 !
 ! D19   D(3,4,5,6)              7.3949         -DE/DX =    0.0                 !
 ! D20   D(3,4,5,22)          -168.593          -DE/DX =    0.0                 !
 ! D21   D(21,4,5,6)          -179.1421         -DE/DX =    0.0                 !
 ! D22   D(21,4,5,22)            4.87           -DE/DX =    0.0                 !
 ! D23   D(4,5,6,7)           -166.4743         -DE/DX =    0.0                 !
 ! D24   D(4,5,6,8)              8.6855         -DE/DX =    0.0                 !
 ! D25   D(22,5,6,7)             9.7101         -DE/DX =    0.0                 !
 ! D26   D(22,5,6,8)          -175.1301         -DE/DX =    0.0                 !
 ! D27   D(5,6,8,2)            -22.6468         -DE/DX =    0.0                 !
 ! D28   D(5,6,8,9)            160.4186         -DE/DX =    0.0                 !
 ! D29   D(7,6,8,2)            152.2278         -DE/DX =    0.0                 !
 ! D30   D(7,6,8,9)            -24.7069         -DE/DX =    0.0                 !
 ! D31   D(2,8,9,10)           176.9143         -DE/DX =    0.0                 !
 ! D32   D(2,8,9,15)             4.8667         -DE/DX =    0.0                 !
 ! D33   D(6,8,9,10)            -6.5673         -DE/DX =    0.0                 !
 ! D34   D(6,8,9,15)          -178.6149         -DE/DX =    0.0                 !
 ! D35   D(8,9,10,11)          -19.0997         -DE/DX =    0.0                 !
 ! D36   D(8,9,10,12)          165.4182         -DE/DX =    0.0                 !
 ! D37   D(15,9,10,11)         153.8842         -DE/DX =    0.0                 !
 ! D38   D(15,9,10,12)         -21.5979         -DE/DX =    0.0                 !
 ! D39   D(8,9,15,14)         -166.9066         -DE/DX =    0.0                 !
 ! D40   D(8,9,15,16)           16.8454         -DE/DX =    0.0                 !
 ! D41   D(10,9,15,14)          20.0464         -DE/DX =    0.0                 !
 ! D42   D(10,9,15,16)        -156.2016         -DE/DX =    0.0                 !
 ! D43   D(9,10,11,23)        -179.7577         -DE/DX =    0.0                 !
 ! D44   D(12,10,11,23)         -4.1082         -DE/DX =    0.0                 !
 ! D45   D(9,10,12,13)          11.2864         -DE/DX =    0.0                 !
 ! D46   D(9,10,12,24)        -173.2995         -DE/DX =    0.0                 !
 ! D47   D(11,10,12,13)       -164.2688         -DE/DX =    0.0                 !
 ! D48   D(11,10,12,24)         11.1453         -DE/DX =    0.0                 !
 ! D49   D(10,12,13,14)          3.7256         -DE/DX =    0.0                 !
 ! D50   D(10,12,13,25)        179.3117         -DE/DX =    0.0                 !
 ! D51   D(24,12,13,14)       -171.5769         -DE/DX =    0.0                 !
 ! D52   D(24,12,13,25)          4.0092         -DE/DX =    0.0                 !
 ! D53   D(12,13,14,15)         -5.8742         -DE/DX =    0.0                 !
 ! D54   D(12,13,14,26)        170.6988         -DE/DX =    0.0                 !
 ! D55   D(25,13,14,15)        178.5499         -DE/DX =    0.0                 !
 ! D56   D(25,13,14,26)         -4.8772         -DE/DX =    0.0                 !
 ! D57   D(13,14,15,9)          -7.1668         -DE/DX =    0.0                 !
 ! D58   D(13,14,15,16)        169.2629         -DE/DX =    0.0                 !
 ! D59   D(26,14,15,9)         176.0998         -DE/DX =    0.0                 !
 ! D60   D(26,14,15,16)         -7.4706         -DE/DX =    0.0                 !
 --------------------------------------------------------------------------------
 GradGradGradGradGradGradGradGradGradGradGradGradGradGradGradGradGradGrad


 ----------------------------------------------------------------------

 Electric dipole moment (input orientation):
 (Debye = 10**-18 statcoulomb cm , SI units = C m)
                  (au)            (Debye)         (10**-30 SI)
   Tot        0.638752D+00      0.162355D+01      0.541556D+01
   x         -0.555819D+00     -0.141275D+01     -0.471243D+01
   y         -0.313254D+00     -0.796213D+00     -0.265588D+01
   z          0.306792D-01      0.779788D-01      0.260109D+00

 Dipole polarizability, Alpha (input orientation).
 (esu units = cm**3 , SI units = C**2 m**2 J**-1)
 Alpha(0;0):
               (au)            (10**-24 esu)      (10**-40 SI)
   iso        0.159198D+03      0.235908D+02      0.262483D+02
   aniso      0.148396D+03      0.219900D+02      0.244672D+02
   xx         0.239774D+03      0.355309D+02      0.395334D+02
   yx        -0.751468D+00     -0.111356D+00     -0.123900D+00
   yy         0.166856D+03      0.247255D+02      0.275108D+02
   zx        -0.129974D+02     -0.192602D+01     -0.214299D+01
   zy         0.168537D+01      0.249746D+00      0.277880D+00
   zz         0.709649D+02      0.105159D+02      0.117005D+02

 ----------------------------------------------------------------------

 Dipole orientation:
     6         -0.30066899          3.21879514         -4.36509001
     6          0.04640811          0.43807117         -3.73304518
     6          0.35493008         -1.13362406         -5.86543038
     6          1.33327504         -3.58586807         -5.70744345
     6          2.31228802         -4.36927343         -3.38197772
     6          2.01215154         -2.81490937         -1.26599480
     9          3.45477188         -3.44403897          0.73307418
     6          0.45993803         -0.58736933         -1.22307507
     6         -0.46617363          0.55834160          1.18438860
     6         -0.14574052         -0.54343591          3.67047054
     8          0.38391852         -3.03774326          3.89931293
     6         -0.54275887          0.86945729          5.90080908
     6         -1.68070384          3.24977733          5.82878328
     6         -2.55930811          4.14508510          3.50015748
     6         -2.05975851          2.74367235          1.31543583
     9         -3.33471133          3.51878985         -0.75333874
     1          0.35822356          4.47826846         -2.83620015
     1          0.86884887          3.62797475         -6.05605588
     1         -2.27175495          3.74542182         -4.82628419
     1         -0.07743159         -0.32411099         -7.73478678
     1          1.51685885         -4.78043863         -7.39999986
     1          3.42337717         -6.11148425         -3.15818032
     1          0.52256319         -3.42539991          5.69776123
     1         -0.06144021         -0.01960750          7.72450157
     1         -2.00131673          4.32691986          7.57787032
     1         -3.72014951          5.85762848          3.31975061

 Electric dipole moment (dipole orientation):
 (Debye = 10**-18 statcoulomb cm , SI units = C m)
                  (au)            (Debye)         (10**-30 SI)
   Tot        0.638752D+00      0.162355D+01      0.541556D+01
   x          0.000000D+00      0.000000D+00      0.000000D+00
   y          0.000000D+00      0.000000D+00      0.000000D+00
   z          0.638752D+00      0.162355D+01      0.541556D+01

 Dipole polarizability, Alpha (dipole orientation).
 (esu units = cm**3 , SI units = C**2 m**2 J**-1)
 Alpha(0;0):
               (au)            (10**-24 esu)      (10**-40 SI)
   iso        0.159198D+03      0.235908D+02      0.262483D+02
   aniso      0.148396D+03      0.219900D+02      0.244672D+02
   xx         0.925627D+02      0.137164D+02      0.152615D+02
   yx        -0.458161D+02     -0.678925D+01     -0.755406D+01
   yy         0.162819D+03      0.241273D+02      0.268453D+02
   zx        -0.128643D+02     -0.190629D+01     -0.212104D+01
   zy         0.293892D+02      0.435503D+01      0.484562D+01
   zz         0.222213D+03      0.329286D+02      0.366380D+02

 ----------------------------------------------------------------------
 Unable to Open any file for archive entry.
 1\1\GINC-SEMLSCPN087\Freq\RBP86\def2SVP\C13H10F2O1\USER-ID\03-Dec-2025
 \0\\#N Geom=AllCheck Guess=TCheck SCRF=Check GenChk RBP86/def2SVP Freq
 \\g_opt_ts_confs.log\\0,1\C,1.2722769236,2.5100286287,0.5859390488\C,1
 .6313807066,1.1374084719,0.0401762195\C,2.9972481694,0.9834806749,-0.2
 798379905\C,3.5965680661,-0.2682007709,-0.4617230397\C,2.8383352873,-1
 .4020749126,-0.1551185805\C,1.4849864481,-1.2527638696,0.1638422786\F,
 0.9118906803,-2.3389232933,0.7156657718\C,0.7572970171,-0.0211882301,0
 .0282693958\C,-0.7341440614,0.0207359283,-0.0396571752\C,-1.5944511106
 ,-1.142727033,-0.1148502808\O,-1.084586424,-2.3332676828,-0.5124573377
 \C,-2.9842017765,-1.0599008815,0.1256916835\C,-3.6310446585,0.17453555
 11,0.2176048969\C,-2.8807232006,1.3332212897,-0.013803992\C,-1.4993942
 539,1.2211450356,-0.2029945238\F,-0.9010347459,2.3487912493,-0.6414973
 075\H,0.3936467949,2.4848170421,1.2550537038\H,2.1344997691,2.86370181
 6,1.1876788008\H,1.0817050392,3.2691588195,-0.1967415066\H,3.620109046
 3,1.8918428978,-0.3163574802\H,4.6602991124,-0.3555827255,-0.730218399
 8\H,3.2738523577,-2.4099304047,-0.0899402543\H,-1.8088288843,-2.987932
 8157,-0.503509127\H,-3.5617048911,-1.9993977385,0.1629487756\H,-4.7156
 272336,0.2288930353,0.3939645777\H,-3.3371341778,2.3284399179,-0.10848
 81573\\Version=ES64L-G16RevC.02\State=1-A\HF=-775.7445105\RMSD=3.688e-
 09\RMSF=5.913e-06\ZeroPoint=0.1909738\Thermal=0.2035141\ETot=-775.5409
 965\HTot=-775.5400523\GTot=-775.5915635\Dipole=-0.5558186,-0.3132545,0
 .0306792\DipoleDeriv=0.0628089,-0.0281942,0.0343605,0.0093337,-0.08349
 81,-0.0394111,-0.0013582,0.0052041,0.096548,0.081333,-0.1151465,-0.087
 5425,0.1631761,0.2505731,0.1206123,-0.155204,0.1795306,-0.0178504,-0.1
 760753,0.2262356,0.0360968,0.1821555,-0.0943415,-0.0164489,0.0481301,-
 0.0663973,-0.1625421,-0.0480828,0.0227808,-0.0736317,-0.1020188,0.1763
 529,0.0011624,-0.0801026,-0.0158532,-0.0791599,-0.1386091,-0.1923489,0
 .0539022,-0.00618,-0.0809615,-0.0440057,0.0279198,0.0395363,-0.1708324
 ,0.2672745,0.2775648,-0.2201546,0.0214435,0.7656998,-0.3317876,-0.2025
 843,-0.3897555,0.2665354,-0.2644089,-0.2647458,0.1509719,-0.1327833,-0
 .7632672,0.2882775,0.0204323,0.3511502,-0.2255551,0.2493102,0.1157068,
 0.0576976,-0.0910866,-0.1514421,0.0194963,0.2606918,-0.0338238,-0.0535
 626,0.0905009,-0.0598864,0.0069987,0.0888488,-0.2462427,-0.0118847,0.1
 965241,-0.0035515,-0.0504253,0.1324301,-0.3981047,-0.1445737,0.0861023
 ,0.9904316,0.2889648,-0.1017992,0.3609616,0.1727745,-0.1505814,0.33339
 34,0.0784254,-0.0144643,-1.1397566,-0.2399604,-0.0413479,-0.312536,-0.
 3300234,-0.0809155,0.3746667,0.0529183,-0.0056494,-0.1421734,0.0034035
 ,0.0373846,-0.0746816,-0.2108542,-0.0546217,-0.011716,-0.0583809,0.191
 1725,0.318142,-0.0139434,-0.107973,-0.0163997,-0.0845256,-0.4312448,-0
 .2207473,0.0543137,-0.0948179,-0.1617617,-0.0380896,0.0736692,0.017593
 6,-0.1684453,0.6007616,0.309101,-0.1605193,-0.08385,0.8211185,-0.23307
 82,-0.2231777,-0.3064047,0.1665721,-0.3636693,-0.3358163,0.0735739,-0.
 1946933,-0.7868706,0.2032092,0.0106064,0.248063,-0.174983,-0.0146469,0
 .0376211,0.0883919,-0.018243,0.0225778,0.0161712,0.0743194,-0.0226781,
 0.0073507,-0.063694,-0.0491322,-0.0817934,-0.0175984,0.0032849,-0.0375
 619,-0.0643126,-0.0786016,0.0144654,0.1019011,0.0724062,0.0029596,0.03
 27935,-0.0510895,0.0265427,-0.0029204,0.0584755,-0.0034729,0.0191095,-
 0.066658,0.0108428,-0.0960254,-0.0496071,0.0052916,0.0323955,-0.046945
 ,0.1021545,-0.0816029,0.0193362,0.0565268,0.0126859,0.0723194,-0.00507
 44,0.0476504,-0.0052047,0.1034371,0.0700713,0.0302767,0.0087979,0.0543
 904,-0.0245939,0.0112748,0.033818,0.0583493,0.125216,0.1611738,-0.0721
 61,0.0081108,0.0436881,0.3888312,0.0122896,0.0146308,0.0445023,0.30139
 95,0.0375901,-0.036252,0.011583,-0.0839956,-0.1013694,-0.0017714,0.021
 7703,-0.0515141,0.1295036,-0.0691547,0.0091856,0.033733,0.0075123,0.08
 26105,0.0004183,0.0443005,0.004373,0.1119174,0.0630421,0.0226346,0.006
 3913,0.0481032,-0.0149662,0.015903,0.0365364,0.0566073,0.134358\Polar=
 239.7743288,-0.7514678,166.8558681,-12.9974272,1.685371,70.964912\Quad
 rupole=5.9287946,1.7297461,-7.6585407,4.1951598,-0.4785726,1.6761802\P
 G=C01 [X(C13H10F2O1)]\NImag=1\\0.56294114,0.00422571,0.46373699,-0.008
 68644,-0.03302851,0.51275842,-0.08395448,0.02966275,0.01560051,0.58326
 848,0.02252249,-0.17183909,-0.05154008,0.00930875,0.54581183,0.0138377
 6,-0.03481305,-0.08069471,-0.07935528,0.07374826,0.19064069,-0.0117897
 4,0.01291092,0.00955916,-0.29310034,0.04292810,0.05291045,0.61741807,0
 .03101994,-0.01250033,-0.01392593,-0.01281089,-0.10599366,-0.00004606,
 0.01523241,0.70314584,0.00857003,-0.01183287,0.00028726,0.05609702,-0.
 00779207,-0.07286666,-0.11221284,0.04740715,0.14716746,-0.00468230,-0.
 00208879,0.00156505,-0.01688752,0.02838690,0.00802487,-0.15348841,0.11
 734041,0.02458415,0.67566495,0.00085184,0.00534292,0.00189658,0.068937
 24,0.00970051,-0.01598926,0.06022103,-0.29843729,-0.03173147,-0.005226
 37,0.65539578,0.00119757,-0.00203584,0.00356155,0.00671738,-0.00565760
 ,0.00366213,0.02253002,-0.03464981,-0.06062221,-0.15364881,-0.01682045
 ,0.16561459,-0.00151791,-0.00088082,-0.00308977,-0.04390339,-0.0113976
 6,0.01048748,0.05124781,-0.02828421,-0.00499178,-0.18167703,-0.0771060
 6,0.03873221,0.63142293,-0.00056858,-0.00237495,0.00006720,-0.02030716
 ,-0.00554922,0.00665733,0.00956048,-0.05616943,-0.00011336,-0.13265879
 ,-0.26934548,0.05664447,-0.01776275,0.71540562,-0.00002992,0.00087414,
 -0.00021886,0.01024133,0.00233822,-0.00388499,-0.00657697,0.00726809,0
 .00899611,0.04523321,0.05229287,-0.06857533,-0.12975709,-0.08718566,0.
 15539423,-0.00184529,-0.00157672,0.00216909,0.05614082,0.00497977,-0.0
 1970125,-0.04134629,0.02870246,0.00823120,-0.03059952,-0.06881723,0.01
 277275,-0.30821600,0.07676262,0.05570766,0.63940558,-0.00210266,-0.000
 55065,-0.00100203,-0.03073517,-0.04746851,0.01099333,0.02175822,-0.019
 14753,-0.00318848,-0.02118671,0.03195850,0.00237913,0.00885674,-0.1122
 3876,0.00057538,-0.02602014,0.57263889,0.00103314,-0.00222278,0.003679
 37,-0.01638597,-0.00333225,0.00534413,0.00824759,-0.00621484,-0.003746
 77,0.01070763,0.01334549,-0.00237123,0.05576601,-0.01271476,-0.0715249
 9,-0.10678399,-0.11638380,0.19783607,0.00060107,0.00027348,0.00012831,
 -0.00493202,0.00181431,0.00296907,0.00145911,-0.00340883,-0.00049827,-
 0.00386931,0.00786072,0.00198785,-0.03126936,-0.05000375,0.02424557,-0
 .11724600,-0.08351122,0.05179936,0.16452758,-0.00170584,0.00023284,-0.
 00012384,0.00821051,-0.00129169,0.00134088,-0.00320473,-0.00113230,0.0
 0080300,0.00070209,0.00050825,0.00108650,-0.01376913,-0.00608202,0.012
 18737,-0.08908277,-0.22514351,0.08867598,0.12328182,0.26932714,0.00131
 324,-0.00002249,0.00033029,0.00086872,0.00162926,0.00387589,-0.0028688
 2,0.00213131,-0.00082101,0.00234831,-0.00450841,0.00624420,0.01942346,
 0.02061204,-0.00355929,0.04835713,0.09142058,-0.08062789,-0.05641100,-
 0.11627863,0.08758715,0.01130239,-0.00014080,0.00285037,-0.15003524,-0
 .07513369,0.00671774,-0.03272436,-0.01923491,0.00074121,0.00341739,-0.
 00246884,-0.00226135,-0.01757810,0.02159800,-0.00229738,-0.15510747,0.
 09368043,-0.00286306,0.01354531,-0.01901607,0.00725489,0.56082103,-0.0
 1208422,-0.02173631,0.00475239,-0.04397778,-0.19609147,-0.02468612,-0.
 04903414,0.02907440,0.00648893,-0.00194586,-0.04500666,0.00202032,0.05
 368099,0.01765613,-0.00992773,0.04973324,-0.19969558,0.03828201,0.0082
 0729,-0.04186785,0.00548386,-0.01120701,0.55312529,-0.00241103,-0.0080
 0874,0.00208652,0.00292284,-0.00286816,-0.05600153,0.00882334,0.001247
 08,0.00264019,0.00100586,0.00163865,-0.00080741,0.00409211,-0.00345043
 ,0.00483098,-0.00291561,0.01747323,-0.06146092,-0.00331480,0.01803918,
 0.00054834,-0.00419083,-0.02365877,0.14548917,-0.00012353,0.00341761,-
 0.00125142,-0.02930800,-0.01526315,-0.00099727,0.00664443,-0.00360510,
 -0.00070609,-0.00279348,0.00040912,0.00168406,0.00653109,0.00230925,-0
 .00115410,-0.02880378,0.01839151,-0.00137213,0.00194613,-0.00388835,-0
 .00004522,-0.18122533,0.00501443,-0.00515937,0.57386520,0.00046423,0.0
 0120958,0.00030180,-0.02404105,0.00770026,0.00205347,-0.00194253,-0.00
 451490,-0.00019888,0.00005719,-0.00051987,-0.00005518,0.00044924,-0.00
 483305,0.00123236,0.02954641,0.00113945,-0.00159736,-0.00038347,0.0034
 6762,-0.00116765,0.00185863,-0.09915432,0.00138119,-0.01293329,0.57378
 751,-0.00061491,0.00135226,-0.00189408,0.00141761,0.00108644,-0.000367
 12,0.00040250,-0.00126608,0.00573322,0.00126405,-0.00037243,-0.0016105
 7,0.00060623,0.00191904,0.00434353,-0.00047426,-0.00044987,0.00165833,
 -0.00092763,-0.00206451,-0.00193521,-0.00811397,0.00134911,-0.04945550
 ,0.01278895,-0.01442989,0.13514158,0.00031459,-0.00057374,0.00038356,-
 0.00107570,0.00610537,0.00106626,-0.00172502,0.00009249,-0.00042078,-0
 .00005787,-0.00056719,0.00010940,-0.00042967,-0.00065097,-0.00055406,-
 0.00267218,-0.00960908,0.00239168,0.00317039,0.00550042,-0.00228068,-0
 .02742919,-0.02461857,0.00094844,-0.16629660,-0.04349900,-0.00583863,0
 .63526680,0.00013416,-0.00088952,0.00050794,0.00537399,0.00058750,0.00
 103966,-0.00051114,-0.00022868,-0.00019866,0.00187634,0.00089101,-0.00
 077630,-0.00235317,-0.00129278,0.00100403,0.01157662,0.01093913,-0.004
 43060,-0.00880538,-0.00909532,0.00234826,-0.01607758,0.00617146,0.0009
 8850,-0.08404133,-0.18373547,-0.00914592,-0.00420988,0.63964440,-0.000
 08844,0.00021774,0.00006177,0.00116376,0.00019718,0.00169671,-0.000357
 63,-0.00028699,0.00044571,0.00029908,-0.00010302,-0.00014565,0.0000268
 3,-0.00023401,-0.00054128,0.00092590,0.00212570,-0.00059003,-0.0030278
 1,-0.00178554,0.00042081,-0.00018355,0.00117802,0.00040901,-0.00366503
 ,-0.02503858,-0.05556191,-0.06641297,0.09004127,0.17266108,-0.00010909
 ,0.00006293,-0.00004123,-0.00048507,-0.00097875,0.00041366,0.00091866,
 -0.00099801,-0.00002646,0.00057054,0.00124043,-0.00020627,-0.00118579,
 -0.00043798,0.00117597,0.00178783,0.00588603,-0.00399202,-0.02714597,-
 0.00626641,-0.01414816,0.00253797,0.00023173,-0.00095386,0.01522348,-0
 .02177305,-0.00418969,-0.13469902,0.05251169,0.02947064,0.46228166,0.0
 0001178,0.00009828,-0.00017698,-0.00041457,0.00024057,-0.00035498,-0.0
 0004914,0.00116298,-0.00011239,-0.00134531,-0.00073950,0.00049320,0.00
 151236,0.00062878,-0.00075136,-0.00673505,-0.00869500,0.00351082,0.005
 23282,0.01041649,-0.00260155,0.00501584,0.00318516,0.00087892,0.006836
 13,-0.04585597,-0.01316953,0.10128385,-0.26615076,-0.07028571,0.116359
 88,0.53935429,-0.00006351,0.00002759,-0.00019824,-0.00014187,0.0001151
 8,-0.00012814,0.00021784,0.00000354,0.00016144,-0.00019885,0.00034976,
 0.00006586,-0.00064532,-0.00034429,0.00109000,-0.00008251,0.00079099,-
 0.00030645,-0.01621121,-0.00158942,-0.00768964,0.00046013,0.00008295,-
 0.00168924,0.00168311,-0.00481213,0.00128242,0.04065627,-0.06334789,-0
 .06116999,-0.04649608,0.09413686,0.06718732,-0.00005134,0.00060909,-0.
 00006855,-0.00123745,-0.00123044,-0.00044831,0.00044302,-0.00067597,0.
 00005500,0.00015187,0.00018272,-0.00007154,0.00014141,0.00018598,0.000
 15866,0.00081049,0.00312881,-0.00074388,-0.00197689,-0.00185134,-0.000
 03098,0.00487866,-0.00167306,0.00040402,-0.02314337,-0.04429792,0.0060
 2719,-0.29314165,0.02821880,0.04093543,-0.02759270,0.02002415,0.012444
 57,0.62758509,0.00020328,-0.00025648,0.00006735,-0.00070921,0.00092533
 ,0.00004723,-0.00031352,-0.00035513,0.00006830,0.00023968,-0.00009176,
 -0.00007671,-0.00013767,0.00038947,-0.00006489,-0.00014398,-0.00217999
 ,0.00069192,0.00125822,0.00119216,0.00013660,-0.00231829,-0.00429097,-
 0.00115302,-0.01821267,0.02599569,0.00017185,-0.03863772,-0.11130792,0
 .00357730,0.05126971,-0.02060710,-0.01744581,-0.00385602,0.71819663,0.
 00001050,-0.00011455,0.00010291,-0.00050026,-0.00010687,0.00045179,0.0
 0006002,0.00014817,-0.00054620,-0.00018820,0.00003131,0.00015644,0.000
 09309,0.00000563,-0.00020734,-0.00088259,-0.00094481,-0.00021287,0.001
 31589,0.00089959,0.00058701,-0.00011924,-0.00032396,0.00464237,-0.0019
 6832,0.00226756,0.00214261,0.04269819,-0.00215114,-0.06436698,0.016122
 35,-0.01407147,0.00581453,-0.08808161,0.02489096,0.11779845,-0.0001750
 4,-0.00007300,0.00011065,0.00081750,0.00118482,0.00003795,-0.00048424,
 0.00056540,-0.00012324,-0.00024496,-0.00019952,0.00004182,-0.00017994,
 -0.00042531,-0.00012990,0.00003973,-0.00193450,0.00046917,0.00062877,0
 .00106666,-0.00040872,-0.00308211,0.00005715,0.00128312,0.00401819,-0.
 00308429,0.00098460,-0.02011512,0.03002123,0.00435897,-0.00343476,-0.0
 0115752,0.00167149,-0.16360475,0.12874195,0.01449956,0.69977772,0.0000
 1763,0.00060316,0.00003516,0.00004454,-0.00025055,-0.00030587,-0.00017
 779,-0.00026185,0.00009516,0.00037042,0.00001681,-0.00014681,-0.000221
 83,-0.00005111,0.00006052,0.00142972,0.00152255,-0.00041512,-0.0018557
 3,-0.00116228,0.00013320,-0.00104940,-0.00085570,-0.00034164,0.0008160
 8,-0.04221861,0.00258459,0.07294037,0.01802046,-0.00983690,-0.00911943
 ,0.00296906,0.00270061,0.07587118,-0.30272855,-0.01822531,-0.00836717,
 0.65958254,0.00005016,0.00014719,-0.00020244,-0.00015037,-0.00024750,-
 0.00001718,0.00016580,-0.00011736,0.00012152,-0.00001798,0.00005105,0.
 00001864,0.00007381,0.00010699,0.00011397,-0.00003603,0.00027365,-0.00
 008667,0.00004044,-0.00012621,0.00010790,0.00139190,-0.00006380,-0.001
 61730,-0.00113753,0.00240532,0.00156936,0.00356806,-0.00497024,-0.0005
 4323,0.00222469,0.00026428,0.00626604,0.01400245,-0.01711190,-0.051204
 36,-0.10306444,-0.02627704,0.13987699,-0.00006998,-0.00034499,-0.00000
 705,-0.00133691,-0.00107422,-0.00001162,0.00081891,-0.00019928,-0.0000
 1879,-0.00058686,0.00010710,0.00024526,0.00069320,0.00029035,-0.000041
 84,-0.00207089,0.00060258,-0.00009206,0.00112640,0.00028800,-0.0000637
 2,0.00783151,0.00050240,0.00040026,-0.02089465,0.05149878,0.00046442,-
 0.04566019,-0.01695387,0.00705649,0.00395564,0.00296630,-0.00115866,0.
 04859177,-0.02359778,-0.00121734,-0.17964653,-0.07872861,0.02575395,0.
 65011988,0.00002996,-0.00033718,-0.00006656,-0.00048591,-0.00051426,-0
 .00023967,0.00014689,0.00051413,-0.00007395,-0.00047041,-0.00014245,0.
 00021000,0.00036394,-0.00059303,-0.00017136,0.00000861,-0.00038421,0.0
 0045484,0.00111842,0.00112757,-0.00035786,0.00142096,-0.00470730,0.002
 02525,0.02167257,0.01770297,-0.00190987,-0.02350479,-0.00726687,0.0047
 0874,0.00370081,-0.00411030,-0.00152039,0.01218450,-0.05566454,0.00213
 013,-0.13290208,-0.27412444,0.04268413,-0.01398275,0.71840161,0.000660
 14,0.00053055,0.00035621,-0.00041691,0.00004867,-0.00070371,-0.0001071
 7,0.00003761,-0.00018037,-0.00004387,-0.00003081,0.00005796,-0.0000651
 9,-0.00007597,-0.00047940,-0.00038598,0.00021687,0.00041515,-0.0001268
 4,-0.00000490,0.00002535,-0.00094547,0.00127839,0.00439175,-0.00310937
 ,-0.00574100,0.00479657,0.00677378,0.00180830,-0.00112036,-0.00056106,
 0.00009548,-0.00112037,-0.00349332,0.00554111,0.00820161,0.03197542,0.
 04215668,-0.06069647,-0.07917593,-0.08513784,0.12781079,-0.00237627,-0
 .00123861,0.00033235,0.00297045,0.00480146,0.00011164,-0.00167049,0.00
 064853,0.00009114,0.00051399,-0.00035852,-0.00027810,-0.00110338,0.000
 49623,-0.00044590,-0.00224145,-0.00507439,0.00126629,-0.00036120,-0.00
 004599,-0.00002944,-0.02811623,0.02925476,-0.00198084,-0.16246630,0.05
 580205,-0.00628800,0.06355540,0.01221042,-0.01484202,-0.00975299,-0.00
 500364,0.00146589,-0.04089686,0.02740215,0.00389207,-0.03135603,-0.070
 53820,0.01030994,-0.31834266,0.07014914,0.03146320,0.65768304,-0.00141
 002,0.00126863,0.00072874,-0.00461274,0.00241513,0.00038280,0.00049038
 ,-0.00112827,-0.00010136,-0.00179647,-0.00038159,0.00047936,0.00188850
 ,0.00038404,-0.00003338,-0.00639649,0.00170441,-0.00062187,0.00065468,
 -0.00024777,-0.00026523,0.02158158,0.00277501,-0.00008611,0.09492247,-
 0.20336207,0.01990923,-0.02599479,-0.05317882,0.00643739,0.00072357,0.
 00375229,0.00132684,0.01784461,-0.01574309,-0.00027961,-0.02225434,0.0
 2698352,0.00048240,0.00472593,-0.10806886,0.00327259,-0.01857230,0.582
 27112,-0.00235482,-0.00050874,0.00007220,0.00125468,-0.00139764,0.0001
 4665,-0.00008014,0.00037999,-0.00067748,0.00039393,0.00005464,-0.00011
 684,-0.00028364,0.00031258,0.00048990,0.00148131,-0.00074008,0.0019365
 9,0.00028926,0.00022803,-0.00002837,-0.00194298,-0.00166222,0.00068797
 ,-0.00965756,0.03723468,-0.05700322,-0.01215760,-0.00144117,-0.0016838
 9,0.00169561,-0.00177520,0.00306969,0.00504168,-0.00375015,-0.00089886
 ,0.00747632,0.00753930,-0.00091816,0.03353517,-0.00451669,-0.06228640,
 -0.06167936,-0.10475999,0.17060431,-0.01192307,-0.00374892,-0.00819082
 ,-0.00086719,-0.00324525,-0.00116068,0.00036805,0.00025885,-0.00005494
 ,0.00048195,0.00001222,-0.00005345,-0.00009538,0.00051397,0.00004602,0
 .00050310,0.00005703,0.00026184,0.00014344,0.00033934,-0.00002349,0.00
 020233,-0.00046171,-0.00083305,0.01340492,0.00800477,-0.00203311,-0.00
 575937,0.00181960,0.00216889,0.00159076,-0.00006339,-0.00028790,0.0016
 0799,-0.00314279,-0.00017248,-0.00459361,0.00763663,0.00096645,-0.0330
 2692,-0.05327311,0.01934397,-0.11857719,-0.08720424,0.03911471,0.16579
 498,-0.00306907,-0.00131006,-0.00157327,0.00289985,-0.00345144,-0.0007
 1063,0.00005397,0.00055016,0.00062330,0.00089677,-0.00008501,-0.000231
 81,-0.00019792,0.00075568,0.00008252,0.00014910,-0.00013220,0.00031844
 ,0.00027057,0.00023694,0.00000324,-0.00482256,0.00297996,-0.00199307,-
 0.02075024,-0.04466474,0.01487839,0.00946311,0.00145866,0.00334598,-0.
 00161295,-0.00249756,-0.00048178,-0.00364768,-0.00133762,0.00018319,-0
 .00004974,0.00060825,0.00091563,-0.01590596,-0.01003976,0.00958333,-0.
 09289168,-0.23230173,0.07175807,0.13323467,0.28508756,-0.00555154,-0.0
 0174949,-0.00644228,-0.00099735,0.00135176,0.00042879,0.00012406,-0.00
 004002,0.00037424,-0.00025916,0.00023215,0.00006828,-0.00028271,-0.000
 41689,0.00009751,0.00042310,-0.00068100,-0.00007078,-0.00005140,0.0000
 6991,-0.00022326,-0.00137121,-0.00053349,-0.00209116,0.00882027,0.0049
 9957,0.00171600,0.00036323,0.00019069,0.00456844,0.00043365,0.00103666
 ,0.00025035,-0.00174530,0.00131550,-0.00101210,0.00157379,-0.00239934,
 0.00631923,0.01339017,0.01488313,0.00237577,0.03871904,0.07768615,-0.0
 6320281,-0.04345633,-0.09418994,0.06289643,-0.21246617,-0.00881666,0.1
 3209135,-0.00451974,-0.00009256,0.00134248,0.00008958,0.00135490,0.001
 01456,-0.00014676,0.00004693,0.00025649,0.00006546,-0.00009587,-0.0000
 2767,-0.00015144,0.00008758,0.00000608,0.00009546,0.00020495,-0.000128
 91,-0.00009989,-0.00097135,-0.00089411,0.00065586,0.00001403,0.0000479
 1,-0.00000157,-0.00021992,0.00013583,-0.00003294,0.00010418,0.00001303
 ,0.00011775,0.00002730,-0.00006057,0.00001309,0.00011567,0.00005172,-0
 .00016545,-0.00003520,-0.00003694,-0.00015854,-0.00011605,-0.00019059,
 -0.00337037,-0.00036178,-0.00563604,0.23156899,-0.01008010,-0.04216341
 ,0.00490208,0.02279372,0.00082598,-0.01616311,0.00046286,-0.00500219,-
 0.00110109,0.00135366,0.00027516,0.00024418,-0.00025159,-0.00002634,-0
 .00006120,0.00063947,0.00012209,0.00016748,-0.00015318,-0.00007895,-0.
 00001086,0.00053476,0.00156551,-0.00018540,0.00007503,-0.00023735,0.00
 000042,-0.00023948,-0.00019984,0.00017833,0.00002402,0.00011507,0.0000
 0656,0.00016390,-0.00004055,-0.00002420,-0.00001068,0.00019884,-0.0000
 2095,-0.00033478,-0.00012707,0.00013135,-0.00032575,0.00059681,-0.0005
 7455,-0.00079193,-0.00020886,-0.00103005,0.00831466,0.04656229,0.12874
 881,0.00327247,-0.13701567,0.00656771,0.00202673,-0.00564453,0.0002663
 4,-0.00235288,-0.00014467,0.00028589,0.00079557,0.00047331,-0.00032528
 ,-0.00037600,-0.00002427,0.00052680,-0.00012713,-0.00002471,-0.0001199
 5,-0.00006455,-0.00001661,0.00068561,0.00066031,0.00041561,0.00010196,
 0.00015942,-0.00017124,-0.00012726,-0.00011212,-0.00005918,-0.00002459
 ,0.00021363,0.00004042,0.00001562,0.00020064,-0.00004059,-0.00010131,-
 0.00011572,0.00012038,0.00024838,0.00022147,-0.00023018,-0.00241667,-0
 .00336048,0.00013928,-0.00004456,0.00219700,-0.00122162,-0.13691328,-0
 .00268379,0.14488518,-0.20077102,-0.06315507,-0.10788248,0.00502253,0.
 00356625,0.00453072,-0.00098915,0.00448084,0.00297244,0.00066478,-0.00
 152288,0.00055584,0.00096300,0.00078872,-0.00023774,-0.00098502,0.0007
 4741,0.00012876,0.00006631,-0.00001186,-0.00020496,-0.00034269,-0.0001
 3780,0.00029935,-0.00031380,-0.00021058,0.00020452,0.00010311,0.000219
 59,0.00000633,0.00004026,-0.00019172,-0.00001900,-0.00005623,-0.000134
 22,0.00001534,0.00004626,0.00005417,-0.00001975,-0.00014014,-0.0002239
 2,0.00015115,0.00129546,0.00213981,-0.00076462,-0.00269260,-0.00192349
 ,-0.00113849,-0.01586167,-0.00642208,-0.01352275,0.21718984,-0.0622878
 3,-0.06128665,-0.04112256,-0.01940911,-0.01656816,-0.01583837,-0.00127
 907,-0.00010285,0.00016605,-0.00003333,0.00012657,0.00043209,-0.000287
 19,-0.00005627,-0.00010524,-0.00046447,-0.00022587,0.00032515,0.000168
 69,-0.00056682,0.00054931,0.00311332,-0.00118152,-0.00152570,-0.000293
 73,0.00020426,-0.00036338,0.00010629,0.00021008,0.00001554,-0.00002967
 ,-0.00007703,-0.00004932,-0.00006115,0.00009258,-0.00000005,-0.0000282
 6,-0.00005899,-0.00001814,0.00006679,0.00018857,-0.00004194,-0.0000504
 5,-0.00118395,0.00045053,0.00132109,0.00152504,0.00010400,-0.00041166,
 -0.00130931,-0.00025296,0.06372100,0.07314909,-0.10664583,-0.04216503,
 -0.11768317,-0.00787313,-0.00347264,-0.00477305,-0.00048584,-0.0009935
 8,0.00093781,0.00011745,0.00023455,0.00007807,-0.00000426,-0.00015323,
 -0.00014598,-0.00017395,0.00015270,0.00034671,0.00011712,-0.00009159,0
 .00005085,0.00105908,-0.00041911,-0.00103177,0.00033197,0.00000347,0.0
 0003312,-0.00018101,-0.00000492,0.00008015,0.00003909,-0.00005623,-0.0
 0003746,0.00013352,-0.00006197,-0.00001333,-0.00003553,0.00019803,0.00
 001472,-0.00032048,-0.00017009,0.00021334,0.00000440,0.00038357,-0.000
 27024,-0.00102640,-0.00067561,0.00048610,0.01376021,0.00587166,0.01033
 042,0.11675163,0.04827958,0.12252036,-0.04293167,0.03271655,-0.0340096
 4,-0.00281946,0.00461503,-0.00299837,0.00031260,0.00148832,0.00148829,
 0.00007141,-0.00108602,0.00039134,0.00061135,0.00045343,-0.00014472,-0
 .00083974,0.00055597,0.00023381,0.00004522,-0.00004077,0.00001176,-0.0
 0075856,-0.00143927,-0.00097028,0.00099837,0.00021963,-0.00037438,-0.0
 0030971,-0.00036694,-0.00003240,-0.00002081,0.00024610,0.00006160,0.00
 019772,-0.00007481,-0.00000411,0.00009943,0.00013801,0.00004173,0.0000
 6751,0.00029261,0.00005066,-0.00080890,-0.00173092,0.00116862,-0.00482
 890,-0.00110925,-0.00236639,0.00395036,-0.01615554,0.01619047,-0.00322
 687,0.01572938,-0.01637285,0.05083810,0.03042674,-0.15798266,0.1303714
 9,0.00499974,-0.01803843,0.01491288,-0.00259993,0.00061413,-0.00032806
 ,-0.00008306,-0.00137751,-0.00076445,0.00111470,0.00014190,-0.00005671
 ,-0.00073381,0.00029798,-0.00113961,-0.00004616,-0.00022253,0.00009453
 ,0.00170754,-0.00216579,-0.00028978,0.00020951,0.00033804,0.00038080,-
 0.00010784,0.00002336,-0.00006005,0.00001528,0.00000527,0.00001159,0.0
 0000853,0.00014125,-0.00003599,-0.00008116,-0.00011428,0.00001620,0.00
 030087,0.00037840,-0.00028146,-0.00089041,-0.00241620,0.00105925,0.000
 88693,0.00237629,-0.00077392,0.00049815,-0.00055562,-0.00029020,-0.001
 67310,0.00641022,-0.00704523,-0.03441248,0.17201553,-0.02999038,0.1274
 2947,-0.17693885,0.00249414,-0.00776970,0.01207783,0.00054035,-0.00032
 403,-0.00030256,-0.00021279,0.00039432,-0.00011611,0.00012073,-0.00038
 509,0.00007555,-0.00003366,0.00001949,-0.00046874,-0.00003446,0.000005
 65,0.00002682,-0.00060076,-0.00122934,-0.00036553,-0.00002481,0.000048
 79,0.00011620,-0.00007198,-0.00009948,0.00001229,0.00002328,-0.0000071
 3,0.00001318,0.00005283,-0.00004201,-0.00001693,-0.00003500,0.00005890
 ,0.00008499,-0.00000241,-0.00000896,0.00026144,-0.00038981,0.00005368,
 -0.00041021,-0.00397430,-0.00208905,-0.00092061,-0.00470590,0.01060988
 ,-0.01150229,-0.00109803,0.00946046,-0.01070042,0.03794731,-0.13635582
 ,0.18927832,0.00014581,-0.00109181,-0.00167918,-0.01504631,-0.02356180
 ,0.00092783,-0.13327140,-0.12631600,0.01084802,0.00906069,0.01301747,-
 0.00045813,-0.00043764,0.00208730,0.00123749,0.00008009,0.00077049,-0.
 00026286,0.00009478,-0.00019346,-0.00006228,-0.00379092,0.00262700,0.0
 0201465,-0.00015514,-0.00120511,-0.00008163,-0.00034311,0.00027243,-0.
 00004815,0.00001353,-0.00005178,-0.00001710,-0.00001446,-0.00011541,-0
 .00001076,-0.00002257,-0.00000397,-0.00000013,-0.00000343,0.00008242,-
 0.00002433,-0.00006044,-0.00053715,0.00020263,0.00025442,0.00038865,-0
 .00007053,0.00043428,0.00014731,-0.00004544,-0.00000428,0.00042023,0.0
 0079802,-0.00051501,0.00040586,-0.00000142,0.14296022,0.00206634,0.000
 34089,-0.00075422,0.00424032,0.00285219,-0.00106226,-0.12672446,-0.231
 64102,0.00477150,-0.01700871,-0.01761543,0.00188851,0.00369889,-0.0032
 3890,-0.00171417,0.00052838,0.00047242,-0.00037011,-0.00017200,0.00001
 661,0.00018777,0.00077748,0.00022549,-0.00048393,0.00023442,0.00020634
 ,0.00019100,0.00001008,0.00004418,0.00004840,0.00000426,-0.00004913,-0
 .00002436,0.00001887,0.00001171,-0.00001265,-0.00004153,0.00002396,0.0
 0000004,-0.00003226,-0.00000945,-0.00000735,-0.00001504,-0.00009360,0.
 00001091,0.00002315,0.00008702,-0.00002680,0.00022170,0.00002314,0.000
 07357,0.00011113,0.00061181,0.00009948,-0.00002006,0.00013768,0.000245
 45,0.13262257,0.24741749,0.00095369,0.00219765,-0.00242235,-0.00284794
 ,0.00303435,0.00275026,0.01440428,0.00010670,-0.03438012,-0.00383310,0
 .00011602,0.00273013,0.00003720,-0.00192406,0.00568273,0.00332385,-0.0
 0170122,-0.00134114,-0.00047397,-0.00015995,-0.00033505,0.00257250,0.0
 0190718,0.00493284,0.00007286,0.00062991,0.00061656,0.00019033,-0.0002
 6496,-0.00014019,-0.00011780,0.00007565,0.00002299,0.00001481,0.000096
 91,-0.00005484,0.00000166,0.00001270,0.00000404,-0.00002024,-0.0000053
 2,-0.00002143,-0.00004044,0.00002504,0.00003427,-0.00003645,0.00000581
 ,-0.00004353,-0.00004279,-0.00032738,-0.00022920,-0.00041906,-0.000402
 27,-0.00033738,-0.00013321,0.00056707,-0.00007510,-0.01227641,-0.00408
 773,0.02497102,-0.00058927,-0.00011127,0.00005847,0.00157402,0.0020045
 5,0.00163093,-0.00769081,-0.00294035,0.00240692,-0.30593591,0.02074682
 ,0.06931550,-0.01055811,0.00486336,0.00282435,0.00149114,-0.00215046,0
 .00178246,-0.00108667,-0.00034166,0.00046260,0.00045486,-0.00002401,-0
 .00022458,0.00002825,0.00000144,-0.00023822,0.00003646,-0.00002426,0.0
 0001729,-0.00006149,0.00000661,-0.00008077,-0.00001298,-0.00001890,0.0
 0002009,-0.00000218,0.00000398,-0.00001371,-0.00002047,0.00002299,0.00
 001848,0.00004581,0.00000461,0.00000001,-0.00004009,-0.00004421,-0.000
 01906,-0.00006516,0.00021130,0.00005800,0.00001769,-0.00001393,-0.0000
 1854,-0.00004852,0.00007942,0.00004558,0.00045877,0.00018783,-0.001132
 85,0.32154346,0.00117844,0.00028286,-0.00013355,0.00114776,-0.00427666
 ,-0.00106721,0.02576808,0.00313768,-0.00594077,0.02086075,-0.05544026,
 -0.00465538,-0.02378234,0.00591956,0.00547526,-0.00093124,-0.00297570,
 0.00144671,-0.00175205,-0.00052834,0.00069567,-0.00034716,-0.00086592,
 0.00005181,0.00004739,0.00015015,-0.00004761,0.00006533,-0.00010098,-0
 .00000094,-0.00002994,0.00005717,-0.00002316,-0.00001019,0.00002914,0.
 00000988,-0.00000781,-0.00001699,0.00000311,0.00001628,0.00002111,-0.0
 0000468,-0.00011805,-0.00012757,0.00003158,0.00007607,0.00007522,-0.00
 001294,0.00009942,-0.00032900,-0.00013435,-0.00012412,0.00002996,0.000
 01182,0.00001541,-0.00009579,-0.00000655,-0.00028551,0.00089065,0.0003
 6617,-0.02235384,0.05330582,0.00004195,0.00043312,0.00015963,0.0005187
 8,-0.00194625,0.00582671,0.00296136,-0.00074956,0.00237484,0.06784449,
 -0.00475962,-0.05066936,0.00598782,0.00041725,0.00161869,0.00057520,0.
 00211851,0.00633999,0.00031580,-0.00006885,0.00002713,-0.00032221,0.00
 036341,-0.00054718,-0.00011309,-0.00003269,-0.00079786,0.00007697,-0.0
 0000735,0.00006879,-0.00010595,0.00000135,-0.00011995,-0.00001820,-0.0
 0001043,0.00003864,0.00003877,0.00000096,-0.00002546,-0.00001560,0.000
 03079,0.00005505,0.00000203,-0.00004156,0.00008210,0.00004890,-0.00007
 795,-0.00006344,-0.00006335,0.00004959,-0.00005852,-0.00004341,-0.0000
 7441,-0.00005545,-0.00006557,-0.00001555,0.00005147,-0.00079854,0.0005
 5586,-0.00332394,-0.07577645,0.00465452,0.04232305,0.00011047,0.000005
 81,-0.00002071,-0.00018589,-0.00075961,-0.00029692,-0.00125357,-0.0025
 4613,0.00194823,0.01037259,-0.01613463,0.00048253,-0.09371453,0.102720
 66,0.00061511,-0.00859829,0.02817694,-0.00205137,0.00228317,-0.0008514
 7,-0.00170635,-0.00431794,-0.00178038,0.00210408,-0.00014132,0.0012092
 6,-0.00011791,-0.00006171,0.00050435,0.00014889,0.00016162,-0.00039521
 ,-0.00006474,0.00007822,-0.00010629,-0.00003873,-0.00000327,0.00005762
 ,-0.00000347,-0.00003617,0.00010147,-0.00001380,-0.00032336,-0.0002524
 2,-0.00004757,0.00002800,0.00003565,0.00000958,0.00003079,-0.00001115,
 -0.00001831,-0.00003768,0.00003244,0.00004009,-0.00002096,0.00000719,-
 0.00003466,0.00023713,-0.00072636,-0.00024843,0.00048231,0.00047356,-0
 .00108627,0.09500044,0.00012799,0.00010490,-0.00013679,-0.00012435,0.0
 0052252,-0.00006974,-0.00372872,-0.00152211,0.00230619,0.01159499,-0.0
 1506259,-0.00000545,0.10501104,-0.27950840,0.01672506,-0.00294709,-0.0
 0201622,0.00214801,-0.00069812,0.00109867,-0.00067980,0.00034792,0.000
 52079,0.00037003,-0.00017066,-0.00008975,-0.00010769,0.00005019,-0.000
 13710,-0.00001925,-0.00005729,0.00012974,0.00001825,-0.00003167,0.0000
 2152,0.00001670,0.00002878,-0.00003638,-0.00000050,0.00003092,0.000002
 57,0.00000555,0.00002165,0.00009289,-0.00002490,-0.00000956,-0.0000216
 0,0.00001949,0.00005285,-0.00001256,0.00000190,-0.00006036,0.00002606,
 0.00005917,-0.00003819,0.00002213,-0.00000079,0.00050174,-0.00073354,-
 0.00025823,-0.00012887,0.00084947,-0.00084889,-0.10978822,0.29575965,0
 .00010826,0.00025898,0.00011922,0.00256300,0.00047995,-0.00186331,0.00
 154274,0.00208430,0.00515066,-0.00526575,0.00300361,0.00227907,0.00379
 319,0.02055935,-0.03348409,-0.00244763,-0.00264555,0.00536395,-0.00103
 226,-0.00168313,-0.00376837,0.00198255,-0.00177975,0.00392713,-0.00005
 397,-0.00059126,0.00041914,-0.00012238,0.00019634,0.00007991,0.0000533
 8,-0.00009403,-0.00011137,0.00002604,-0.00001817,-0.00002905,-0.000008
 22,0.00000982,0.00000504,0.00000880,-0.00011075,-0.00001229,0.00022483
 ,0.00018103,-0.00016230,-0.00009131,-0.00005295,0.00005184,-0.00000129
 ,0.00002551,0.00001368,-0.00026302,-0.00001704,0.00001061,-0.00005860,
 -0.00001825,-0.00008461,-0.00022018,0.00046453,0.00094151,-0.00116648,
 -0.00072498,-0.00330474,0.00039561,-0.01951413,0.02443583,0.00001263,-
 0.00002455,0.00002202,0.00016832,0.00008302,-0.00002421,-0.00013807,0.
 00004807,0.00000036,0.00000611,-0.00010979,-0.00003191,0.00014752,0.00
 004413,-0.00004098,0.00091171,0.00027739,0.00026714,-0.00198480,0.0004
 0684,-0.00152207,-0.00046587,0.00005946,-0.00002926,0.00069938,0.00367
 557,0.00217319,0.00909937,0.01252829,0.00096501,-0.28575376,-0.2429747
 9,0.00838091,0.00118081,0.00761183,0.00062662,-0.00125496,-0.00031160,
 -0.00084055,-0.00046179,0.00016230,0.00009185,0.00074671,-0.00053826,-
 0.00029920,-0.00024793,-0.00020452,-0.00006572,-0.00000193,-0.00000298
 ,0.00001264,-0.00001036,0.00000944,-0.00000172,-0.00000325,0.00000951,
 -0.00000289,-0.00000262,0.00000306,0.00001447,-0.00000612,-0.00000550,
 0.00000118,-0.00002793,0.00000025,0.00000362,0.27814483,0.00002909,0.0
 0003279,-0.00000703,-0.00004024,-0.00022495,0.00014688,0.00005231,-0.0
 0011519,-0.00000658,0.00019026,0.00007289,-0.00001392,-0.00016730,0.00
 004400,-0.00000562,0.00000335,0.00036484,-0.00000710,0.00047516,-0.000
 45273,0.00054088,0.00019272,0.00013382,-0.00011886,0.00445987,-0.00347
 666,-0.00095188,-0.02931036,-0.03837266,-0.00211320,-0.19447781,-0.217
 60108,-0.00979676,-0.00348212,0.00544739,0.00126857,-0.00009028,-0.001
 84569,0.00036698,0.00115700,0.00109120,-0.00021658,-0.00257553,-0.0001
 6076,-0.00030093,0.00059008,-0.00001122,0.00006286,-0.00002156,0.00000
 181,-0.00000791,0.00001689,0.00002024,0.00002549,-0.00002978,0.0000178
 1,0.00000259,0.00001462,0.00001885,-0.00001397,0.00002063,0.00000424,0
 .00000153,0.00003963,-0.00001717,-0.00001103,0.22163670,0.25445296,0.0
 0003138,-0.00000377,0.00003772,0.00006369,0.00008440,0.00003748,-0.000
 05809,0.00014332,-0.00008629,-0.00005105,-0.00011111,0.00004077,0.0002
 0884,0.00012230,-0.00004859,-0.00070785,-0.00083940,-0.00002187,-0.000
 76709,0.00077629,-0.00070133,-0.00038346,0.00037970,-0.00038709,0.0028
 4610,-0.00012697,0.00243384,-0.00979438,-0.01286677,-0.00244146,0.0201
 9249,0.00180236,-0.00902759,-0.00121464,-0.00077535,-0.00192108,0.0001
 4962,0.00081952,-0.00091406,-0.00089679,0.00000901,0.00013327,-0.00020
 837,-0.00102313,0.00137688,0.00022482,-0.00040304,-0.00007030,-0.00000
 673,-0.00002399,-0.00000943,0.00000687,0.00001039,-0.00000698,0.000006
 83,-0.00000698,0.00000381,0.00001032,0.00000114,0.00001228,0.00001877,
 0.00000781,-0.00000443,-0.00001284,0.00000212,0.00001550,-0.01071114,0
 .01136776,0.01083573,0.00000703,0.00002624,0.00000829,-0.00032264,0.00
 025987,-0.00005611,-0.00005271,-0.00011788,0.00000660,-0.00000278,-0.0
 0003757,0.00000025,0.00004277,0.00008092,-0.00003675,-0.00008636,-0.00
 044917,0.00020113,0.00016709,0.00028292,-0.00008511,-0.00004798,-0.001
 27189,-0.00015976,-0.00412838,0.00233942,0.00167047,-0.01278672,-0.024
 84789,0.00020347,0.00184346,-0.00161918,-0.00175547,-0.12422022,-0.119
 66316,0.01082362,0.01029330,0.01302253,-0.00077467,-0.00044028,0.00262
 133,0.00088224,-0.00062808,0.00107855,-0.00028130,0.00019832,-0.000080
 22,-0.00003527,0.00000515,0.00000149,-0.00000131,-0.00000427,-0.000010
 32,-0.00000121,-0.00000347,-0.00000884,0.00000118,-0.00004036,0.000000
 42,0.00003088,-0.00000528,0.00000377,-0.00000167,-0.00002265,0.0000063
 5,-0.00000099,-0.00067504,0.00143950,0.00102394,0.13001697,-0.00000184
 ,-0.00000124,-0.00000814,-0.00000187,0.00006925,0.00000259,-0.00003026
 ,0.00004265,-0.00001078,-0.00005608,-0.00004312,0.00001711,0.00002981,
 0.00001944,-0.00003435,-0.00018267,-0.00031632,0.00010385,0.00016851,0
 .00023156,-0.00008485,0.00019364,0.00005868,0.00012209,0.00041184,0.00
 089592,0.00020813,0.00520996,-0.00223596,-0.00195989,0.00211845,0.0044
 6050,0.00038919,-0.11954746,-0.23930035,0.00666030,-0.01656931,-0.0174
 9021,0.00119545,0.00394725,-0.00300701,-0.00085011,0.00103070,0.000377
 78,-0.00042757,-0.00034261,-0.00011049,0.00013392,0.00001019,0.0000018
 8,0.00002161,-0.00002104,-0.00000142,-0.00000780,0.00002152,0.00000758
 ,-0.00000374,-0.00000695,-0.00000399,0.00000543,-0.00000514,0.00000195
 ,0.00000561,-0.00001389,0.00000682,-0.00000143,-0.00227545,0.00030233,
 0.00051475,0.12671345,0.25581067,0.00001954,-0.00007488,0.00000478,0.0
 0011985,-0.00005266,-0.00011131,0.00001426,0.00007886,-0.00000977,-0.0
 0000824,-0.00000191,0.00000260,0.00000272,0.00000275,-0.00001326,-0.00
 013690,-0.00018488,0.00008941,0.00006436,0.00010484,-0.00011337,-0.000
 09720,0.00038369,0.00028989,0.00130345,0.00184389,0.00380987,-0.003867
 91,0.00206449,0.00291509,-0.00017400,0.00073179,-0.00354014,0.01422286
 ,0.00345744,-0.02725322,-0.00271247,0.00057918,0.00130732,-0.00013902,
 -0.00098234,0.00565542,0.00282487,-0.00124383,-0.00115661,-0.00040130,
 -0.00007931,-0.00019562,-0.00000670,-0.00001154,0.00003126,-0.00001618
 ,0.00001069,-0.00000507,-0.00000487,0.00002476,-0.00001104,0.00001859,
 -0.00000368,0.00000034,0.00000388,0.00000165,0.00000051,-0.00000470,0.
 00000099,0.00000285,0.00078751,-0.00001341,0.00058815,-0.01084044,-0.0
 0670669,0.02028667,-0.00001614,-0.00002626,-0.00001381,-0.00000198,-0.
 00001561,-0.00000424,0.00000453,-0.00001987,0.00001139,-0.00000189,0.0
 0000165,-0.00000754,-0.00000414,0.00002311,0.00001214,0.00003587,0.000
 04773,-0.00000624,-0.00006909,-0.00004580,-0.00002304,0.00008325,-0.00
 000509,-0.00012267,0.00030831,0.00002745,-0.00019239,0.00156326,0.0020
 9478,0.00100881,-0.00087602,0.00037785,0.00022412,-0.00850203,-0.00295
 890,0.00183962,-0.31833540,0.01372770,0.04650743,-0.01050063,0.0040829
 5,0.00174258,0.00139496,-0.00231011,0.00132003,-0.00108970,-0.00034020
 ,0.00025604,0.00001124,0.00000500,0.00003279,-0.00002910,0.00000648,-0
 .00001245,0.00001816,0.00002776,-0.00001115,-0.00000465,-0.00000392,0.
 00000400,-0.00000647,0.00000045,-0.00000013,-0.00000190,0.00000281,0.0
 0000489,-0.00001722,-0.00019930,-0.00003280,0.00056621,0.00000108,-0.0
 0079235,0.33483718,-0.00001283,-0.00001414,-0.00001613,0.00005758,-0.0
 0005179,0.00000381,-0.00000574,0.00001524,0.00000291,0.00001057,-0.000
 00927,-0.00000119,-0.00000132,0.00001861,-0.00000721,-0.00004856,-0.00
 006341,0.00002294,0.00001728,0.00003995,-0.00001060,-0.00004532,0.0001
 3145,-0.00003587,-0.00002252,-0.00068196,-0.00004474,0.00090063,-0.004
 12667,-0.00034054,0.00151274,-0.00040907,-0.00044562,0.02564569,0.0030
 5105,-0.00395840,0.01347010,-0.05410975,-0.00082236,-0.02439386,0.0057
 0624,0.00345006,-0.00099628,-0.00307714,0.00132542,-0.00184372,-0.0006
 7062,0.00047693,0.00000350,0.00000460,0.00002640,-0.00002508,0.0000135
 6,-0.00000673,0.00002526,0.00003168,-0.00000452,0.00000434,0.00000097,
 0.00000027,0.00000026,0.00000135,0.00000120,-0.00000315,-0.00000019,-0
 .00000196,0.00002999,0.00021435,0.00007106,-0.00032330,0.00099416,0.00
 019430,-0.01449623,0.05213135,-0.00004040,-0.00011011,-0.00001942,0.00
 005154,0.00001111,0.00008473,0.00000540,-0.00004751,0.00003755,0.00004
 520,0.00000902,-0.00002552,-0.00001669,0.00002843,0.00002994,0.0001012
 6,0.00010729,0.00004876,-0.00012684,-0.00009761,-0.00007737,-0.0000167
 3,-0.00004834,-0.00055475,-0.00020629,0.00050114,-0.00090631,0.0000651
 9,-0.00097741,0.00644223,-0.00023934,0.00027218,0.00003969,0.00176943,
 -0.00130202,0.00275571,0.04590725,-0.00049536,-0.04078247,0.00425697,0
 .00035965,0.00250013,0.00054190,0.00146733,0.00614252,0.00016738,0.000
 11475,0.00000203,0.00000249,0.00000204,0.00000387,-0.00000738,0.000003
 96,-0.00001479,-0.00004931,0.00001990,-0.00005264,0.00000112,0.0000056
 8,0.00000438,0.00000040,-0.00000019,-0.00000191,0.00000041,-0.00000408
 ,0.00000176,0.00000573,-0.00005774,0.00002635,-0.00061438,0.00027691,-
 0.00364496,-0.05092648,0.00080470,0.03140752,-0.00004283,-0.00001910,0
 .00006193,0.00005719,0.00019205,0.00004542,-0.00000015,-0.00007519,-0.
 00001338,-0.00000165,-0.00000068,-0.00000317,0.00000386,0.00013267,-0.
 00002251,-0.00039663,-0.00025138,-0.00000850,0.00004107,0.00003209,0.0
 0000286,0.00004718,0.00126368,-0.00013803,-0.00452992,-0.00179780,0.00
 143309,-0.00054497,-0.00095092,-0.00023359,0.00022501,0.00002346,-0.00
 005597,-0.00133389,-0.00261280,0.00122724,0.01080150,-0.01587253,0.000
 91011,-0.09980088,0.10671630,-0.00464728,-0.00896545,0.02767163,-0.003
 23457,0.00253404,-0.00038088,-0.00106642,0.00000363,0.00005208,-0.0000
 8031,0.00005565,-0.00003499,0.00000062,-0.00007437,-0.00006094,-0.0000
 0100,-0.00002738,-0.00000453,0.00000212,-0.00000323,-0.00000496,-0.000
 00280,-0.00003756,0.00000561,0.00002517,-0.00006575,0.00007646,0.00006
 156,0.00032689,-0.00080183,-0.00017961,0.00063340,0.00053998,-0.000677
 85,0.10109524,0.00001336,-0.00001120,-0.00001508,-0.00000671,-0.000041
 19,0.00001723,0.00001552,-0.00000449,-0.00000171,0.00001987,0.00000938
 ,-0.00000395,-0.00000524,-0.00000349,0.00000306,0.00002045,0.00007318,
 -0.00004345,-0.00001211,-0.00002369,0.00002141,-0.00016117,0.00001625,
 -0.00001646,-0.00004618,0.00054692,0.00029215,-0.00020470,0.00032911,-
 0.00000698,0.00011976,0.00021686,-0.00007897,-0.00372180,-0.00158986,0
 .00173704,0.01214038,-0.01520377,0.00086357,0.10904781,-0.27603762,0.0
 2423609,-0.00312225,-0.00115020,0.00149487,-0.00064716,0.00110213,-0.0
 0070884,-0.00001339,-0.00000214,0.00000738,-0.00000847,0.00001082,0.00
 000423,-0.00001319,0.00000957,-0.00000250,0.00000653,0.00000363,-0.000
 00178,0.00000310,0.00000087,-0.00000059,0.00000433,-0.00000014,0.00000
 097,-0.00013842,0.00005862,0.00006857,0.00055264,-0.00077107,-0.000124
 21,-0.00000551,0.00085943,-0.00084374,-0.11383745,0.29160208,-0.000098
 93,-0.00005032,0.00011222,0.00000651,0.00003189,0.00003244,-0.00002802
 ,-0.00002145,-0.00004388,0.00000862,-0.00001710,0.00000664,0.00000999,
 -0.00008161,-0.00005549,0.00016694,0.00024142,-0.00020341,-0.00014950,
 -0.00007846,0.00006504,-0.00000660,-0.00027762,0.00071760,0.00098884,-
 0.00127098,0.00389066,0.00253829,0.00060545,-0.00149783,-0.00056830,-0
 .00005666,-0.00016534,0.00061223,0.00154933,0.00508568,-0.00396130,0.0
 0157479,0.00107766,-0.00217831,0.02755450,-0.03039884,-0.00265062,-0.0
 0099963,0.00403304,-0.00050237,-0.00145126,-0.00407750,-0.00000728,0.0
 0002901,-0.00006072,0.00001393,0.00000364,-0.00002720,-0.00000774,0.00
 000359,-0.00003626,-0.00000160,0.00000341,0.00000092,0.00000691,-0.000
 00369,0.00000563,0.00002225,-0.00000322,0.00000246,0.00021741,-0.00014
 101,0.00009873,-0.00020764,0.00043841,0.00107023,-0.00081856,-0.000684
 14,-0.00344700,0.00659486,-0.02689831,0.02381452\\0.00000728,0.0000055
 2,-0.00000592,0.00000445,-0.00000190,0.00000171,-0.00000136,-0.0000005
 7,0.00000498,-0.00000044,-0.00000242,-0.00000223,0.00000253,0.00000020
 ,0.00000441,0.00000255,-0.00000144,-0.00000578,0.00001464,0.00000192,0
 .00000442,0.00000005,0.00000053,0.00001476,-0.00000099,-0.00001311,-0.
 00002374,0.00000127,0.00000082,0.00000795,-0.00001992,0.00001845,-0.00
 000688,-0.00000262,-0.00000062,-0.00000213,0.00000068,-0.00000199,0.00
 000119,0.00000123,-0.00000057,-0.00000489,-0.00000224,0.00000171,0.000
 00001,-0.00001607,-0.00000569,0.00000660,0.00000394,-0.00000036,0.0000
 0262,0.00000226,0.00000005,-0.00000039,0.00000237,-0.00000091,0.000003
 00,0.00000027,-0.00000049,0.00000098,0.00000025,-0.00000040,0.00000122
 ,0.00000003,-0.00000025,-0.00000081,0.00000002,0.00000039,0.00000072,-
 0.00000041,0.00000053,-0.00000088,-0.00000002,0.00000036,-0.00000066,0
 .00000025,0.00000027,-0.00000027\\\@
 The archive entry for this job was punched.


 Children are likely to live up to what you believe of them.
 -- Lady Bird Johnson
 Job cpu time:       0 days  0 hours 22 minutes 41.9 seconds.
 Elapsed time:       0 days  0 hours  2 minutes 54.4 seconds.
 File lengths (MBytes):  RWF=    233 Int=      0 D2E=      0 Chk=      8 Scr=      1
 Normal termination of Gaussian 16 at Wed Dec  3 11:55:22 2025.
