%mem=12000MB
%nprocshared=8
# opt=(TS,recalcFC=15,noeigentest) freq bp86 def2svp empiricaldispersion=GD3BJ

 g_opt_ts_confs.log

0  1
C           1.35203         2.57539         0.52803
C           1.65054         1.16414         0.04296
C           3.01003         0.97720        -0.29247
C           3.59798        -0.28194        -0.44970
C           2.83162        -1.39593        -0.10251
C           1.48362        -1.22257         0.22748
F           0.91749        -2.30975         0.79204
C           0.75853         0.01557         0.07940
C          -0.74171         0.01044        -0.02322
C          -1.59673        -1.17787        -0.15877
O          -1.13994        -2.41331        -0.54161
C          -2.99570        -1.09158         0.03701
C          -3.66395         0.12537         0.16580
C          -2.91604         1.29834         0.03959
C          -1.52832         1.20719        -0.10231
F          -0.93639         2.39103        -0.37640
H           0.54809         2.60500         1.28348
H           2.27299         2.96011         1.01096
H           1.08414         3.28216        -0.28046
H           3.64067         1.87750        -0.36813
H           4.65616        -0.38536        -0.73346
H           3.25178        -2.40910        -0.02185
H          -1.91925        -2.99839        -0.58479
H          -3.57019        -2.03431         0.02368
H          -4.75463         0.15712         0.30518
H          -3.37160         2.29786         0.00971

