%mem=12000MB
%nprocshared=8
# opt=(TS,recalcFC=15,noeigentest) freq bp86 def2svp empiricaldispersion=GD3BJ

example

0 1
C 1.256226 2.549328 0.648956
C 1.597651 1.179874 0.08198
C 2.95586 1.056502 -0.287665
C 3.592866 -0.171464 -0.491422
C 2.873044 -1.324515 -0.164697
C 1.52793 -1.191196 0.169786
F 0.9849 -2.342544 0.713166
C 0.74118 0.000958 0.084549
C -0.760405 -0.017283 0.021495
C -1.600622 -1.204388 -0.099611
O -1.190431 -2.446561 -0.435552
C -3.010232 -1.128917 0.023156
C -3.682404 0.086725 0.097577
C -2.934574 1.265192 -0.01684
C -1.54545 1.178265 -0.109502
F -0.948453 2.348097 -0.424221
H 1.030458 3.309147 -0.123083
H 0.410018 2.520548 1.356653
H 2.145415 2.901365 1.211193
H 3.548809 1.983505 -0.345234
H 4.650068 -0.226269 -0.790206
H 3.329852 -2.323155 -0.110307
H -0.266598 -2.609669 -0.151773
H -3.546417 -2.088251 -0.000911
H -4.778716 0.120348 0.186332
H -3.393894 2.260453 -0.095322

