      -----------------------------------------------------------      
     |                   =====================                   |     
     |                           x T B                           |     
     |                   =====================                   |     
     |                         S. Grimme                         |     
     |          Mulliken Center for Theoretical Chemistry        |     
     |                    University of Bonn                     |     
      -----------------------------------------------------------      

   * xtb version 6.6.1 (8d0f1dd) compiled by 'stahn@M-Bot' on 2023-08-01

   xtb is free software: you can redistribute it and/or modify it under
   the terms of the GNU Lesser General Public License as published by
   the Free Software Foundation, either version 3 of the License, or
   (at your option) any later version.
   
   xtb is distributed in the hope that it will be useful,
   but WITHOUT ANY WARRANTY; without even the implied warranty of
   MERCHANTABILITY or FITNESS FOR A PARTICULAR PURPOSE.  See the
   GNU Lesser General Public License for more details.
   
   Cite this work as:
   * C. Bannwarth, E. Caldeweyher, S. Ehlert, A. Hansen, P. Pracht,
     J. Seibert, S. Spicher, S. Grimme, WIREs Comput. Mol. Sci., 2020, 11,
     e01493. DOI: 10.1002/wcms.1493
   
   for GFN2-xTB:
   * C. Bannwarth, S. Ehlert and S. Grimme., J. Chem. Theory Comput., 2019,
     15, 1652-1671. DOI: 10.1021/acs.jctc.8b01176
   for GFN1-xTB:
   * S. Grimme, C. Bannwarth, P. Shushkov, J. Chem. Theory Comput., 2017,
     13, 1989-2009. DOI: 10.1021/acs.jctc.7b00118
   for GFN0-xTB:
   * P. Pracht, E. Caldeweyher, S. Ehlert, S. Grimme, ChemRxiv, 2019, preprint.
     DOI: 10.26434/chemrxiv.8326202.v1
   for GFN-FF:
   * S. Spicher and S. Grimme, Angew. Chem. Int. Ed., 2020, 59, 15665-15673.
     DOI: 10.1002/anie.202004239
   
   for ALPB and GBSA implicit solvation:
   * S. Ehlert, M. Stahn, S. Spicher, S. Grimme, J. Chem. Theory Comput.,
     2021, 17, 4250-4261. DOI: 10.1021/acs.jctc.1c00471
   
   for DFT-D4:
   * E. Caldeweyher, C. Bannwarth and S. Grimme, J. Chem. Phys., 2017,
     147, 034112. DOI: 10.1063/1.4993215
   * E. Caldeweyher, S. Ehlert, A. Hansen, H. Neugebauer, S. Spicher,
     C. Bannwarth and S. Grimme, J. Chem. Phys., 2019, 150, 154122.
     DOI: 10.1063/1.5090222
   * E. Caldeweyher, J.-M. Mewes, S. Ehlert and S. Grimme, Phys. Chem. Chem. Phys.
     2020, 22, 8499-8512. DOI: 10.1039/D0CP00502A
   
   for sTDA-xTB:
   * S. Grimme and C. Bannwarth, J. Chem. Phys., 2016, 145, 054103.
     DOI: 10.1063/1.4959605
   
   in the mass-spec context:
   * V. Asgeirsson, C. Bauer and S. Grimme, Chem. Sci., 2017, 8, 4879.
     DOI: 10.1039/c7sc00601b
   * J. Koopman and S. Grimme, ACS Omega 2019, 4, 12, 15120-15133.
     DOI: 10.1021/acsomega.9b02011
   
   for metadynamics refer to:
   * S. Grimme, J. Chem. Theory Comput., 2019, 155, 2847-2862
     DOI: 10.1021/acs.jctc.9b00143
   
   for SPH calculations refer to:
   * S. Spicher and S. Grimme, J. Chem. Theory Comput., 2021, 17, 1701-1714
     DOI: 10.1021/acs.jctc.0c01306
   
   with help from (in alphabetical order)
   P. Atkinson, C. Bannwarth, F. Bohle, G. Brandenburg, E. Caldeweyher
   M. Checinski, S. Dohm, S. Ehlert, S. Ehrlich, I. Gerasimov, C. Hölzer
   A. Katbashev, J. Koopman, C. Lavigne, S. Lehtola, F. März, M. Müller,
   F. Musil, H. Neugebauer, J. Pisarek, C. Plett, P. Pracht, F. Pultar,
   J. Seibert, P. Shushkov, S. Spicher, M. Stahn, M. Steiner, T. Strunk,
   J. Stückrath, T. Rose, and J. Unsleber
   
 * started run on 2025/08/28 at 10:02:14.297     

           -------------------------------------------------
          |                Calculation Setup                |
           -------------------------------------------------

          program call               : /path/to/xtb /path/to/19.xyz --opt --etemp 298.15 --chrg 0 --uhf 0 -P 4
          hostname                   : semlscpn101
          coordinate file            : /path/to/19.xyz
          omp threads                :                     4

   ID    Z sym.   atoms
    1    6 C      1-6, 8-10, 12-15
    2    9 F      7, 16
    3    8 O      11
    4    1 H      17-26

           -------------------------------------------------
          |                 G F N 2 - x T B                 |
           -------------------------------------------------

        Reference                      10.1021/acs.jctc.8b01176
      * Hamiltonian:
        H0-scaling (s, p, d)           1.850000    2.230000    2.230000
        zeta-weighting                 0.500000
      * Dispersion:
        s8                             2.700000
        a1                             0.520000
        a2                             5.000000
        s9                             5.000000
      * Repulsion:
        kExp                           1.500000    1.000000
        rExp                           1.000000
      * Coulomb:
        alpha                          2.000000
        third order                    shell-resolved
        anisotropic                    true
        a3                             3.000000
        a5                             4.000000
        cn-shift                       1.200000
        cn-exp                         4.000000
        max-rad                        5.000000


          ...................................................
          :                      SETUP                      :
          :.................................................:
          :  # basis functions                  74          :
          :  # atomic orbitals                  74          :
          :  # shells                           42          :
          :  # electrons                        82          :
          :  max. iterations                   250          :
          :  Hamiltonian                  GFN2-xTB          :
          :  restarted?                      false          :
          :  GBSA solvation                  false          :
          :  PC potential                    false          :
          :  electronic temp.          298.1500000     K    :
          :  accuracy                    1.0000000          :
          :  -> integral cutoff          0.2500000E+02      :
          :  -> integral neglect         0.1000000E-07      :
          :  -> SCF convergence          0.1000000E-05 Eh   :
          :  -> wf. convergence          0.1000000E-03 e    :
          :  Broyden damping             0.4000000          :
          ...................................................

 iter      E             dE          RMSdq      gap      omega  full diag
   1    -47.0614414 -0.470614E+02  0.434E+00    4.42       0.0  T
   2    -47.0991391 -0.376978E-01  0.262E+00    4.35       1.0  T
   3    -47.0928583  0.628089E-02  0.142E+00    4.33       1.0  T
   4    -47.1122901 -0.194319E-01  0.242E-01    4.36       1.0  T
   5    -47.1126345 -0.344347E-03  0.107E-01    4.36       1.0  T
   6    -47.1128858 -0.251299E-03  0.471E-02    4.36       1.0  T
   7    -47.1129013 -0.155400E-04  0.172E-02    4.36       1.1  T
   8    -47.1129035 -0.219289E-05  0.733E-03    4.36       2.7  T
   9    -47.1129039 -0.347423E-06  0.174E-03    4.36      11.3  T
  10    -47.1129039 -0.149586E-07  0.761E-04    4.36      25.8  T
  11    -47.1129039 -0.194951E-08  0.394E-04    4.36      49.8  T

   *** convergence criteria satisfied after 11 iterations ***

         #    Occupation            Energy/Eh            Energy/eV
      -------------------------------------------------------------
         1        2.0000           -0.8123438             -22.1050
       ...           ...                  ...                  ...
        35        2.0000           -0.4520565             -12.3011
        36        2.0000           -0.4441475             -12.0859
        37        2.0000           -0.4254816             -11.5779
        38        2.0000           -0.4104811             -11.1698
        39        2.0000           -0.4045040             -11.0071
        40        2.0000           -0.4002871             -10.8924
        41        2.0000           -0.3974761             -10.8159 (HOMO)
        42                         -0.2371671              -6.4536 (LUMO)
        43                         -0.2301381              -6.2624
        44                         -0.2276218              -6.1939
        45                         -0.2257128              -6.1420
        46                         -0.1035484              -2.8177
       ...                                ...                  ...
        74                          0.6959726              18.9384
      -------------------------------------------------------------
                  HL-Gap            0.1603090 Eh            4.3622 eV
             Fermi-level           -0.3173216 Eh           -8.6348 eV

 SCC (total)                   0 d,  0 h,  0 min,  0.176 sec
 SCC setup                      ...        0 min,  0.000 sec (  0.165%)
 Dispersion                     ...        0 min,  0.001 sec (  0.289%)
 classical contributions        ...        0 min,  0.000 sec (  0.076%)
 integral evaluation            ...        0 min,  0.005 sec (  2.954%)
 iterations                     ...        0 min,  0.155 sec ( 88.032%)
 molecular gradient             ...        0 min,  0.015 sec (  8.287%)
 printout                       ...        0 min,  0.000 sec (  0.183%)

         :::::::::::::::::::::::::::::::::::::::::::::::::::::
         ::                     SUMMARY                     ::
         :::::::::::::::::::::::::::::::::::::::::::::::::::::
         :: total energy             -46.452357668197 Eh    ::
         :: gradient norm              0.080653720754 Eh/a0 ::
         :: HOMO-LUMO gap              4.362229870708 eV    ::
         ::.................................................::
         :: SCC energy               -47.112903871544 Eh    ::
         :: -> isotropic ES            0.047840884267 Eh    ::
         :: -> anisotropic ES          0.002681685294 Eh    ::
         :: -> anisotropic XC          0.007680292047 Eh    ::
         :: -> dispersion             -0.027602780037 Eh    ::
         :: repulsion energy           0.660291520456 Eh    ::
         :: add. restraining           0.000000000000 Eh    ::
         :: total charge               0.000000000000 e     ::
         :::::::::::::::::::::::::::::::::::::::::::::::::::::

      ----------------------------------------------------------- 
     |                   =====================                   |
     |                        A N C O P T                        |
     |                   =====================                   |
     |               Approximate Normal Coordinate               |
     |                Rational Function Optimizer                |
      ----------------------------------------------------------- 

          ...................................................
          :                      SETUP                      :
          :.................................................:
          :   optimization level            normal          :
          :   max. optcycles                   200          :
          :   ANC micro-cycles                  20          :
          :   degrees of freedom                72          :
          :.................................................:
          :   RF solver                   davidson          :
          :   write xtbopt.log                true          :
          :   linear?                        false          :
          :   energy convergence         0.5000000E-05 Eh   :
          :   grad. convergence          0.1000000E-02 Eh/α :
          :   maxmium RF displ.          1.0000000          :
          :   Hlow (freq-cutoff)         0.1000000E-01      :
          :   Hmax (freq-cutoff)         5.0000000          :
          :   S6 in model hess.         20.0000000          :
          ...................................................

generating ANC from model Hessian ...
Using Lindh-Hessian (1995)
 Shifting diagonal of input Hessian by   8.696173349094300E-003
 Lowest  eigenvalues of input Hessian
    0.000000    0.000000    0.000000    0.000000    0.000000    0.000000
    0.010000    0.010619    0.010840    0.014077    0.015201    0.017506
    0.021238    0.022456    0.025548    0.029890    0.031213    0.032481
 Highest eigenvalues
    1.932745    1.944489    2.063067    2.127665    2.132076    2.187539
 

........................................................................
.............................. CYCLE    1 ..............................
........................................................................

 iter      E             dE          RMSdq      gap      omega  full diag
   1    -47.1129039 -0.471129E+02  0.107E-04    4.36       0.0  T
   2    -47.1129039 -0.241869E-10  0.647E-05    4.36     303.0  T
   3    -47.1129039  0.305533E-11  0.382E-05    4.36     513.8  T
     SCC iter.                  ...        0 min,  0.012 sec
     gradient                   ...        0 min,  0.014 sec
 * total energy  :   -46.4523577 Eh     change       -0.1666947E-08 Eh
   gradient norm :     0.0806540 Eh/α   predicted     0.0000000E+00 (-100.00%)
   displ. norm   :     0.2615119 α      lambda       -0.1403167E-01
   maximum displ.:     0.1142075 α      in ANC's #40, #17, #14, ...

........................................................................
.............................. CYCLE    2 ..............................
........................................................................

 iter      E             dE          RMSdq      gap      omega  full diag
   1    -47.1168418 -0.471168E+02  0.233E-01    4.28       0.0  T
   2    -47.1170053 -0.163490E-03  0.146E-01    4.32       1.0  T
   3    -47.1169919  0.133837E-04  0.708E-02    4.32       1.0  T
   4    -47.1170320 -0.401043E-04  0.182E-02    4.32       1.1  T
   5    -47.1170354 -0.343599E-05  0.453E-03    4.32       4.3  T
   6    -47.1170356 -0.216106E-06  0.239E-03    4.32       8.2  T
   7    -47.1170357 -0.456950E-07  0.104E-03    4.32      18.8  T
   8    -47.1170357 -0.860653E-08  0.419E-04    4.32      46.8  T
   9    -47.1170357 -0.313756E-08  0.114E-04    4.32     172.5  T
     SCC iter.                  ...        0 min,  0.033 sec
     gradient                   ...        0 min,  0.014 sec
 * total energy  :   -46.4622810 Eh     change       -0.9923313E-02 Eh
   gradient norm :     0.0335608 Eh/α   predicted    -0.7496035E-02 ( -24.46%)
   displ. norm   :     0.2345683 α      lambda       -0.4908260E-02
   maximum displ.:     0.0817971 α      in ANC's #40, #11, #14, ...

........................................................................
.............................. CYCLE    3 ..............................
........................................................................

 iter      E             dE          RMSdq      gap      omega  full diag
   1    -47.1184037 -0.471184E+02  0.186E-01    4.27       0.0  T
   2    -47.1185061 -0.102359E-03  0.113E-01    4.31       1.0  T
   3    -47.1184991  0.697505E-05  0.577E-02    4.30       1.0  T
   4    -47.1185239 -0.247248E-04  0.142E-02    4.31       1.4  T
   5    -47.1185257 -0.181627E-05  0.373E-03    4.31       5.3  T
   6    -47.1185257 -0.742767E-07  0.208E-03    4.31       9.4  T
   7    -47.1185258 -0.298064E-07  0.948E-04    4.31      20.7  T
   8    -47.1185258 -0.507127E-08  0.371E-04    4.31      52.8  T
     SCC iter.                  ...        0 min,  0.029 sec
     gradient                   ...        0 min,  0.013 sec
 * total energy  :   -46.4651303 Eh     change       -0.2849299E-02 Eh
   gradient norm :     0.0151506 Eh/α   predicted    -0.2589318E-02 (  -9.12%)
   displ. norm   :     0.1184992 α      lambda       -0.5466267E-03
   maximum displ.:     0.0499469 α      in ANC's #5, #11, #3, ...

........................................................................
.............................. CYCLE    4 ..............................
........................................................................

 iter      E             dE          RMSdq      gap      omega  full diag
   1    -47.1183718 -0.471184E+02  0.528E-02    4.31       0.0  T
   2    -47.1183756 -0.381169E-05  0.312E-02    4.31       1.0  T
   3    -47.1183741  0.148398E-05  0.140E-02    4.31       1.4  T
   4    -47.1183765 -0.237984E-05  0.283E-03    4.31       6.9  T
   5    -47.1183766 -0.719653E-07  0.104E-03    4.31      18.8  T
   6    -47.1183766 -0.827669E-09  0.554E-04    4.31      35.4  T
   7    -47.1183766 -0.314863E-08  0.236E-04    4.31      83.1  T
     SCC iter.                  ...        0 min,  0.026 sec
     gradient                   ...        0 min,  0.014 sec
 * total energy  :   -46.4655319 Eh     change       -0.4015790E-03 Eh
   gradient norm :     0.0139520 Eh/α   predicted    -0.2771526E-03 ( -30.98%)
   displ. norm   :     0.1490365 α      lambda       -0.5155507E-03
   maximum displ.:     0.0732415 α      in ANC's #5, #3, #6, ...

........................................................................
.............................. CYCLE    5 ..............................
........................................................................

 iter      E             dE          RMSdq      gap      omega  full diag
   1    -47.1193914 -0.471194E+02  0.535E-02    4.32       0.0  T
   2    -47.1193931 -0.172086E-05  0.319E-02    4.32       1.0  T
   3    -47.1193904  0.269922E-05  0.119E-02    4.32       1.6  T
   4    -47.1193938 -0.345221E-05  0.183E-03    4.32      10.7  T
   5    -47.1193939 -0.225085E-07  0.947E-04    4.32      20.7  T
   6    -47.1193939 -0.595526E-08  0.482E-04    4.32      40.7  T
     SCC iter.                  ...        0 min,  0.022 sec
     gradient                   ...        0 min,  0.015 sec
 * total energy  :   -46.4658752 Eh     change       -0.3433720E-03 Eh
   gradient norm :     0.0080413 Eh/α   predicted    -0.2635083E-03 ( -23.26%)
   displ. norm   :     0.1311685 α      lambda       -0.2298981E-03
   maximum displ.:     0.0702080 α      in ANC's #3, #5, #6, ...

........................................................................
.............................. CYCLE    6 ..............................
........................................................................

 iter      E             dE          RMSdq      gap      omega  full diag
   1    -47.1196047 -0.471196E+02  0.398E-02    4.32       0.0  T
   2    -47.1196058 -0.106167E-05  0.244E-02    4.32       1.0  T
   3    -47.1196043  0.151801E-05  0.943E-03    4.32       2.1  T
   4    -47.1196063 -0.200261E-05  0.134E-03    4.32      14.6  T
   5    -47.1196063 -0.912281E-08  0.725E-04    4.32      27.1  T
   6    -47.1196063 -0.268586E-08  0.360E-04    4.32      54.5  T
     SCC iter.                  ...        0 min,  0.023 sec
     gradient                   ...        0 min,  0.014 sec
 * total energy  :   -46.4660362 Eh     change       -0.1609946E-03 Eh
   gradient norm :     0.0084728 Eh/α   predicted    -0.1169428E-03 ( -27.36%)
   displ. norm   :     0.1393673 α      lambda       -0.2372286E-03
   maximum displ.:     0.0883479 α      in ANC's #3, #6, #5, ...

........................................................................
.............................. CYCLE    7 ..............................
........................................................................

 iter      E             dE          RMSdq      gap      omega  full diag
   1    -47.1211198 -0.471211E+02  0.440E-02    4.33       0.0  T
   2    -47.1211219 -0.217783E-05  0.259E-02    4.32       1.0  T
   3    -47.1211207  0.121760E-05  0.106E-02    4.32       1.9  T
   4    -47.1211225 -0.178886E-05  0.220E-03    4.32       8.9  T
   5    -47.1211225 -0.407820E-07  0.933E-04    4.32      21.0  T
   6    -47.1211226 -0.503982E-08  0.550E-04    4.32      35.6  T
     SCC iter.                  ...        0 min,  0.023 sec
     gradient                   ...        0 min,  0.014 sec
 * total energy  :   -46.4661598 Eh     change       -0.1236201E-03 Eh
   gradient norm :     0.0064327 Eh/α   predicted    -0.1209192E-03 (  -2.18%)
   displ. norm   :     0.1426291 α      lambda       -0.1261617E-03
   maximum displ.:     0.0966457 α      in ANC's #3, #6, #5, ...

........................................................................
.............................. CYCLE    8 ..............................
........................................................................

 iter      E             dE          RMSdq      gap      omega  full diag
   1    -47.1198465 -0.471198E+02  0.482E-02    4.32       0.0  T
   2    -47.1198471 -0.546344E-06  0.292E-02    4.32       1.0  T
   3    -47.1198467  0.351389E-06  0.531E-03    4.32       3.7  T
   4    -47.1198474 -0.665247E-06  0.174E-03    4.32      11.2  T
   5    -47.1198474 -0.494820E-08  0.766E-04    4.32      25.6  T
   6    -47.1198474 -0.497943E-08  0.323E-04    4.32      60.7  T
     SCC iter.                  ...        0 min,  0.023 sec
     gradient                   ...        0 min,  0.014 sec
 * total energy  :   -46.4662034 Eh     change       -0.4356331E-04 Eh
   gradient norm :     0.0058574 Eh/α   predicted    -0.6436946E-04 (  47.76%)
   displ. norm   :     0.0395953 α      lambda       -0.6895239E-04
   maximum displ.:     0.0258634 α      in ANC's #5, #4, #3, ...

........................................................................
.............................. CYCLE    9 ..............................
........................................................................

 iter      E             dE          RMSdq      gap      omega  full diag
   1    -47.1206473 -0.471206E+02  0.191E-02    4.31       0.0  T
   2    -47.1206476 -0.335737E-06  0.115E-02    4.32       1.7  T
   3    -47.1206473  0.351214E-06  0.488E-03    4.32       4.0  T
   4    -47.1206478 -0.498408E-06  0.889E-04    4.32      22.1  T
   5    -47.1206478 -0.464548E-08  0.486E-04    4.32      40.4  T
     SCC iter.                  ...        0 min,  0.019 sec
     gradient                   ...        0 min,  0.014 sec
 * total energy  :   -46.4662495 Eh     change       -0.4607371E-04 Eh
   gradient norm :     0.0017349 Eh/α   predicted    -0.3453209E-04 ( -25.05%)
   displ. norm   :     0.1505716 α      lambda       -0.4704983E-04
   maximum displ.:     0.1101367 α      in ANC's #3, #6, #1, ...

........................................................................
.............................. CYCLE   10 ..............................
........................................................................

 iter      E             dE          RMSdq      gap      omega  full diag
   1    -47.1206379 -0.471206E+02  0.546E-02    4.31       0.0  T
   2    -47.1206387 -0.742188E-06  0.325E-02    4.31       1.0  T
   3    -47.1206371  0.154072E-05  0.824E-03    4.31       2.4  T
   4    -47.1206390 -0.187516E-05  0.130E-03    4.31      15.1  T
   5    -47.1206390 -0.774906E-08  0.696E-04    4.31      28.2  T
   6    -47.1206390 -0.474419E-08  0.309E-04    4.31      63.6  T
     SCC iter.                  ...        0 min,  0.023 sec
     gradient                   ...        0 min,  0.014 sec
 * total energy  :   -46.4662952 Eh     change       -0.4567604E-04 Eh
   gradient norm :     0.0039151 Eh/α   predicted    -0.2379742E-04 ( -47.90%)
   displ. norm   :     0.1336496 α      lambda       -0.4568941E-04
   maximum displ.:     0.0993027 α      in ANC's #3, #6, #1, ...

........................................................................
.............................. CYCLE   11 ..............................
........................................................................

 iter      E             dE          RMSdq      gap      omega  full diag
   1    -47.1204831 -0.471205E+02  0.449E-02    4.31       0.0  T
   2    -47.1204834 -0.240660E-06  0.266E-02    4.31       1.0  T
   3    -47.1204828  0.611554E-06  0.480E-03    4.31       4.1  T
   4    -47.1204835 -0.745034E-06  0.815E-04    4.31      24.1  T
   5    -47.1204835 -0.649749E-09  0.437E-04    4.31      44.9  T
     SCC iter.                  ...        0 min,  0.019 sec
     gradient                   ...        0 min,  0.014 sec
 * total energy  :   -46.4663355 Eh     change       -0.4034089E-04 Eh
   gradient norm :     0.0039620 Eh/α   predicted    -0.2325531E-04 ( -42.35%)
   displ. norm   :     0.2708398 α      lambda       -0.9735544E-04
   maximum displ.:     0.1896830 α      in ANC's #3, #6, #1, ...

........................................................................
.............................. CYCLE   12 ..............................
........................................................................

 iter      E             dE          RMSdq      gap      omega  full diag
   1    -47.1200326 -0.471200E+02  0.913E-02    4.31       0.0  T
   2    -47.1200336 -0.101234E-05  0.539E-02    4.31       1.0  T
   3    -47.1200310  0.264973E-05  0.979E-03    4.31       2.0  T
   4    -47.1200342 -0.321490E-05  0.154E-03    4.31      12.8  T
   5    -47.1200342 -0.393014E-08  0.750E-04    4.31      26.1  T
   6    -47.1200342 -0.741807E-09  0.289E-04    4.31      67.9  T
     SCC iter.                  ...        0 min,  0.022 sec
     gradient                   ...        0 min,  0.014 sec
 * total energy  :   -46.4664106 Eh     change       -0.7513445E-04 Eh
   gradient norm :     0.0041176 Eh/α   predicted    -0.5224885E-04 ( -30.46%)
   displ. norm   :     0.2866000 α      lambda       -0.9088805E-04
   maximum displ.:     0.1958136 α      in ANC's #3, #1, #6, ...

........................................................................
.............................. CYCLE   13 ..............................
........................................................................

 iter      E             dE          RMSdq      gap      omega  full diag
   1    -47.1197202 -0.471197E+02  0.977E-02    4.30       0.0  T
   2    -47.1197212 -0.101841E-05  0.576E-02    4.30       1.0  T
   3    -47.1197185  0.267732E-05  0.988E-03    4.30       2.0  T
   4    -47.1197218 -0.327411E-05  0.160E-03    4.30      12.2  T
   5    -47.1197218 -0.209015E-08  0.694E-04    4.30      28.2  T
   6    -47.1197218 -0.186326E-08  0.265E-04    4.30      74.1  T
     SCC iter.                  ...        0 min,  0.023 sec
     gradient                   ...        0 min,  0.015 sec
 * total energy  :   -46.4664755 Eh     change       -0.6485599E-04 Eh
   gradient norm :     0.0044924 Eh/α   predicted    -0.4917963E-04 ( -24.17%)
   displ. norm   :     0.1829061 α      lambda       -0.7600593E-04
   maximum displ.:     0.1140562 α      in ANC's #3, #1, #6, ...

........................................................................
.............................. CYCLE   14 ..............................
........................................................................

 iter      E             dE          RMSdq      gap      omega  full diag
   1    -47.1210622 -0.471211E+02  0.630E-02    4.29       0.0  T
   2    -47.1210627 -0.472084E-06  0.370E-02    4.29       1.0  T
   3    -47.1210624  0.304325E-06  0.415E-03    4.28       4.7  T
   4    -47.1210629 -0.457318E-06  0.125E-03    4.29      15.6  T
   5    -47.1210629 -0.116794E-07  0.667E-04    4.29      29.4  T
   6    -47.1210629 -0.531344E-09  0.186E-04    4.29     105.3  T
     SCC iter.                  ...        0 min,  0.023 sec
     gradient                   ...        0 min,  0.014 sec
 * total energy  :   -46.4665308 Eh     change       -0.5530413E-04 Eh
   gradient norm :     0.0034335 Eh/α   predicted    -0.3928613E-04 ( -28.96%)
   displ. norm   :     0.3265748 α      lambda       -0.9762489E-04
   maximum displ.:     0.2100205 α      in ANC's #3, #1, #6, ...

........................................................................
.............................. CYCLE   15 ..............................
........................................................................

 iter      E             dE          RMSdq      gap      omega  full diag
   1    -47.1198315 -0.471198E+02  0.103E-01    4.26       0.0  T
   2    -47.1198327 -0.123043E-05  0.605E-02    4.26       1.0  T
   3    -47.1198325  0.147017E-06  0.487E-03    4.26       4.0  T
   4    -47.1198330 -0.423865E-06  0.208E-03    4.26       9.4  T
   5    -47.1198330 -0.386926E-07  0.108E-03    4.26      18.1  T
   6    -47.1198330 -0.677666E-09  0.389E-04    4.26      50.4  T
   7    -47.1198330 -0.312348E-08  0.996E-05    4.26     196.9  T
     SCC iter.                  ...        0 min,  0.026 sec
     gradient                   ...        0 min,  0.014 sec
 * total energy  :   -46.4665875 Eh     change       -0.5671128E-04 Eh
   gradient norm :     0.0048449 Eh/α   predicted    -0.5401892E-04 (  -4.75%)
   displ. norm   :     0.1251829 α      lambda       -0.8624366E-04
   maximum displ.:     0.1066013 α      in ANC's #1, #3, #6, ...

........................................................................
.............................. CYCLE   16 ..............................
........................................................................

 iter      E             dE          RMSdq      gap      omega  full diag
   1    -47.1215559 -0.471216E+02  0.387E-02    4.25       0.0  T
   2    -47.1215565 -0.635661E-06  0.229E-02    4.25       1.0  T
   3    -47.1215556  0.902089E-06  0.619E-03    4.25       3.2  T
   4    -47.1215567 -0.111532E-05  0.106E-03    4.25      18.5  T
   5    -47.1215567 -0.119202E-07  0.537E-04    4.25      36.5  T
   6    -47.1215567 -0.802913E-11  0.196E-04    4.25      99.9  T
     SCC iter.                  ...        0 min,  0.023 sec
     gradient                   ...        0 min,  0.014 sec
 * total energy  :   -46.4666495 Eh     change       -0.6196197E-04 Eh
   gradient norm :     0.0033549 Eh/α   predicted    -0.4380107E-04 ( -29.31%)
   displ. norm   :     0.1682597 α      lambda       -0.5631070E-04
   maximum displ.:     0.1338274 α      in ANC's #1, #3, #6, ...

........................................................................
.............................. CYCLE   17 ..............................
........................................................................

 iter      E             dE          RMSdq      gap      omega  full diag
   1    -47.1212967 -0.471213E+02  0.512E-02    4.23       0.0  T
   2    -47.1212970 -0.260562E-06  0.301E-02    4.23       1.0  T
   3    -47.1212964  0.568644E-06  0.470E-03    4.23       4.2  T
   4    -47.1212971 -0.701548E-06  0.864E-04    4.23      22.7  T
   5    -47.1212971 -0.189621E-08  0.461E-04    4.23      42.5  T
     SCC iter.                  ...        0 min,  0.019 sec
     gradient                   ...        0 min,  0.014 sec
 * total energy  :   -46.4666972 Eh     change       -0.4768653E-04 Eh
   gradient norm :     0.0030508 Eh/α   predicted    -0.2895476E-04 ( -39.28%)
   displ. norm   :     0.1600687 α      lambda       -0.5261847E-04
   maximum displ.:     0.1322681 α      in ANC's #1, #3, #6, ...

........................................................................
.............................. CYCLE   18 ..............................
........................................................................

 iter      E             dE          RMSdq      gap      omega  full diag
   1    -47.1210393 -0.471210E+02  0.474E-02    4.21       0.0  T
   2    -47.1210397 -0.408983E-06  0.280E-02    4.22       1.0  T
   3    -47.1210386  0.103481E-05  0.647E-03    4.21       3.0  T
   4    -47.1210399 -0.123195E-05  0.767E-04    4.22      25.6  T
   5    -47.1210399 -0.208415E-08  0.413E-04    4.22      47.4  T
   6    -47.1210399 -0.119692E-08  0.219E-04    4.22      89.5  T
     SCC iter.                  ...        0 min,  0.022 sec
     gradient                   ...        0 min,  0.014 sec
 * total energy  :   -46.4667435 Eh     change       -0.4637415E-04 Eh
   gradient norm :     0.0022941 Eh/α   predicted    -0.2698424E-04 ( -41.81%)
   displ. norm   :     0.1601195 α      lambda       -0.4969757E-04
   maximum displ.:     0.1342027 α      in ANC's #1, #3, #6, ...

........................................................................
.............................. CYCLE   19 ..............................
........................................................................

 iter      E             dE          RMSdq      gap      omega  full diag
   1    -47.1208824 -0.471209E+02  0.478E-02    4.20       0.0  T
   2    -47.1208828 -0.427079E-06  0.281E-02    4.20       1.0  T
   3    -47.1208816  0.117935E-05  0.680E-03    4.20       2.9  T
   4    -47.1208830 -0.139932E-05  0.723E-04    4.20      27.1  T
   5    -47.1208830 -0.167670E-08  0.400E-04    4.20      49.1  T
   6    -47.1208830 -0.157561E-08  0.194E-04    4.20     101.0  T
     SCC iter.                  ...        0 min,  0.022 sec
     gradient                   ...        0 min,  0.014 sec
 * total energy  :   -46.4667874 Eh     change       -0.4390542E-04 Eh
   gradient norm :     0.0015567 Eh/α   predicted    -0.2548932E-04 ( -41.94%)
   displ. norm   :     0.2198780 α      lambda       -0.4179718E-04
   maximum displ.:     0.1891690 α      in ANC's #1, #2, #3, ...

........................................................................
.............................. CYCLE   20 ..............................
........................................................................

 iter      E             dE          RMSdq      gap      omega  full diag
   1    -47.1210313 -0.471210E+02  0.679E-02    4.18       0.0  T
   2    -47.1210320 -0.687257E-06  0.400E-02    4.18       1.0  T
   3    -47.1210300  0.196953E-05  0.859E-03    4.18       2.3  T
   4    -47.1210323 -0.234097E-05  0.912E-04    4.18      21.5  T
   5    -47.1210323 -0.206683E-08  0.475E-04    4.18      41.3  T
   6    -47.1210323 -0.148582E-08  0.217E-04    4.18      90.4  T
     SCC iter.                  ...        0 min,  0.023 sec
     gradient                   ...        0 min,  0.014 sec
 * total energy  :   -46.4668381 Eh     change       -0.5071323E-04 Eh
   gradient norm :     0.0016910 Eh/α   predicted    -0.2134899E-04 ( -57.90%)
   displ. norm   :     0.1551369 α      lambda       -0.2264779E-04
   maximum displ.:     0.1318404 α      in ANC's #1, #3, #6, ...
 * RMSD in coord.:     0.5308423 α      energy gain  -0.1448048E-01 Eh

generating ANC from model Hessian ...
Using Lindh-Hessian (1995)
 Shifting diagonal of input Hessian by   8.740890368323942E-003
 Lowest  eigenvalues of input Hessian
    0.000000    0.000000    0.000000    0.000000    0.000000    0.000000
    0.010000    0.010567    0.010843    0.013924    0.015642    0.017756
    0.021210    0.022257    0.024919    0.030055    0.031350    0.033538
 Highest eigenvalues
    1.892364    1.912522    2.030116    2.074491    2.114723    2.136002
 

........................................................................
.............................. CYCLE   21 ..............................
........................................................................

 iter      E             dE          RMSdq      gap      omega  full diag
   1    -47.1208323 -0.471208E+02  0.516E-02    4.17       0.0  T
   2    -47.1208325 -0.193776E-06  0.303E-02    4.17       1.0  T
   3    -47.1208320  0.465074E-06  0.411E-03    4.17       4.8  T
   4    -47.1208326 -0.570929E-06  0.640E-04    4.17      30.7  T
   5    -47.1208326 -0.465434E-09  0.347E-04    4.17      56.5  T
     SCC iter.                  ...        0 min,  0.019 sec
     gradient                   ...        0 min,  0.014 sec
 * total energy  :   -46.4668647 Eh     change       -0.2657467E-04 Eh
   gradient norm :     0.0015292 Eh/α   predicted     0.0000000E+00 (-100.00%)
   displ. norm   :     0.0386251 α      lambda       -0.1072017E-04
   maximum displ.:     0.0330427 α      in ANC's #1, #6, #5, ...

........................................................................
.............................. CYCLE   22 ..............................
........................................................................

 iter      E             dE          RMSdq      gap      omega  full diag
   1    -47.1216068 -0.471216E+02  0.148E-02    4.17       0.0  T
   2    -47.1216068 -0.358094E-07  0.868E-03    4.17       2.3  T
   3    -47.1216068  0.214288E-07  0.122E-03    4.17      16.0  T
   4    -47.1216068 -0.306090E-07  0.299E-04    4.17      65.5  T
   5    -47.1216068 -0.708994E-09  0.148E-04    4.17     132.9  T
     SCC iter.                  ...        0 min,  0.019 sec
     gradient                   ...        0 min,  0.015 sec
 * total energy  :   -46.4668778 Eh     change       -0.1312146E-04 Eh
   gradient norm :     0.0006065 Eh/α   predicted    -0.5526270E-05 ( -57.88%)
   displ. norm   :     0.0704937 α      lambda       -0.1349882E-04
   maximum displ.:     0.0557569 α      in ANC's #1, #6, #2, ...

........................................................................
.............................. CYCLE   23 ..............................
........................................................................

 iter      E             dE          RMSdq      gap      omega  full diag
   1    -47.1219200 -0.471219E+02  0.254E-02    4.16       0.0  T
   2    -47.1219200 -0.359928E-07  0.149E-02    4.16       1.3  T
   3    -47.1219200  0.266116E-07  0.133E-03    4.16      14.8  T
   4    -47.1219200 -0.426546E-07  0.370E-04    4.16      53.0  T
   5    -47.1219200 -0.201844E-09  0.171E-04    4.16     114.5  T
     SCC iter.                  ...        0 min,  0.019 sec
     gradient                   ...        0 min,  0.014 sec
 * total energy  :   -46.4668957 Eh     change       -0.1785654E-04 Eh
   gradient norm :     0.0009843 Eh/α   predicted    -0.6766970E-05 ( -62.10%)
   displ. norm   :     0.1164568 α      lambda       -0.1935372E-04
   maximum displ.:     0.0888658 α      in ANC's #1, #6, #2, ...

........................................................................
.............................. CYCLE   24 ..............................
........................................................................

 iter      E             dE          RMSdq      gap      omega  full diag
   1    -47.1217550 -0.471218E+02  0.388E-02    4.15       0.0  T
   2    -47.1217551 -0.787704E-07  0.229E-02    4.15       1.0  T
   3    -47.1217550  0.113850E-06  0.228E-03    4.15       8.6  T
   4    -47.1217551 -0.157614E-06  0.585E-04    4.15      33.5  T
   5    -47.1217551 -0.364942E-09  0.271E-04    4.15      72.4  T
     SCC iter.                  ...        0 min,  0.019 sec
     gradient                   ...        0 min,  0.013 sec
 * total energy  :   -46.4669218 Eh     change       -0.2607091E-04 Eh
   gradient norm :     0.0015064 Eh/α   predicted    -0.9735404E-05 ( -62.66%)
   displ. norm   :     0.1585540 α      lambda       -0.2400951E-04
   maximum displ.:     0.1202147 α      in ANC's #1, #6, #2, ...

........................................................................
.............................. CYCLE   25 ..............................
........................................................................

 iter      E             dE          RMSdq      gap      omega  full diag
   1    -47.1213384 -0.471213E+02  0.503E-02    4.13       0.0  T
   2    -47.1213386 -0.200510E-06  0.297E-02    4.13       1.0  T
   3    -47.1213382  0.441575E-06  0.415E-03    4.13       4.7  T
   4    -47.1213387 -0.545717E-06  0.796E-04    4.13      24.6  T
   5    -47.1213387 -0.150293E-08  0.423E-04    4.13      46.3  T
     SCC iter.                  ...        0 min,  0.019 sec
     gradient                   ...        0 min,  0.014 sec
 * total energy  :   -46.4669539 Eh     change       -0.3217452E-04 Eh
   gradient norm :     0.0016885 Eh/α   predicted    -0.1219809E-04 ( -62.09%)
   displ. norm   :     0.1754972 α      lambda       -0.2527172E-04
   maximum displ.:     0.1338724 α      in ANC's #1, #6, #2, ...

........................................................................
.............................. CYCLE   26 ..............................
........................................................................

 iter      E             dE          RMSdq      gap      omega  full diag
   1    -47.1208306 -0.471208E+02  0.529E-02    4.11       0.0  T
   2    -47.1208309 -0.296954E-06  0.313E-02    4.12       1.0  T
   3    -47.1208302  0.711074E-06  0.525E-03    4.11       3.7  T
   4    -47.1208311 -0.860454E-06  0.900E-04    4.12      21.8  T
   5    -47.1208311 -0.229562E-08  0.482E-04    4.12      40.7  T
     SCC iter.                  ...        0 min,  0.019 sec
     gradient                   ...        0 min,  0.015 sec
 * total energy  :   -46.4669873 Eh     change       -0.3335341E-04 Eh
   gradient norm :     0.0017806 Eh/α   predicted    -0.1280941E-04 ( -61.59%)
   displ. norm   :     0.1723431 α      lambda       -0.2571784E-04
   maximum displ.:     0.1329200 α      in ANC's #1, #6, #2, ...

........................................................................
.............................. CYCLE   27 ..............................
........................................................................

 iter      E             dE          RMSdq      gap      omega  full diag
   1    -47.1206164 -0.471206E+02  0.513E-02    4.10       0.0  T
   2    -47.1206167 -0.294850E-06  0.303E-02    4.10       1.0  T
   3    -47.1206160  0.783240E-06  0.563E-03    4.10       3.5  T
   4    -47.1206169 -0.937941E-06  0.854E-04    4.10      23.0  T
   5    -47.1206169 -0.142858E-08  0.467E-04    4.10      42.0  T
     SCC iter.                  ...        0 min,  0.019 sec
     gradient                   ...        0 min,  0.014 sec
 * total energy  :   -46.4670214 Eh     change       -0.3406194E-04 Eh
   gradient norm :     0.0015748 Eh/α   predicted    -0.1302952E-04 ( -61.75%)
   displ. norm   :     0.1998418 α      lambda       -0.2975421E-04
   maximum displ.:     0.1544818 α      in ANC's #1, #6, #3, ...

........................................................................
.............................. CYCLE   28 ..............................
........................................................................

 iter      E             dE          RMSdq      gap      omega  full diag
   1    -47.1206047 -0.471206E+02  0.594E-02    4.08       0.0  T
   2    -47.1206050 -0.357416E-06  0.350E-02    4.08       1.0  T
   3    -47.1206041  0.951165E-06  0.639E-03    4.08       3.1  T
   4    -47.1206052 -0.114387E-05  0.952E-04    4.08      20.6  T
   5    -47.1206052 -0.121953E-08  0.525E-04    4.08      37.3  T
   6    -47.1206052 -0.225409E-08  0.226E-04    4.08      86.9  T
     SCC iter.                  ...        0 min,  0.022 sec
     gradient                   ...        0 min,  0.014 sec
 * total energy  :   -46.4670596 Eh     change       -0.3824661E-04 Eh
   gradient norm :     0.0013503 Eh/α   predicted    -0.1514346E-04 ( -60.41%)
   displ. norm   :     0.2334944 α      lambda       -0.2993573E-04
   maximum displ.:     0.1808193 α      in ANC's #1, #6, #3, ...

........................................................................
.............................. CYCLE   29 ..............................
........................................................................

 iter      E             dE          RMSdq      gap      omega  full diag
   1    -47.1205869 -0.471206E+02  0.715E-02    4.05       0.0  T
   2    -47.1205873 -0.414355E-06  0.421E-02    4.05       1.0  T
   3    -47.1205863  0.104046E-05  0.687E-03    4.05       2.9  T
   4    -47.1205875 -0.126727E-05  0.107E-03    4.05      18.3  T
   5    -47.1205875 -0.997709E-09  0.594E-04    4.05      33.0  T
   6    -47.1205875 -0.287801E-08  0.252E-04    4.05      77.8  T
     SCC iter.                  ...        0 min,  0.022 sec
     gradient                   ...        0 min,  0.013 sec
 * total energy  :   -46.4670957 Eh     change       -0.3605671E-04 Eh
   gradient norm :     0.0013276 Eh/α   predicted    -0.1533255E-04 ( -57.48%)
   displ. norm   :     0.1981163 α      lambda       -0.1934277E-04
   maximum displ.:     0.1559033 α      in ANC's #1, #3, #6, ...

........................................................................
.............................. CYCLE   30 ..............................
........................................................................

 iter      E             dE          RMSdq      gap      omega  full diag
   1    -47.1207127 -0.471207E+02  0.635E-02    4.03       0.0  T
   2    -47.1207131 -0.302026E-06  0.373E-02    4.03       1.0  T
   3    -47.1207123  0.745941E-06  0.601E-03    4.03       3.3  T
   4    -47.1207132 -0.911486E-06  0.887E-04    4.03      22.1  T
   5    -47.1207132 -0.650772E-09  0.497E-04    4.03      39.4  T
     SCC iter.                  ...        0 min,  0.019 sec
     gradient                   ...        0 min,  0.015 sec
 * total energy  :   -46.4671180 Eh     change       -0.2235942E-04 Eh
   gradient norm :     0.0011701 Eh/α   predicted    -0.9840420E-05 ( -55.99%)
   displ. norm   :     0.1507871 α      lambda       -0.1127775E-04
   maximum displ.:     0.1204121 α      in ANC's #1, #3, #6, ...

........................................................................
.............................. CYCLE   31 ..............................
........................................................................

 iter      E             dE          RMSdq      gap      omega  full diag
   1    -47.1209827 -0.471210E+02  0.504E-02    4.02       0.0  T
   2    -47.1209829 -0.168231E-06  0.296E-02    4.02       1.0  T
   3    -47.1209825  0.346310E-06  0.419E-03    4.02       4.7  T
   4    -47.1209830 -0.436746E-06  0.664E-04    4.02      29.5  T
   5    -47.1209830 -0.316277E-09  0.339E-04    4.02      57.8  T
     SCC iter.                  ...        0 min,  0.019 sec
     gradient                   ...        0 min,  0.014 sec
 * total energy  :   -46.4671302 Eh     change       -0.1221451E-04 Eh
   gradient norm :     0.0008873 Eh/α   predicted    -0.5696573E-05 ( -53.36%)
   displ. norm   :     0.1030330 α      lambda       -0.5426269E-05
   maximum displ.:     0.0837636 α      in ANC's #1, #3, #6, ...

........................................................................
.............................. CYCLE   32 ..............................
........................................................................

 iter      E             dE          RMSdq      gap      omega  full diag
   1    -47.1210146 -0.471210E+02  0.364E-02    4.00       0.0  T
   2    -47.1210147 -0.119213E-06  0.214E-02    4.01       1.0  T
   3    -47.1210145  0.258088E-06  0.362E-03    4.00       5.4  T
   4    -47.1210148 -0.314516E-06  0.452E-04    4.00      43.4  T
   5    -47.1210148 -0.514312E-09  0.248E-04    4.01      79.0  T
     SCC iter.                  ...        0 min,  0.019 sec
     gradient                   ...        0 min,  0.014 sec
 * total energy  :   -46.4671356 Eh     change       -0.5398867E-05 Eh
   gradient norm :     0.0005523 Eh/α   predicted    -0.2726906E-05 ( -49.49%)
   displ. norm   :     0.0461591 α      lambda       -0.2586646E-05
   maximum displ.:     0.0382096 α      in ANC's #1, #3, #4, ...

........................................................................
.............................. CYCLE   33 ..............................
........................................................................

 iter      E             dE          RMSdq      gap      omega  full diag
   1    -47.1214184 -0.471214E+02  0.182E-02    4.00       0.0  T
   2    -47.1214185 -0.482112E-07  0.106E-02    4.00       1.8  T
   3    -47.1214184  0.392434E-07  0.147E-03    4.00      13.3  T
   4    -47.1214185 -0.508392E-07  0.331E-04    4.00      59.3  T
   5    -47.1214185 -0.129202E-08  0.148E-04    4.00     132.5  T
     SCC iter.                  ...        0 min,  0.019 sec
     gradient                   ...        0 min,  0.014 sec
 * total energy  :   -46.4671375 Eh     change       -0.1894810E-05 Eh
   gradient norm :     0.0006714 Eh/α   predicted    -0.1298298E-05 ( -31.48%)
   displ. norm   :     0.0284911 α      lambda       -0.1503473E-05
   maximum displ.:     0.0238597 α      in ANC's #1, #6, #4, ...

   *** GEOMETRY OPTIMIZATION CONVERGED AFTER 33 ITERATIONS ***

------------------------------------------------------------------------
 total energy gain   :        -0.0147799 Eh       -9.2745 kcal/mol
 total RMSD          :         0.7290946 a0        0.3858 Å
 total power (kW/mol):        -1.1758949 (step)  -27.3539 (real)
------------------------------------------------------------------------

 ANCopt (total)                0 d,  0 h,  0 min,  1.419 sec
 optimizer setup                ...        0 min,  0.000 sec (  0.015%)
 model hessian                  ...        0 min,  0.026 sec (  1.853%)
 ANC generation                 ...        0 min,  0.005 sec (  0.334%)
 coordinate transformation      ...        0 min,  0.000 sec (  0.028%)
 single point calculation       ...        0 min,  1.371 sec ( 96.622%)
 optimization log               ...        0 min,  0.005 sec (  0.359%)
 hessian update                 ...        0 min,  0.006 sec (  0.444%)
 rational function              ...        0 min,  0.003 sec (  0.220%)

================
 final structure:
================
26
 xtb: 6.6.1 (8d0f1dd)
C            0.70978213764432        2.26371724609327        0.41722113014020
C            1.41982926944151        1.02215012048500       -0.02644962818501
C            2.79464274414135        1.02702905782240       -0.22388130326286
C            3.46783179966283       -0.11085408552149       -0.62969741816931
C            2.77458054928378       -1.28855289511211       -0.84422578834605
C            1.40828281795043       -1.29170409943638       -0.64728806862127
F            0.72515101709766       -2.43633480388025       -0.87173548456455
C            0.70896554098910       -0.15878508078056       -0.24810295383191
C           -0.75655663280663       -0.24380997069466       -0.06854599335674
C           -1.29868124605921       -1.04051970762662        0.94739781918348
O           -0.43662776610319       -1.66181181135518        1.78873701346036
C           -2.67710053175013       -1.15373737702918        1.08405935485033
C           -3.52584302878484       -0.48456768662796        0.22131523827019
C           -3.01306987396688        0.30960935254444       -0.78764271568421
C           -1.64024740967341        0.41170294301780       -0.91347834178427
F           -1.14030707387863        1.17411007297647       -1.90990566644709
H            0.22677545768615        2.74138728721341       -0.43410213892031
H           -0.05862639371176        2.02937702903764        1.15088758171676
H            1.41072825519979        2.97205307347116        0.85052139943891
H            3.34539260070291        1.94042028316621       -0.05383946171139
H            4.53669187095633       -0.08355946347202       -0.77753133861033
H            3.27077042329243       -2.19260603377349       -1.15939709668602
H           -0.92321224864222       -2.22316555395460        2.40383276325819
H           -3.08261518506983       -1.77471578462423        1.87118252791925
H           -4.59384425915262       -0.58454841699129        0.33624403299867
H           -3.65269283444880        0.83771830505207       -1.47557546305509
 
 Bond Distances (Angstroems)
 ---------------------------
C1-C2=1.4975         C1-H17=1.0891        C1-H18=1.0879        C1-H19=1.0867        C2-C1=1.4975         C2-C3=1.3889         
C2-C8=1.3961         C3-C2=1.3889         C3-C4=1.3830         C3-H20=1.0801        C4-C3=1.3830         C4-C5=1.3833         
C4-H21=1.0794        C5-C4=1.3833         C5-C6=1.3804         C5-H22=1.0784        C6-C5=1.3804         C6-F7=1.3517         
C6-C8=1.3899         F7-C6=1.3517         C8-C2=1.3961         C8-C6=1.3899         C8-C9=1.4789         C9-C8=1.4789         
C9-C10=1.4003        C9-C15=1.3873        C10-C9=1.4003        C10-O11=1.3554       C10-C12=1.3898       O11-C10=1.3554       
O11-H23=0.9645       C12-C10=1.3898       C12-C13=1.3829       C12-H24=1.0815       C13-C12=1.3829       C13-C14=1.3826       
C13-H25=1.0788       C14-C13=1.3826       C14-C15=1.3824       C14-H26=1.0776       C15-C9=1.3873        C15-C14=1.3824       
C15-F16=1.3506       F16-C15=1.3506       H17-C1=1.0891        H18-C1=1.0879        H19-C1=1.0867        H20-C3=1.0801        
H21-C4=1.0794        H22-C5=1.0784        H23-O11=0.9645       H24-C12=1.0815       H25-C13=1.0788       H26-C14=1.0776       
 C  H  Rav=1.0822 sigma=0.0042  Rmin=1.0776  Rmax=1.0891     9
 C  C  Rav=1.4017 sigma=0.0359  Rmin=1.3804  Rmax=1.4975    14
 O  H  Rav=0.9645 sigma=0.0000  Rmin=0.9645  Rmax=0.9645     1
 O  C  Rav=1.3554 sigma=0.0000  Rmin=1.3554  Rmax=1.3554     1
 F  C  Rav=1.3512 sigma=0.0006  Rmin=1.3506  Rmax=1.3517     2
 
 selected bond angles (degree)
 --------------------
H17-C1-C2=110.02               H18-C1-C2=110.86               H18-C1-H17=107.96              H19-C1-C2=110.65               
H19-C1-H17=108.17              H19-C1-H18=109.09              C3-C2-C1=120.57                C8-C2-C1=120.46                
C8-C2-C3=118.97                C4-C3-C2=121.38                H20-C3-C2=119.03               H20-C3-C4=119.59               
C5-C4-C3=120.13                H21-C4-C3=120.09               H21-C4-C5=119.77               C6-C5-C4=118.41                
H22-C5-C4=121.90               H22-C5-C6=119.68               F7-C6-C5=118.58                C8-C6-C5=122.49                
C8-C6-F7=118.92                C6-C8-C2=118.61                C9-C8-C2=122.27                C9-C8-C6=119.12                
C10-C9-C8=120.29               C15-C9-C8=122.01               C15-C9-C10=117.65              O11-C10-C9=117.71              
C12-C10-C9=120.11              C12-C10-O11=122.17             
 
 selected dihedral angles (degree)
 ---------------------------------
C3-C2-C1-H17=100.85           C3-C2-C1-H18=220.19           C3-C2-C1-H19=341.37           C8-C2-C1-H17=280.85           
C8-C2-C1-H18= 40.19           C8-C2-C1-H19=161.37           C4-C3-C2-C1=179.81            C4-C3-C2-C8=359.81            
H20-C3-C2-C1=359.93           H20-C3-C2-C8=179.93           C5-C4-C3-C2=359.79            C5-C4-C3-H20=179.67           
H21-C4-C3-C2=179.96           H21-C4-C3-H20=359.84          C6-C5-C4-C3=  0.19            C6-C5-C4-H21=180.02           
H22-C5-C4-C3=180.09           H22-C5-C4-H21=359.93          F7-C6-C5-C4=179.20            F7-C6-C5-H22=359.30           
C8-C6-C5-C4=  0.23            C8-C6-C5-H22=180.33           C6-C8-C2-C1=180.59            C6-C8-C2-C3=  0.59            
C9-C8-C2-C1=  0.39            C9-C8-C2-C3=180.39            C2-C8-C6-C5=359.38            C2-C8-C6-F7=180.41            
C9-C8-C6-C5=179.57            C9-C8-C6-F7=  0.60            C10-C9-C8-C2=246.26           C10-C9-C8-C6= 66.06           
C15-C9-C8-C2= 68.59           C15-C9-C8-C6=248.39           O11-C10-C9-C8=  3.42          O11-C10-C9-C15=181.19         
C12-C10-C9-C8=182.20          C12-C10-C9-C15=359.97         
           -------------------------------------------------
          |                Final Singlepoint                |
           -------------------------------------------------

          ...................................................
          :                      SETUP                      :
          :.................................................:
          :  # basis functions                  74          :
          :  # atomic orbitals                  74          :
          :  # shells                           42          :
          :  # electrons                        82          :
          :  max. iterations                   250          :
          :  Hamiltonian                  GFN2-xTB          :
          :  restarted?                      false          :
          :  GBSA solvation                  false          :
          :  PC potential                    false          :
          :  electronic temp.          298.1500000     K    :
          :  accuracy                    1.0000000          :
          :  -> integral cutoff          0.2500000E+02      :
          :  -> integral neglect         0.1000000E-07      :
          :  -> SCF convergence          0.1000000E-05 Eh   :
          :  -> wf. convergence          0.1000000E-03 e    :
          :  Broyden damping             0.4000000          :
          ...................................................

 iter      E             dE          RMSdq      gap      omega  full diag
   1    -47.1214185 -0.471214E+02  0.579E-05    4.00       0.0  T
   2    -47.1214185 -0.236469E-10  0.368E-05    4.00     533.6  T
   3    -47.1214185 -0.203002E-10  0.208E-05    4.00     941.4  T

   *** convergence criteria satisfied after 3 iterations ***

         #    Occupation            Energy/Eh            Energy/eV
      -------------------------------------------------------------
         1        2.0000           -0.8146279             -22.1672
       ...           ...                  ...                  ...
        35        2.0000           -0.4503628             -12.2550
        36        2.0000           -0.4429792             -12.0541
        37        2.0000           -0.4253331             -11.5739
        38        2.0000           -0.4129888             -11.2380
        39        2.0000           -0.4018052             -10.9337
        40        2.0000           -0.3980552             -10.8316
        41        2.0000           -0.3928688             -10.6905 (HOMO)
        42                         -0.2458510              -6.6899 (LUMO)
        43                         -0.2291905              -6.2366
        44                         -0.2245765              -6.1110
        45                         -0.2206236              -6.0035
        46                         -0.1091920              -2.9713
       ...                                ...                  ...
        74                          0.6742147              18.3463
      -------------------------------------------------------------
                  HL-Gap            0.1470178 Eh            4.0006 eV
             Fermi-level           -0.3193599 Eh           -8.6902 eV

 SCC (total)                   0 d,  0 h,  0 min,  0.032 sec
 SCC setup                      ...        0 min,  0.000 sec (  0.571%)
 Dispersion                     ...        0 min,  0.000 sec (  0.618%)
 classical contributions        ...        0 min,  0.000 sec (  0.195%)
 integral evaluation            ...        0 min,  0.005 sec ( 15.063%)
 iterations                     ...        0 min,  0.011 sec ( 35.865%)
 molecular gradient             ...        0 min,  0.015 sec ( 46.921%)
 printout                       ...        0 min,  0.000 sec (  0.697%)

         :::::::::::::::::::::::::::::::::::::::::::::::::::::
         ::                     SUMMARY                     ::
         :::::::::::::::::::::::::::::::::::::::::::::::::::::
         :: total energy             -46.467137533436 Eh    ::
         :: gradient norm              0.000671293196 Eh/a0 ::
         :: HOMO-LUMO gap              4.000557177212 eV    ::
         ::.................................................::
         :: SCC energy               -47.121418467518 Eh    ::
         :: -> isotropic ES            0.045214735043 Eh    ::
         :: -> anisotropic ES          0.002434082386 Eh    ::
         :: -> anisotropic XC          0.007519420111 Eh    ::
         :: -> dispersion             -0.027405886616 Eh    ::
         :: repulsion energy           0.654048948895 Eh    ::
         :: add. restraining           0.000000000000 Eh    ::
         :: total charge               0.000000000000 e     ::
         :::::::::::::::::::::::::::::::::::::::::::::::::::::

           -------------------------------------------------
          |                Property Printout                |
           -------------------------------------------------

    * Orbital Energies and Occupations

         #    Occupation            Energy/Eh            Energy/eV
      -------------------------------------------------------------
         1        2.0000           -0.8146279             -22.1672
       ...           ...                  ...                  ...
        29        2.0000           -0.4790930             -13.0368
        30        2.0000           -0.4741150             -12.9013
        31        2.0000           -0.4662054             -12.6861
        32        2.0000           -0.4638118             -12.6210
        33        2.0000           -0.4582335             -12.4692
        34        2.0000           -0.4564270             -12.4200
        35        2.0000           -0.4503628             -12.2550
        36        2.0000           -0.4429792             -12.0541
        37        2.0000           -0.4253331             -11.5739
        38        2.0000           -0.4129888             -11.2380
        39        2.0000           -0.4018052             -10.9337
        40        2.0000           -0.3980552             -10.8316
        41        2.0000           -0.3928688             -10.6905 (HOMO)
        42                         -0.2458510              -6.6899 (LUMO)
        43                         -0.2291905              -6.2366
        44                         -0.2245765              -6.1110
        45                         -0.2206236              -6.0035
        46                         -0.1091920              -2.9713
        47                         -0.0937675              -2.5515
        48                          0.0346630               0.9432
        49                          0.0544903               1.4828
        50                          0.0769678               2.0944
        51                          0.0994209               2.7054
        52                          0.1228030               3.3416
       ...                                ...                  ...
        74                          0.6742147              18.3463
      -------------------------------------------------------------
                  HL-Gap            0.1470178 Eh            4.0006 eV
             Fermi-level           -0.3193599 Eh           -8.6902 eV

     #   Z          covCN         q      C6AA      α(0)
     1   6 C        3.758    -0.109    22.637     6.783
     2   6 C        2.971     0.022    27.510     8.603
     3   6 C        2.924    -0.045    29.126     8.850
     4   6 C        2.923    -0.032    28.788     8.799
     5   6 C        2.917    -0.054    29.340     8.882
     6   6 C        2.791     0.169    24.354     8.084
     7   9 F        0.787    -0.229    11.535     4.012
     8   6 C        2.979     0.003    27.943     8.671
     9   6 C        2.974    -0.014    28.346     8.733
    10   6 C        2.853     0.149    24.762     8.156
    11   8 O        1.660    -0.376    20.397     6.097
    12   6 C        2.916    -0.077    29.924     8.970
    13   6 C        2.924    -0.031    28.774     8.797
    14   6 C        2.916    -0.062    29.551     8.914
    15   6 C        2.791     0.165    24.433     8.097
    16   9 F        0.787    -0.224    11.488     4.004
    17   1 H        0.925     0.064     2.155     2.296
    18   1 H        0.925     0.046     2.376     2.411
    19   1 H        0.925     0.045     2.379     2.412
    20   1 H        0.926     0.042     2.424     2.435
    21   1 H        0.926     0.043     2.413     2.429
    22   1 H        0.926     0.055     2.258     2.350
    23   1 H        0.805     0.305     0.705     1.319
    24   1 H        0.925     0.038     2.475     2.460
    25   1 H        0.926     0.048     2.346     2.395
    26   1 H        0.926     0.059     2.206     2.323

 Mol. C6AA /au·bohr⁶  :       8741.228385
 Mol. C8AA /au·bohr⁸  :     214351.979719
 Mol. α(0) /au        :        147.281372


Wiberg/Mayer (AO) data.
largest (>0.10) Wiberg bond orders for each atom

 ---------------------------------------------------------------------------
     #   Z sym  total        # sym  WBO       # sym  WBO       # sym  WBO
 ---------------------------------------------------------------------------
     1   6 C    3.996 --     2 C    1.029    19 H    0.983    18 H    0.977
                            17 H    0.963
     2   6 C    3.988 --     3 C    1.412     8 C    1.373     1 C    1.029
                             5 C    0.105
     3   6 C    3.990 --     4 C    1.444     2 C    1.412    20 H    0.968
     4   6 C    3.990 --     3 C    1.444     5 C    1.433    21 H    0.970
                             8 C    0.105
     5   6 C    3.988 --     4 C    1.433     6 C    1.403    22 H    0.967
                             2 C    0.105
     6   6 C    3.885 --     5 C    1.403     8 C    1.363     7 F    0.956
     7   9 F    1.086 --     6 C    0.956
     8   6 C    3.988 --     2 C    1.373     6 C    1.363     9 C    1.017
                             4 C    0.105
     9   6 C    3.986 --    15 C    1.375    10 C    1.323     8 C    1.017
                            13 C    0.103
    10   6 C    3.942 --    12 C    1.374     9 C    1.323    11 O    1.088
    11   8 O    2.141 --    10 C    1.088    23 H    0.885
    12   6 C    3.985 --    13 C    1.444    10 C    1.374    24 H    0.965
    13   6 C    3.989 --    12 C    1.444    14 C    1.435    25 H    0.970
                             9 C    0.103
    14   6 C    3.987 --    13 C    1.435    15 C    1.392    26 H    0.967
    15   6 C    3.886 --    14 C    1.392     9 C    1.375    16 F    0.959
    16   9 F    1.090 --    15 C    0.959
    17   1 H    0.996 --     1 C    0.963
    18   1 H    0.998 --     1 C    0.977
    19   1 H    0.998 --     1 C    0.983
    20   1 H    0.998 --     3 C    0.968
    21   1 H    0.998 --     4 C    0.970
    22   1 H    0.996 --     5 C    0.967
    23   1 H    0.906 --    11 O    0.885
    24   1 H    0.998 --    12 C    0.965
    25   1 H    0.997 --    13 C    0.970
    26   1 H    0.996 --    14 C    0.967
 ---------------------------------------------------------------------------

Topologies differ in total number of bonds
Writing topology from bond orders to xtbtopo.mol

molecular dipole:
                 x           y           z       tot (Debye)
 q only:       -0.254       0.260       0.986
   full:       -0.443       0.127       1.118       3.075
molecular quadrupole (traceless):
                xx          xy          yy          xz          yz          zz
 q only:        7.727       4.159      -3.941      -4.413      -2.833      -3.786
  q+dip:       11.175       4.673      -4.881      -6.265      -4.093      -6.294
   full:        8.605       4.780      -4.552      -5.807      -3.642      -4.053

           -------------------------------------------------
          |                Geometry Summary                 |
           -------------------------------------------------

      molecular mass/u    :      220.2151854
   center of mass at/Å    :       -0.0450329      -0.2531370      -0.1913789
  moments of inertia/u·Å² :        0.5681009E+03   0.1108956E+04   0.1322969E+04
rotational constants/cm⁻¹ :        0.2967366E-01   0.1520136E-01   0.1274227E-01

 * 23 selected distances

     #   Z          #   Z                                           value/Å
     2   6 C        3   6 C                                       1.3889260
     3   6 C        4   6 C                                       1.3829854
     4   6 C        5   6 C                                       1.3833274
     5   6 C        6   6 C                                       1.3804218
     2   6 C        8   6 C                                       1.3960894
     6   6 C        8   6 C                                       1.3899278
     9   6 C       10   6 C                                       1.4002813 (max)
    10   6 C       11   8 O                                       1.3553568
    10   6 C       12   6 C                                       1.3897966
    12   6 C       13   6 C                                       1.3829243
    13   6 C       14   6 C                                       1.3826243
     9   6 C       15   6 C                                       1.3872698
    14   6 C       15   6 C                                       1.3823529
     1   6 C       17   1 H                                       1.0891353
     1   6 C       18   1 H                                       1.0879493
     1   6 C       19   1 H                                       1.0866529
     3   6 C       20   1 H                                       1.0800571
     4   6 C       21   1 H                                       1.0793803
     5   6 C       22   1 H                                       1.0783551
    11   8 O       23   1 H                                       0.9644820 (min)
    12   6 C       24   1 H                                       1.0814894
    13   6 C       25   1 H                                       1.0788103
    14   6 C       26   1 H                                       1.0776216

 * 4 distinct bonds (by element types)

   Z      Z             #   av. dist./Å        max./Å        min./Å
   1 H    6 C           9     1.0821613     1.0891353     1.0776216
   6 C    6 C          12     1.3872439     1.4002813     1.3804218
   1 H    8 O           1     0.9644820     0.9644820     0.9644820
   6 C    8 O           1     1.3553568     1.3553568     1.3553568


optimized geometry written to: xtbopt.xyz


           -------------------------------------------------
          | TOTAL ENERGY              -46.467137533436 Eh   |
          | GRADIENT NORM               0.000671293196 Eh/α |
          | HOMO-LUMO GAP               4.000557177212 eV   |
           -------------------------------------------------

------------------------------------------------------------------------
 * finished run on 2025/08/28 at 10:02:15.961     
------------------------------------------------------------------------
 total:
 * wall-time:     0 d,  0 h,  0 min,  1.663 sec
 *  cpu-time:     0 d,  0 h,  0 min,  3.264 sec
 * ratio c/w:     1.963 speedup
 SCF:
 * wall-time:     0 d,  0 h,  0 min,  0.176 sec
 *  cpu-time:     0 d,  0 h,  0 min,  0.332 sec
 * ratio c/w:     1.888 speedup
 ANC optimizer:
 * wall-time:     0 d,  0 h,  0 min,  1.457 sec
 *  cpu-time:     0 d,  0 h,  0 min,  2.901 sec
 * ratio c/w:     1.991 speedup

