26
 energy: -46.467137533436 gnorm: 0.000671293196 xtb: 6.6.1 (8d0f1dd)
C            0.70978213764432        2.26371724609327        0.41722113014020
C            1.41982926944151        1.02215012048500       -0.02644962818501
C            2.79464274414135        1.02702905782240       -0.22388130326286
C            3.46783179966283       -0.11085408552149       -0.62969741816931
C            2.77458054928378       -1.28855289511211       -0.84422578834605
C            1.40828281795043       -1.29170409943638       -0.64728806862127
F            0.72515101709766       -2.43633480388025       -0.87173548456455
C            0.70896554098910       -0.15878508078056       -0.24810295383191
C           -0.75655663280663       -0.24380997069466       -0.06854599335674
C           -1.29868124605921       -1.04051970762662        0.94739781918348
O           -0.43662776610319       -1.66181181135518        1.78873701346036
C           -2.67710053175013       -1.15373737702918        1.08405935485033
C           -3.52584302878484       -0.48456768662796        0.22131523827019
C           -3.01306987396688        0.30960935254444       -0.78764271568421
C           -1.64024740967341        0.41170294301780       -0.91347834178427
F           -1.14030707387863        1.17411007297647       -1.90990566644709
H            0.22677545768615        2.74138728721341       -0.43410213892031
H           -0.05862639371176        2.02937702903764        1.15088758171676
H            1.41072825519979        2.97205307347116        0.85052139943891
H            3.34539260070291        1.94042028316621       -0.05383946171139
H            4.53669187095633       -0.08355946347202       -0.77753133861033
H            3.27077042329243       -2.19260603377349       -1.15939709668602
H           -0.92321224864222       -2.22316555395460        2.40383276325819
H           -3.08261518506983       -1.77471578462423        1.87118252791925
H           -4.59384425915262       -0.58454841699129        0.33624403299867
H           -3.65269283444880        0.83771830505207       -1.47557546305509
