 Entering Gaussian System, Link 0=/path/to/g16
 Initial command:
 /path/to/g16 "path/to/scratch/gaussian_tmp/Gau-2268771.inp" -scrdir="path/to/scratch/gaussian_tmp/"
 Entering Link 1 = /path/to/g16 PID=   2268774.
  
 Copyright (c) 1988-2021, Gaussian, Inc.  All Rights Reserved.
  
 This is part of the Gaussian(R) 16 program.  It is based on
 the Gaussian(R) 09 system (copyright 2009, Gaussian, Inc.),
 the Gaussian(R) 03 system (copyright 2003, Gaussian, Inc.),
 the Gaussian(R) 98 system (copyright 1998, Gaussian, Inc.),
 the Gaussian(R) 94 system (copyright 1995, Gaussian, Inc.),
 the Gaussian 92(TM) system (copyright 1992, Gaussian, Inc.),
 the Gaussian 90(TM) system (copyright 1990, Gaussian, Inc.),
 the Gaussian 88(TM) system (copyright 1988, Gaussian, Inc.),
 the Gaussian 86(TM) system (copyright 1986, Carnegie Mellon
 University), and the Gaussian 82(TM) system (copyright 1983,
 Carnegie Mellon University). Gaussian is a federally registered
 trademark of Gaussian, Inc.
  
 This software contains proprietary and confidential information,
 including trade secrets, belonging to Gaussian, Inc.
  
 This software is provided under written license and may be
 used, copied, transmitted, or stored only in accord with that
 written license.
  
 The following legend is applicable only to US Government
 contracts under FAR:
  
                    RESTRICTED RIGHTS LEGEND
  
 Use, reproduction and disclosure by the US Government is
 subject to restrictions as set forth in subparagraphs (a)
 and (c) of the Commercial Computer Software - Restricted
 Rights clause in FAR 52.227-19.
  
 Gaussian, Inc.
 340 Quinnipiac St., Bldg. 40, Wallingford CT 06492
  
  
 ---------------------------------------------------------------
 Warning -- This program may not be used in any manner that
 competes with the business of Gaussian, Inc. or will provide
 assistance to any competitor of Gaussian, Inc.  The licensee
 of this program is prohibited from giving any competitor of
 Gaussian, Inc. access to this program.  By using this program,
 the user acknowledges that Gaussian, Inc. is engaged in the
 business of creating and licensing software in the field of
 computational chemistry and represents and warrants to the
 licensee that it is not a competitor of Gaussian, Inc. and that
 it will not use this program in any manner prohibited above.
 ---------------------------------------------------------------
  

 Cite this work as:
 Gaussian 16, Revision C.02,
 M. J. Frisch, G. W. Trucks, H. B. Schlegel, G. E. Scuseria, 
 M. A. Robb, J. R. Cheeseman, G. Scalmani, V. Barone, 
 G. A. Petersson, H. Nakatsuji, X. Li, M. Caricato, A. V. Marenich, 
 J. Bloino, B. G. Janesko, R. Gomperts, B. Mennucci, H. P. Hratchian, 
 J. V. Ortiz, A. F. Izmaylov, J. L. Sonnenberg, D. Williams-Young, 
 F. Ding, F. Lipparini, F. Egidi, J. Goings, B. Peng, A. Petrone, 
 T. Henderson, D. Ranasinghe, V. G. Zakrzewski, J. Gao, N. Rega, 
 G. Zheng, W. Liang, M. Hada, M. Ehara, K. Toyota, R. Fukuda, 
 J. Hasegawa, M. Ishida, T. Nakajima, Y. Honda, O. Kitao, H. Nakai, 
 T. Vreven, K. Throssell, J. A. Montgomery, Jr., J. E. Peralta, 
 F. Ogliaro, M. J. Bearpark, J. J. Heyd, E. N. Brothers, K. N. Kudin, 
 V. N. Staroverov, T. A. Keith, R. Kobayashi, J. Normand, 
 K. Raghavachari, A. P. Rendell, J. C. Burant, S. S. Iyengar, 
 J. Tomasi, M. Cossi, J. M. Millam, M. Klene, C. Adamo, R. Cammi, 
 J. W. Ochterski, R. L. Martin, K. Morokuma, O. Farkas, 
 J. B. Foresman, and D. J. Fox, Gaussian, Inc., Wallingford CT, 2019.
 
 ******************************************
 Gaussian 16:  ES64L-G16RevC.02  7-Dec-2021
                23-Jul-2026 
 ******************************************
 %mem=12000MB
 %nprocshared=8
 Will use up to    8 processors via shared memory.
 ----------------------------------------------------------------------
 # opt=modredundant bp86 empiricaldispersion=GD3BJ def2svp IOP(1/8=2) n
 osymm
 ----------------------------------------------------------------------
 1/8=2,18=120,19=15,26=3,38=1/1,3;
 2/9=110,12=2,15=1,17=6,18=5,40=1/2;
 3/5=43,7=101,11=2,25=1,30=1,71=1,74=404,124=41/1,2,3;
 4//1;
 5/5=2,38=5/2;
 6/7=2,8=2,9=2,10=2,28=1/1;
 7/30=1/1,2,3,16;
 1/8=2,18=20,19=15,26=3/3(2);
 2/9=110,15=1/2;
 99//99;
 2/9=110,15=1/2;
 3/5=43,7=101,11=2,25=1,30=1,71=1,74=404,124=41/1,2,3;
 4/5=5,16=3,69=1/1;
 5/5=2,38=5/2;
 7/30=1/1,2,3,16;
 1/8=2,18=20,19=15,26=3/3(-5);
 2/9=110,15=1/2;
 6/7=2,8=2,9=2,10=2,19=2,28=1/1;
 99/9=1/99;
 -------
 example
 -------
 Symbolic Z-matrix:
 Charge =  0 Multiplicity = 1
 C                    -1.03311   2.45731  -1.29526 
 C                    -1.48969   1.18874  -0.59118 
 C                    -2.86614   1.19566  -0.27238 
 C                    -3.59239   0.04228   0.03964 
 C                    -2.94085  -1.18423  -0.12105 
 C                    -1.57803  -1.17639  -0.40701 
 F                    -1.09463  -2.41489  -0.79056 
 C                    -0.71616  -0.0342   -0.42158 
 C                     0.77722  -0.13743  -0.29002 
 C                     1.53367  -1.35226  -0.00453 
 O                     1.03197  -2.52203   0.44719 
 C                     2.94874  -1.37581  -0.07524 
 C                     3.70008  -0.21828  -0.25137 
 C                     3.02639   1.00866  -0.29546 
 C                     1.63216   1.01602  -0.25351 
 F                     1.09997   2.24651  -0.08925 
 H                    -1.87134   2.79325  -1.93964 
 H                    -0.79141   3.28859  -0.60613 
 H                    -0.16033   2.29279  -1.95021 
 H                    -3.39629   2.15875  -0.34758 
 H                    -4.66146   0.08933   0.29425 
 H                    -3.46248  -2.15136  -0.08269 
 H                     0.10833  -2.65687   0.14834 
 H                     3.4209   -2.35707   0.07487 
 H                     4.79874  -0.26073  -0.29664 
 H                     3.54595   1.97697  -0.30369 
 
 The following ModRedundant input section has been read:
 D       7       8       9      11 F                                           
 D       1       8       9      16 F                                           
 

 GradGradGradGradGradGradGradGradGradGradGradGradGradGradGradGradGradGrad
 Berny optimization.
 Initialization pass.
                           ----------------------------
                           !    Initial Parameters    !
                           ! (Angstroms and Degrees)  !
 --------------------------                            --------------------------
 ! Name  Definition              Value          Derivative Info.                !
 --------------------------------------------------------------------------------
 ! R1    R(1,2)                  1.521          estimate D2E/DX2                !
 ! R2    R(1,17)                 1.1094         estimate D2E/DX2                !
 ! R3    R(1,18)                 1.1065         estimate D2E/DX2                !
 ! R4    R(1,19)                 1.1035         estimate D2E/DX2                !
 ! R5    R(2,3)                  1.4129         estimate D2E/DX2                !
 ! R6    R(2,8)                  1.4569         estimate D2E/DX2                !
 ! R7    R(3,4)                  1.3982         estimate D2E/DX2                !
 ! R8    R(3,20)                 1.1019         estimate D2E/DX2                !
 ! R9    R(4,5)                  1.3981         estimate D2E/DX2                !
 ! R10   R(4,21)                 1.1            estimate D2E/DX2                !
 ! R11   R(5,6)                  1.3925         estimate D2E/DX2                !
 ! R12   R(5,22)                 1.0995         estimate D2E/DX2                !
 ! R13   R(6,7)                  1.3837         estimate D2E/DX2                !
 ! R14   R(6,8)                  1.431          estimate D2E/DX2                !
 ! R15   R(8,9)                  1.5027         estimate D2E/DX2                !
 ! R16   R(9,10)                 1.4593         estimate D2E/DX2                !
 ! R17   R(9,15)                 1.4362         estimate D2E/DX2                !
 ! R18   R(10,11)                1.3506         estimate D2E/DX2                !
 ! R19   R(10,12)                1.417          estimate D2E/DX2                !
 ! R20   R(11,23)                0.9801         estimate D2E/DX2                !
 ! R21   R(12,13)                1.3912         estimate D2E/DX2                !
 ! R22   R(12,24)                1.0992         estimate D2E/DX2                !
 ! R23   R(13,14)                1.4004         estimate D2E/DX2                !
 ! R24   R(13,25)                1.1004         estimate D2E/DX2                !
 ! R25   R(14,15)                1.3949         estimate D2E/DX2                !
 ! R26   R(14,26)                1.0989         estimate D2E/DX2                !
 ! R27   R(15,16)                1.3507         estimate D2E/DX2                !
 ! A1    A(2,1,17)             107.1348         estimate D2E/DX2                !
 ! A2    A(2,1,18)             113.8199         estimate D2E/DX2                !
 ! A3    A(2,1,19)             112.8185         estimate D2E/DX2                !
 ! A4    A(17,1,18)            107.4158         estimate D2E/DX2                !
 ! A5    A(17,1,19)            107.3378         estimate D2E/DX2                !
 ! A6    A(18,1,19)            107.991          estimate D2E/DX2                !
 ! A7    A(1,2,3)              113.129          estimate D2E/DX2                !
 ! A8    A(1,2,8)              126.4827         estimate D2E/DX2                !
 ! A9    A(3,2,8)              119.6749         estimate D2E/DX2                !
 ! A10   A(2,3,4)              123.526          estimate D2E/DX2                !
 ! A11   A(2,3,20)             117.2311         estimate D2E/DX2                !
 ! A12   A(4,3,20)             119.0963         estimate D2E/DX2                !
 ! A13   A(3,4,5)              117.1255         estimate D2E/DX2                !
 ! A14   A(3,4,21)             121.4117         estimate D2E/DX2                !
 ! A15   A(5,4,21)             121.1348         estimate D2E/DX2                !
 ! A16   A(4,5,6)              118.3429         estimate D2E/DX2                !
 ! A17   A(4,5,22)             123.1308         estimate D2E/DX2                !
 ! A18   A(6,5,22)             118.452          estimate D2E/DX2                !
 ! A19   A(5,6,7)              113.1901         estimate D2E/DX2                !
 ! A20   A(5,6,8)              126.5872         estimate D2E/DX2                !
 ! A21   A(7,6,8)              120.0789         estimate D2E/DX2                !
 ! A22   A(2,8,6)              110.5727         estimate D2E/DX2                !
 ! A23   A(2,8,9)              126.5476         estimate D2E/DX2                !
 ! A24   A(6,8,9)              122.877          estimate D2E/DX2                !
 ! A25   A(8,9,10)             126.1192         estimate D2E/DX2                !
 ! A26   A(8,9,15)             122.5901         estimate D2E/DX2                !
 ! A27   A(10,9,15)            110.7958         estimate D2E/DX2                !
 ! A28   A(9,10,11)            126.4343         estimate D2E/DX2                !
 ! A29   A(9,10,12)            121.4475         estimate D2E/DX2                !
 ! A30   A(11,10,12)           111.9162         estimate D2E/DX2                !
 ! A31   A(10,11,23)           111.5454         estimate D2E/DX2                !
 ! A32   A(10,12,13)           122.1286         estimate D2E/DX2                !
 ! A33   A(10,12,24)           115.91           estimate D2E/DX2                !
 ! A34   A(13,12,24)           121.8731         estimate D2E/DX2                !
 ! A35   A(12,13,14)           118.2384         estimate D2E/DX2                !
 ! A36   A(12,13,25)           120.8191         estimate D2E/DX2                !
 ! A37   A(14,13,25)           120.8505         estimate D2E/DX2                !
 ! A38   A(13,14,15)           118.9809         estimate D2E/DX2                !
 ! A39   A(13,14,26)           123.0097         estimate D2E/DX2                !
 ! A40   A(15,14,26)           117.9138         estimate D2E/DX2                !
 ! A41   A(9,15,14)            126.1564         estimate D2E/DX2                !
 ! A42   A(9,15,16)            120.0133         estimate D2E/DX2                !
 ! A43   A(14,15,16)           113.7223         estimate D2E/DX2                !
 ! D1    D(17,1,2,3)           -34.7296         estimate D2E/DX2                !
 ! D2    D(17,1,2,8)           135.4746         estimate D2E/DX2                !
 ! D3    D(18,1,2,3)            83.8563         estimate D2E/DX2                !
 ! D4    D(18,1,2,8)          -105.9395         estimate D2E/DX2                !
 ! D5    D(19,1,2,3)          -152.6369         estimate D2E/DX2                !
 ! D6    D(19,1,2,8)            17.5673         estimate D2E/DX2                !
 ! D7    D(1,2,3,4)            162.2752         estimate D2E/DX2                !
 ! D8    D(1,2,3,20)           -13.275          estimate D2E/DX2                !
 ! D9    D(8,2,3,4)             -8.6661         estimate D2E/DX2                !
 ! D10   D(8,2,3,20)           175.7837         estimate D2E/DX2                !
 ! D11   D(1,2,8,6)           -148.5691         estimate D2E/DX2                !
 ! D12   D(1,2,8,9)             30.8463         estimate D2E/DX2                !
 ! D13   D(3,2,8,6)             21.0565         estimate D2E/DX2                !
 ! D14   D(3,2,8,9)           -159.5281         estimate D2E/DX2                !
 ! D15   D(2,3,4,5)             -7.2247         estimate D2E/DX2                !
 ! D16   D(2,3,4,21)           179.2811         estimate D2E/DX2                !
 ! D17   D(20,3,4,5)           168.2471         estimate D2E/DX2                !
 ! D18   D(20,3,4,21)           -5.2471         estimate D2E/DX2                !
 ! D19   D(3,4,5,6)              8.2286         estimate D2E/DX2                !
 ! D20   D(3,4,5,22)          -168.585          estimate D2E/DX2                !
 ! D21   D(21,4,5,6)          -178.258          estimate D2E/DX2                !
 ! D22   D(21,4,5,22)            4.9283         estimate D2E/DX2                !
 ! D23   D(4,5,6,7)           -168.5551         estimate D2E/DX2                !
 ! D24   D(4,5,6,8)              7.0496         estimate D2E/DX2                !
 ! D25   D(22,5,6,7)             8.4102         estimate D2E/DX2                !
 ! D26   D(22,5,6,8)          -175.9851         estimate D2E/DX2                !
 ! D27   D(5,6,8,2)            -21.2935         estimate D2E/DX2                !
 ! D28   D(5,6,8,9)            159.2656         estimate D2E/DX2                !
 ! D29   D(7,6,8,2)            154.0369         estimate D2E/DX2                !
 ! D30   D(7,6,8,9)            -25.4039         estimate D2E/DX2                !
 ! D31   D(1,8,9,16)            23.0036         Frozen                          !
 ! D32   D(2,8,9,10)           174.2955         estimate D2E/DX2                !
 ! D33   D(2,8,9,15)             3.1233         estimate D2E/DX2                !
 ! D34   D(6,8,9,10)            -6.3561         estimate D2E/DX2                !
 ! D35   D(6,8,9,15)          -177.5284         estimate D2E/DX2                !
 ! D36   D(7,8,9,11)           -24.7286         Frozen                          !
 ! D37   D(8,9,10,11)          -14.05           estimate D2E/DX2                !
 ! D38   D(8,9,10,12)          171.5438         estimate D2E/DX2                !
 ! D39   D(15,9,10,11)         157.9999         estimate D2E/DX2                !
 ! D40   D(15,9,10,12)         -16.4064         estimate D2E/DX2                !
 ! D41   D(8,9,15,14)         -171.768          estimate D2E/DX2                !
 ! D42   D(8,9,15,16)           12.2571         estimate D2E/DX2                !
 ! D43   D(10,9,15,14)          15.8522         estimate D2E/DX2                !
 ! D44   D(10,9,15,16)        -160.1227         estimate D2E/DX2                !
 ! D45   D(9,10,11,23)          29.4333         estimate D2E/DX2                !
 ! D46   D(12,10,11,23)       -155.7093         estimate D2E/DX2                !
 ! D47   D(9,10,12,13)           8.2856         estimate D2E/DX2                !
 ! D48   D(9,10,12,24)        -175.0727         estimate D2E/DX2                !
 ! D49   D(11,10,12,13)       -166.8654         estimate D2E/DX2                !
 ! D50   D(11,10,12,24)          9.7763         estimate D2E/DX2                !
 ! D51   D(10,12,13,14)          3.0519         estimate D2E/DX2                !
 ! D52   D(10,12,13,25)        179.5934         estimate D2E/DX2                !
 ! D53   D(24,12,13,14)       -173.3907         estimate D2E/DX2                !
 ! D54   D(24,12,13,25)          3.1507         estimate D2E/DX2                !
 ! D55   D(12,13,14,15)         -4.3158         estimate D2E/DX2                !
 ! D56   D(12,13,14,26)        172.0512         estimate D2E/DX2                !
 ! D57   D(25,13,14,15)        179.1439         estimate D2E/DX2                !
 ! D58   D(25,13,14,26)         -4.4891         estimate D2E/DX2                !
 ! D59   D(13,14,15,9)          -6.0862         estimate D2E/DX2                !
 ! D60   D(13,14,15,16)        170.1071         estimate D2E/DX2                !
 ! D61   D(26,14,15,9)         177.3612         estimate D2E/DX2                !
 ! D62   D(26,14,15,16)         -6.4455         estimate D2E/DX2                !
 --------------------------------------------------------------------------------
 Trust Radius=2.00D-02 FncErr=1.00D-07 GrdErr=1.00D-06 EigMax=2.50D+02 EigMin=1.00D-04
 Number of steps in this run=    142 maximum allowed number of steps=    156.
 GradGradGradGradGradGradGradGradGradGradGradGradGradGradGradGradGradGrad

                          Input orientation:                          
 ---------------------------------------------------------------------
 Center     Atomic      Atomic             Coordinates (Angstroms)
 Number     Number       Type             X           Y           Z
 ---------------------------------------------------------------------
      1          6           0       -1.033112    2.457307   -1.295258
      2          6           0       -1.489694    1.188741   -0.591181
      3          6           0       -2.866138    1.195661   -0.272381
      4          6           0       -3.592392    0.042283    0.039638
      5          6           0       -2.940846   -1.184230   -0.121052
      6          6           0       -1.578034   -1.176389   -0.407010
      7          9           0       -1.094631   -2.414888   -0.790564
      8          6           0       -0.716155   -0.034195   -0.421580
      9          6           0        0.777224   -0.137434   -0.290023
     10          6           0        1.533672   -1.352263   -0.004525
     11          8           0        1.031974   -2.522034    0.447187
     12          6           0        2.948737   -1.375806   -0.075238
     13          6           0        3.700084   -0.218280   -0.251367
     14          6           0        3.026389    1.008657   -0.295464
     15          6           0        1.632161    1.016018   -0.253506
     16          9           0        1.099965    2.246508   -0.089247
     17          1           0       -1.871342    2.793246   -1.939636
     18          1           0       -0.791405    3.288590   -0.606132
     19          1           0       -0.160327    2.292791   -1.950209
     20          1           0       -3.396289    2.158748   -0.347577
     21          1           0       -4.661459    0.089327    0.294247
     22          1           0       -3.462475   -2.151356   -0.082692
     23          1           0        0.108327   -2.656869    0.148339
     24          1           0        3.420903   -2.357067    0.074865
     25          1           0        4.798741   -0.260728   -0.296643
     26          1           0        3.545951    1.976974   -0.303694
 ---------------------------------------------------------------------
                    Distance matrix (angstroms):
                    1          2          3          4          5
     1  C    0.000000
     2  C    1.521003   0.000000
     3  C    2.449084   1.412898   0.000000
     4  C    3.763536   2.476618   1.398242   0.000000
     5  C    4.275395   2.820967   2.385867   1.398094   0.000000
     6  C    3.780168   2.373934   2.702584   2.396308   1.392512
     7  F    4.898651   3.630698   4.054974   3.600796   2.317601
     8  C    2.659202   1.456949   2.481377   2.913985   2.522330
     9  C    3.319713   2.643549   3.879631   4.385718   3.866313
    10  C    4.771498   3.992694   5.091364   5.312555   4.479188
    11  O    5.665204   4.605092   5.434548   5.303450   4.230356
    12  C    5.660064   5.151967   6.361138   6.694068   5.892876
    13  C    5.536390   5.387855   6.716766   7.302930   6.712078
    14  C    4.424672   4.529336   5.895539   6.697345   6.359801
    15  C    3.204098   3.144811   4.501924   5.322598   5.076517
    16  F    2.459454   2.842031   4.107042   5.185888   5.300861
    17  H    1.109373   2.130357   2.514286   3.800965   4.502377
    18  H    1.106503   2.212961   2.965849   4.336018   4.986133
    19  H    1.103531   2.198431   3.367523   4.561069   4.813188
    20  H    2.563560   2.152989   1.101931   2.160513   3.381456
    21  H    4.615058   3.471712   2.183625   1.099974   2.180580
    22  H    5.349009   3.912374   3.405014   2.200885   1.099500
    23  H    5.435223   4.229572   4.885329   4.581764   3.396865
    24  H    6.700275   6.093467   7.229754   7.412451   6.471922
    25  H    6.511179   6.460041   7.802053   8.403333   7.796467
    26  H    4.709749   5.105064   6.459591   7.403840   7.218387
                    6          7          8          9         10
     6  C    0.000000
     7  F    1.383717   0.000000
     8  C    1.430963   2.438666   0.000000
     9  C    2.576888   2.990180   1.502713   0.000000
    10  C    3.142553   2.941939   2.640636   1.459292   0.000000
    11  O    3.058195   2.462916   3.162286   2.508923   1.350596
    12  C    4.543291   4.235588   3.918074   2.509017   1.417026
    13  C    5.366631   5.301425   4.423350   2.924233   2.457680
    14  C    5.097801   5.380389   3.887169   2.524341   2.808343
    15  C    3.890445   4.415308   2.577942   1.436211   2.383369
    16  F    4.357623   5.199684   2.934339   2.414053   3.625801
    17  H    4.265322   5.389648   3.410773   4.280772   5.702983
    18  H    4.538113   5.714510   3.328757   3.781291   5.225460
    19  H    4.052970   4.937605   2.839105   3.088885   4.465617
    20  H    3.799042   5.139262   3.463754   4.763819   6.062128
    21  H    3.406069   4.491121   4.011619   5.474675   6.367660
    22  H    2.146360   2.485401   3.484177   4.698289   5.060251
    23  H    2.311719   1.545057   2.807668   2.643319   1.938291
    24  H    5.159029   4.598082   4.770476   3.471160   2.139527
    25  H    6.443126   6.294140   5.520960   4.023412   3.455063
    26  H    6.017441   6.407846   4.714260   3.483785   3.901613
                   11         12         13         14         15
    11  O    0.000000
    12  C    2.293632   0.000000
    13  C    3.593615   1.391190   0.000000
    14  C    4.122499   2.395870   1.400423   0.000000
    15  C    3.656365   2.736051   2.408278   1.394879   0.000000
    16  F    4.799102   4.066855   3.586374   2.299111   1.350674
    17  H    6.509867   6.640040   6.554413   5.465879   4.275056
    18  H    6.180416   6.002258   5.709419   4.457596   3.341048
    19  H    5.509231   5.161434   4.908596   3.813442   2.778842
    20  H    6.492371   7.268191   7.484519   6.525045   5.157518
    21  H    6.265603   7.758751   8.384970   7.765046   6.385017
    22  H    4.540732   6.457954   7.420747   7.220548   6.001396
    23  H    0.980109   3.123946   4.359725   4.706180   3.996705
    24  H    2.423390   1.099247   2.181463   3.408942   3.832118
    25  H    4.455931   2.171390   1.100409   2.180039   3.414553
    26  H    5.208164   3.413208   2.201280   1.098931   2.142090
                   16         17         18         19         20
    16  F    0.000000
    17  H    3.542813   0.000000
    18  H    2.220447   1.786019   0.000000
    19  H    2.248034   1.782734   1.787853   0.000000
    20  H    4.504524   2.294058   2.851108   3.613564   0.000000
    21  H    6.163968   4.481759   5.101302   5.491177   2.509003
    22  H    6.336964   5.516252   6.082895   5.843136   4.318743
    23  H    5.008283   6.162993   6.060299   5.382863   5.976490
    24  H    5.158157   7.654528   7.076775   6.208648   8.188110
    25  H    4.473275   7.517725   6.628965   5.817826   8.544880
    26  H    2.470118   5.717488   4.541416   4.067831   6.944758
                   21         22         23         24         25
    21  H    0.000000
    22  H    2.569106   0.000000
    23  H    5.505792   3.613799   0.000000
    24  H    8.447340   6.888253   3.326926   0.000000
    25  H    9.485097   8.477496   5.285781   2.535960   0.000000
    26  H    8.442886   8.136952   5.787408   4.352339   2.564536
                   26
    26  H    0.000000
 Symmetry turned off by external request.
 Stoichiometry    C13H10F2O
 Framework group  C1[X(C13H10F2O)]
 Deg. of freedom    72
 Full point group                 C1      NOp   1
 Rotational constants (GHZ):           0.8401465           0.4716350           0.3134512
 Standard basis: def2SVP (5D, 7F)
   274 basis functions,   470 primitive gaussians,   290 cartesian basis functions
    57 alpha electrons       57 beta electrons
       nuclear repulsion energy      1070.1089097701 Hartrees.
 NAtoms=   26 NActive=   26 NUniq=   26 SFac= 1.00D+00 NAtFMM=   60 NAOKFM=F Big=F
 Integral buffers will be    131072 words long.
 Raffenetti 2 integral format.
 Two-electron integral symmetry is turned off.
 Nuclear repulsion after empirical dispersion term =     1070.0572625698 Hartrees.
 One-electron integrals computed using PRISM.
   1 Symmetry operations used in ECPInt.
 ECPInt:  NShTT=    8001 NPrTT=   29641 LenC2=    7591 LenP2D=   20293.
 LDataN:  DoStor=T MaxTD1= 4 Len=   56
 NBasis=   274 RedAO= T EigKep=  3.22D-04  NBF=   274
 NBsUse=   274 1.00D-06 EigRej= -1.00D+00 NBFU=   274
 ExpMin= 1.22D-01 ExpMax= 2.89D+03 ExpMxC= 4.35D+02 IAcc=3 IRadAn=         5 AccDes= 0.00D+00
 Harris functional with IExCor=  404 and IRadAn=       5 diagonalized for initial guess.
 HarFok:  IExCor=  404 AccDes= 0.00D+00 IRadAn=         5 IDoV= 1 UseB2=F ITyADJ=14
 ICtDFT=  3500011 ScaDFX=  1.000000  1.000000  1.000000  1.000000
 FoFCou: FMM=F IPFlag=           0 FMFlag=      100000 FMFlg1=           0
         NFxFlg=           0 DoJE=T BraDBF=F KetDBF=T FulRan=T
         wScrn=  0.000000 ICntrl=       500 IOpCl=  0 I1Cent=   200000004 NGrid=           0
         NMat0=    1 NMatS0=      1 NMatT0=    0 NMatD0=    1 NMtDS0=    0 NMtDT0=    0
 Symmetry not used in FoFCou.
 Requested convergence on RMS density matrix=1.00D-08 within 128 cycles.
 Requested convergence on MAX density matrix=1.00D-06.
 Requested convergence on             energy=1.00D-06.
 No special actions if energy rises.
 Integral accuracy reduced to 1.0D-05 until final iterations.
 Initial convergence to 1.0D-05 achieved.  Increase integral accuracy.
 SCF Done:  E(RB-P86) =  -775.751512967     A.U. after   16 cycles
            NFock= 16  Conv=0.45D-08     -V/T= 2.0104

 **********************************************************************

            Population analysis using the SCF Density.

 **********************************************************************

 Alpha  occ. eigenvalues --  -24.33377 -24.30349 -18.80185 -10.01183 -10.00326
 Alpha  occ. eigenvalues --   -9.98940  -9.96199  -9.95104  -9.94757  -9.93307
 Alpha  occ. eigenvalues --   -9.93228  -9.92722  -9.92460  -9.91805  -9.91663
 Alpha  occ. eigenvalues --   -9.91209  -1.13529  -1.11336  -0.96170  -0.79531
 Alpha  occ. eigenvalues --   -0.77248  -0.71582  -0.70127  -0.66813  -0.66210
 Alpha  occ. eigenvalues --   -0.62580  -0.59000  -0.56142  -0.54947  -0.53640
 Alpha  occ. eigenvalues --   -0.51856  -0.48542  -0.47864  -0.46209  -0.44168
 Alpha  occ. eigenvalues --   -0.43571  -0.42978  -0.42351  -0.41757  -0.40398
 Alpha  occ. eigenvalues --   -0.38659  -0.38313  -0.38100  -0.36575  -0.35928
 Alpha  occ. eigenvalues --   -0.34271  -0.33930  -0.33104  -0.32982  -0.31134
 Alpha  occ. eigenvalues --   -0.30601  -0.30256  -0.28809  -0.26733  -0.22436
 Alpha  occ. eigenvalues --   -0.20874  -0.19634
 Alpha virt. eigenvalues --   -0.09127  -0.05008  -0.03032  -0.02569   0.02451
 Alpha virt. eigenvalues --    0.03854   0.04669   0.06477   0.07545   0.08180
 Alpha virt. eigenvalues --    0.09607   0.09970   0.11023   0.11193   0.12225
 Alpha virt. eigenvalues --    0.12705   0.13682   0.15690   0.17166   0.18946
 Alpha virt. eigenvalues --    0.20001   0.21918   0.23695   0.25072   0.25618
 Alpha virt. eigenvalues --    0.26506   0.27803   0.28573   0.29822   0.30645
 Alpha virt. eigenvalues --    0.32722   0.34894   0.35925   0.36662   0.37341
 Alpha virt. eigenvalues --    0.38763   0.39514   0.40440   0.41599   0.41645
 Alpha virt. eigenvalues --    0.42360   0.42979   0.43865   0.44360   0.45961
 Alpha virt. eigenvalues --    0.46744   0.47057   0.48730   0.49905   0.51175
 Alpha virt. eigenvalues --    0.51828   0.52339   0.53261   0.53788   0.55379
 Alpha virt. eigenvalues --    0.55773   0.56791   0.58425   0.59105   0.59819
 Alpha virt. eigenvalues --    0.60501   0.61049   0.61544   0.62045   0.62690
 Alpha virt. eigenvalues --    0.63681   0.64810   0.65058   0.65656   0.65920
 Alpha virt. eigenvalues --    0.67508   0.68401   0.70314   0.71269   0.71756
 Alpha virt. eigenvalues --    0.72729   0.73798   0.75013   0.76069   0.78056
 Alpha virt. eigenvalues --    0.80358   0.81460   0.82283   0.88454   0.92137
 Alpha virt. eigenvalues --    0.94618   0.95249   0.96716   0.97719   1.00757
 Alpha virt. eigenvalues --    1.04599   1.04914   1.07694   1.09064   1.10362
 Alpha virt. eigenvalues --    1.12123   1.13898   1.15614   1.17374   1.19711
 Alpha virt. eigenvalues --    1.20764   1.22253   1.23598   1.25036   1.27260
 Alpha virt. eigenvalues --    1.28238   1.30894   1.31711   1.34166   1.36206
 Alpha virt. eigenvalues --    1.37399   1.38303   1.41525   1.43729   1.47234
 Alpha virt. eigenvalues --    1.49101   1.52135   1.55277   1.56665   1.57262
 Alpha virt. eigenvalues --    1.58692   1.59185   1.61820   1.62038   1.62585
 Alpha virt. eigenvalues --    1.62797   1.64054   1.64467   1.65423   1.65728
 Alpha virt. eigenvalues --    1.66953   1.67404   1.70662   1.71902   1.72120
 Alpha virt. eigenvalues --    1.72613   1.73431   1.74701   1.75944   1.77772
 Alpha virt. eigenvalues --    1.78166   1.81225   1.82989   1.84316   1.85349
 Alpha virt. eigenvalues --    1.86111   1.87420   1.90458   1.90994   1.92639
 Alpha virt. eigenvalues --    1.93895   1.95411   1.96802   1.97217   1.98965
 Alpha virt. eigenvalues --    1.99723   2.01682   2.04480   2.05514   2.08925
 Alpha virt. eigenvalues --    2.09171   2.09817   2.13792   2.15099   2.17317
 Alpha virt. eigenvalues --    2.17763   2.18713   2.19770   2.20420   2.23428
 Alpha virt. eigenvalues --    2.23541   2.28352   2.30794   2.33476   2.35888
 Alpha virt. eigenvalues --    2.36461   2.37803   2.43620   2.45500   2.47076
 Alpha virt. eigenvalues --    2.48144   2.48535   2.52016   2.54724   2.55405
 Alpha virt. eigenvalues --    2.59613   2.61518   2.62775   2.65372   2.67677
 Alpha virt. eigenvalues --    2.69258   2.75722   2.77591   2.81082   2.81383
 Alpha virt. eigenvalues --    2.83965   2.86185   2.88475   2.90180   2.93068
 Alpha virt. eigenvalues --    2.93554   2.98212   3.00734   3.02971   3.06445
 Alpha virt. eigenvalues --    3.09751   3.12319   3.15860   3.20273   3.29680
 Alpha virt. eigenvalues --    3.32007   3.38514   3.43008   3.47936   3.68005
 Alpha virt. eigenvalues --    3.74596   3.79510
          Condensed to atoms (all electrons):
               1          2          3          4          5          6
     1  C    4.559046   0.434593  -0.071234   0.012764   0.000188   0.009270
     2  C    0.434593   5.209628   0.355834   0.058315  -0.118748   0.036849
     3  C   -0.071234   0.355834   5.086811   0.295956   0.083097  -0.133861
     4  C    0.012764   0.058315   0.295956   5.065134   0.243515   0.087092
     5  C    0.000188  -0.118748   0.083097   0.243515   5.181849   0.334514
     6  C    0.009270   0.036849  -0.133861   0.087092   0.334514   5.195957
     7  F   -0.000014   0.001754   0.000023   0.004898  -0.058672   0.299662
     8  C   -0.062898   0.304421   0.035880  -0.089292  -0.004296   0.202579
     9  C   -0.019114  -0.048503   0.014107   0.000050   0.010496  -0.064017
    10  C   -0.000273   0.008439   0.000200  -0.000216   0.001156  -0.026192
    11  O   -0.000003  -0.000007   0.000002   0.000001  -0.000712   0.006375
    12  C   -0.000007   0.000134  -0.000001   0.000000  -0.000026   0.001393
    13  C   -0.000009  -0.000114   0.000001  -0.000000   0.000001  -0.000253
    14  C   -0.000431   0.000696  -0.000023   0.000001  -0.000002   0.000109
    15  C   -0.002526  -0.023066   0.000280  -0.000087   0.000015   0.011070
    16  F    0.004770  -0.002301  -0.000506   0.000003  -0.000004   0.000293
    17  H    0.376544  -0.022453  -0.018150   0.001774  -0.000018  -0.000019
    18  H    0.360141  -0.002234  -0.000698  -0.000082  -0.000057  -0.000250
    19  H    0.372787  -0.003248   0.008464  -0.000827   0.000184  -0.000860
    20  H   -0.016685  -0.066563   0.425576  -0.066193   0.013670  -0.000504
    21  H   -0.000412   0.014448  -0.065517   0.432739  -0.070686   0.013692
    22  H    0.000016  -0.000866   0.012448  -0.064265   0.414283  -0.057397
    23  H   -0.000002   0.000433  -0.000071   0.000186  -0.001741  -0.015515
    24  H    0.000000   0.000001  -0.000000   0.000000   0.000000   0.000011
    25  H    0.000000  -0.000000  -0.000000   0.000000   0.000000   0.000001
    26  H   -0.000008   0.000025  -0.000000   0.000000  -0.000000   0.000002
               7          8          9         10         11         12
     1  C   -0.000014  -0.062898  -0.019114  -0.000273  -0.000003  -0.000007
     2  C    0.001754   0.304421  -0.048503   0.008439  -0.000007   0.000134
     3  C    0.000023   0.035880   0.014107   0.000200   0.000002  -0.000001
     4  C    0.004898  -0.089292   0.000050  -0.000216   0.000001   0.000000
     5  C   -0.058672  -0.004296   0.010496   0.001156  -0.000712  -0.000026
     6  C    0.299662   0.202579  -0.064017  -0.026192   0.006375   0.001393
     7  F    8.988604  -0.067639  -0.000270   0.001511  -0.026431  -0.000303
     8  C   -0.067639   5.460652   0.227131  -0.063961  -0.004657   0.008604
     9  C   -0.000270   0.227131   5.756783   0.132912  -0.074717   0.005230
    10  C    0.001511  -0.063961   0.132912   5.173755   0.459635   0.294350
    11  O   -0.026431  -0.004657  -0.074717   0.459635   7.551965  -0.089580
    12  C   -0.000303   0.008604   0.005230   0.294350  -0.089580   5.245107
    13  C   -0.000000   0.000257  -0.101393   0.110606   0.005594   0.223907
    14  C    0.000002   0.013298   0.002753  -0.138347   0.000164   0.106183
    15  C    0.000160  -0.054899   0.176055   0.087908   0.001247  -0.136152
    16  F   -0.000000  -0.000937  -0.073922   0.001665  -0.000001   0.000039
    17  H    0.000002   0.005883  -0.000699   0.000006   0.000000   0.000000
    18  H    0.000000   0.000006   0.003523   0.000028   0.000000  -0.000003
    19  H   -0.000004  -0.012150   0.005818   0.000173   0.000001  -0.000014
    20  H    0.000004   0.015060  -0.000252   0.000001   0.000000  -0.000000
    21  H   -0.000073  -0.001356   0.000015   0.000000  -0.000000   0.000000
    22  H    0.000827   0.017302  -0.000260   0.000052   0.000009  -0.000000
    23  H    0.051396   0.005566  -0.012613  -0.023206   0.337912   0.005154
    24  H    0.000015  -0.000193   0.019796  -0.055648   0.003458   0.414382
    25  H   -0.000000   0.000009  -0.001934   0.014484  -0.000108  -0.069417
    26  H   -0.000000  -0.000244   0.018842  -0.001243   0.000007   0.013284
              13         14         15         16         17         18
     1  C   -0.000009  -0.000431  -0.002526   0.004770   0.376544   0.360141
     2  C   -0.000114   0.000696  -0.023066  -0.002301  -0.022453  -0.002234
     3  C    0.000001  -0.000023   0.000280  -0.000506  -0.018150  -0.000698
     4  C   -0.000000   0.000001  -0.000087   0.000003   0.001774  -0.000082
     5  C    0.000001  -0.000002   0.000015  -0.000004  -0.000018  -0.000057
     6  C   -0.000253   0.000109   0.011070   0.000293  -0.000019  -0.000250
     7  F   -0.000000   0.000002   0.000160  -0.000000   0.000002   0.000000
     8  C    0.000257   0.013298  -0.054899  -0.000937   0.005883   0.000006
     9  C   -0.101393   0.002753   0.176055  -0.073922  -0.000699   0.003523
    10  C    0.110606  -0.138347   0.087908   0.001665   0.000006   0.000028
    11  O    0.005594   0.000164   0.001247  -0.000001   0.000000   0.000000
    12  C    0.223907   0.106183  -0.136152   0.000039   0.000000  -0.000003
    13  C    5.160842   0.170983   0.111959   0.005203  -0.000002   0.000002
    14  C    0.170983   5.279816   0.314716  -0.061057   0.000044  -0.000159
    15  C    0.111959   0.314716   5.059242   0.359392   0.000186  -0.002217
    16  F    0.005203  -0.061057   0.359392   8.928560   0.001753   0.003192
    17  H   -0.000002   0.000044   0.000186   0.001753   0.667530  -0.023248
    18  H    0.000002  -0.000159  -0.002217   0.003192  -0.023248   0.624048
    19  H    0.000094  -0.001446   0.003516  -0.003583  -0.028407  -0.017862
    20  H    0.000000   0.000000   0.000030  -0.000014   0.004130   0.002272
    21  H   -0.000000   0.000000   0.000000   0.000000  -0.000015   0.000013
    22  H    0.000000  -0.000000   0.000001  -0.000000  -0.000002  -0.000001
    23  H   -0.000016  -0.000152   0.000179   0.000001  -0.000001   0.000000
    24  H   -0.072434   0.014112  -0.001435   0.000004  -0.000000  -0.000000
    25  H    0.436030  -0.070526   0.014079  -0.000084   0.000000   0.000000
    26  H   -0.068874   0.415955  -0.059161   0.001701  -0.000002   0.000031
              19         20         21         22         23         24
     1  C    0.372787  -0.016685  -0.000412   0.000016  -0.000002   0.000000
     2  C   -0.003248  -0.066563   0.014448  -0.000866   0.000433   0.000001
     3  C    0.008464   0.425576  -0.065517   0.012448  -0.000071  -0.000000
     4  C   -0.000827  -0.066193   0.432739  -0.064265   0.000186   0.000000
     5  C    0.000184   0.013670  -0.070686   0.414283  -0.001741   0.000000
     6  C   -0.000860  -0.000504   0.013692  -0.057397  -0.015515   0.000011
     7  F   -0.000004   0.000004  -0.000073   0.000827   0.051396   0.000015
     8  C   -0.012150   0.015060  -0.001356   0.017302   0.005566  -0.000193
     9  C    0.005818  -0.000252   0.000015  -0.000260  -0.012613   0.019796
    10  C    0.000173   0.000001   0.000000   0.000052  -0.023206  -0.055648
    11  O    0.000001   0.000000  -0.000000   0.000009   0.337912   0.003458
    12  C   -0.000014  -0.000000   0.000000  -0.000000   0.005154   0.414382
    13  C    0.000094   0.000000  -0.000000   0.000000  -0.000016  -0.072434
    14  C   -0.001446   0.000000   0.000000  -0.000000  -0.000152   0.014112
    15  C    0.003516   0.000030   0.000000   0.000001   0.000179  -0.001435
    16  F   -0.003583  -0.000014   0.000000  -0.000000   0.000001   0.000004
    17  H   -0.028407   0.004130  -0.000015  -0.000002  -0.000001  -0.000000
    18  H   -0.017862   0.002272   0.000013  -0.000001   0.000000  -0.000000
    19  H    0.642217   0.000478   0.000010  -0.000001   0.000002  -0.000000
    20  H    0.000478   0.700448  -0.012334  -0.000363  -0.000001   0.000000
    21  H    0.000010  -0.012334   0.688892  -0.011800   0.000003  -0.000000
    22  H   -0.000001  -0.000363  -0.011800   0.673836   0.000109  -0.000000
    23  H    0.000002  -0.000001   0.000003   0.000109   0.468339  -0.000027
    24  H   -0.000000   0.000000  -0.000000  -0.000000  -0.000027   0.685684
    25  H   -0.000002  -0.000000   0.000000  -0.000000   0.000013  -0.013184
    26  H    0.000047  -0.000000  -0.000000   0.000000  -0.000002  -0.000306
              25         26
     1  C    0.000000  -0.000008
     2  C   -0.000000   0.000025
     3  C   -0.000000  -0.000000
     4  C    0.000000   0.000000
     5  C    0.000000  -0.000000
     6  C    0.000001   0.000002
     7  F   -0.000000  -0.000000
     8  C    0.000009  -0.000244
     9  C   -0.001934   0.018842
    10  C    0.014484  -0.001243
    11  O   -0.000108   0.000007
    12  C   -0.069417   0.013284
    13  C    0.436030  -0.068874
    14  C   -0.070526   0.415955
    15  C    0.014079  -0.059161
    16  F   -0.000084   0.001701
    17  H    0.000000  -0.000002
    18  H    0.000000   0.000031
    19  H   -0.000002   0.000047
    20  H   -0.000000  -0.000000
    21  H    0.000000  -0.000000
    22  H   -0.000000   0.000000
    23  H    0.000013  -0.000002
    24  H   -0.013184  -0.000306
    25  H    0.691544  -0.012284
    26  H   -0.012284   0.685044
 Mulliken charges:
               1
     1  C    0.043495
     2  C   -0.137466
     3  C   -0.028618
     4  C    0.018533
     5  C   -0.028004
     6  C    0.099997
     7  F   -0.195450
     8  C    0.065875
     9  C    0.024182
    10  C    0.022205
    11  O   -0.170154
    12  C   -0.022265
    13  C    0.017614
    14  C   -0.046690
    15  C    0.139507
    16  F   -0.164167
    17  H    0.035162
    18  H    0.053553
    19  H    0.034613
    20  H    0.001240
    21  H    0.012381
    22  H    0.016072
    23  H    0.184054
    24  H    0.005764
    25  H    0.011379
    26  H    0.007187
 Sum of Mulliken charges =  -0.00000
 Mulliken charges with hydrogens summed into heavy atoms:
               1
     1  C    0.166823
     2  C   -0.137466
     3  C   -0.027378
     4  C    0.030914
     5  C   -0.011933
     6  C    0.099997
     7  F   -0.195450
     8  C    0.065875
     9  C    0.024182
    10  C    0.022205
    11  O    0.013901
    12  C   -0.016501
    13  C    0.028993
    14  C   -0.039503
    15  C    0.139507
    16  F   -0.164167
 Electronic spatial extent (au):  <R**2>=           3416.8262
 Charge=             -0.0000 electrons
 Dipole moment (field-independent basis, Debye):
    X=             -1.3805    Y=              0.6794    Z=             -0.5322  Tot=              1.6281
 Quadrupole moment (field-independent basis, Debye-Ang):
   XX=            -78.9648   YY=            -88.9134   ZZ=            -94.9007
   XY=              1.6775   XZ=             -1.0696   YZ=             -1.2474
 Traceless Quadrupole moment (field-independent basis, Debye-Ang):
   XX=              8.6282   YY=             -1.3205   ZZ=             -7.3077
   XY=              1.6775   XZ=             -1.0696   YZ=             -1.2474
 Octapole moment (field-independent basis, Debye-Ang**2):
  XXX=             -2.4854  YYY=             15.5969  ZZZ=             85.0232  XYY=            -13.3780
  XXY=              4.3189  XXZ=             29.4518  XZZ=             -2.3929  YZZ=              7.0160
  YYZ=             23.5473  XYZ=              3.5259
 Hexadecapole moment (field-independent basis, Debye-Ang**3):
 XXXX=          -2562.9069 YYYY=          -1348.1127 ZZZZ=           -244.9961 XXXY=             71.9147
 XXXZ=            -72.0922 YYYX=             79.4642 YYYZ=             82.5621 ZZZX=            -43.2700
 ZZZY=             83.1101 XXYY=           -657.7260 XXZZ=           -563.4324 YYZZ=           -273.2490
 XXYZ=             19.7817 YYXZ=            -17.7241 ZZXY=             23.0707
 N-N= 1.070057262570D+03 E-N=-3.951172568556D+03  KE= 7.677390206611D+02
   1 Symmetry operations used in ECPInt.
 ECPInt:  NShTT=    8001 NPrTT=   29641 LenC2=    7591 LenP2D=   20293.
 LDataN:  DoStor=T MaxTD1= 5 Len=  102
 Calling FoFJK, ICntrl=      2527 FMM=F ISym2X=0 I1Cent= 0 IOpClX= 0 NMat=1 NMatS=1 NMatT=0.
 -------------------------------------------------------------------
 Center     Atomic                   Forces (Hartrees/Bohr)
 Number     Number              X              Y              Z
 -------------------------------------------------------------------
      1        6           0.000030583   -0.000416329   -0.001188245
      2        6           0.000025883    0.000021666   -0.000129281
      3        6          -0.000014248    0.000020990   -0.000005583
      4        6          -0.000013516    0.000007474    0.000037340
      5        6           0.000002593    0.000007096   -0.000039829
      6        6          -0.000110555    0.000279899    0.000129251
      7        9          -0.000085919   -0.000341702    0.001187620
      8        6           0.000034001    0.000486235   -0.000004551
      9        6           0.000002525    0.000383773   -0.000098464
     10        6           0.000020245   -0.000009690   -0.000022738
     11        8           0.000212597   -0.000270002   -0.001291004
     12        6          -0.000043462   -0.000023959    0.000017963
     13        6          -0.000020428   -0.000033705   -0.000012340
     14        6           0.000002386    0.000005452   -0.000010714
     15        6          -0.000032966    0.000069603    0.000083273
     16        9          -0.000012809   -0.000138142    0.001383657
     17        1          -0.000006885    0.000000540   -0.000026699
     18        1          -0.000026816   -0.000000813   -0.000006905
     19        1          -0.000017532    0.000000514   -0.000016138
     20        1          -0.000009600    0.000004278    0.000001500
     21        1          -0.000006103    0.000008122   -0.000007948
     22        1           0.000008268   -0.000007312    0.000004364
     23        1           0.000042376   -0.000038243    0.000002560
     24        1           0.000010939   -0.000016967    0.000009288
     25        1           0.000002445   -0.000004499    0.000004445
     26        1           0.000005998    0.000005719   -0.000000823
 -------------------------------------------------------------------
 Cartesian Forces:  Max     0.001383657 RMS     0.000307761

 GradGradGradGradGradGradGradGradGradGradGradGradGradGradGradGradGradGrad
 Berny optimization.
 FormGI is forming the generalized inverse of G from B-inverse, IUseBI=4.
 Internal  Forces:  Max     0.002492678 RMS     0.000486024
 Search for a local minimum.
 Step number   1 out of a maximum of  142
 All quantities printed in internal units (Hartrees-Bohrs-Radians)
 Mixed Optimization -- En-DIIS/RFO-DIIS
 Second derivative matrix not updated -- first step.
 ITU=  0
     Eigenvalues ---    0.00488   0.01234   0.01264   0.01374   0.01630
     Eigenvalues ---    0.01702   0.01847   0.01860   0.01966   0.02017
     Eigenvalues ---    0.02040   0.02041   0.02119   0.02127   0.02130
     Eigenvalues ---    0.02146   0.02159   0.02161   0.02345   0.06583
     Eigenvalues ---    0.07412   0.15880   0.15957   0.15962   0.15972
     Eigenvalues ---    0.15978   0.15982   0.16000   0.16000   0.16000
     Eigenvalues ---    0.16000   0.21997   0.22075   0.22263   0.22708
     Eigenvalues ---    0.23080   0.24130   0.24435   0.24660   0.24684
     Eigenvalues ---    0.24916   0.24941   0.24991   0.30179   0.32094
     Eigenvalues ---    0.32667   0.32973   0.33295   0.33470   0.33637
     Eigenvalues ---    0.33685   0.33737   0.33765   0.33801   0.35797
     Eigenvalues ---    0.35927   0.38449   0.38632   0.41372   0.41775
     Eigenvalues ---    0.44315   0.44383   0.45122   0.45302   0.46397
     Eigenvalues ---    0.46585   0.48236   0.51364   0.54807   0.54856
     Eigenvalues --- 1000.000001000.000001000.000001000.000001000.00000
     Eigenvalues --- 1000.000001000.000001000.000001000.000001000.00000
     Eigenvalues --- 1000.000001000.000001000.000001000.000001000.00000
     Eigenvalues --- 1000.000001000.000001000.000001000.000001000.00000
     Eigenvalues --- 1000.000001000.000001000.000001000.000001000.00000
     Eigenvalues --- 1000.000001000.000001000.000001000.000001000.00000
     Eigenvalues --- 1000.000001000.000001000.000001000.000001000.00000
     Eigenvalues --- 1000.000001000.000001000.000001000.000001000.00000
     Eigenvalues --- 1000.000001000.000001000.000001000.000001000.00000
     Eigenvalues --- 1000.000001000.000001000.000001000.000001000.00000
     Eigenvalues --- 1000.000001000.000001000.000001000.000001000.00000
     Eigenvalues --- 1000.000001000.000001000.000001000.000001000.00000
     Eigenvalues --- 1000.000001000.00000
 RFO step:  Lambda=-2.71195172D-06 EMin= 4.88113253D-03
 Linear search not attempted -- first point.
 Iteration  1 RMS(Cart)=  0.00151159 RMS(Int)=  0.00000106
 Iteration  2 RMS(Cart)=  0.00000219 RMS(Int)=  0.00000030
 Iteration  3 RMS(Cart)=  0.00000000 RMS(Int)=  0.00000030
 Iteration  1 RMS(Cart)=  0.00000007 RMS(Int)=  0.00000007
 Variable       Old X    -DE/DX   Delta X   Delta X   Delta X     New X
                                 (Linear)    (Quad)   (Total)
    R1        2.87428   0.00013   0.00000  -0.00009  -0.00009   2.87419
    R2        2.09641   0.00002   0.00000   0.00006   0.00006   2.09647
    R3        2.09099  -0.00001   0.00000  -0.00003  -0.00003   2.09095
    R4        2.08537  -0.00000   0.00000  -0.00001  -0.00001   2.08536
    R5        2.66999  -0.00006   0.00000   0.00006   0.00006   2.67005
    R6        2.75323  -0.00001   0.00000   0.00041   0.00041   2.75364
    R7        2.64230  -0.00009   0.00000  -0.00007  -0.00007   2.64223
    R8        2.08235   0.00001   0.00000   0.00003   0.00003   2.08237
    R9        2.64202   0.00005   0.00000  -0.00002  -0.00002   2.64199
   R10        2.07865   0.00000   0.00000   0.00001   0.00001   2.07866
   R11        2.63147   0.00009   0.00000   0.00001   0.00001   2.63148
   R12        2.07775   0.00000   0.00000   0.00001   0.00001   2.07776
   R13        2.61485   0.00004   0.00000   0.00039   0.00039   2.61524
   R14        2.70413   0.00012   0.00000  -0.00007  -0.00007   2.70406
   R15        2.83972   0.00020   0.00000   0.00062   0.00062   2.84034
   R16        2.75766   0.00017   0.00000   0.00030   0.00030   2.75796
   R17        2.71405   0.00006   0.00000   0.00033   0.00033   2.71438
   R18        2.55226  -0.00021   0.00000  -0.00025  -0.00025   2.55201
   R19        2.67779  -0.00002   0.00000  -0.00015  -0.00015   2.67764
   R20        1.85214  -0.00004   0.00000  -0.00007  -0.00007   1.85207
   R21        2.62897  -0.00005   0.00000  -0.00018  -0.00018   2.62879
   R22        2.07728   0.00002   0.00000   0.00006   0.00006   2.07734
   R23        2.64642  -0.00006   0.00000  -0.00006  -0.00007   2.64635
   R24        2.07947   0.00000   0.00000   0.00001   0.00001   2.07948
   R25        2.63594  -0.00002   0.00000   0.00005   0.00005   2.63599
   R26        2.07668   0.00001   0.00000   0.00002   0.00002   2.07670
   R27        2.55240  -0.00000   0.00000  -0.00016  -0.00016   2.55225
    A1        1.86986  -0.00000   0.00000  -0.00009  -0.00009   1.86976
    A2        1.98653   0.00000   0.00000   0.00007   0.00007   1.98661
    A3        1.96905   0.00001   0.00000   0.00008   0.00008   1.96913
    A4        1.87476  -0.00000   0.00000  -0.00007  -0.00007   1.87469
    A5        1.87340  -0.00002   0.00000  -0.00023  -0.00023   1.87317
    A6        1.88480   0.00001   0.00000   0.00021   0.00021   1.88501
    A7        1.97447   0.00005   0.00000  -0.00060  -0.00060   1.97387
    A8        2.20754  -0.00039   0.00000   0.00065   0.00065   2.20818
    A9        2.08872   0.00029   0.00000   0.00004   0.00004   2.08876
   A10        2.15593  -0.00012   0.00000  -0.00001  -0.00001   2.15593
   A11        2.04607   0.00007   0.00000   0.00004   0.00004   2.04611
   A12        2.07862   0.00004   0.00000  -0.00005  -0.00005   2.07857
   A13        2.04423  -0.00005   0.00000  -0.00026  -0.00026   2.04396
   A14        2.11903   0.00002   0.00000   0.00001   0.00001   2.11905
   A15        2.11420   0.00002   0.00000   0.00014   0.00014   2.11434
   A16        2.06547   0.00014   0.00000   0.00005   0.00005   2.06552
   A17        2.14904  -0.00005   0.00000   0.00003   0.00003   2.14907
   A18        2.06738  -0.00008   0.00000  -0.00008  -0.00008   2.06730
   A19        1.97554  -0.00024   0.00000  -0.00020  -0.00020   1.97534
   A20        2.20936  -0.00010   0.00000   0.00018   0.00018   2.20955
   A21        2.09577   0.00038   0.00000  -0.00010  -0.00010   2.09567
   A22        1.92986  -0.00018   0.00000  -0.00065  -0.00065   1.92921
   A23        2.20867   0.00019   0.00000   0.00017   0.00017   2.20884
   A24        2.14461  -0.00001   0.00000   0.00047   0.00047   2.14507
   A25        2.20120   0.00019   0.00000   0.00060   0.00060   2.20180
   A26        2.13960  -0.00004   0.00000   0.00021   0.00020   2.13981
   A27        1.93375  -0.00014   0.00000  -0.00045  -0.00045   1.93330
   A28        2.20669   0.00037   0.00000   0.00060   0.00060   2.20729
   A29        2.11966  -0.00002   0.00000   0.00039   0.00039   2.12005
   A30        1.95331  -0.00031   0.00000  -0.00098  -0.00098   1.95233
   A31        1.94683   0.00006   0.00000   0.00039   0.00039   1.94722
   A32        2.13155   0.00008   0.00000   0.00005   0.00005   2.13159
   A33        2.02301  -0.00004   0.00000  -0.00001  -0.00001   2.02300
   A34        2.12709  -0.00004   0.00000  -0.00003  -0.00003   2.12706
   A35        2.06365  -0.00002   0.00000  -0.00010  -0.00010   2.06355
   A36        2.10869  -0.00000   0.00000   0.00002   0.00002   2.10871
   A37        2.10924   0.00002   0.00000   0.00009   0.00009   2.10932
   A38        2.07661  -0.00003   0.00000   0.00013   0.00013   2.07673
   A39        2.14692   0.00000   0.00000  -0.00007  -0.00007   2.14685
   A40        2.05798   0.00003   0.00000  -0.00004  -0.00004   2.05794
   A41        2.20185   0.00013   0.00000   0.00015   0.00015   2.20200
   A42        2.09463  -0.00010   0.00000   0.00046   0.00046   2.09509
   A43        1.98483  -0.00006   0.00000  -0.00052  -0.00052   1.98431
    D1       -0.60615   0.00014   0.00000  -0.00169  -0.00169  -0.60784
    D2        2.36448  -0.00016   0.00000  -0.00110  -0.00110   2.36338
    D3        1.46357   0.00013   0.00000  -0.00180  -0.00180   1.46177
    D4       -1.84899  -0.00017   0.00000  -0.00120  -0.00120  -1.85020
    D5       -2.66402   0.00016   0.00000  -0.00140  -0.00140  -2.66541
    D6        0.30661  -0.00014   0.00000  -0.00080  -0.00080   0.30581
    D7        2.83224  -0.00036   0.00000  -0.00035  -0.00035   2.83188
    D8       -0.23169  -0.00028   0.00000  -0.00007  -0.00007  -0.23176
    D9       -0.15125  -0.00001   0.00000  -0.00098  -0.00098  -0.15223
   D10        3.06800   0.00006   0.00000  -0.00069  -0.00069   3.06731
   D11       -2.59302   0.00043   0.00000   0.00110   0.00110  -2.59192
   D12        0.53837   0.00038   0.00000  -0.00006  -0.00006   0.53831
   D13        0.36750   0.00008   0.00000   0.00168   0.00168   0.36918
   D14       -2.78429   0.00003   0.00000   0.00052   0.00052  -2.78377
   D15       -0.12609  -0.00005   0.00000  -0.00058  -0.00058  -0.12668
   D16        3.12905  -0.00002   0.00000   0.00053   0.00053   3.12958
   D17        2.93647  -0.00012   0.00000  -0.00087  -0.00087   2.93560
   D18       -0.09158  -0.00009   0.00000   0.00024   0.00024  -0.09134
   D19        0.14362  -0.00000   0.00000   0.00115   0.00116   0.14477
   D20       -2.94236  -0.00007   0.00000   0.00108   0.00108  -2.94128
   D21       -3.11119  -0.00003   0.00000   0.00004   0.00004  -3.11115
   D22        0.08602  -0.00010   0.00000  -0.00004  -0.00004   0.08598
   D23       -2.94184  -0.00038   0.00000   0.00161   0.00161  -2.94023
   D24        0.12304   0.00010   0.00000  -0.00016  -0.00016   0.12288
   D25        0.14679  -0.00032   0.00000   0.00168   0.00168   0.14847
   D26       -3.07152   0.00016   0.00000  -0.00009  -0.00009  -3.07161
   D27       -0.37164  -0.00008   0.00000  -0.00119  -0.00119  -0.37283
   D28        2.77971  -0.00003   0.00000  -0.00008  -0.00008   2.77963
   D29        2.68845   0.00041   0.00000  -0.00307  -0.00307   2.68538
   D30       -0.44338   0.00046   0.00000  -0.00197  -0.00197  -0.44535
   D31        0.40149   0.00249   0.00000   0.00000  -0.00000   0.40149
   D32        3.04203   0.00197   0.00000   0.00305   0.00305   3.04508
   D33        0.05451   0.00196   0.00000  -0.00007  -0.00007   0.05444
   D34       -0.11094   0.00191   0.00000   0.00175   0.00175  -0.10918
   D35       -3.09845   0.00190   0.00000  -0.00136  -0.00136  -3.09981
   D36       -0.43160   0.00241   0.00000   0.00000   0.00000  -0.43160
   D37       -0.24522   0.00041   0.00000  -0.00199  -0.00199  -0.24720
   D38        2.99400  -0.00004   0.00000  -0.00206  -0.00206   2.99194
   D39        2.75762   0.00043   0.00000   0.00086   0.00086   2.75847
   D40       -0.28635  -0.00002   0.00000   0.00078   0.00078  -0.28557
   D41       -2.99792   0.00001   0.00000   0.00239   0.00239  -2.99553
   D42        0.21393   0.00056   0.00000   0.00061   0.00061   0.21454
   D43        0.27667  -0.00003   0.00000  -0.00038  -0.00037   0.27630
   D44       -2.79467   0.00052   0.00000  -0.00215  -0.00215  -2.79682
   D45        0.51371  -0.00019   0.00000   0.00102   0.00102   0.51473
   D46       -2.71764   0.00024   0.00000   0.00115   0.00115  -2.71649
   D47        0.14461   0.00007   0.00000  -0.00064  -0.00064   0.14397
   D48       -3.05560   0.00012   0.00000  -0.00039  -0.00039  -3.05599
   D49       -2.91235  -0.00035   0.00000  -0.00078  -0.00078  -2.91313
   D50        0.17063  -0.00030   0.00000  -0.00053  -0.00053   0.17010
   D51        0.05327  -0.00001   0.00000   0.00007   0.00007   0.05334
   D52        3.13450  -0.00004   0.00000   0.00024   0.00024   3.13474
   D53       -3.02624  -0.00007   0.00000  -0.00019  -0.00019  -3.02643
   D54        0.05499  -0.00009   0.00000  -0.00002  -0.00002   0.05497
   D55       -0.07533  -0.00006   0.00000   0.00037   0.00037  -0.07495
   D56        3.00286  -0.00013   0.00000   0.00055   0.00055   3.00341
   D57        3.12665  -0.00003   0.00000   0.00020   0.00020   3.12685
   D58       -0.07835  -0.00010   0.00000   0.00038   0.00038  -0.07796
   D59       -0.10623   0.00007   0.00000  -0.00026  -0.00026  -0.10649
   D60        2.96893  -0.00045   0.00000   0.00145   0.00145   2.97038
   D61        3.09554   0.00014   0.00000  -0.00043  -0.00043   3.09511
   D62       -0.11250  -0.00038   0.00000   0.00128   0.00128  -0.11122
         Item               Value     Threshold  Converged?
 Maximum Force            0.000243     0.000450     YES
 RMS     Force            0.000059     0.000300     YES
 Maximum Displacement     0.005430     0.001800     NO 
 RMS     Displacement     0.001511     0.001200     NO 
 Predicted change in Energy=-1.356231D-06
 GradGradGradGradGradGradGradGradGradGradGradGradGradGradGradGradGradGrad

                          Input orientation:                          
 ---------------------------------------------------------------------
 Center     Atomic      Atomic             Coordinates (Angstroms)
 Number     Number       Type             X           Y           Z
 ---------------------------------------------------------------------
      1          6           0       -1.033955    2.457084   -1.295738
      2          6           0       -1.490013    1.188752   -0.591005
      3          6           0       -2.866541    1.196108   -0.272445
      4          6           0       -3.593111    0.043025    0.039766
      5          6           0       -2.941771   -1.183540   -0.121254
      6          6           0       -1.578752   -1.175931   -0.406258
      7          9           0       -1.096049   -2.414180   -0.792240
      8          6           0       -0.716374   -0.034147   -0.419751
      9          6           0        0.777239   -0.137431   -0.287149
     10          6           0        1.534489   -1.352400   -0.003564
     11          8           0        1.034440   -2.523020    0.447382
     12          6           0        2.949412   -1.375906   -0.075571
     13          6           0        3.700592   -0.218431   -0.252006
     14          6           0        3.026811    1.008458   -0.295002
     15          6           0        1.632614    1.015934   -0.251238
     16          9           0        1.101363    2.246857   -0.087847
     17          1           0       -1.871786    2.791338   -1.941567
     18          1           0       -0.794208    3.289411   -0.607215
     19          1           0       -0.160297    2.292924   -1.949603
     20          1           0       -3.396544    2.159243   -0.348268
     21          1           0       -4.662335    0.090328    0.293695
     22          1           0       -3.463633   -2.150581   -0.083816
     23          1           0        0.110919   -2.659148    0.148849
     24          1           0        3.421715   -2.357287    0.073556
     25          1           0        4.799200   -0.260911   -0.298520
     26          1           0        3.546405    1.976765   -0.303895
 ---------------------------------------------------------------------
                    Distance matrix (angstroms):
                    1          2          3          4          5
     1  C    0.000000
     2  C    1.520955   0.000000
     3  C    2.448584   1.412928   0.000000
     4  C    3.763048   2.476607   1.398206   0.000000
     5  C    4.274731   2.820645   2.385633   1.398082   0.000000
     6  C    3.779785   2.373548   2.702384   2.396338   1.392518
     7  F    4.897610   3.629989   4.054506   3.600751   2.317626
     8  C    2.659782   1.457163   2.481622   2.914228   2.522419
     9  C    3.321021   2.644148   3.880165   4.386274   3.866898
    10  C    4.772713   3.993764   5.092766   5.314261   4.480990
    11  O    5.667288   4.607424   5.437621   5.307067   4.234124
    12  C    5.661080   5.152827   6.362337   6.695615   5.894500
    13  C    5.537481   5.388642   6.717781   7.304218   6.713384
    14  C    4.426037   4.530101   5.896382   6.698320   6.360740
    15  C    3.206006   3.145807   4.502811   5.323479   5.077360
    16  F    2.462271   2.843938   4.108822   5.187605   5.302422
    17  H    1.109406   2.130270   2.514013   3.800245   4.500895
    18  H    1.106486   2.212957   2.964549   4.334912   4.985527
    19  H    1.103524   2.198438   3.367436   4.561123   4.813031
    20  H    2.562857   2.153053   1.101944   2.160460   3.381206
    21  H    4.614431   3.471722   2.183607   1.099981   2.180657
    22  H    5.348146   3.911977   3.404766   2.200896   1.099504
    23  H    5.438143   4.232812   4.889352   4.586226   3.401366
    24  H    6.701203   6.094350   7.231079   7.414204   6.473762
    25  H    6.512114   6.460748   7.803024   8.404623   7.797776
    26  H    4.711067   5.105771   6.460363   7.404738   7.219233
                    6          7          8          9         10
     6  C    0.000000
     7  F    1.383924   0.000000
     8  C    1.430926   2.438742   0.000000
     9  C    2.577472   2.991306   1.503041   0.000000
    10  C    3.144133   2.944337   2.641475   1.459451   0.000000
    11  O    3.061392   2.467284   3.164136   2.509327   1.350464
    12  C    4.544624   4.237615   3.918771   2.509366   1.416948
    13  C    5.367688   5.302918   4.423991   2.924686   2.457562
    14  C    5.098543   5.381419   3.887675   2.524618   2.808133
    15  C    3.891166   4.416330   2.578529   1.436387   2.383271
    16  F    4.358886   5.200968   2.935526   2.414458   3.626204
    17  H    4.264067   5.387034   3.410903   4.281602   5.703431
    18  H    4.538190   5.714569   3.329750   3.783534   5.228158
    19  H    4.053009   4.936796   2.839882   3.090202   4.466291
    20  H    3.798831   5.138637   3.464012   4.764338   6.063460
    21  H    3.406147   4.491126   4.011871   5.475237   6.369495
    22  H    2.146320   2.485318   3.484190   4.698842   5.062091
    23  H    2.315829   1.549978   2.810401   2.644454   1.938395
    24  H    5.160474   4.600330   4.771176   3.471473   2.139478
    25  H    6.444155   6.295577   5.521565   4.023872   3.454950
    26  H    6.018073   6.408687   4.714709   3.484019   3.901454
                   11         12         13         14         15
    11  O    0.000000
    12  C    2.292699   0.000000
    13  C    3.592860   1.391096   0.000000
    14  C    4.122137   2.395690   1.400388   0.000000
    15  C    3.656512   2.736004   2.408359   1.394904   0.000000
    16  F    4.800279   4.066921   3.586166   2.298672   1.350591
    17  H    6.511192   6.640166   6.554749   5.466817   4.276691
    18  H    6.183889   6.005207   5.712649   4.460987   3.344380
    19  H    5.510558   5.161647   4.908687   3.813818   2.780229
    20  H    6.495403   7.269305   7.485449   6.525843   5.158391
    21  H    6.269486   7.760470   8.386398   7.766112   6.385928
    22  H    4.544617   6.459670   7.422103   7.221495   6.002215
    23  H    0.980073   3.123158   4.359305   4.706460   3.997732
    24  H    2.422044   1.099281   2.181391   3.408816   3.832101
    25  H    4.454989   2.171321   1.100412   2.180063   3.414651
    26  H    5.207922   3.413054   2.201217   1.098943   2.142094
                   16         17         18         19         20
    16  F    0.000000
    17  H    3.545752   0.000000
    18  H    2.224826   1.785986   0.000000
    19  H    2.249454   1.782604   1.787969   0.000000
    20  H    4.506292   2.294129   2.848945   3.613231   0.000000
    21  H    6.165745   4.480961   5.099821   5.491098   2.508934
    22  H    6.338507   5.514324   6.082211   5.842767   4.318451
    23  H    5.010579   6.165124   6.064342   5.385172   5.980495
    24  H    5.158317   7.654424   7.079735   6.208739   8.189362
    25  H    4.472950   7.517838   6.632216   5.817625   8.545750
    26  H    2.469384   5.718592   4.544883   4.067917   6.945488
                   21         22         23         24         25
    21  H    0.000000
    22  H    2.569256   0.000000
    23  H    5.510404   3.618037   0.000000
    24  H    8.449329   6.890248   3.325382   0.000000
    25  H    9.486556   8.478877   5.285041   2.535882   0.000000
    26  H    8.443884   8.137816   5.787853   4.352244   2.564512
                   26
    26  H    0.000000
 Symmetry turned off by external request.
 Stoichiometry    C13H10F2O
 Framework group  C1[X(C13H10F2O)]
 Deg. of freedom    72
 Full point group                 C1      NOp   1
 Rotational constants (GHZ):           0.8400583           0.4713180           0.3133269
 Standard basis: def2SVP (5D, 7F)
   274 basis functions,   470 primitive gaussians,   290 cartesian basis functions
    57 alpha electrons       57 beta electrons
       nuclear repulsion energy      1069.9269268410 Hartrees.
 NAtoms=   26 NActive=   26 NUniq=   26 SFac= 1.00D+00 NAtFMM=   60 NAOKFM=F Big=F
 Integral buffers will be    131072 words long.
 Raffenetti 2 integral format.
 Two-electron integral symmetry is turned off.
 Nuclear repulsion after empirical dispersion term =     1069.8752911344 Hartrees.
 One-electron integrals computed using PRISM.
   1 Symmetry operations used in ECPInt.
 ECPInt:  NShTT=    8001 NPrTT=   29641 LenC2=    7591 LenP2D=   20291.
 LDataN:  DoStor=T MaxTD1= 4 Len=   56
 NBasis=   274 RedAO= T EigKep=  3.22D-04  NBF=   274
 NBsUse=   274 1.00D-06 EigRej= -1.00D+00 NBFU=   274
 Initial guess from the checkpoint file:  "path/to/scratch/gaussian_tmp/Gau-2268774.chk"
 B after Tr=     0.000166    0.000045    0.000650
         Rot=    1.000000   -0.000093    0.000017    0.000026 Ang=  -0.01 deg.
 Requested convergence on RMS density matrix=1.00D-08 within 128 cycles.
 Requested convergence on MAX density matrix=1.00D-06.
 Requested convergence on             energy=1.00D-06.
 No special actions if energy rises.
 SCF Done:  E(RB-P86) =  -775.751511097     A.U. after    9 cycles
            NFock=  9  Conv=0.45D-08     -V/T= 2.0104
   1 Symmetry operations used in ECPInt.
 ECPInt:  NShTT=    8001 NPrTT=   29641 LenC2=    7591 LenP2D=   20291.
 LDataN:  DoStor=T MaxTD1= 5 Len=  102
 Calling FoFJK, ICntrl=      2527 FMM=F ISym2X=0 I1Cent= 0 IOpClX= 0 NMat=1 NMatS=1 NMatT=0.
 -------------------------------------------------------------------
 Center     Atomic                   Forces (Hartrees/Bohr)
 Number     Number              X              Y              Z
 -------------------------------------------------------------------
      1        6           0.000190634   -0.000467915   -0.001209100
      2        6           0.000058146    0.000011610    0.000043545
      3        6          -0.000017629    0.000004682    0.000009005
      4        6          -0.000036332    0.000001685   -0.000009184
      5        6           0.000016032   -0.000014295    0.000028010
      6        6          -0.000026600   -0.000014169   -0.000017775
      7        9           0.000265804   -0.000242404    0.001586096
      8        6           0.000103344    0.000651764   -0.000085834
      9        6           0.000055796    0.000385698   -0.000268328
     10        6           0.000024434    0.000133850   -0.000071233
     11        8          -0.000270229   -0.000477196   -0.001344254
     12        6           0.000007142    0.000002857    0.000021643
     13        6           0.000035168    0.000023998   -0.000003095
     14        6           0.000023123   -0.000031477    0.000038502
     15        6          -0.000075208    0.000040145   -0.000039487
     16        9          -0.000294622   -0.000070900    0.001368592
     17        1           0.000013566    0.000002480   -0.000001830
     18        1           0.000037262    0.000005146    0.000038462
     19        1           0.000020216    0.000006497    0.000003545
     20        1           0.000001370    0.000000106   -0.000000638
     21        1           0.000002034    0.000002783    0.000008687
     22        1           0.000011609   -0.000006180   -0.000001212
     23        1          -0.000125676    0.000044558   -0.000087648
     24        1          -0.000010773    0.000002693   -0.000001908
     25        1           0.000000115    0.000001709   -0.000001257
     26        1          -0.000008727    0.000002274   -0.000003304
 -------------------------------------------------------------------
 Cartesian Forces:  Max     0.001586096 RMS     0.000343038

 GradGradGradGradGradGradGradGradGradGradGradGradGradGradGradGradGradGrad
 Berny optimization.
 Using GEDIIS/GDIIS optimizer.
 FormGI is forming the generalized inverse of G from B-inverse, IUseBI=4.
 Internal  Forces:  Max     0.002598898 RMS     0.000541029
 Search for a local minimum.
 Step number   2 out of a maximum of  142
 All quantities printed in internal units (Hartrees-Bohrs-Radians)
 Mixed Optimization -- En-DIIS/RFO-DIIS
 Swapping is turned off.
 Update second derivatives using D2CorX and points    1    2
 DE=  1.87D-06 DEPred=-1.36D-06 R=-1.38D+00
 Trust test=-1.38D+00 RLast= 9.49D-03 DXMaxT set to 5.00D-02
 ITU= -1  0
     Eigenvalues ---    0.00481   0.01166   0.01267   0.01476   0.01626
     Eigenvalues ---    0.01759   0.01847   0.01961   0.02015   0.02034
     Eigenvalues ---    0.02040   0.02113   0.02120   0.02129   0.02130
     Eigenvalues ---    0.02156   0.02158   0.02163   0.02314   0.06576
     Eigenvalues ---    0.07406   0.15870   0.15917   0.15958   0.15964
     Eigenvalues ---    0.15973   0.15982   0.15989   0.16000   0.16000
     Eigenvalues ---    0.16037   0.20913   0.22051   0.22131   0.22436
     Eigenvalues ---    0.22870   0.23483   0.24301   0.24519   0.24788
     Eigenvalues ---    0.24863   0.24925   0.30169   0.30652   0.32658
     Eigenvalues ---    0.32971   0.33294   0.33468   0.33637   0.33684
     Eigenvalues ---    0.33737   0.33754   0.33799   0.34589   0.35703
     Eigenvalues ---    0.37882   0.38208   0.41327   0.41754   0.44188
     Eigenvalues ---    0.44353   0.45080   0.45287   0.46396   0.46532
     Eigenvalues ---    0.47167   0.51194   0.54095   0.54844   0.95533
     Eigenvalues --- 1000.000001000.000001000.000001000.000001000.00000
     Eigenvalues --- 1000.000001000.000001000.000001000.000001000.00000
     Eigenvalues --- 1000.000001000.000001000.000001000.000001000.00000
     Eigenvalues --- 1000.000001000.000001000.000001000.000001000.00000
     Eigenvalues --- 1000.000001000.000001000.000001000.000001000.00000
     Eigenvalues --- 1000.000001000.000001000.000001000.000001000.00000
     Eigenvalues --- 1000.000001000.000001000.000001000.000001000.00000
     Eigenvalues --- 1000.000001000.000001000.000001000.000001000.00000
     Eigenvalues --- 1000.000001000.000001000.000001000.000001000.00000
     Eigenvalues --- 1000.000001000.000001000.000001000.000001000.00000
     Eigenvalues --- 1000.000001000.000001000.000001000.000001000.00000
     Eigenvalues --- 1000.000001000.000001000.000001000.000001000.00000
     Eigenvalues --- 1000.000001000.00000
 En-DIIS/RFO-DIIS/Sim-DIIS IScMMF=       -3 using points:     2    1
 RFO step:  Lambda=-5.54221342D-06.
 DidBck=T Rises=T En-DIIS coefs:    0.39719    0.60281
 Iteration  1 RMS(Cart)=  0.00141315 RMS(Int)=  0.00000065
 Iteration  2 RMS(Cart)=  0.00000132 RMS(Int)=  0.00000027
 Iteration  3 RMS(Cart)=  0.00000000 RMS(Int)=  0.00000027
 Iteration  1 RMS(Cart)=  0.00000040 RMS(Int)=  0.00000015
 Variable       Old X    -DE/DX   Delta X   Delta X   Delta X     New X
                                 (Linear)    (Quad)   (Total)
    R1        2.87419   0.00015   0.00005  -0.00008  -0.00003   2.87416
    R2        2.09647  -0.00001  -0.00004   0.00005   0.00002   2.09649
    R3        2.09095   0.00004   0.00002   0.00000   0.00002   2.09097
    R4        2.08536   0.00001   0.00001  -0.00000   0.00001   2.08536
    R5        2.67005  -0.00004  -0.00003   0.00010   0.00007   2.67011
    R6        2.75364  -0.00042  -0.00024   0.00017  -0.00007   2.75357
    R7        2.64223   0.00010   0.00004   0.00005   0.00009   2.64232
    R8        2.08237  -0.00000  -0.00002   0.00002   0.00001   2.08238
    R9        2.64199   0.00022   0.00001   0.00008   0.00009   2.64208
   R10        2.07866   0.00000  -0.00001   0.00001   0.00001   2.07867
   R11        2.63148   0.00006  -0.00001  -0.00001  -0.00002   2.63146
   R12        2.07776  -0.00000  -0.00000   0.00001   0.00000   2.07776
   R13        2.61524  -0.00003  -0.00024   0.00048   0.00024   2.61548
   R14        2.70406  -0.00016   0.00004  -0.00033  -0.00029   2.70377
   R15        2.84034  -0.00067  -0.00037  -0.00002  -0.00039   2.83994
   R16        2.75796  -0.00046  -0.00018  -0.00014  -0.00032   2.75764
   R17        2.71438  -0.00028  -0.00020   0.00017  -0.00003   2.71434
   R18        2.55201   0.00010   0.00015  -0.00014   0.00001   2.55202
   R19        2.67764   0.00004   0.00009  -0.00015  -0.00006   2.67758
   R20        1.85207   0.00014   0.00004   0.00001   0.00005   1.85212
   R21        2.62879   0.00019   0.00011  -0.00007   0.00003   2.62883
   R22        2.07734  -0.00001  -0.00004   0.00006   0.00002   2.07736
   R23        2.64635   0.00013   0.00004   0.00004   0.00008   2.64643
   R24        2.07948   0.00000  -0.00000   0.00001   0.00000   2.07948
   R25        2.63599   0.00001  -0.00003   0.00008   0.00005   2.63604
   R26        2.07670  -0.00000  -0.00001   0.00002   0.00001   2.07671
   R27        2.55225   0.00016   0.00009  -0.00010  -0.00001   2.55224
    A1        1.86976   0.00003   0.00006  -0.00000   0.00005   1.86981
    A2        1.98661  -0.00004  -0.00004  -0.00001  -0.00005   1.98655
    A3        1.96913   0.00000  -0.00005   0.00007   0.00002   1.96915
    A4        1.87469   0.00002   0.00004  -0.00000   0.00004   1.87473
    A5        1.87317  -0.00000   0.00014  -0.00020  -0.00006   1.87310
    A6        1.88501  -0.00001  -0.00013   0.00013   0.00001   1.88501
    A7        1.97387   0.00055   0.00036  -0.00018   0.00018   1.97406
    A8        2.20818  -0.00067  -0.00039   0.00039  -0.00000   2.20818
    A9        2.08876   0.00007  -0.00003  -0.00011  -0.00014   2.08863
   A10        2.15593  -0.00020   0.00001  -0.00001  -0.00001   2.15592
   A11        2.04611   0.00010  -0.00002   0.00004   0.00002   2.04613
   A12        2.07857   0.00010   0.00003  -0.00003  -0.00000   2.07857
   A13        2.04396   0.00008   0.00016  -0.00010   0.00006   2.04402
   A14        2.11905  -0.00002  -0.00001  -0.00004  -0.00005   2.11900
   A15        2.11434  -0.00004  -0.00008   0.00009   0.00001   2.11434
   A16        2.06552   0.00002  -0.00003  -0.00006  -0.00009   2.06544
   A17        2.14907   0.00002  -0.00002   0.00012   0.00010   2.14917
   A18        2.06730  -0.00003   0.00005  -0.00005  -0.00000   2.06730
   A19        1.97534   0.00027   0.00012   0.00041   0.00053   1.97587
   A20        2.20955  -0.00029  -0.00011   0.00014   0.00003   2.20958
   A21        2.09567   0.00006   0.00006  -0.00060  -0.00054   2.09513
   A22        1.92921   0.00035   0.00039  -0.00012   0.00027   1.92948
   A23        2.20884   0.00042  -0.00010   0.00046   0.00036   2.20920
   A24        2.14507  -0.00077  -0.00028  -0.00036  -0.00064   2.14443
   A25        2.20180  -0.00075  -0.00036  -0.00047  -0.00084   2.20096
   A26        2.13981   0.00031  -0.00012   0.00053   0.00041   2.14022
   A27        1.93330   0.00043   0.00027  -0.00006   0.00022   1.93351
   A28        2.20729  -0.00036  -0.00036  -0.00018  -0.00054   2.20675
   A29        2.12005  -0.00017  -0.00024   0.00036   0.00012   2.12017
   A30        1.95233   0.00057   0.00059  -0.00018   0.00041   1.95274
   A31        1.94722  -0.00014  -0.00023   0.00011  -0.00012   1.94710
   A32        2.13159  -0.00005  -0.00003  -0.00011  -0.00013   2.13146
   A33        2.02300   0.00001   0.00001   0.00005   0.00006   2.02306
   A34        2.12706   0.00005   0.00002   0.00007   0.00009   2.12715
   A35        2.06355   0.00005   0.00006  -0.00000   0.00006   2.06361
   A36        2.10871  -0.00003  -0.00001  -0.00002  -0.00004   2.10867
   A37        2.10932  -0.00002  -0.00005   0.00003  -0.00002   2.10931
   A38        2.07673  -0.00010  -0.00008   0.00011   0.00004   2.07677
   A39        2.14685   0.00005   0.00004  -0.00006  -0.00001   2.14684
   A40        2.05794   0.00005   0.00003  -0.00006  -0.00003   2.05791
   A41        2.20200  -0.00014  -0.00009  -0.00012  -0.00021   2.20179
   A42        2.09509  -0.00026  -0.00028   0.00036   0.00008   2.09517
   A43        1.98431   0.00036   0.00031  -0.00019   0.00013   1.98444
    D1       -0.60784   0.00016   0.00102  -0.00143  -0.00041  -0.60825
    D2        2.36338  -0.00015   0.00066  -0.00077  -0.00011   2.36327
    D3        1.46177   0.00018   0.00108  -0.00144  -0.00035   1.46142
    D4       -1.85020  -0.00013   0.00073  -0.00078  -0.00006  -1.85025
    D5       -2.66541   0.00014   0.00084  -0.00121  -0.00037  -2.66578
    D6        0.30581  -0.00017   0.00048  -0.00056  -0.00007   0.30573
    D7        2.83188  -0.00027   0.00021   0.00023   0.00044   2.83232
    D8       -0.23176  -0.00024   0.00004   0.00027   0.00031  -0.23145
    D9       -0.15223   0.00010   0.00059  -0.00043   0.00016  -0.15207
   D10        3.06731   0.00014   0.00042  -0.00039   0.00002   3.06734
   D11       -2.59192   0.00025  -0.00066   0.00002  -0.00064  -2.59256
   D12        0.53831   0.00028   0.00003  -0.00179  -0.00175   0.53656
   D13        0.36918  -0.00004  -0.00101   0.00071  -0.00030   0.36888
   D14       -2.78377  -0.00001  -0.00032  -0.00109  -0.00141  -2.78518
   D15       -0.12668   0.00003   0.00035  -0.00024   0.00011  -0.12656
   D16        3.12958  -0.00007  -0.00032   0.00024  -0.00008   3.12950
   D17        2.93560  -0.00000   0.00052  -0.00027   0.00025   2.93585
   D18       -0.09134  -0.00010  -0.00015   0.00020   0.00006  -0.09128
   D19        0.14477  -0.00012  -0.00070   0.00057  -0.00013   0.14464
   D20       -2.94128  -0.00022  -0.00065   0.00036  -0.00029  -2.94158
   D21       -3.11115  -0.00002  -0.00002   0.00008   0.00006  -3.11109
   D22        0.08598  -0.00012   0.00002  -0.00012  -0.00010   0.08588
   D23       -2.94023  -0.00060  -0.00097   0.00057  -0.00040  -2.94063
   D24        0.12288   0.00005   0.00010  -0.00020  -0.00010   0.12278
   D25        0.14847  -0.00050  -0.00102   0.00078  -0.00024   0.14823
   D26       -3.07161   0.00014   0.00005   0.00001   0.00006  -3.07155
   D27       -0.37283   0.00003   0.00072  -0.00045   0.00027  -0.37256
   D28        2.77963  -0.00001   0.00005   0.00127   0.00132   2.78095
   D29        2.68538   0.00072   0.00185  -0.00122   0.00063   2.68601
   D30       -0.44535   0.00068   0.00119   0.00050   0.00168  -0.44367
   D31        0.40149   0.00256   0.00000   0.00000   0.00000   0.40149
   D32        3.04508   0.00200  -0.00184   0.00160  -0.00023   3.04484
   D33        0.05444   0.00201   0.00004   0.00156   0.00160   0.05604
   D34       -0.10918   0.00204  -0.00106  -0.00041  -0.00147  -0.11065
   D35       -3.09981   0.00205   0.00082  -0.00045   0.00036  -3.09945
   D36       -0.43160   0.00260  -0.00000   0.00000   0.00000  -0.43159
   D37       -0.24720   0.00058   0.00120   0.00074   0.00194  -0.24527
   D38        2.99194   0.00003   0.00124   0.00076   0.00201   2.99395
   D39        2.75847   0.00057  -0.00052   0.00083   0.00032   2.75879
   D40       -0.28557   0.00002  -0.00047   0.00085   0.00038  -0.28518
   D41       -2.99553  -0.00018  -0.00144  -0.00042  -0.00186  -2.99739
   D42        0.21454   0.00042  -0.00037  -0.00144  -0.00182   0.21272
   D43        0.27630  -0.00008   0.00023  -0.00042  -0.00019   0.27610
   D44       -2.79682   0.00052   0.00130  -0.00144  -0.00015  -2.79696
   D45        0.51473  -0.00023  -0.00061   0.00117   0.00055   0.51528
   D46       -2.71649   0.00025  -0.00069   0.00117   0.00048  -2.71601
   D47        0.14397  -0.00000   0.00039  -0.00080  -0.00041   0.14356
   D48       -3.05599   0.00009   0.00024  -0.00048  -0.00024  -3.05623
   D49       -2.91313  -0.00044   0.00047  -0.00077  -0.00030  -2.91343
   D50        0.17010  -0.00035   0.00032  -0.00045  -0.00013   0.16997
   D51        0.05334  -0.00005  -0.00004   0.00015   0.00011   0.05344
   D52        3.13474  -0.00002  -0.00015   0.00027   0.00013   3.13487
   D53       -3.02643  -0.00014   0.00012  -0.00019  -0.00007  -3.02650
   D54        0.05497  -0.00011   0.00001  -0.00006  -0.00005   0.05492
   D55       -0.07495  -0.00000  -0.00022   0.00037   0.00014  -0.07481
   D56        3.00341  -0.00008  -0.00033   0.00040   0.00006   3.00348
   D57        3.12685  -0.00003  -0.00012   0.00025   0.00012   3.12698
   D58       -0.07796  -0.00011  -0.00023   0.00027   0.00004  -0.07792
   D59       -0.10649   0.00013   0.00016  -0.00022  -0.00007  -0.10655
   D60        2.97038  -0.00046  -0.00087   0.00076  -0.00011   2.97026
   D61        3.09511   0.00020   0.00026  -0.00025   0.00001   3.09512
   D62       -0.11122  -0.00039  -0.00077   0.00074  -0.00004  -0.11125
         Item               Value     Threshold  Converged?
 Maximum Force            0.000801     0.000450     NO 
 RMS     Force            0.000188     0.000300     YES
 Maximum Displacement     0.005334     0.001800     NO 
 RMS     Displacement     0.001413     0.001200     NO 
 Predicted change in Energy=-2.766756D-06
 GradGradGradGradGradGradGradGradGradGradGradGradGradGradGradGradGradGrad

                          Input orientation:                          
 ---------------------------------------------------------------------
 Center     Atomic      Atomic             Coordinates (Angstroms)
 Number     Number       Type             X           Y           Z
 ---------------------------------------------------------------------
      1          6           0       -1.034518    2.457682   -1.295439
      2          6           0       -1.490256    1.189087   -0.591003
      3          6           0       -2.866855    1.195677   -0.272573
      4          6           0       -3.592767    0.042176    0.039837
      5          6           0       -2.940657   -1.184100   -0.120689
      6          6           0       -1.577630   -1.175658   -0.405582
      7          9           0       -1.093226   -2.413648   -0.790727
      8          6           0       -0.716117   -0.033418   -0.419519
      9          6           0        0.777417   -0.136695   -0.288367
     10          6           0        1.533714   -1.351936   -0.004271
     11          8           0        1.032031   -2.522006    0.446301
     12          6           0        2.948646   -1.376349   -0.075112
     13          6           0        3.700544   -0.219292   -0.251370
     14          6           0        3.027458    1.007999   -0.295234
     15          6           0        1.633213    1.016330   -0.252299
     16          9           0        1.102452    2.247545   -0.089560
     17          1           0       -1.872170    2.791562   -1.941708
     18          1           0       -0.795533    3.290064   -0.606702
     19          1           0       -0.160455    2.294030   -1.948896
     20          1           0       -3.397428    2.158492   -0.348536
     21          1           0       -4.662030    0.088938    0.293716
     22          1           0       -3.461828   -2.151498   -0.082811
     23          1           0        0.108781   -2.657317    0.146468
     24          1           0        3.420268   -2.357980    0.074594
     25          1           0        4.799163   -0.262382   -0.297104
     26          1           0        3.547614    1.976009   -0.304114
 ---------------------------------------------------------------------
                    Distance matrix (angstroms):
                    1          2          3          4          5
     1  C    0.000000
     2  C    1.520941   0.000000
     3  C    2.448749   1.412963   0.000000
     4  C    3.763279   2.476675   1.398253   0.000000
     5  C    4.275042   2.820793   2.385760   1.398131   0.000000
     6  C    3.779944   2.373612   2.702410   2.396309   1.392508
     7  F    4.897758   3.630044   4.054808   3.601196   2.318132
     8  C    2.659736   1.457126   2.481520   2.914076   2.522290
     9  C    3.320857   2.644168   3.880229   4.386140   3.866425
    10  C    4.772433   3.993174   5.091887   5.312843   4.479031
    11  O    5.665825   4.605446   5.435002   5.303678   4.230097
    12  C    5.661677   5.152810   6.361946   6.694439   5.892616
    13  C    5.538689   5.389182   6.718133   7.303804   6.712190
    14  C    4.427374   4.531006   5.897344   6.698692   6.360359
    15  C    3.206622   3.146525   4.503686   5.324020   5.077352
    16  F    2.462710   2.844980   4.110391   5.188977   5.303196
    17  H    1.109415   2.130303   2.514411   3.800803   4.501518
    18  H    1.106496   2.212915   2.964536   4.334895   4.985571
    19  H    1.103528   2.198441   3.367646   4.561433   4.813445
    20  H    2.563101   2.153101   1.101949   2.160505   3.381342
    21  H    4.614673   3.471773   2.183623   1.099984   2.180707
    22  H    5.348536   3.912143   3.404935   2.200998   1.099506
    23  H    5.435940   4.230319   4.886262   4.582585   3.397177
    24  H    6.701694   6.094091   7.230278   7.412464   6.471283
    25  H    6.513620   6.461418   7.803484   8.404212   7.796505
    26  H    4.712819   5.107023   6.461836   7.405610   7.219252
                    6          7          8          9         10
     6  C    0.000000
     7  F    1.384053   0.000000
     8  C    1.430773   2.438339   0.000000
     9  C    2.576709   2.989345   1.502834   0.000000
    10  C    3.142067   2.940503   2.640579   1.459282   0.000000
    11  O    3.057562   2.461442   3.162077   2.508839   1.350468
    12  C    4.542759   4.233772   3.918235   2.509274   1.416915
    13  C    5.366334   5.299655   4.423768   2.924528   2.457457
    14  C    5.097781   5.378961   3.887718   2.524492   2.808064
    15  C    3.890735   4.414535   2.578620   1.436369   2.383296
    16  F    4.359016   5.199938   2.935789   2.414492   3.626226
    17  H    4.264420   5.387553   3.410870   4.281185   5.702831
    18  H    4.538150   5.714439   3.329697   3.783939   5.228430
    19  H    4.053262   4.936967   2.839853   3.089560   4.465964
    20  H    3.798878   5.139002   3.463948   4.764539   6.062819
    21  H    3.406134   4.491694   4.011721   5.475154   6.368057
    22  H    2.146310   2.485989   3.484044   4.698178   5.059734
    23  H    2.311721   1.543544   2.808138   2.643802   1.938344
    24  H    5.158240   4.596032   4.770473   3.471384   2.139494
    25  H    6.442773   6.292206   5.521387   4.023719   3.454857
    26  H    6.017593   6.406502   4.714925   3.483929   3.901399
                   11         12         13         14         15
    11  O    0.000000
    12  C    2.292992   0.000000
    13  C    3.593077   1.391115   0.000000
    14  C    4.122200   2.395784   1.400432   0.000000
    15  C    3.656403   2.736178   2.408448   1.394931   0.000000
    16  F    4.800075   4.067093   3.586300   2.298787   1.350585
    17  H    6.509299   6.640477   6.555733   5.467937   4.277062
    18  H    6.182957   6.006403   5.714591   4.463193   3.345785
    19  H    5.509373   5.162292   4.909755   3.814611   2.779964
    20  H    6.492991   7.269286   7.486288   6.527300   5.159568
    21  H    6.265990   7.759220   8.385987   7.766580   6.386570
    22  H    4.540044   6.457174   7.420338   7.220691   6.001941
    23  H    0.980102   3.123269   4.359244   4.706200   3.997323
    24  H    2.422550   1.099290   2.181466   3.408942   3.832283
    25  H    4.455316   2.171317   1.100414   2.180093   3.414725
    26  H    5.208015   3.413137   2.201253   1.098947   2.142102
                   16         17         18         19         20
    16  F    0.000000
    17  H    3.546094   0.000000
    18  H    2.226349   1.786028   0.000000
    19  H    2.248160   1.782571   1.787986   0.000000
    20  H    4.508206   2.294643   2.849029   3.613519   0.000000
    21  H    6.167312   4.481587   5.099781   5.491441   2.508936
    22  H    6.339107   5.515102   6.082285   5.843291   4.318653
    23  H    5.010066   6.162380   6.062705   5.383202   5.977503
    24  H    5.158495   7.654617   7.080787   6.209451   8.188928
    25  H    4.473083   7.519174   6.634481   5.819060   8.546776
    26  H    2.469531   5.720219   4.547662   4.068933   6.947581
                   21         22         23         24         25
    21  H    0.000000
    22  H    2.569399   0.000000
    23  H    5.506744   3.613540   0.000000
    24  H    8.447424   6.886992   3.325766   0.000000
    25  H    9.486130   8.476948   5.285088   2.535950   0.000000
    26  H    8.444921   8.137417   5.787599   4.352366   2.564530
                   26
    26  H    0.000000
 Symmetry turned off by external request.
 Stoichiometry    C13H10F2O
 Framework group  C1[X(C13H10F2O)]
 Deg. of freedom    72
 Full point group                 C1      NOp   1
 Rotational constants (GHZ):           0.8401818           0.4714910           0.3133852
 Standard basis: def2SVP (5D, 7F)
   274 basis functions,   470 primitive gaussians,   290 cartesian basis functions
    57 alpha electrons       57 beta electrons
       nuclear repulsion energy      1070.0455925137 Hartrees.
 NAtoms=   26 NActive=   26 NUniq=   26 SFac= 1.00D+00 NAtFMM=   60 NAOKFM=F Big=F
 Integral buffers will be    131072 words long.
 Raffenetti 2 integral format.
 Two-electron integral symmetry is turned off.
 Nuclear repulsion after empirical dispersion term =     1069.9939518172 Hartrees.
 One-electron integrals computed using PRISM.
   1 Symmetry operations used in ECPInt.
 ECPInt:  NShTT=    8001 NPrTT=   29641 LenC2=    7591 LenP2D=   20292.
 LDataN:  DoStor=T MaxTD1= 4 Len=   56
 NBasis=   274 RedAO= T EigKep=  3.22D-04  NBF=   274
 NBsUse=   274 1.00D-06 EigRej= -1.00D+00 NBFU=   274
 Initial guess from the checkpoint file:  "path/to/scratch/gaussian_tmp/Gau-2268774.chk"
 B after Tr=     0.000405    0.000363   -0.000204
         Rot=    1.000000    0.000078   -0.000032    0.000000 Ang=   0.01 deg.
 Requested convergence on RMS density matrix=1.00D-08 within 128 cycles.
 Requested convergence on MAX density matrix=1.00D-06.
 Requested convergence on             energy=1.00D-06.
 No special actions if energy rises.
 SCF Done:  E(RB-P86) =  -775.751512326     A.U. after    9 cycles
            NFock=  9  Conv=0.41D-08     -V/T= 2.0104
   1 Symmetry operations used in ECPInt.
 ECPInt:  NShTT=    8001 NPrTT=   29641 LenC2=    7591 LenP2D=   20292.
 LDataN:  DoStor=T MaxTD1= 5 Len=  102
 Calling FoFJK, ICntrl=      2527 FMM=F ISym2X=0 I1Cent= 0 IOpClX= 0 NMat=1 NMatS=1 NMatT=0.
 -------------------------------------------------------------------
 Center     Atomic                   Forces (Hartrees/Bohr)
 Number     Number              X              Y              Z
 -------------------------------------------------------------------
      1        6           0.000191765   -0.000486448   -0.001232929
      2        6           0.000033200   -0.000006058    0.000067263
      3        6           0.000000789   -0.000014260    0.000014086
      4        6           0.000000305    0.000000498   -0.000025518
      5        6           0.000037128   -0.000061767    0.000022950
      6        6          -0.000093670    0.000098027    0.000027629
      7        9          -0.000349062   -0.000235487    0.001212575
      8        6           0.000121805    0.000701375   -0.000227705
      9        6           0.000066333    0.000478763   -0.000144307
     10        6          -0.000029431   -0.000075705    0.000034598
     11        8           0.000213413   -0.000375699   -0.001165622
     12        6           0.000052241    0.000014769   -0.000014475
     13        6           0.000013038    0.000011980    0.000004265
     14        6           0.000001082   -0.000023420    0.000030045
     15        6          -0.000043815    0.000008367   -0.000055615
     16        9          -0.000297442   -0.000053860    0.001353973
     17        1           0.000008202    0.000008215    0.000013587
     18        1           0.000049746    0.000000259    0.000045785
     19        1          -0.000000009    0.000009905    0.000008825
     20        1           0.000001631   -0.000003928    0.000000766
     21        1           0.000004930   -0.000003878    0.000002508
     22        1          -0.000002733   -0.000000168    0.000000846
     23        1           0.000037926   -0.000009151    0.000031947
     24        1          -0.000012487    0.000011362   -0.000003817
     25        1           0.000001170    0.000006824    0.000002078
     26        1          -0.000006055   -0.000000516   -0.000003738
 -------------------------------------------------------------------
 Cartesian Forces:  Max     0.001353973 RMS     0.000315856

 GradGradGradGradGradGradGradGradGradGradGradGradGradGradGradGradGradGrad
 Berny optimization.
 Using GEDIIS/GDIIS optimizer.
 FormGI is forming the generalized inverse of G from B-inverse, IUseBI=4.
 Internal  Forces:  Max     0.002384645 RMS     0.000494064
 Search for a local minimum.
 Step number   3 out of a maximum of  142
 All quantities printed in internal units (Hartrees-Bohrs-Radians)
 Mixed Optimization -- En-DIIS/RFO-DIIS
 Swapping is turned off.
 Update second derivatives using D2CorX and points    1    2    3
 DE= -1.23D-06 DEPred=-2.77D-06 R= 4.44D-01
 Trust test= 4.44D-01 RLast= 5.98D-03 DXMaxT set to 5.00D-02
 ITU=  0 -1  0
     Eigenvalues ---    0.00491   0.00860   0.01367   0.01396   0.01609
     Eigenvalues ---    0.01765   0.01852   0.01965   0.02015   0.02036
     Eigenvalues ---    0.02041   0.02118   0.02122   0.02129   0.02132
     Eigenvalues ---    0.02156   0.02161   0.02265   0.02311   0.06617
     Eigenvalues ---    0.07399   0.15691   0.15883   0.15957   0.15963
     Eigenvalues ---    0.15973   0.15982   0.15987   0.16000   0.16001
     Eigenvalues ---    0.16056   0.20676   0.22039   0.22117   0.22388
     Eigenvalues ---    0.22972   0.23693   0.24396   0.24690   0.24791
     Eigenvalues ---    0.24919   0.29580   0.30153   0.32636   0.32958
     Eigenvalues ---    0.33294   0.33461   0.33636   0.33681   0.33725
     Eigenvalues ---    0.33739   0.33798   0.34257   0.35222   0.37007
     Eigenvalues ---    0.38081   0.41233   0.41726   0.44010   0.44331
     Eigenvalues ---    0.44827   0.45260   0.45680   0.46382   0.46517
     Eigenvalues ---    0.51117   0.53345   0.54743   0.69020   1.83630
     Eigenvalues --- 1000.000001000.000001000.000001000.000001000.00000
     Eigenvalues --- 1000.000001000.000001000.000001000.000001000.00000
     Eigenvalues --- 1000.000001000.000001000.000001000.000001000.00000
     Eigenvalues --- 1000.000001000.000001000.000001000.000001000.00000
     Eigenvalues --- 1000.000001000.000001000.000001000.000001000.00000
     Eigenvalues --- 1000.000001000.000001000.000001000.000001000.00000
     Eigenvalues --- 1000.000001000.000001000.000001000.000001000.00000
     Eigenvalues --- 1000.000001000.000001000.000001000.000001000.00000
     Eigenvalues --- 1000.000001000.000001000.000001000.000001000.00000
     Eigenvalues --- 1000.000001000.000001000.000001000.000001000.00000
     Eigenvalues --- 1000.000001000.000001000.000001000.000001000.00000
     Eigenvalues --- 1000.000001000.000001000.000001000.000001000.00000
     Eigenvalues --- 1000.000001000.00000
 En-DIIS/RFO-DIIS/Sim-DIIS IScMMF=       -3 using points:     3    2    1
 RFO step:  Lambda=-2.62625381D-06.
 EnCoef did     4 forward-backward iterations
 DidBck=T Rises=T En-DIIS coefs:    0.25274    0.32207    0.42519
 Iteration  1 RMS(Cart)=  0.00091816 RMS(Int)=  0.00000033
 Iteration  2 RMS(Cart)=  0.00000058 RMS(Int)=  0.00000006
 Iteration  1 RMS(Cart)=  0.00000006 RMS(Int)=  0.00000003
 Variable       Old X    -DE/DX   Delta X   Delta X   Delta X     New X
                                 (Linear)    (Quad)   (Total)
    R1        2.87416   0.00013   0.00006   0.00000   0.00006   2.87422
    R2        2.09649  -0.00001  -0.00004   0.00000  -0.00004   2.09645
    R3        2.09097   0.00004  -0.00000   0.00000  -0.00000   2.09097
    R4        2.08536  -0.00001   0.00000   0.00000   0.00000   2.08537
    R5        2.67011  -0.00010  -0.00007   0.00000  -0.00007   2.67004
    R6        2.75357  -0.00036  -0.00012   0.00000  -0.00012   2.75345
    R7        2.64232  -0.00006  -0.00004   0.00000  -0.00004   2.64228
    R8        2.08238  -0.00000  -0.00002   0.00000  -0.00002   2.08236
    R9        2.64208   0.00006  -0.00006   0.00000  -0.00006   2.64203
   R10        2.07867  -0.00000  -0.00001   0.00000  -0.00001   2.07866
   R11        2.63146   0.00006   0.00001   0.00000   0.00001   2.63147
   R12        2.07776   0.00000  -0.00001   0.00000  -0.00001   2.07776
   R13        2.61548  -0.00016  -0.00035   0.00000  -0.00035   2.61513
   R14        2.70377   0.00034   0.00025   0.00000   0.00025   2.70401
   R15        2.83994   0.00000   0.00003   0.00000   0.00003   2.83997
   R16        2.75764   0.00025   0.00011   0.00000   0.00011   2.75775
   R17        2.71434  -0.00018  -0.00012   0.00000  -0.00012   2.71423
   R18        2.55202  -0.00009   0.00010   0.00000   0.00010   2.55212
   R19        2.67758   0.00012   0.00011   0.00000   0.00011   2.67769
   R20        1.85212  -0.00004  -0.00001   0.00000  -0.00001   1.85211
   R21        2.62883   0.00005   0.00005   0.00000   0.00005   2.62888
   R22        2.07736  -0.00002  -0.00004   0.00000  -0.00004   2.07732
   R23        2.64643  -0.00005  -0.00003   0.00000  -0.00003   2.64640
   R24        2.07948   0.00000  -0.00001   0.00000  -0.00001   2.07948
   R25        2.63604  -0.00007  -0.00006   0.00000  -0.00006   2.63598
   R26        2.07671  -0.00000  -0.00001   0.00000  -0.00001   2.07669
   R27        2.55224   0.00018   0.00007   0.00000   0.00007   2.55231
    A1        1.86981   0.00003   0.00000   0.00000   0.00000   1.86982
    A2        1.98655  -0.00005   0.00001   0.00000   0.00001   1.98656
    A3        1.96915   0.00001  -0.00005   0.00000  -0.00005   1.96910
    A4        1.87473   0.00002   0.00000   0.00000   0.00000   1.87473
    A5        1.87310   0.00000   0.00015   0.00000   0.00015   1.87325
    A6        1.88501  -0.00001  -0.00009   0.00000  -0.00009   1.88492
    A7        1.97406   0.00042   0.00012   0.00000   0.00012   1.97417
    A8        2.20818  -0.00080  -0.00027   0.00000  -0.00027   2.20791
    A9        2.08863   0.00034   0.00008   0.00000   0.00008   2.08871
   A10        2.15592  -0.00017   0.00001   0.00000   0.00001   2.15593
   A11        2.04613   0.00009  -0.00003   0.00000  -0.00003   2.04610
   A12        2.07857   0.00007   0.00002   0.00000   0.00002   2.07859
   A13        2.04402  -0.00000   0.00007   0.00000   0.00007   2.04409
   A14        2.11900   0.00002   0.00003   0.00000   0.00003   2.11903
   A15        2.11434  -0.00001  -0.00006   0.00000  -0.00006   2.11428
   A16        2.06544   0.00013   0.00004   0.00000   0.00004   2.06548
   A17        2.14917  -0.00006  -0.00009   0.00000  -0.00009   2.14908
   A18        2.06730  -0.00007   0.00003   0.00000   0.00003   2.06733
   A19        1.97587  -0.00045  -0.00031   0.00000  -0.00031   1.97556
   A20        2.20958  -0.00023  -0.00010   0.00000  -0.00010   2.20948
   A21        2.09513   0.00071   0.00045   0.00000   0.00045   2.09558
   A22        1.92948  -0.00008   0.00008   0.00000   0.00008   1.92955
   A23        2.20920  -0.00077  -0.00034   0.00000  -0.00034   2.20886
   A24        2.14443   0.00085   0.00028   0.00000   0.00028   2.14471
   A25        2.20096   0.00092   0.00037   0.00000   0.00037   2.20133
   A26        2.14022  -0.00094  -0.00039   0.00000  -0.00039   2.13982
   A27        1.93351   0.00002   0.00003   0.00000   0.00003   1.93354
   A28        2.20675   0.00050   0.00015   0.00000   0.00015   2.20690
   A29        2.12017  -0.00024  -0.00026   0.00000  -0.00026   2.11992
   A30        1.95274  -0.00024   0.00011   0.00000   0.00011   1.95285
   A31        1.94710   0.00004  -0.00008   0.00000  -0.00008   1.94703
   A32        2.13146   0.00012   0.00008   0.00000   0.00008   2.13154
   A33        2.02306  -0.00007  -0.00004   0.00000  -0.00004   2.02302
   A34        2.12715  -0.00005  -0.00005   0.00000  -0.00005   2.12709
   A35        2.06361  -0.00001  -0.00000   0.00000  -0.00000   2.06361
   A36        2.10867   0.00000   0.00002   0.00000   0.00002   2.10869
   A37        2.10931   0.00000  -0.00002   0.00000  -0.00002   2.10928
   A38        2.07677  -0.00008  -0.00008   0.00000  -0.00008   2.07669
   A39        2.14684   0.00003   0.00004   0.00000   0.00004   2.14688
   A40        2.05791   0.00004   0.00004   0.00000   0.00004   2.05795
   A41        2.20179   0.00018   0.00009   0.00000   0.00009   2.20188
   A42        2.09517  -0.00042  -0.00026   0.00000  -0.00026   2.09491
   A43        1.98444   0.00022   0.00013   0.00000   0.00013   1.98456
    D1       -0.60825   0.00014   0.00102   0.00000   0.00102  -0.60722
    D2        2.36327  -0.00010   0.00055   0.00000   0.00055   2.36382
    D3        1.46142   0.00016   0.00103   0.00000   0.00103   1.46245
    D4       -1.85025  -0.00009   0.00055   0.00000   0.00056  -1.84970
    D5       -2.66578   0.00012   0.00087   0.00000   0.00087  -2.66491
    D6        0.30573  -0.00013   0.00040   0.00000   0.00040   0.30613
    D7        2.83232  -0.00032  -0.00018   0.00000  -0.00018   2.83214
    D8       -0.23145  -0.00027  -0.00020   0.00000  -0.00020  -0.23165
    D9       -0.15207   0.00003   0.00030   0.00000   0.00030  -0.15177
   D10        3.06734   0.00008   0.00028   0.00000   0.00028   3.06761
   D11       -2.59256   0.00030   0.00001   0.00000   0.00001  -2.59255
   D12        0.53656   0.00033   0.00133   0.00000   0.00133   0.53789
   D13        0.36888   0.00004  -0.00049   0.00000  -0.00049   0.36839
   D14       -2.78518   0.00007   0.00083   0.00000   0.00083  -2.78435
   D15       -0.12656  -0.00004   0.00016   0.00000   0.00016  -0.12640
   D16        3.12950  -0.00005  -0.00017   0.00000  -0.00017   3.12933
   D17        2.93585  -0.00009   0.00018   0.00000   0.00018   2.93603
   D18       -0.09128  -0.00010  -0.00015   0.00000  -0.00015  -0.09143
   D19        0.14464  -0.00006  -0.00039   0.00000  -0.00039   0.14425
   D20       -2.94158  -0.00010  -0.00024   0.00000  -0.00024  -2.94182
   D21       -3.11109  -0.00005  -0.00006   0.00000  -0.00006  -3.11115
   D22        0.08588  -0.00009   0.00009   0.00000   0.00009   0.08597
   D23       -2.94063  -0.00037  -0.00039   0.00000  -0.00039  -2.94102
   D24        0.12278   0.00010   0.00014   0.00000   0.00014   0.12292
   D25        0.14823  -0.00033  -0.00054   0.00000  -0.00054   0.14769
   D26       -3.07155   0.00014  -0.00001   0.00000  -0.00001  -3.07156
   D27       -0.37256  -0.00004   0.00030   0.00000   0.00030  -0.37226
   D28        2.78095  -0.00005  -0.00095   0.00000  -0.00095   2.78000
   D29        2.68601   0.00041   0.00084   0.00000   0.00084   2.68684
   D30       -0.44367   0.00039  -0.00042   0.00000  -0.00042  -0.44409
   D31        0.40149   0.00238  -0.00000   0.00000  -0.00000   0.40149
   D32        3.04484   0.00175  -0.00112   0.00000  -0.00112   3.04372
   D33        0.05604   0.00178  -0.00117   0.00000  -0.00117   0.05488
   D34       -0.11065   0.00178   0.00035   0.00000   0.00035  -0.11030
   D35       -3.09945   0.00181   0.00031   0.00000   0.00031  -3.09914
   D36       -0.43159   0.00231  -0.00000   0.00000  -0.00000  -0.43160
   D37       -0.24527   0.00044  -0.00060   0.00000  -0.00060  -0.24587
   D38        2.99395   0.00008  -0.00062   0.00000  -0.00062   2.99333
   D39        2.75879   0.00033  -0.00060   0.00000  -0.00060   2.75819
   D40       -0.28518  -0.00004  -0.00062   0.00000  -0.00062  -0.28580
   D41       -2.99739   0.00004   0.00038   0.00000   0.00038  -2.99702
   D42        0.21272   0.00056   0.00110   0.00000   0.00110   0.21382
   D43        0.27610  -0.00001   0.00030   0.00000   0.00030   0.27641
   D44       -2.79696   0.00050   0.00102   0.00000   0.00102  -2.79594
   D45        0.51528  -0.00017  -0.00085   0.00000  -0.00085   0.51443
   D46       -2.71601   0.00016  -0.00085   0.00000  -0.00085  -2.71686
   D47        0.14356   0.00009   0.00058   0.00000   0.00058   0.14414
   D48       -3.05623   0.00011   0.00035   0.00000   0.00035  -3.05588
   D49       -2.91343  -0.00026   0.00056   0.00000   0.00056  -2.91287
   D50        0.16997  -0.00025   0.00033   0.00000   0.00033   0.17029
   D51        0.05344  -0.00004  -0.00011   0.00000  -0.00011   0.05333
   D52        3.13487  -0.00007  -0.00020   0.00000  -0.00020   3.13467
   D53       -3.02650  -0.00006   0.00014   0.00000   0.00014  -3.02637
   D54        0.05492  -0.00008   0.00005   0.00000   0.00005   0.05496
   D55       -0.07481  -0.00008  -0.00027   0.00000  -0.00027  -0.07507
   D56        3.00348  -0.00012  -0.00028   0.00000  -0.00028   3.00319
   D57        3.12698  -0.00005  -0.00018   0.00000  -0.00018   3.12680
   D58       -0.07792  -0.00009  -0.00019   0.00000  -0.00019  -0.07812
   D59       -0.10655   0.00010   0.00016   0.00000   0.00016  -0.10639
   D60        2.97026  -0.00041  -0.00053   0.00000  -0.00053   2.96973
   D61        3.09512   0.00014   0.00017   0.00000   0.00017   3.09529
   D62       -0.11125  -0.00037  -0.00052   0.00000  -0.00052  -0.11177
         Item               Value     Threshold  Converged?
 Maximum Force            0.000949     0.000450     NO 
 RMS     Force            0.000176     0.000300     YES
 Maximum Displacement     0.004123     0.001800     NO 
 RMS     Displacement     0.000918     0.001200     YES
 Predicted change in Energy=-1.078831D-06
 GradGradGradGradGradGradGradGradGradGradGradGradGradGradGradGradGradGrad

                          Input orientation:                          
 ---------------------------------------------------------------------
 Center     Atomic      Atomic             Coordinates (Angstroms)
 Number     Number       Type             X           Y           Z
 ---------------------------------------------------------------------
      1          6           0       -1.033739    2.457330   -1.295458
      2          6           0       -1.489939    1.188832   -0.591079
      3          6           0       -2.866449    1.195809   -0.272450
      4          6           0       -3.592719    0.042495    0.039729
      5          6           0       -2.941097   -1.183975   -0.121026
      6          6           0       -1.578163   -1.176057   -0.406407
      7          9           0       -1.094733   -2.414347   -0.791145
      8          6           0       -0.716216   -0.033983   -0.420470
      9          6           0        0.777278   -0.137246   -0.288679
     10          6           0        1.533946   -1.352225   -0.004151
     11          8           0        1.032783   -2.522345    0.447026
     12          6           0        2.948932   -1.375976   -0.075313
     13          6           0        3.700365   -0.218584   -0.251573
     14          6           0        3.026795    1.008427   -0.295257
     15          6           0        1.632573    1.016070   -0.252471
     16          9           0        1.101044    2.246883   -0.088875
     17          1           0       -1.871695    2.792206   -1.940782
     18          1           0       -0.793351    3.289228   -0.606624
     19          1           0       -0.160349    2.293147   -1.949682
     20          1           0       -3.396660    2.158843   -0.348042
     21          1           0       -4.661886    0.089551    0.293935
     22          1           0       -3.462685   -2.151143   -0.083084
     23          1           0        0.109276   -2.657717    0.148031
     24          1           0        3.421005   -2.357369    0.074375
     25          1           0        4.798996   -0.261205   -0.297364
     26          1           0        3.546518    1.976663   -0.303865
 ---------------------------------------------------------------------
                    Distance matrix (angstroms):
                    1          2          3          4          5
     1  C    0.000000
     2  C    1.520972   0.000000
     3  C    2.448838   1.412924   0.000000
     4  C    3.763314   2.476629   1.398233   0.000000
     5  C    4.275092   2.820819   2.385765   1.398099   0.000000
     6  C    3.779988   2.373728   2.702476   2.396318   1.392513
     7  F    4.898091   3.630305   4.054782   3.600883   2.317743
     8  C    2.659524   1.457063   2.481492   2.914086   2.522348
     9  C    3.320424   2.643899   3.879955   4.386003   3.866530
    10  C    4.772126   3.993161   5.091949   5.313178   4.479729
    11  O    5.666033   4.605933   5.435653   5.304673   4.231505
    12  C    5.660800   5.152458   6.361729   6.694661   5.893334
    13  C    5.537324   5.388445   6.717439   7.303566   6.712528
    14  C    4.425795   4.530005   5.896267   6.698000   6.360245
    15  C    3.205351   3.145566   4.502656   5.323242   5.077000
    16  F    2.461185   2.843392   4.108462   5.187222   5.301955
    17  H    1.109394   2.130316   2.514230   3.800692   4.501683
    18  H    1.106496   2.212948   2.965099   4.335378   4.985796
    19  H    1.103528   2.198436   3.367526   4.561179   4.813202
    20  H    2.563218   2.153038   1.101940   2.160494   3.381347
    21  H    4.614759   3.471731   2.183619   1.099979   2.180637
    22  H    5.348612   3.912188   3.404914   2.200917   1.099503
    23  H    5.436345   4.230805   4.886861   4.583409   3.398394
    24  H    6.700934   6.093910   7.230314   7.413020   6.472354
    25  H    6.512098   6.460618   7.802728   8.403972   7.796899
    26  H    4.710950   5.105788   6.460408   7.404577   7.218879
                    6          7          8          9         10
     6  C    0.000000
     7  F    1.383868   0.000000
     8  C    1.430903   2.438608   0.000000
     9  C    2.577031   2.990332   1.502849   0.000000
    10  C    3.142939   2.942349   2.640892   1.459341   0.000000
    11  O    3.059065   2.463951   3.162830   2.509032   1.350521
    12  C    4.543587   4.235783   3.918340   2.509194   1.416973
    13  C    5.366897   5.301460   4.423662   2.924454   2.457586
    14  C    5.098035   5.380361   3.887471   2.524468   2.808205
    15  C    3.890751   4.415442   2.578303   1.436307   2.383319
    16  F    4.358382   5.200163   2.935088   2.414295   3.626039
    17  H    4.264690   5.388278   3.410840   4.281144   5.703090
    18  H    4.538148   5.714512   3.329314   3.782683   5.227080
    19  H    4.053057   4.937184   2.839544   3.089480   4.465922
    20  H    3.798933   5.138995   3.463886   4.764168   6.062733
    21  H    3.406110   4.491268   4.011726   5.474977   6.368352
    22  H    2.146334   2.485523   3.484148   4.698439   5.060713
    23  H    2.313043   1.546260   2.808667   2.643807   1.938338
    24  H    5.159295   4.598289   4.770701   3.471318   2.139503
    25  H    6.443369   6.294115   5.521263   4.023638   3.454975
    26  H    6.017683   6.407778   4.714573   3.483897   3.901508
                   11         12         13         14         15
    11  O    0.000000
    12  C    2.293170   0.000000
    13  C    3.593236   1.391141   0.000000
    14  C    4.122307   2.395790   1.400414   0.000000
    15  C    3.656422   2.736068   2.408347   1.394900   0.000000
    16  F    4.799728   4.066937   3.586289   2.298888   1.350625
    17  H    6.510152   6.640193   6.554856   5.466702   4.276091
    18  H    6.182178   6.004257   5.711768   4.460104   3.343319
    19  H    5.509695   5.161719   4.908918   3.813859   2.779572
    20  H    6.493505   7.268827   7.485267   6.525873   5.158318
    21  H    6.266952   7.759424   8.385688   7.765778   6.385703
    22  H    4.541810   6.458310   7.421081   7.220890   6.001798
    23  H    0.980096   3.123521   4.359468   4.706275   3.997192
    24  H    2.422744   1.099269   2.181440   3.408901   3.832154
    25  H    4.455472   2.171349   1.100411   2.180061   3.414628
    26  H    5.208049   3.413141   2.201253   1.098939   2.142094
                   16         17         18         19         20
    16  F    0.000000
    17  H    3.544590   0.000000
    18  H    2.223349   1.786010   0.000000
    19  H    2.248523   1.782651   1.787924   0.000000
    20  H    4.506025   2.294229   2.849886   3.613446   0.000000
    21  H    6.165386   4.481458   5.100441   5.491219   2.508964
    22  H    6.338003   5.515341   6.082521   5.843057   4.318626
    23  H    5.009474   6.163526   6.062210   5.383693   5.978037
    24  H    5.158295   7.654519   7.078744   6.208881   8.188721
    25  H    4.473122   7.518129   6.631408   5.818073   8.545641
    26  H    2.469733   5.718535   4.544112   4.068138   6.945708
                   21         22         23         24         25
    21  H    0.000000
    22  H    2.569228   0.000000
    23  H    5.507518   3.615099   0.000000
    24  H    8.448003   6.888578   3.326136   0.000000
    25  H    9.485829   8.477803   5.285368   2.535932   0.000000
    26  H    8.443723   8.137349   5.787600   4.352315   2.564527
                   26
    26  H    0.000000
 Symmetry turned off by external request.
 Stoichiometry    C13H10F2O
 Framework group  C1[X(C13H10F2O)]
 Deg. of freedom    72
 Full point group                 C1      NOp   1
 Rotational constants (GHZ):           0.8401268           0.4714964           0.3133944
 Standard basis: def2SVP (5D, 7F)
   274 basis functions,   470 primitive gaussians,   290 cartesian basis functions
    57 alpha electrons       57 beta electrons
       nuclear repulsion energy      1070.0341746725 Hartrees.
 NAtoms=   26 NActive=   26 NUniq=   26 SFac= 1.00D+00 NAtFMM=   60 NAOKFM=F Big=F
 Integral buffers will be    131072 words long.
 Raffenetti 2 integral format.
 Two-electron integral symmetry is turned off.
 Nuclear repulsion after empirical dispersion term =     1069.9825328211 Hartrees.
 One-electron integrals computed using PRISM.
   1 Symmetry operations used in ECPInt.
 ECPInt:  NShTT=    8001 NPrTT=   29641 LenC2=    7591 LenP2D=   20292.
 LDataN:  DoStor=T MaxTD1= 4 Len=   56
 NBasis=   274 RedAO= T EigKep=  3.22D-04  NBF=   274
 NBsUse=   274 1.00D-06 EigRej= -1.00D+00 NBFU=   274
 Initial guess from the checkpoint file:  "path/to/scratch/gaussian_tmp/Gau-2268774.chk"
 B after Tr=    -0.000373   -0.000290   -0.000124
         Rot=    1.000000   -0.000018    0.000017   -0.000011 Ang=  -0.00 deg.
 Requested convergence on RMS density matrix=1.00D-08 within 128 cycles.
 Requested convergence on MAX density matrix=1.00D-06.
 Requested convergence on             energy=1.00D-06.
 No special actions if energy rises.
 SCF Done:  E(RB-P86) =  -775.751513412     A.U. after    8 cycles
            NFock=  8  Conv=0.69D-08     -V/T= 2.0104
   1 Symmetry operations used in ECPInt.
 ECPInt:  NShTT=    8001 NPrTT=   29641 LenC2=    7591 LenP2D=   20292.
 LDataN:  DoStor=T MaxTD1= 5 Len=  102
 Calling FoFJK, ICntrl=      2527 FMM=F ISym2X=0 I1Cent= 0 IOpClX= 0 NMat=1 NMatS=1 NMatT=0.
 -------------------------------------------------------------------
 Center     Atomic                   Forces (Hartrees/Bohr)
 Number     Number              X              Y              Z
 -------------------------------------------------------------------
      1        6           0.000123021   -0.000450762   -0.001206221
      2        6           0.000038173    0.000011364   -0.000023940
      3        6          -0.000011545    0.000006809    0.000004083
      4        6          -0.000017331    0.000003842    0.000006458
      5        6           0.000015636   -0.000017178   -0.000002116
      6        6          -0.000079112    0.000138971    0.000056217
      7        9          -0.000038028   -0.000282745    0.001323108
      8        6           0.000078468    0.000593985   -0.000087119
      9        6           0.000035760    0.000408414   -0.000164693
     10        6           0.000009058    0.000019985   -0.000023948
     11        8           0.000056505   -0.000363550   -0.001276854
     12        6          -0.000003011   -0.000005531    0.000010954
     13        6           0.000005941   -0.000003508   -0.000005169
     14        6           0.000008738   -0.000013782    0.000015442
     15        6          -0.000049333    0.000044730    0.000008636
     16        9          -0.000175831   -0.000095153    0.001371107
     17        1           0.000003551    0.000003112   -0.000008475
     18        1           0.000013349    0.000001327    0.000021111
     19        1          -0.000000961    0.000004804   -0.000003474
     20        1          -0.000003223    0.000000853    0.000000619
     21        1          -0.000000682    0.000003370    0.000000046
     22        1           0.000006589   -0.000005110    0.000001675
     23        1          -0.000013304   -0.000004099   -0.000019466
     24        1          -0.000001971   -0.000003507    0.000002372
     25        1           0.000001350    0.000000359    0.000002015
     26        1          -0.000001808    0.000003001   -0.000002365
 -------------------------------------------------------------------
 Cartesian Forces:  Max     0.001371107 RMS     0.000316075

 GradGradGradGradGradGradGradGradGradGradGradGradGradGradGradGradGradGrad
 Berny optimization.
 Using GEDIIS/GDIIS optimizer.
 FormGI is forming the generalized inverse of G from B-inverse, IUseBI=4.
 Internal  Forces:  Max     0.002487802 RMS     0.000486687
 Search for a local minimum.
 Step number   4 out of a maximum of  142
 All quantities printed in internal units (Hartrees-Bohrs-Radians)
 Mixed Optimization -- En-DIIS/RFO-DIIS
 Swapping is turned off.
 Update second derivatives using D2CorX and points    1    2    3    4
 DE= -1.09D-06 DEPred=-1.08D-06 R= 1.01D+00
 TightC=F SS=  1.41D+00  RLast= 4.55D-03 DXNew= 8.4090D-02 1.3651D-02
 Trust test= 1.01D+00 RLast= 4.55D-03 DXMaxT set to 5.00D-02
 ITU=  1  0 -1  0
     Eigenvalues ---    0.00495   0.00922   0.01362   0.01405   0.01610
     Eigenvalues ---    0.01766   0.01852   0.01965   0.02016   0.02037
     Eigenvalues ---    0.02041   0.02118   0.02121   0.02129   0.02132
     Eigenvalues ---    0.02157   0.02161   0.02276   0.02303   0.06620
     Eigenvalues ---    0.07402   0.15744   0.15885   0.15957   0.15963
     Eigenvalues ---    0.15973   0.15982   0.15987   0.16000   0.16001
     Eigenvalues ---    0.16056   0.21018   0.22038   0.22117   0.22381
     Eigenvalues ---    0.22977   0.23715   0.24397   0.24693   0.24790
     Eigenvalues ---    0.24918   0.29637   0.30150   0.32638   0.32960
     Eigenvalues ---    0.33294   0.33462   0.33636   0.33681   0.33726
     Eigenvalues ---    0.33739   0.33798   0.34273   0.35226   0.37066
     Eigenvalues ---    0.38089   0.41246   0.41724   0.44044   0.44336
     Eigenvalues ---    0.44865   0.45262   0.45794   0.46380   0.46520
     Eigenvalues ---    0.51079   0.53078   0.54749   0.66745   1.79836
     Eigenvalues --- 1000.000001000.000001000.000001000.000001000.00000
     Eigenvalues --- 1000.000001000.000001000.000001000.000001000.00000
     Eigenvalues --- 1000.000001000.000001000.000001000.000001000.00000
     Eigenvalues --- 1000.000001000.000001000.000001000.000001000.00000
     Eigenvalues --- 1000.000001000.000001000.000001000.000001000.00000
     Eigenvalues --- 1000.000001000.000001000.000001000.000001000.00000
     Eigenvalues --- 1000.000001000.000001000.000001000.000001000.00000
     Eigenvalues --- 1000.000001000.000001000.000001000.000001000.00000
     Eigenvalues --- 1000.000001000.000001000.000001000.000001000.00000
     Eigenvalues --- 1000.000001000.000001000.000001000.000001000.00000
     Eigenvalues --- 1000.000001000.000001000.000001000.000001000.00000
     Eigenvalues --- 1000.000001000.000001000.000001000.000001000.00000
     Eigenvalues --- 1000.000001000.00000
 En-DIIS/RFO-DIIS/Sim-DIIS IScMMF=       -3 using points:     4    3    2    1
 RFO step:  Lambda=-7.24677368D-07.
 DIIS inversion failure, remove point   4.
 RFO-DIIS uses    3 points instead of    4
 DidBck=T Rises=F RFO-DIIS coefs:    0.12030    1.20517   -0.32547    0.00000
 Iteration  1 RMS(Cart)=  0.00101693 RMS(Int)=  0.00000046
 Iteration  2 RMS(Cart)=  0.00000089 RMS(Int)=  0.00000027
 Iteration  1 RMS(Cart)=  0.00000072 RMS(Int)=  0.00000025
 Variable       Old X    -DE/DX   Delta X   Delta X   Delta X     New X
                                 (Linear)    (Quad)   (Total)
    R1        2.87422   0.00013  -0.00006  -0.00003  -0.00009   2.87413
    R2        2.09645   0.00000   0.00004   0.00001   0.00005   2.09650
    R3        2.09097   0.00002   0.00001   0.00003   0.00004   2.09101
    R4        2.08537   0.00000   0.00000  -0.00001  -0.00000   2.08536
    R5        2.67004  -0.00006   0.00009   0.00002   0.00011   2.67014
    R6        2.75345  -0.00023   0.00008  -0.00009  -0.00001   2.75344
    R7        2.64228  -0.00002   0.00006   0.00001   0.00007   2.64235
    R8        2.08236   0.00000   0.00002   0.00001   0.00002   2.08239
    R9        2.64203   0.00010   0.00008   0.00003   0.00011   2.64214
   R10        2.07866   0.00000   0.00001   0.00000   0.00001   2.07867
   R11        2.63147   0.00007  -0.00001  -0.00001  -0.00002   2.63145
   R12        2.07776   0.00000   0.00001   0.00000   0.00001   2.07777
   R13        2.61513  -0.00003   0.00039   0.00016   0.00055   2.61568
   R14        2.70401   0.00008  -0.00031   0.00002  -0.00030   2.70372
   R15        2.83997  -0.00013  -0.00015  -0.00002  -0.00018   2.83980
   R16        2.75775  -0.00001  -0.00020   0.00008  -0.00012   2.75763
   R17        2.71423  -0.00011   0.00009  -0.00002   0.00007   2.71429
   R18        2.55212  -0.00008  -0.00009  -0.00006  -0.00014   2.55197
   R19        2.67769   0.00004  -0.00012  -0.00000  -0.00012   2.67757
   R20        1.85211   0.00002   0.00003  -0.00001   0.00001   1.85213
   R21        2.62888   0.00005  -0.00003  -0.00001  -0.00004   2.62883
   R22        2.07732   0.00000   0.00004   0.00001   0.00005   2.07737
   R23        2.64640   0.00000   0.00006   0.00000   0.00006   2.64646
   R24        2.07948   0.00000   0.00001   0.00000   0.00001   2.07948
   R25        2.63598  -0.00002   0.00007   0.00001   0.00008   2.63605
   R26        2.07669   0.00000   0.00001   0.00000   0.00002   2.07671
   R27        2.55231   0.00010  -0.00007   0.00002  -0.00005   2.55226
    A1        1.86982   0.00002   0.00002   0.00007   0.00009   1.86991
    A2        1.98656  -0.00002  -0.00002  -0.00010  -0.00012   1.98644
    A3        1.96910   0.00001   0.00005   0.00003   0.00007   1.96918
    A4        1.87473   0.00001   0.00001   0.00006   0.00007   1.87480
    A5        1.87325  -0.00001  -0.00015  -0.00004  -0.00019   1.87306
    A6        1.88492   0.00000   0.00009  -0.00002   0.00007   1.88499
    A7        1.97417   0.00031  -0.00004   0.00022   0.00017   1.97435
    A8        2.20791  -0.00058   0.00024  -0.00019   0.00005   2.20796
    A9        2.08871   0.00023  -0.00012   0.00010  -0.00002   2.08869
   A10        2.15593  -0.00016  -0.00001  -0.00006  -0.00007   2.15586
   A11        2.04610   0.00009   0.00003   0.00004   0.00008   2.04618
   A12        2.07859   0.00007  -0.00002   0.00002  -0.00000   2.07859
   A13        2.04409   0.00000  -0.00004  -0.00002  -0.00006   2.04403
   A14        2.11903   0.00001  -0.00004  -0.00001  -0.00005   2.11898
   A15        2.11428  -0.00001   0.00006   0.00003   0.00008   2.11437
   A16        2.06548   0.00010  -0.00007   0.00003  -0.00004   2.06544
   A17        2.14908  -0.00003   0.00011   0.00001   0.00012   2.14920
   A18        2.06733  -0.00006  -0.00003  -0.00004  -0.00007   2.06726
   A19        1.97556  -0.00013   0.00045  -0.00014   0.00031   1.97587
   A20        2.20948  -0.00020   0.00010   0.00000   0.00010   2.20958
   A21        2.09558   0.00036  -0.00057   0.00010  -0.00047   2.09510
   A22        1.92955   0.00002   0.00002  -0.00004  -0.00002   1.92953
   A23        2.20886   0.00002   0.00042  -0.00078  -0.00037   2.20850
   A24        2.14471  -0.00004  -0.00045   0.00083   0.00038   2.14509
   A25        2.20133   0.00007  -0.00060   0.00068   0.00009   2.20142
   A26        2.13982  -0.00016   0.00048  -0.00074  -0.00026   2.13957
   A27        1.93354   0.00008   0.00004  -0.00001   0.00003   1.93358
   A28        2.20690   0.00017  -0.00031   0.00022  -0.00008   2.20682
   A29        2.11992  -0.00012   0.00027  -0.00002   0.00024   2.12016
   A30        1.95285  -0.00001   0.00004  -0.00023  -0.00020   1.95265
   A31        1.94703  -0.00001   0.00003   0.00010   0.00013   1.94715
   A32        2.13154   0.00005  -0.00011   0.00003  -0.00009   2.13145
   A33        2.02302  -0.00003   0.00005  -0.00003   0.00002   2.02304
   A34        2.12709  -0.00001   0.00007  -0.00000   0.00007   2.12717
   A35        2.06361   0.00001   0.00002  -0.00001   0.00001   2.06362
   A36        2.10869  -0.00001  -0.00003   0.00000  -0.00003   2.10867
   A37        2.10928   0.00000   0.00001   0.00000   0.00002   2.10930
   A38        2.07669  -0.00007   0.00008  -0.00000   0.00008   2.07677
   A39        2.14688   0.00003  -0.00004   0.00001  -0.00003   2.14685
   A40        2.05795   0.00004  -0.00005  -0.00000  -0.00005   2.05790
   A41        2.20188   0.00006  -0.00015   0.00002  -0.00013   2.20175
   A42        2.09491  -0.00023   0.00025  -0.00011   0.00014   2.09505
   A43        1.98456   0.00015  -0.00007   0.00010   0.00003   1.98459
    D1       -0.60722   0.00015  -0.00103   0.00012  -0.00091  -0.60813
    D2        2.36382  -0.00014  -0.00052   0.00097   0.00045   2.36427
    D3        1.46245   0.00015  -0.00102   0.00019  -0.00083   1.46161
    D4       -1.84970  -0.00014  -0.00051   0.00103   0.00053  -1.84917
    D5       -2.66491   0.00014  -0.00088   0.00010  -0.00078  -2.66570
    D6        0.30613  -0.00015  -0.00037   0.00095   0.00058   0.30671
    D7        2.83214  -0.00032   0.00030   0.00069   0.00099   2.83313
    D8       -0.23165  -0.00026   0.00028   0.00055   0.00083  -0.23082
    D9       -0.15177   0.00004  -0.00021  -0.00007  -0.00028  -0.15205
   D10        3.06761   0.00009  -0.00024  -0.00020  -0.00043   3.06718
   D11       -2.59255   0.00034  -0.00022  -0.00088  -0.00110  -2.59365
   D12        0.53789   0.00034  -0.00174  -0.00052  -0.00227   0.53563
   D13        0.36839   0.00003   0.00033   0.00002   0.00036   0.36875
   D14       -2.78435   0.00003  -0.00119   0.00038  -0.00081  -2.78515
   D15       -0.12640  -0.00002  -0.00011   0.00003  -0.00007  -0.12647
   D16        3.12933  -0.00004   0.00012   0.00003   0.00015   3.12948
   D17        2.93603  -0.00008  -0.00008   0.00017   0.00009   2.93612
   D18       -0.09143  -0.00010   0.00015   0.00016   0.00031  -0.09111
   D19        0.14425  -0.00006   0.00030   0.00003   0.00033   0.14458
   D20       -2.94182  -0.00013   0.00012   0.00007   0.00019  -2.94163
   D21       -3.11115  -0.00003   0.00007   0.00003   0.00010  -3.11105
   D22        0.08597  -0.00010  -0.00011   0.00007  -0.00004   0.08593
   D23       -2.94102  -0.00045   0.00021   0.00052   0.00073  -2.94029
   D24        0.12292   0.00008  -0.00016  -0.00007  -0.00023   0.12269
   D25        0.14769  -0.00038   0.00040   0.00047   0.00087   0.14856
   D26       -3.07156   0.00015   0.00002  -0.00011  -0.00009  -3.07164
   D27       -0.37226  -0.00003  -0.00018   0.00005  -0.00013  -0.37238
   D28        2.78000  -0.00003   0.00127  -0.00028   0.00100   2.78099
   D29        2.68684   0.00051  -0.00053  -0.00058  -0.00111   2.68574
   D30       -0.44409   0.00052   0.00092  -0.00091   0.00001  -0.44407
   D31        0.40149   0.00249   0.00000   0.00000   0.00000   0.40149
   D32        3.04372   0.00192   0.00091  -0.00005   0.00086   3.04458
   D33        0.05488   0.00193   0.00155   0.00052   0.00207   0.05694
   D34       -0.11030   0.00192  -0.00079   0.00034  -0.00045  -0.11075
   D35       -3.09914   0.00193  -0.00015   0.00091   0.00076  -3.09838
   D36       -0.43160   0.00245   0.00000   0.00000   0.00000  -0.43159
   D37       -0.24587   0.00047   0.00116   0.00017   0.00134  -0.24453
   D38        2.99333   0.00001   0.00120   0.00062   0.00182   2.99514
   D39        2.75819   0.00045   0.00063  -0.00041   0.00022   2.75841
   D40       -0.28580  -0.00001   0.00067   0.00004   0.00071  -0.28509
   D41       -2.99702  -0.00005  -0.00094  -0.00044  -0.00138  -2.99840
   D42        0.21382   0.00051  -0.00155  -0.00064  -0.00219   0.21163
   D43        0.27641  -0.00004  -0.00033  -0.00002  -0.00035   0.27606
   D44       -2.79594   0.00052  -0.00095  -0.00021  -0.00116  -2.79710
   D45        0.51443  -0.00020   0.00092   0.00053   0.00145   0.51589
   D46       -2.71686   0.00022   0.00090   0.00013   0.00103  -2.71583
   D47        0.14414   0.00005  -0.00064  -0.00005  -0.00069   0.14345
   D48       -3.05588   0.00011  -0.00038  -0.00013  -0.00052  -3.05640
   D49       -2.91287  -0.00036  -0.00059   0.00031  -0.00028  -2.91315
   D50        0.17029  -0.00030  -0.00033   0.00023  -0.00010   0.17019
   D51        0.05333  -0.00003   0.00013   0.00004   0.00017   0.05351
   D52        3.13467  -0.00004   0.00022  -0.00003   0.00018   3.13485
   D53       -3.02637  -0.00009  -0.00014   0.00013  -0.00001  -3.02638
   D54        0.05496  -0.00010  -0.00006   0.00005  -0.00000   0.05496
   D55       -0.07507  -0.00005   0.00028  -0.00002   0.00026  -0.07482
   D56        3.00319  -0.00011   0.00027   0.00006   0.00032   3.00352
   D57        3.12680  -0.00004   0.00020   0.00005   0.00025   3.12705
   D58       -0.07812  -0.00010   0.00018   0.00013   0.00032  -0.07780
   D59       -0.10639   0.00010  -0.00016   0.00001  -0.00015  -0.10654
   D60        2.96973  -0.00044   0.00043   0.00019   0.00062   2.97035
   D61        3.09529   0.00016  -0.00015  -0.00007  -0.00022   3.09507
   D62       -0.11177  -0.00038   0.00044   0.00011   0.00055  -0.11121
         Item               Value     Threshold  Converged?
 Maximum Force            0.000135     0.000450     YES
 RMS     Force            0.000034     0.000300     YES
 Maximum Displacement     0.005258     0.001800     NO 
 RMS     Displacement     0.001016     0.001200     YES
 Predicted change in Energy=-3.632848D-07
 GradGradGradGradGradGradGradGradGradGradGradGradGradGradGradGradGradGrad

                          Input orientation:                          
 ---------------------------------------------------------------------
 Center     Atomic      Atomic             Coordinates (Angstroms)
 Number     Number       Type             X           Y           Z
 ---------------------------------------------------------------------
      1          6           0       -1.032863    2.456838   -1.295296
      2          6           0       -1.489880    1.188393   -0.591457
      3          6           0       -2.866395    1.195968   -0.272617
      4          6           0       -3.592929    0.042958    0.040233
      5          6           0       -2.941578   -1.183772   -0.120156
      6          6           0       -1.578634   -1.176218   -0.405439
      7          9           0       -1.095134   -2.414600   -0.790835
      8          6           0       -0.716479   -0.034504   -0.420019
      9          6           0        0.777033   -0.137618   -0.289383
     10          6           0        1.534077   -1.352324   -0.005016
     11          8           0        1.033181   -2.522679    0.445620
     12          6           0        2.949060   -1.375656   -0.075102
     13          6           0        3.700164   -0.218017   -0.250961
     14          6           0        3.026169    1.008779   -0.295111
     15          6           0        1.631888    1.016058   -0.252859
     16          9           0        1.099921    2.246807   -0.090446
     17          1           0       -1.870248    2.792132   -1.941191
     18          1           0       -0.792677    3.288473   -0.606041
     19          1           0       -0.159149    2.292572   -1.949062
     20          1           0       -3.396354    2.159137   -0.348437
     21          1           0       -4.662083    0.090445    0.294441
     22          1           0       -3.463284   -2.150869   -0.081890
     23          1           0        0.110251   -2.658985    0.145249
     24          1           0        3.421342   -2.356928    0.074913
     25          1           0        4.798842   -0.260267   -0.296093
     26          1           0        3.545590    1.977188   -0.303748
 ---------------------------------------------------------------------
                    Distance matrix (angstroms):
                    1          2          3          4          5
     1  C    0.000000
     2  C    1.520923   0.000000
     3  C    2.448980   1.412980   0.000000
     4  C    3.763562   2.476666   1.398270   0.000000
     5  C    4.275300   2.820766   2.385804   1.398160   0.000000
     6  C    3.780054   2.373577   2.702450   2.396330   1.392501
     7  F    4.897884   3.630032   4.054888   3.601284   2.318211
     8  C    2.659510   1.457057   2.481517   2.914069   2.522261
     9  C    3.319456   2.643567   3.879859   4.386095   3.866671
    10  C    4.771134   3.992927   5.092107   5.313666   4.480307
    11  O    5.665238   4.605803   5.436073   5.305443   4.232196
    12  C    5.659735   5.152199   6.361744   6.695027   5.893935
    13  C    5.535976   5.387994   6.717107   7.303569   6.712864
    14  C    4.424137   4.529324   5.895580   6.697591   6.360181
    15  C    3.203658   3.144802   4.501923   5.322738   5.076756
    16  F    2.458566   2.842239   4.107203   5.186220   5.301271
    17  H    1.109420   2.130361   2.514793   3.801530   4.502414
    18  H    1.106517   2.212836   2.964803   4.335026   4.985463
    19  H    1.103526   2.198442   3.367817   4.561678   4.813707
    20  H    2.563446   2.153148   1.101952   2.160537   3.381416
    21  H    4.615010   3.471769   2.183628   1.099985   2.180748
    22  H    5.348856   3.912116   3.404992   2.201045   1.099507
    23  H    5.436316   4.231486   4.888323   4.585310   3.400052
    24  H    6.699982   6.093722   7.230455   7.413545   6.473105
    25  H    6.510749   6.460176   7.802373   8.403980   7.797302
    26  H    4.709083   5.104991   6.459476   7.403920   7.218638
                    6          7          8          9         10
     6  C    0.000000
     7  F    1.384157   0.000000
     8  C    1.430747   2.438389   0.000000
     9  C    2.577077   2.990168   1.502756   0.000000
    10  C    3.143298   2.942565   2.640810   1.459277   0.000000
    11  O    3.059221   2.463782   3.162540   2.508855   1.350445
    12  C    4.544108   4.236411   3.918397   2.509254   1.416910
    13  C    5.367283   5.302011   4.423686   2.924489   2.457453
    14  C    5.098098   5.380557   3.887346   2.524455   2.808078
    15  C    3.890605   4.415368   2.578071   1.436342   2.383322
    16  F    4.357865   5.199762   2.934674   2.414398   3.626228
    17  H    4.265135   5.388337   3.411013   4.280187   5.702167
    18  H    4.537779   5.714076   3.329052   3.781846   5.226089
    19  H    4.053420   4.937107   2.839695   3.088170   4.464481
    20  H    3.798940   5.139105   3.463944   4.764003   6.062791
    21  H    3.406160   4.491793   4.011715   5.475112   6.368960
    22  H    2.146283   2.486020   3.484002   4.698566   5.061344
    23  H    2.313912   1.545616   2.809077   2.644011   1.938356
    24  H    5.159900   4.599064   4.770762   3.471371   2.139483
    25  H    6.443844   6.294828   5.521331   4.023684   3.454852
    26  H    6.017640   6.407914   4.714409   3.483895   3.901420
                   11         12         13         14         15
    11  O    0.000000
    12  C    2.292904   0.000000
    13  C    3.592979   1.391119   0.000000
    14  C    4.122121   2.395804   1.400445   0.000000
    15  C    3.656362   2.736208   2.408466   1.394940   0.000000
    16  F    4.799981   4.067160   3.586417   2.298920   1.350597
    17  H    6.509529   6.639161   6.553423   5.464872   4.274325
    18  H    6.181362   6.003048   5.710269   4.458393   3.341724
    19  H    5.508429   5.160289   4.907229   3.811814   2.777482
    20  H    6.493897   7.268683   7.484713   6.524949   5.157420
    21  H    6.267959   7.759866   8.385690   7.765316   6.385168
    22  H    4.542544   6.459037   7.421556   7.220931   6.001619
    23  H    0.980103   3.123192   4.359219   4.706271   3.997476
    24  H    2.422439   1.099294   2.181485   3.408967   3.832311
    25  H    4.455205   2.171318   1.100416   2.180103   3.414743
    26  H    5.207932   3.413165   2.201274   1.098949   2.142106
                   16         17         18         19         20
    16  F    0.000000
    17  H    3.541827   0.000000
    18  H    2.220998   1.786096   0.000000
    19  H    2.245397   1.782549   1.787983   0.000000
    20  H    4.504524   2.294896   2.849718   3.613766   0.000000
    21  H    6.164311   4.482355   5.100054   5.491729   2.508954
    22  H    6.337387   5.516160   6.082213   5.843613   4.318759
    23  H    5.010170   6.163626   6.062341   5.382995   5.979490
    24  H    5.158557   7.653653   7.077584   6.207595   8.188714
    25  H    4.473223   7.516664   6.629834   5.816439   8.545027
    26  H    2.469714   5.716349   4.542181   4.065909   6.944471
                   21         22         23         24         25
    21  H    0.000000
    22  H    2.569481   0.000000
    23  H    5.509701   3.616618   0.000000
    24  H    8.448644   6.889493   3.325584   0.000000
    25  H    9.485823   8.478383   5.285028   2.535969   0.000000
    26  H    8.442957   8.137223   5.787682   4.352400   2.564548
                   26
    26  H    0.000000
 Symmetry turned off by external request.
 Stoichiometry    C13H10F2O
 Framework group  C1[X(C13H10F2O)]
 Deg. of freedom    72
 Full point group                 C1      NOp   1
 Rotational constants (GHZ):           0.8401858           0.4715493           0.3134060
 Standard basis: def2SVP (5D, 7F)
   274 basis functions,   470 primitive gaussians,   290 cartesian basis functions
    57 alpha electrons       57 beta electrons
       nuclear repulsion energy      1070.0743853949 Hartrees.
 NAtoms=   26 NActive=   26 NUniq=   26 SFac= 1.00D+00 NAtFMM=   60 NAOKFM=F Big=F
 Integral buffers will be    131072 words long.
 Raffenetti 2 integral format.
 Two-electron integral symmetry is turned off.
 Nuclear repulsion after empirical dispersion term =     1070.0227409434 Hartrees.
 One-electron integrals computed using PRISM.
   1 Symmetry operations used in ECPInt.
 ECPInt:  NShTT=    8001 NPrTT=   29641 LenC2=    7591 LenP2D=   20292.
 LDataN:  DoStor=T MaxTD1= 4 Len=   56
 NBasis=   274 RedAO= T EigKep=  3.22D-04  NBF=   274
 NBsUse=   274 1.00D-06 EigRej= -1.00D+00 NBFU=   274
 Initial guess from the checkpoint file:  "path/to/scratch/gaussian_tmp/Gau-2268774.chk"
 B after Tr=    -0.000274   -0.000043   -0.000219
         Rot=    1.000000    0.000037   -0.000039   -0.000012 Ang=   0.01 deg.
 Requested convergence on RMS density matrix=1.00D-08 within 128 cycles.
 Requested convergence on MAX density matrix=1.00D-06.
 Requested convergence on             energy=1.00D-06.
 No special actions if energy rises.
 SCF Done:  E(RB-P86) =  -775.751513067     A.U. after    8 cycles
            NFock=  8  Conv=0.61D-08     -V/T= 2.0104
   1 Symmetry operations used in ECPInt.
 ECPInt:  NShTT=    8001 NPrTT=   29641 LenC2=    7591 LenP2D=   20292.
 LDataN:  DoStor=T MaxTD1= 5 Len=  102
 Calling FoFJK, ICntrl=      2527 FMM=F ISym2X=0 I1Cent= 0 IOpClX= 0 NMat=1 NMatS=1 NMatT=0.
 -------------------------------------------------------------------
 Center     Atomic                   Forces (Hartrees/Bohr)
 Number     Number              X              Y              Z
 -------------------------------------------------------------------
      1        6           0.000015769   -0.000431162   -0.001320386
      2        6           0.000023026    0.000035488    0.000095536
      3        6          -0.000001018   -0.000013267   -0.000002787
      4        6           0.000023901    0.000004213   -0.000032437
      5        6           0.000034662   -0.000049335    0.000027569
      6        6          -0.000017818   -0.000024477   -0.000025184
      7        9          -0.000188086   -0.000190412    0.001374376
      8        6           0.000082787    0.000729629   -0.000239720
      9        6           0.000072647    0.000476868   -0.000075598
     10        6          -0.000005264    0.000001841    0.000031126
     11        8           0.000053731   -0.000449636   -0.001260015
     12        6           0.000040543    0.000015037   -0.000028123
     13        6           0.000010182    0.000033476    0.000008667
     14        6           0.000004563   -0.000015244    0.000018211
     15        6           0.000001938   -0.000020106   -0.000057111
     16        9          -0.000016196   -0.000139631    0.001514143
     17        1          -0.000016873   -0.000004524    0.000010851
     18        1          -0.000021558   -0.000009490   -0.000015187
     19        1          -0.000038798    0.000012239   -0.000010358
     20        1           0.000005118   -0.000006376   -0.000002452
     21        1           0.000005478   -0.000005932    0.000002221
     22        1          -0.000003386    0.000002692   -0.000000521
     23        1          -0.000051363    0.000028480   -0.000004363
     24        1          -0.000011145    0.000014784   -0.000006532
     25        1          -0.000000368    0.000008030    0.000001874
     26        1          -0.000002473   -0.000003186   -0.000003800
 -------------------------------------------------------------------
 Cartesian Forces:  Max     0.001514143 RMS     0.000337131

 GradGradGradGradGradGradGradGradGradGradGradGradGradGradGradGradGradGrad
 Berny optimization.
 Using GEDIIS/GDIIS optimizer.
 FormGI is forming the generalized inverse of G from B-inverse, IUseBI=4.
 Internal  Forces:  Max     0.002574099 RMS     0.000506406
 Search for a local minimum.
 Step number   5 out of a maximum of  142
 All quantities printed in internal units (Hartrees-Bohrs-Radians)
 Mixed Optimization -- En-DIIS/RFO-DIIS
 Swapping is turned off.
 Update second derivatives using D2CorX and points    1    2    3    4    5
 DE=  3.45D-07 DEPred=-3.63D-07 R=-9.49D-01
 Trust test=-9.49D-01 RLast= 6.50D-03 DXMaxT set to 5.00D-02
 ITU= -1  1  0 -1  0
     Eigenvalues ---    0.00506   0.01013   0.01361   0.01604   0.01734
     Eigenvalues ---    0.01847   0.01929   0.02007   0.02026   0.02037
     Eigenvalues ---    0.02109   0.02118   0.02127   0.02130   0.02155
     Eigenvalues ---    0.02160   0.02223   0.02297   0.02723   0.06627
     Eigenvalues ---    0.07410   0.15543   0.15882   0.15958   0.15963
     Eigenvalues ---    0.15973   0.15983   0.15987   0.16001   0.16018
     Eigenvalues ---    0.16163   0.20446   0.22044   0.22115   0.22831
     Eigenvalues ---    0.22987   0.23762   0.24388   0.24757   0.24888
     Eigenvalues ---    0.27145   0.29623   0.30132   0.32630   0.32956
     Eigenvalues ---    0.33297   0.33472   0.33636   0.33686   0.33736
     Eigenvalues ---    0.33793   0.33803   0.34260   0.35394   0.37755
     Eigenvalues ---    0.38120   0.41299   0.42126   0.43879   0.44236
     Eigenvalues ---    0.44453   0.45273   0.45403   0.46482   0.46735
     Eigenvalues ---    0.51391   0.54045   0.54995   0.79703   2.08626
     Eigenvalues --- 1000.000001000.000001000.000001000.000001000.00000
     Eigenvalues --- 1000.000001000.000001000.000001000.000001000.00000
     Eigenvalues --- 1000.000001000.000001000.000001000.000001000.00000
     Eigenvalues --- 1000.000001000.000001000.000001000.000001000.00000
     Eigenvalues --- 1000.000001000.000001000.000001000.000001000.00000
     Eigenvalues --- 1000.000001000.000001000.000001000.000001000.00000
     Eigenvalues --- 1000.000001000.000001000.000001000.000001000.00000
     Eigenvalues --- 1000.000001000.000001000.000001000.000001000.00000
     Eigenvalues --- 1000.000001000.000001000.000001000.000001000.00000
     Eigenvalues --- 1000.000001000.000001000.000001000.000001000.00000
     Eigenvalues --- 1000.000001000.000001000.000001000.000001000.00000
     Eigenvalues --- 1000.000001000.000001000.000001000.000001000.00000
     Eigenvalues --- 1000.000001000.00000
 En-DIIS/RFO-DIIS/Sim-DIIS IScMMF=       -3 using points:     5    4    3    2    1
 RFO step:  Lambda=-1.20450331D-06.
 DIIS inversion failure, remove point   5.
 RFO-DIIS uses    4 points instead of    5
 EnCoef did   100 forward-backward iterations
 EnCoef did   100 forward-backward iterations
 EnCoef did     2 forward-backward iterations
 DidBck=T Rises=T En-DIIS coefs:    0.37177    0.33254    0.00000    0.00000    0.29570
 Iteration  1 RMS(Cart)=  0.00107424 RMS(Int)=  0.00000055
 Iteration  2 RMS(Cart)=  0.00000075 RMS(Int)=  0.00000024
 Iteration  1 RMS(Cart)=  0.00000057 RMS(Int)=  0.00000020
 Variable       Old X    -DE/DX   Delta X   Delta X   Delta X     New X
                                 (Linear)    (Quad)   (Total)
    R1        2.87413   0.00014   0.00008  -0.00009  -0.00001   2.87411
    R2        2.09650   0.00000  -0.00004   0.00004   0.00000   2.09650
    R3        2.09101  -0.00002  -0.00002   0.00001  -0.00001   2.09101
    R4        2.08536  -0.00003   0.00000  -0.00003  -0.00003   2.08534
    R5        2.67014  -0.00009  -0.00008   0.00008   0.00000   2.67015
    R6        2.75344  -0.00005  -0.00006   0.00009   0.00004   2.75348
    R7        2.64235  -0.00009  -0.00004   0.00002  -0.00002   2.64233
    R8        2.08239  -0.00001  -0.00002   0.00001  -0.00001   2.08238
    R9        2.64214   0.00001  -0.00007   0.00004  -0.00004   2.64210
   R10        2.07867  -0.00001  -0.00001   0.00000  -0.00001   2.07866
   R11        2.63145   0.00002   0.00001  -0.00007  -0.00005   2.63139
   R12        2.07777  -0.00000  -0.00001   0.00001  -0.00000   2.07777
   R13        2.61568  -0.00018  -0.00043   0.00041  -0.00002   2.61566
   R14        2.70372   0.00024   0.00022  -0.00011   0.00010   2.70382
   R15        2.83980   0.00011   0.00003   0.00002   0.00006   2.83986
   R16        2.75763   0.00005   0.00005  -0.00005   0.00000   2.75764
   R17        2.71429  -0.00002  -0.00010   0.00009  -0.00000   2.71429
   R18        2.55197  -0.00001   0.00013  -0.00009   0.00005   2.55202
   R19        2.67757   0.00009   0.00010  -0.00006   0.00005   2.67762
   R20        1.85213   0.00005  -0.00000   0.00003   0.00003   1.85215
   R21        2.62883   0.00002   0.00005  -0.00004   0.00001   2.62885
   R22        2.07737  -0.00002  -0.00004   0.00002  -0.00002   2.07734
   R23        2.64646  -0.00007  -0.00003   0.00001  -0.00003   2.64643
   R24        2.07948  -0.00000  -0.00001   0.00001  -0.00000   2.07948
   R25        2.63605  -0.00004  -0.00006   0.00006  -0.00000   2.63605
   R26        2.07671  -0.00000  -0.00002   0.00001  -0.00001   2.07671
   R27        2.55226   0.00001   0.00006  -0.00008  -0.00002   2.55224
    A1        1.86991  -0.00004  -0.00005  -0.00003  -0.00008   1.86983
    A2        1.98644   0.00000   0.00007  -0.00009  -0.00002   1.98642
    A3        1.96918   0.00003  -0.00006   0.00015   0.00009   1.96926
    A4        1.87480  -0.00000  -0.00004   0.00001  -0.00002   1.87478
    A5        1.87306  -0.00000   0.00016  -0.00017  -0.00001   1.87305
    A6        1.88499   0.00001  -0.00008   0.00012   0.00004   1.88502
    A7        1.97435   0.00002  -0.00002  -0.00016  -0.00018   1.97416
    A8        2.20796  -0.00030  -0.00014   0.00026   0.00012   2.20808
    A9        2.08869   0.00022   0.00002  -0.00003  -0.00001   2.08867
   A10        2.15586  -0.00009   0.00004   0.00003   0.00007   2.15593
   A11        2.04618   0.00005  -0.00006   0.00002  -0.00004   2.04613
   A12        2.07859   0.00004   0.00001  -0.00004  -0.00003   2.07856
   A13        2.04403   0.00000   0.00008  -0.00006   0.00002   2.04405
   A14        2.11898   0.00001   0.00003  -0.00002   0.00001   2.11900
   A15        2.11437  -0.00002  -0.00008   0.00006  -0.00002   2.11435
   A16        2.06544   0.00010   0.00002  -0.00006  -0.00004   2.06540
   A17        2.14920  -0.00005  -0.00009   0.00010   0.00001   2.14921
   A18        2.06726  -0.00005   0.00006  -0.00003   0.00003   2.06729
   A19        1.97587  -0.00030  -0.00020   0.00001  -0.00019   1.97568
   A20        2.20958  -0.00012  -0.00010   0.00018   0.00008   2.20966
   A21        2.09510   0.00045   0.00035  -0.00022   0.00013   2.09524
   A22        1.92953  -0.00014   0.00010  -0.00014  -0.00003   1.92950
   A23        2.20850   0.00057   0.00017   0.00001   0.00019   2.20868
   A24        2.14509  -0.00043  -0.00027   0.00013  -0.00014   2.14496
   A25        2.20142  -0.00027  -0.00009  -0.00011  -0.00021   2.20121
   A26        2.13957   0.00031   0.00009   0.00010   0.00020   2.13977
   A27        1.93358  -0.00004   0.00004  -0.00007  -0.00003   1.93354
   A28        2.20682   0.00010  -0.00001  -0.00009  -0.00010   2.20672
   A29        2.12016  -0.00009  -0.00023   0.00019  -0.00003   2.12012
   A30        1.95265   0.00002   0.00026  -0.00013   0.00013   1.95278
   A31        1.94715  -0.00005  -0.00014   0.00004  -0.00010   1.94706
   A32        2.13145   0.00007   0.00006  -0.00005   0.00000   2.13146
   A33        2.02304  -0.00004  -0.00002   0.00000  -0.00002   2.02303
   A34        2.12717  -0.00002  -0.00005   0.00005   0.00001   2.12717
   A35        2.06362  -0.00003   0.00001  -0.00004  -0.00003   2.06359
   A36        2.10867   0.00001   0.00002   0.00002   0.00003   2.10870
   A37        2.10930   0.00001  -0.00002   0.00002  -0.00001   2.10929
   A38        2.07677  -0.00003  -0.00008   0.00010   0.00002   2.07680
   A39        2.14685   0.00001   0.00003  -0.00004  -0.00001   2.14684
   A40        2.05790   0.00002   0.00004  -0.00006  -0.00002   2.05788
   A41        2.20175   0.00011   0.00007  -0.00007   0.00000   2.20175
   A42        2.09505  -0.00010  -0.00017   0.00022   0.00004   2.09510
   A43        1.98459  -0.00005   0.00006  -0.00014  -0.00008   1.98451
    D1       -0.60813   0.00019   0.00089   0.00026   0.00115  -0.60699
    D2        2.36427  -0.00016  -0.00009   0.00070   0.00061   2.36488
    D3        1.46161   0.00016   0.00086   0.00020   0.00105   1.46267
    D4       -1.84917  -0.00019  -0.00012   0.00064   0.00052  -1.84865
    D5       -2.66570   0.00020   0.00076   0.00041   0.00116  -2.66453
    D6        0.30671  -0.00015  -0.00022   0.00085   0.00063   0.30733
    D7        2.83313  -0.00038  -0.00059   0.00029  -0.00030   2.83283
    D8       -0.23082  -0.00030  -0.00053   0.00027  -0.00026  -0.23109
    D9       -0.15205   0.00000   0.00033  -0.00015   0.00018  -0.15187
   D10        3.06718   0.00008   0.00039  -0.00017   0.00021   3.06739
   D11       -2.59365   0.00045   0.00055  -0.00025   0.00030  -2.59335
   D12        0.53563   0.00047   0.00156   0.00047   0.00203   0.53766
   D13        0.36875   0.00006  -0.00049   0.00021  -0.00028   0.36847
   D14       -2.78515   0.00007   0.00052   0.00093   0.00145  -2.78370
   D15       -0.12647  -0.00003   0.00014  -0.00006   0.00007  -0.12640
   D16        3.12948  -0.00003  -0.00018   0.00009  -0.00009   3.12939
   D17        2.93612  -0.00011   0.00007  -0.00004   0.00004   2.93616
   D18       -0.09111  -0.00011  -0.00024   0.00011  -0.00013  -0.09124
   D19        0.14458  -0.00004  -0.00039   0.00017  -0.00023   0.14435
   D20       -2.94163  -0.00010  -0.00028   0.00010  -0.00018  -2.94181
   D21       -3.11105  -0.00004  -0.00007   0.00001  -0.00006  -3.11112
   D22        0.08593  -0.00010   0.00004  -0.00005  -0.00001   0.08591
   D23       -2.94029  -0.00045  -0.00070   0.00042  -0.00029  -2.94057
   D24        0.12269   0.00011   0.00018  -0.00003   0.00015   0.12284
   D25        0.14856  -0.00039  -0.00081   0.00048  -0.00033   0.14823
   D26       -3.07164   0.00018   0.00007   0.00003   0.00010  -3.07154
   D27       -0.37238  -0.00007   0.00026  -0.00016   0.00010  -0.37228
   D28        2.78099  -0.00009  -0.00071  -0.00085  -0.00156   2.77944
   D29        2.68574   0.00050   0.00117  -0.00062   0.00055   2.68628
   D30       -0.44407   0.00048   0.00020  -0.00131  -0.00111  -0.44519
   D31        0.40149   0.00257  -0.00000   0.00000  -0.00000   0.40149
   D32        3.04458   0.00196  -0.00104  -0.00038  -0.00142   3.04315
   D33        0.05694   0.00198  -0.00141   0.00035  -0.00106   0.05589
   D34       -0.11075   0.00198   0.00009   0.00042   0.00051  -0.11024
   D35       -3.09838   0.00200  -0.00028   0.00115   0.00088  -3.09751
   D36       -0.43159   0.00251  -0.00000   0.00000  -0.00000  -0.43159
   D37       -0.24453   0.00043  -0.00065   0.00060  -0.00005  -0.24458
   D38        2.99514  -0.00006  -0.00094   0.00091  -0.00004   2.99511
   D39        2.75841   0.00044  -0.00031  -0.00005  -0.00036   2.75805
   D40       -0.28509  -0.00005  -0.00061   0.00026  -0.00035  -0.28544
   D41       -2.99840  -0.00005   0.00060  -0.00082  -0.00021  -2.99861
   D42        0.21163   0.00058   0.00141  -0.00097   0.00044   0.21207
   D43        0.27606  -0.00001   0.00030  -0.00018   0.00012   0.27618
   D44       -2.79710   0.00062   0.00110  -0.00033   0.00077  -2.79632
   D45        0.51589  -0.00024  -0.00113   0.00079  -0.00034   0.51555
   D46       -2.71583   0.00020  -0.00088   0.00052  -0.00036  -2.71619
   D47        0.14345   0.00009   0.00058  -0.00023   0.00034   0.14379
   D48       -3.05640   0.00013   0.00041  -0.00024   0.00016  -3.05623
   D49       -2.91315  -0.00034   0.00033   0.00004   0.00037  -2.91279
   D50        0.17019  -0.00030   0.00016   0.00002   0.00019   0.17038
   D51        0.05351  -0.00002  -0.00013   0.00007  -0.00006   0.05344
   D52        3.13485  -0.00005  -0.00016  -0.00002  -0.00018   3.13467
   D53       -3.02638  -0.00007   0.00005   0.00008   0.00013  -3.02625
   D54        0.05496  -0.00010   0.00001  -0.00000   0.00001   0.05497
   D55       -0.07482  -0.00007  -0.00024   0.00006  -0.00017  -0.07499
   D56        3.00352  -0.00015  -0.00030   0.00014  -0.00016   3.00336
   D57        3.12705  -0.00003  -0.00020   0.00015  -0.00005   3.12699
   D58       -0.07780  -0.00011  -0.00027   0.00022  -0.00004  -0.07785
   D59       -0.10654   0.00008   0.00014  -0.00001   0.00014  -0.10641
   D60        2.97035  -0.00052  -0.00063   0.00015  -0.00048   2.96988
   D61        3.09507   0.00016   0.00021  -0.00008   0.00013   3.09520
   D62       -0.11121  -0.00044  -0.00056   0.00008  -0.00049  -0.11170
         Item               Value     Threshold  Converged?
 Maximum Force            0.000404     0.000450     YES
 RMS     Force            0.000079     0.000300     YES
 Maximum Displacement     0.004705     0.001800     NO 
 RMS     Displacement     0.001074     0.001200     YES
 Predicted change in Energy=-5.813222D-07
 GradGradGradGradGradGradGradGradGradGradGradGradGradGradGradGradGradGrad

                          Input orientation:                          
 ---------------------------------------------------------------------
 Center     Atomic      Atomic             Coordinates (Angstroms)
 Number     Number       Type             X           Y           Z
 ---------------------------------------------------------------------
      1          6           0       -1.033858    2.457183   -1.296190
      2          6           0       -1.489828    1.188585   -0.591966
      3          6           0       -2.866121    1.195866   -0.272160
      4          6           0       -3.592325    0.042731    0.040949
      5          6           0       -2.940970   -1.183895   -0.120052
      6          6           0       -1.578292   -1.176111   -0.406460
      7          9           0       -1.095089   -2.414565   -0.791963
      8          6           0       -0.716165   -0.034313   -0.421550
      9          6           0        0.777316   -0.137446   -0.290225
     10          6           0        1.533939   -1.352269   -0.005233
     11          8           0        1.032431   -2.522362    0.445475
     12          6           0        2.948973   -1.375913   -0.074688
     13          6           0        3.700422   -0.218420   -0.250083
     14          6           0        3.026687    1.008494   -0.294470
     15          6           0        1.632381    1.016054   -0.253120
     16          9           0        1.100683    2.246851   -0.090267
     17          1           0       -1.872361    2.792733   -1.940498
     18          1           0       -0.792454    3.288581   -0.607079
     19          1           0       -0.161323    2.293096   -1.951551
     20          1           0       -3.396254    2.158976   -0.347436
     21          1           0       -4.661284    0.090059    0.295991
     22          1           0       -3.462528   -2.151058   -0.081454
     23          1           0        0.109481   -2.658212    0.144913
     24          1           0        3.420953   -2.357274    0.075604
     25          1           0        4.799119   -0.260860   -0.294563
     26          1           0        3.546297    1.976803   -0.302624
 ---------------------------------------------------------------------
                    Distance matrix (angstroms):
                    1          2          3          4          5
     1  C    0.000000
     2  C    1.520915   0.000000
     3  C    2.448826   1.412980   0.000000
     4  C    3.763413   2.476703   1.398260   0.000000
     5  C    4.275258   2.820847   2.385792   1.398140   0.000000
     6  C    3.780060   2.373610   2.702372   2.396264   1.392474
     7  F    4.898155   3.630221   4.054869   3.601144   2.318036
     8  C    2.659601   1.457077   2.481525   2.914127   2.522340
     9  C    3.320304   2.643737   3.879778   4.385875   3.866480
    10  C    4.772010   3.992913   5.091637   5.312884   4.479548
    11  O    5.665582   4.605345   5.434973   5.303934   4.230749
    12  C    5.661064   5.152396   6.361475   6.694364   5.893247
    13  C    5.537743   5.388436   6.717156   7.303223   6.712462
    14  C    4.426078   4.529883   5.895828   6.697501   6.360025
    15  C    3.205258   3.145278   4.502135   5.322724   5.076715
    16  F    2.460641   2.842952   4.107699   5.186491   5.301497
    17  H    1.109420   2.130296   2.514139   3.800911   4.502169
    18  H    1.106513   2.212814   2.965084   4.335293   4.985616
    19  H    1.103512   2.198486   3.367521   4.561357   4.813553
    20  H    2.563197   2.153118   1.101947   2.160504   3.381386
    21  H    4.614818   3.471795   2.183625   1.099982   2.180718
    22  H    5.348823   3.912209   3.404992   2.201032   1.099507
    23  H    5.436108   4.230677   4.886929   4.583587   3.398392
    24  H    6.701206   6.093811   7.230010   7.412644   6.472184
    25  H    6.512651   6.460664   7.802464   8.403634   7.796886
    26  H    4.711237   5.105639   6.459868   7.403958   7.218586
                    6          7          8          9         10
     6  C    0.000000
     7  F    1.384148   0.000000
     8  C    1.430802   2.438522   0.000000
     9  C    2.577057   2.990470   1.502787   0.000000
    10  C    3.142928   2.942653   2.640700   1.459278   0.000000
    11  O    3.058441   2.463578   3.162232   2.508817   1.350469
    12  C    4.543801   4.236475   3.918347   2.509253   1.416935
    13  C    5.367164   5.302227   4.423747   2.924503   2.457481
    14  C    5.098124   5.380880   3.887484   2.524454   2.808052
    15  C    3.890697   4.415721   2.578238   1.436342   2.383295
    16  F    4.358159   5.200249   2.935028   2.414420   3.626100
    17  H    4.265146   5.388807   3.411185   4.281371   5.703435
    18  H    4.537760   5.714162   3.328944   3.781830   5.226070
    19  H    4.053456   4.937473   2.839997   3.090079   4.466627
    20  H    3.798852   5.139090   3.463941   4.763981   6.062404
    21  H    3.406092   4.491607   4.011770   5.474831   6.368032
    22  H    2.146275   2.485765   3.484076   4.698350   5.060490
    23  H    2.312837   1.545344   2.808455   2.643787   1.938328
    24  H    5.159456   4.598977   4.770645   3.471352   2.139484
    25  H    6.443724   6.295041   5.521395   4.023698   3.454893
    26  H    6.017729   6.408278   4.714585   3.483886   3.901377
                   11         12         13         14         15
    11  O    0.000000
    12  C    2.293044   0.000000
    13  C    3.593067   1.391125   0.000000
    14  C    4.122077   2.395776   1.400431   0.000000
    15  C    3.656278   2.736195   2.408470   1.394939   0.000000
    16  F    4.799695   4.067043   3.586327   2.298851   1.350587
    17  H    6.510063   6.641094   6.555948   5.467503   4.276336
    18  H    6.181031   6.003268   5.710730   4.458964   3.342079
    19  H    5.509939   5.163157   4.910782   3.815695   2.780806
    20  H    6.492834   7.268545   7.484938   6.525380   5.157746
    21  H    6.266217   7.759027   8.385194   7.765118   6.385077
    22  H    4.540944   6.458192   7.421009   7.220668   6.001514
    23  H    0.980118   3.123337   4.359297   4.706154   3.997236
    24  H    2.422622   1.099282   2.181484   3.408929   3.832283
    25  H    4.455333   2.171343   1.100415   2.180086   3.414740
    26  H    5.207846   3.413130   2.201254   1.098947   2.142093
                   16         17         18         19         20
    16  F    0.000000
    17  H    3.544056   0.000000
    18  H    2.221771   1.786077   0.000000
    19  H    2.249262   1.782529   1.787994   0.000000
    20  H    4.505142   2.293850   2.850123   3.613302   0.000000
    21  H    6.164512   4.481565   5.100385   5.491308   2.508927
    22  H    6.337553   5.515954   6.082372   5.843434   4.318742
    23  H    5.009734   6.163557   6.061628   5.383675   5.978117
    24  H    5.158404   7.655482   7.077749   6.210314   8.188394
    25  H    4.473117   7.519453   6.630375   5.820162   8.545323
    26  H    2.469625   5.719285   4.542930   4.070068   6.945085
                   21         22         23         24         25
    21  H    0.000000
    22  H    2.569453   0.000000
    23  H    5.507814   3.614926   0.000000
    24  H    8.447518   6.888360   3.325841   0.000000
    25  H    9.485311   8.477799   5.285182   2.536004   0.000000
    26  H    8.442898   8.137062   5.787518   4.352355   2.564520
                   26
    26  H    0.000000
 Symmetry turned off by external request.
 Stoichiometry    C13H10F2O
 Framework group  C1[X(C13H10F2O)]
 Deg. of freedom    72
 Full point group                 C1      NOp   1
 Rotational constants (GHZ):           0.8401002           0.4715307           0.3134114
 Standard basis: def2SVP (5D, 7F)
   274 basis functions,   470 primitive gaussians,   290 cartesian basis functions
    57 alpha electrons       57 beta electrons
       nuclear repulsion energy      1070.0504455810 Hartrees.
 NAtoms=   26 NActive=   26 NUniq=   26 SFac= 1.00D+00 NAtFMM=   60 NAOKFM=F Big=F
 Integral buffers will be    131072 words long.
 Raffenetti 2 integral format.
 Two-electron integral symmetry is turned off.
 Nuclear repulsion after empirical dispersion term =     1069.9988031746 Hartrees.
 One-electron integrals computed using PRISM.
   1 Symmetry operations used in ECPInt.
 ECPInt:  NShTT=    8001 NPrTT=   29641 LenC2=    7591 LenP2D=   20292.
 LDataN:  DoStor=T MaxTD1= 4 Len=   56
 NBasis=   274 RedAO= T EigKep=  3.22D-04  NBF=   274
 NBsUse=   274 1.00D-06 EigRej= -1.00D+00 NBFU=   274
 Initial guess from the checkpoint file:  "path/to/scratch/gaussian_tmp/Gau-2268774.chk"
 B after Tr=     0.000200   -0.000020   -0.000307
         Rot=    1.000000   -0.000035    0.000029    0.000014 Ang=  -0.01 deg.
 Requested convergence on RMS density matrix=1.00D-08 within 128 cycles.
 Requested convergence on MAX density matrix=1.00D-06.
 Requested convergence on             energy=1.00D-06.
 No special actions if energy rises.
 SCF Done:  E(RB-P86) =  -775.751513534     A.U. after    8 cycles
            NFock=  8  Conv=0.44D-08     -V/T= 2.0104
   1 Symmetry operations used in ECPInt.
 ECPInt:  NShTT=    8001 NPrTT=   29641 LenC2=    7591 LenP2D=   20292.
 LDataN:  DoStor=T MaxTD1= 5 Len=  102
 Calling FoFJK, ICntrl=      2527 FMM=F ISym2X=0 I1Cent= 0 IOpClX= 0 NMat=1 NMatS=1 NMatT=0.
 -------------------------------------------------------------------
 Center     Atomic                   Forces (Hartrees/Bohr)
 Number     Number              X              Y              Z
 -------------------------------------------------------------------
      1        6           0.000072438   -0.000412166   -0.001236375
      2        6           0.000000077    0.000007597    0.000040631
      3        6          -0.000001663   -0.000017793   -0.000009253
      4        6           0.000010075    0.000004499   -0.000008769
      5        6           0.000010386   -0.000025756    0.000007282
      6        6          -0.000007779   -0.000011594   -0.000022712
      7        9          -0.000158699   -0.000189359    0.001337811
      8        6           0.000064843    0.000707321   -0.000096087
      9        6           0.000044798    0.000466156   -0.000098365
     10        6           0.000003911   -0.000008839    0.000022563
     11        8           0.000077530   -0.000414022   -0.001274095
     12        6           0.000019494    0.000003706   -0.000017181
     13        6           0.000005924    0.000019051    0.000005321
     14        6           0.000001932   -0.000010872    0.000002510
     15        6          -0.000000411   -0.000010011   -0.000030059
     16        9          -0.000153591   -0.000103338    0.001384781
     17        1           0.000007617   -0.000000465    0.000003830
     18        1          -0.000003786   -0.000003899   -0.000010059
     19        1           0.000030252   -0.000008015    0.000007848
     20        1           0.000003160   -0.000003865   -0.000001548
     21        1           0.000003115   -0.000002735    0.000002349
     22        1          -0.000001237    0.000002859   -0.000002154
     23        1          -0.000019886    0.000001065   -0.000003177
     24        1          -0.000005432    0.000006923   -0.000003533
     25        1          -0.000000803    0.000004424   -0.000000315
     26        1          -0.000002265   -0.000000872   -0.000001246
 -------------------------------------------------------------------
 Cartesian Forces:  Max     0.001384781 RMS     0.000321423

 GradGradGradGradGradGradGradGradGradGradGradGradGradGradGradGradGradGrad
 Berny optimization.
 Using GEDIIS/GDIIS optimizer.
 FormGI is forming the generalized inverse of G from B-inverse, IUseBI=4.
 Internal  Forces:  Max     0.002483833 RMS     0.000484990
 Search for a local minimum.
 Step number   6 out of a maximum of  142
 All quantities printed in internal units (Hartrees-Bohrs-Radians)
 Mixed Optimization -- En-DIIS/RFO-DIIS
 Swapping is turned off.
 Update second derivatives using D2CorX and points    1    2    3    4    5
                                                      6
 DE= -4.66D-07 DEPred=-5.81D-07 R= 8.02D-01
 Trust test= 8.02D-01 RLast= 4.75D-03 DXMaxT set to 5.00D-02
 ITU=  0 -1  1  0 -1  0
     Eigenvalues ---    0.00553   0.01216   0.01369   0.01629   0.01753
     Eigenvalues ---    0.01826   0.01977   0.02016   0.02034   0.02038
     Eigenvalues ---    0.02116   0.02127   0.02130   0.02144   0.02159
     Eigenvalues ---    0.02161   0.02255   0.02408   0.03315   0.06705
     Eigenvalues ---    0.07416   0.15723   0.15881   0.15958   0.15963
     Eigenvalues ---    0.15975   0.15985   0.15996   0.16001   0.16054
     Eigenvalues ---    0.16236   0.20502   0.22053   0.22113   0.22829
     Eigenvalues ---    0.23154   0.24051   0.24406   0.24741   0.24934
     Eigenvalues ---    0.25883   0.29820   0.30135   0.32652   0.33009
     Eigenvalues ---    0.33457   0.33487   0.33637   0.33686   0.33739
     Eigenvalues ---    0.33782   0.33802   0.34432   0.35543   0.38021
     Eigenvalues ---    0.38299   0.41295   0.41642   0.43040   0.44147
     Eigenvalues ---    0.44385   0.45187   0.45339   0.46489   0.46695
     Eigenvalues ---    0.51339   0.54048   0.55056   0.81807   2.15125
     Eigenvalues --- 1000.000001000.000001000.000001000.000001000.00000
     Eigenvalues --- 1000.000001000.000001000.000001000.000001000.00000
     Eigenvalues --- 1000.000001000.000001000.000001000.000001000.00000
     Eigenvalues --- 1000.000001000.000001000.000001000.000001000.00000
     Eigenvalues --- 1000.000001000.000001000.000001000.000001000.00000
     Eigenvalues --- 1000.000001000.000001000.000001000.000001000.00000
     Eigenvalues --- 1000.000001000.000001000.000001000.000001000.00000
     Eigenvalues --- 1000.000001000.000001000.000001000.000001000.00000
     Eigenvalues --- 1000.000001000.000001000.000001000.000001000.00000
     Eigenvalues --- 1000.000001000.000001000.000001000.000001000.00000
     Eigenvalues --- 1000.000001000.000001000.000001000.000001000.00000
     Eigenvalues --- 1000.000001000.000001000.000001000.000001000.00000
     Eigenvalues --- 1000.000001000.00000
 En-DIIS/RFO-DIIS/Sim-DIIS IScMMF=       -3 using points:     6    5    4    3    2    1
 RFO step:  Lambda=-1.89435338D-07.
 DIIS inversion failure, remove point   6.
 RFO-DIIS uses    5 points instead of    6
 DidBck=T Rises=F RFO-DIIS coefs:    0.65013   -0.08943    0.27828    0.26762   -0.10659
                  RFO-DIIS coefs:    0.00000
 Iteration  1 RMS(Cart)=  0.00038652 RMS(Int)=  0.00000027
 Iteration  2 RMS(Cart)=  0.00000014 RMS(Int)=  0.00000024
 Iteration  1 RMS(Cart)=  0.00000068 RMS(Int)=  0.00000024
 Variable       Old X    -DE/DX   Delta X   Delta X   Delta X     New X
                                 (Linear)    (Quad)   (Total)
    R1        2.87411   0.00016   0.00003  -0.00001   0.00002   2.87413
    R2        2.09650  -0.00001  -0.00001  -0.00000  -0.00002   2.09648
    R3        2.09101  -0.00001  -0.00001  -0.00001  -0.00002   2.09099
    R4        2.08534   0.00002   0.00001   0.00002   0.00003   2.08536
    R5        2.67015  -0.00009  -0.00003   0.00002  -0.00001   2.67013
    R6        2.75348  -0.00020   0.00000  -0.00005  -0.00005   2.75343
    R7        2.64233  -0.00005  -0.00001   0.00000  -0.00000   2.64232
    R8        2.08238  -0.00000  -0.00000  -0.00001  -0.00001   2.08237
    R9        2.64210   0.00006  -0.00002   0.00000  -0.00001   2.64209
   R10        2.07866  -0.00000  -0.00000  -0.00001  -0.00001   2.07866
   R11        2.63139   0.00006   0.00002  -0.00006  -0.00003   2.63136
   R12        2.07777  -0.00000  -0.00000  -0.00000  -0.00000   2.07776
   R13        2.61566  -0.00016  -0.00015   0.00011  -0.00004   2.61562
   R14        2.70382   0.00019   0.00002   0.00005   0.00008   2.70390
   R15        2.83986  -0.00003   0.00001  -0.00004  -0.00003   2.83982
   R16        2.75764   0.00007   0.00000   0.00001   0.00001   2.75765
   R17        2.71429  -0.00010  -0.00001  -0.00004  -0.00005   2.71424
   R18        2.55202  -0.00004   0.00003   0.00002   0.00005   2.55207
   R19        2.67762   0.00007   0.00001   0.00004   0.00005   2.67767
   R20        1.85215   0.00002  -0.00001   0.00003   0.00003   1.85218
   R21        2.62885   0.00005   0.00001   0.00002   0.00003   2.62888
   R22        2.07734  -0.00001  -0.00000  -0.00002  -0.00002   2.07732
   R23        2.64643  -0.00004  -0.00000  -0.00002  -0.00002   2.64641
   R24        2.07948  -0.00000  -0.00000   0.00000  -0.00000   2.07948
   R25        2.63605  -0.00005  -0.00002   0.00000  -0.00001   2.63604
   R26        2.07671  -0.00000  -0.00000  -0.00000  -0.00001   2.07670
   R27        2.55224   0.00008   0.00002  -0.00001   0.00000   2.55224
    A1        1.86983   0.00001  -0.00001   0.00004   0.00003   1.86986
    A2        1.98642   0.00001   0.00005  -0.00004   0.00001   1.98643
    A3        1.96926  -0.00002  -0.00005   0.00000  -0.00005   1.96921
    A4        1.87478  -0.00000  -0.00002   0.00001  -0.00001   1.87477
    A5        1.87305   0.00001   0.00006   0.00002   0.00007   1.87312
    A6        1.88502  -0.00000  -0.00003  -0.00002  -0.00004   1.88498
    A7        1.97416   0.00027  -0.00001   0.00007   0.00006   1.97422
    A8        2.20808  -0.00056  -0.00002  -0.00009  -0.00011   2.20797
    A9        2.08867   0.00024  -0.00001  -0.00001  -0.00002   2.08865
   A10        2.15593  -0.00014   0.00000   0.00003   0.00003   2.15596
   A11        2.04613   0.00007  -0.00001  -0.00001  -0.00002   2.04611
   A12        2.07856   0.00006   0.00001  -0.00001  -0.00000   2.07856
   A13        2.04405   0.00001   0.00002   0.00002   0.00003   2.04408
   A14        2.11900   0.00001   0.00001  -0.00000   0.00000   2.11900
   A15        2.11435  -0.00002  -0.00002  -0.00001  -0.00003   2.11432
   A16        2.06540   0.00011   0.00001  -0.00005  -0.00004   2.06536
   A17        2.14921  -0.00005  -0.00003   0.00003  -0.00000   2.14921
   A18        2.06729  -0.00006   0.00002   0.00001   0.00003   2.06732
   A19        1.97568  -0.00023   0.00004  -0.00015  -0.00011   1.97557
   A20        2.20966  -0.00019  -0.00005   0.00005  -0.00000   2.20966
   A21        2.09524   0.00045   0.00003   0.00009   0.00012   2.09536
   A22        1.92950  -0.00004   0.00004  -0.00001   0.00003   1.92952
   A23        2.20868   0.00010   0.00019  -0.00024  -0.00005   2.20864
   A24        2.14496  -0.00006  -0.00023   0.00025   0.00002   2.14497
   A25        2.20121   0.00010  -0.00011   0.00012   0.00001   2.20122
   A26        2.13977  -0.00013   0.00015  -0.00018  -0.00003   2.13974
   A27        1.93354   0.00004   0.00002   0.00006   0.00007   1.93361
   A28        2.20672   0.00022  -0.00001  -0.00003  -0.00004   2.20669
   A29        2.12012  -0.00015  -0.00004  -0.00004  -0.00008   2.12005
   A30        1.95278  -0.00003   0.00007   0.00007   0.00014   1.95292
   A31        1.94706  -0.00000  -0.00002  -0.00002  -0.00004   1.94701
   A32        2.13146   0.00007   0.00001   0.00001   0.00002   2.13147
   A33        2.02303  -0.00004   0.00001  -0.00003  -0.00002   2.02301
   A34        2.12717  -0.00003  -0.00002   0.00001  -0.00000   2.12717
   A35        2.06359  -0.00000   0.00001  -0.00000   0.00001   2.06359
   A36        2.10870  -0.00000  -0.00001   0.00002   0.00002   2.10872
   A37        2.10929   0.00000  -0.00000  -0.00002  -0.00002   2.10928
   A38        2.07680  -0.00006  -0.00003   0.00002  -0.00000   2.07679
   A39        2.14684   0.00002   0.00001   0.00000   0.00001   2.14685
   A40        2.05788   0.00004   0.00002  -0.00002  -0.00000   2.05788
   A41        2.20175   0.00011   0.00002  -0.00000   0.00002   2.20177
   A42        2.09510  -0.00024  -0.00003  -0.00004  -0.00007   2.09503
   A43        1.98451   0.00010   0.00001   0.00003   0.00004   1.98455
    D1       -0.60699   0.00015  -0.00021  -0.00020  -0.00040  -0.60739
    D2        2.36488  -0.00016  -0.00051  -0.00042  -0.00094   2.36394
    D3        1.46267   0.00015  -0.00021  -0.00018  -0.00039   1.46228
    D4       -1.84865  -0.00016  -0.00051  -0.00041  -0.00092  -1.84957
    D5       -2.66453   0.00014  -0.00024  -0.00024  -0.00048  -2.66501
    D6        0.30733  -0.00017  -0.00054  -0.00047  -0.00101   0.30632
    D7        2.83283  -0.00034  -0.00025   0.00006  -0.00020   2.83264
    D8       -0.23109  -0.00028  -0.00021  -0.00007  -0.00028  -0.23136
    D9       -0.15187   0.00003   0.00003   0.00028   0.00030  -0.15157
   D10        3.06739   0.00009   0.00007   0.00015   0.00022   3.06762
   D11       -2.59335   0.00037   0.00031   0.00005   0.00036  -2.59299
   D12        0.53766   0.00034  -0.00012   0.00022   0.00010   0.53776
   D13        0.36847   0.00004  -0.00001  -0.00018  -0.00020   0.36828
   D14       -2.78370   0.00001  -0.00044  -0.00002  -0.00046  -2.78416
   D15       -0.12640  -0.00004  -0.00001  -0.00012  -0.00013  -0.12653
   D16        3.12939  -0.00004  -0.00002  -0.00014  -0.00015   3.12923
   D17        2.93616  -0.00010  -0.00005   0.00001  -0.00005   2.93611
   D18       -0.09124  -0.00010  -0.00006  -0.00001  -0.00007  -0.09132
   D19        0.14435  -0.00005  -0.00002  -0.00013  -0.00015   0.14420
   D20       -2.94181  -0.00011  -0.00001   0.00007   0.00006  -2.94175
   D21       -3.11112  -0.00004  -0.00001  -0.00011  -0.00012  -3.11123
   D22        0.08591  -0.00010  -0.00000   0.00009   0.00009   0.08600
   D23       -2.94057  -0.00043  -0.00020   0.00034   0.00014  -2.94043
   D24        0.12284   0.00010   0.00002   0.00024   0.00026   0.12310
   D25        0.14823  -0.00037  -0.00020   0.00015  -0.00006   0.14817
   D26       -3.07154   0.00015   0.00001   0.00005   0.00006  -3.07149
   D27       -0.37228  -0.00005  -0.00000  -0.00009  -0.00009  -0.37237
   D28        2.77944  -0.00002   0.00040  -0.00024   0.00016   2.77960
   D29        2.68628   0.00048   0.00023  -0.00020   0.00002   2.68631
   D30       -0.44519   0.00051   0.00063  -0.00036   0.00027  -0.44491
   D31        0.40149   0.00248  -0.00000   0.00000   0.00000   0.40149
   D32        3.04315   0.00193   0.00028  -0.00011   0.00016   3.04332
   D33        0.05589   0.00191  -0.00018  -0.00010  -0.00028   0.05561
   D34       -0.11024   0.00190  -0.00019   0.00007  -0.00013  -0.11036
   D35       -3.09751   0.00188  -0.00065   0.00009  -0.00057  -3.09807
   D36       -0.43159   0.00244  -0.00000   0.00000   0.00000  -0.43159
   D37       -0.24458   0.00045  -0.00027   0.00022  -0.00005  -0.24463
   D38        2.99511  -0.00002  -0.00047   0.00011  -0.00036   2.99474
   D39        2.75805   0.00045   0.00016   0.00019   0.00034   2.75840
   D40       -0.28544  -0.00002  -0.00005   0.00007   0.00003  -0.28542
   D41       -2.99861  -0.00001   0.00042  -0.00025   0.00018  -2.99844
   D42        0.21207   0.00055   0.00044  -0.00002   0.00042   0.21249
   D43        0.27618  -0.00004   0.00004  -0.00024  -0.00020   0.27598
   D44       -2.79632   0.00052   0.00006  -0.00001   0.00005  -2.79628
   D45        0.51555  -0.00022  -0.00032  -0.00005  -0.00037   0.51517
   D46       -2.71619   0.00021  -0.00014   0.00005  -0.00009  -2.71628
   D47        0.14379   0.00007   0.00005   0.00012   0.00017   0.14396
   D48       -3.05623   0.00012   0.00009   0.00004   0.00013  -3.05611
   D49       -2.91279  -0.00035  -0.00013   0.00003  -0.00010  -2.91289
   D50        0.17038  -0.00031  -0.00009  -0.00006  -0.00014   0.17023
   D51        0.05344  -0.00004  -0.00002  -0.00018  -0.00020   0.05324
   D52        3.13467  -0.00005   0.00003  -0.00011  -0.00008   3.13459
   D53       -3.02625  -0.00009  -0.00007  -0.00009  -0.00015  -3.02641
   D54        0.05497  -0.00010  -0.00001  -0.00002  -0.00003   0.05494
   D55       -0.07499  -0.00005   0.00001   0.00002   0.00002  -0.07497
   D56        3.00336  -0.00011  -0.00003   0.00014   0.00010   3.00346
   D57        3.12699  -0.00004  -0.00005  -0.00006  -0.00010   3.12689
   D58       -0.07785  -0.00010  -0.00009   0.00006  -0.00002  -0.07787
   D59       -0.10641   0.00009  -0.00001   0.00021   0.00020  -0.10621
   D60        2.96988  -0.00044  -0.00003  -0.00001  -0.00004   2.96984
   D61        3.09520   0.00015   0.00002   0.00010   0.00012   3.09532
   D62       -0.11170  -0.00038   0.00001  -0.00012  -0.00012  -0.11182
         Item               Value     Threshold  Converged?
 Maximum Force            0.000060     0.000450     YES
 RMS     Force            0.000017     0.000300     YES
 Maximum Displacement     0.001934     0.001800     NO 
 RMS     Displacement     0.000387     0.001200     YES
 Predicted change in Energy=-8.209403D-08
 GradGradGradGradGradGradGradGradGradGradGradGradGradGradGradGradGradGrad

                          Input orientation:                          
 ---------------------------------------------------------------------
 Center     Atomic      Atomic             Coordinates (Angstroms)
 Number     Number       Type             X           Y           Z
 ---------------------------------------------------------------------
      1          6           0       -1.033625    2.457110   -1.295929
      2          6           0       -1.489768    1.188657   -0.591531
      3          6           0       -2.866172    1.195840   -0.272228
      4          6           0       -3.592423    0.042688    0.040700
      5          6           0       -2.941029   -1.183935   -0.120105
      6          6           0       -1.578329   -1.176096   -0.406326
      7          9           0       -1.095189   -2.414554   -0.791814
      8          6           0       -0.716181   -0.034259   -0.421106
      9          6           0        0.777284   -0.137399   -0.289803
     10          6           0        1.533931   -1.352255   -0.004984
     11          8           0        1.032392   -2.522408    0.445620
     12          6           0        2.948969   -1.375875   -0.074906
     13          6           0        3.700377   -0.218352   -0.250405
     14          6           0        3.026626    1.008547   -0.294670
     15          6           0        1.632335    1.016088   -0.253076
     16          9           0        1.100599    2.246852   -0.090076
     17          1           0       -1.871727    2.792204   -1.940981
     18          1           0       -0.792930    3.288837   -0.606985
     19          1           0       -0.160513    2.292958   -1.950528
     20          1           0       -3.396322    2.158919   -0.347693
     21          1           0       -4.661441    0.089987    0.295486
     22          1           0       -3.462605   -2.151092   -0.081680
     23          1           0        0.109302   -2.658004    0.145326
     24          1           0        3.420988   -2.357240    0.075154
     25          1           0        4.799062   -0.260766   -0.295177
     26          1           0        3.546217    1.976862   -0.302986
 ---------------------------------------------------------------------
                    Distance matrix (angstroms):
                    1          2          3          4          5
     1  C    0.000000
     2  C    1.520926   0.000000
     3  C    2.448875   1.412974   0.000000
     4  C    3.763437   2.476716   1.398258   0.000000
     5  C    4.275273   2.820921   2.385807   1.398132   0.000000
     6  C    3.779984   2.373647   2.702333   2.396214   1.392457
     7  F    4.898064   3.630281   4.054787   3.601013   2.317918
     8  C    2.659512   1.457053   2.481485   2.914095   2.522361
     9  C    3.320114   2.643669   3.879769   4.385887   3.866509
    10  C    4.771807   3.992872   5.091671   5.312952   4.479604
    11  O    5.665423   4.605320   5.435023   5.304016   4.230796
    12  C    5.660718   5.152292   6.361487   6.694438   5.893298
    13  C    5.537328   5.388288   6.717141   7.303274   6.712496
    14  C    4.425663   4.529722   5.895816   6.697549   6.360060
    15  C    3.204908   3.145133   4.502138   5.322773   5.076755
    16  F    2.460326   2.842751   4.107685   5.186511   5.301505
    17  H    1.109412   2.130322   2.514366   3.801013   4.502075
    18  H    1.106503   2.212821   2.964967   4.335221   4.985686
    19  H    1.103526   2.198470   3.367632   4.561437   4.813575
    20  H    2.563280   2.153094   1.101942   2.160496   3.381385
    21  H    4.614858   3.471799   2.183621   1.099979   2.180690
    22  H    5.348819   3.912283   3.404996   2.201023   1.099505
    23  H    5.435797   4.230459   4.886707   4.583388   3.398213
    24  H    6.700852   6.093716   7.230037   7.412744   6.472251
    25  H    6.512188   6.460497   7.802438   8.403684   7.796916
    26  H    4.710789   5.105454   6.459850   7.404007   7.218618
                    6          7          8          9         10
     6  C    0.000000
     7  F    1.384125   0.000000
     8  C    1.430842   2.438622   0.000000
     9  C    2.577088   2.990587   1.502770   0.000000
    10  C    3.142972   2.942763   2.640696   1.459285   0.000000
    11  O    3.058469   2.463631   3.162216   2.508824   1.350497
    12  C    4.543807   4.236511   3.918305   2.509227   1.416962
    13  C    5.367153   5.302253   4.423689   2.924479   2.457531
    14  C    5.098112   5.380905   3.887421   2.524432   2.808103
    15  C    3.890697   4.415760   2.578177   1.436313   2.383335
    16  F    4.358124   5.200253   2.934917   2.414348   3.626098
    17  H    4.264816   5.388315   3.410895   4.280914   5.702906
    18  H    4.537923   5.714385   3.329175   3.782231   5.226512
    19  H    4.053283   4.937298   2.839690   3.089354   4.465855
    20  H    3.798798   5.138980   3.463896   4.763971   6.062441
    21  H    3.406037   4.491448   4.011734   5.474851   6.368122
    22  H    2.146277   2.485630   3.484112   4.698397   5.060572
    23  H    2.312676   1.545412   2.808257   2.643670   1.938335
    24  H    5.159467   4.598997   4.770606   3.471320   2.139486
    25  H    6.443702   6.295050   5.521329   4.023673   3.454945
    26  H    6.017707   6.408287   4.714509   3.483857   3.901425
                   11         12         13         14         15
    11  O    0.000000
    12  C    2.293197   0.000000
    13  C    3.593226   1.391141   0.000000
    14  C    4.122213   2.395787   1.400422   0.000000
    15  C    3.656373   2.736194   2.408454   1.394931   0.000000
    16  F    4.799735   4.067045   3.586332   2.298877   1.350589
    17  H    6.509599   6.640349   6.555139   5.466776   4.275754
    18  H    6.181452   6.003704   5.711159   4.459403   3.342536
    19  H    5.509292   5.162091   4.909539   3.814372   2.779577
    20  H    6.492894   7.268556   7.484920   6.525368   5.157752
    21  H    6.266329   7.759142   8.385289   7.765205   6.385155
    22  H    4.541026   6.458273   7.421069   7.220720   6.001568
    23  H    0.980132   3.123470   4.359395   4.706163   3.997163
    24  H    2.422791   1.099271   2.181488   3.408932   3.832279
    25  H    4.455515   2.171367   1.100414   2.180065   3.414716
    26  H    5.207990   3.413147   2.201248   1.098944   2.142083
                   16         17         18         19         20
    16  F    0.000000
    17  H    3.543725   0.000000
    18  H    2.222247   1.786055   0.000000
    19  H    2.248069   1.782580   1.787970   0.000000
    20  H    4.505153   2.294342   2.849841   3.613517   0.000000
    21  H    6.164562   4.481770   5.100242   5.491449   2.508921
    22  H    6.337571   5.515802   6.082428   5.843457   4.318722
    23  H    5.009560   6.162948   6.061758   5.383069   5.977894
    24  H    5.158407   7.654699   7.078178   6.209258   8.188419
    25  H    4.473124   7.518559   6.630783   5.818855   8.545288
    26  H    2.469670   5.718560   4.543335   4.068680   6.945069
                   21         22         23         24         25
    21  H    0.000000
    22  H    2.569417   0.000000
    23  H    5.507631   3.614832   0.000000
    24  H    8.447670   6.888464   3.326056   0.000000
    25  H    9.485411   8.477857   5.285324   2.536028   0.000000
    26  H    8.442992   8.137110   5.787517   4.352369   2.564500
                   26
    26  H    0.000000
 Symmetry turned off by external request.
 Stoichiometry    C13H10F2O
 Framework group  C1[X(C13H10F2O)]
 Deg. of freedom    72
 Full point group                 C1      NOp   1
 Rotational constants (GHZ):           0.8401167           0.4715376           0.3134130
 Standard basis: def2SVP (5D, 7F)
   274 basis functions,   470 primitive gaussians,   290 cartesian basis functions
    57 alpha electrons       57 beta electrons
       nuclear repulsion energy      1070.0565757949 Hartrees.
 NAtoms=   26 NActive=   26 NUniq=   26 SFac= 1.00D+00 NAtFMM=   60 NAOKFM=F Big=F
 Integral buffers will be    131072 words long.
 Raffenetti 2 integral format.
 Two-electron integral symmetry is turned off.
 Nuclear repulsion after empirical dispersion term =     1070.0049324676 Hartrees.
 One-electron integrals computed using PRISM.
   1 Symmetry operations used in ECPInt.
 ECPInt:  NShTT=    8001 NPrTT=   29641 LenC2=    7591 LenP2D=   20293.
 LDataN:  DoStor=T MaxTD1= 4 Len=   56
 NBasis=   274 RedAO= T EigKep=  3.22D-04  NBF=   274
 NBsUse=   274 1.00D-06 EigRej= -1.00D+00 NBFU=   274
 Initial guess from the checkpoint file:  "path/to/scratch/gaussian_tmp/Gau-2268774.chk"
 B after Tr=    -0.000036    0.000010    0.000136
         Rot=    1.000000   -0.000004   -0.000006    0.000000 Ang=  -0.00 deg.
 Requested convergence on RMS density matrix=1.00D-08 within 128 cycles.
 Requested convergence on MAX density matrix=1.00D-06.
 Requested convergence on             energy=1.00D-06.
 No special actions if energy rises.
 SCF Done:  E(RB-P86) =  -775.751513571     A.U. after    7 cycles
            NFock=  7  Conv=0.53D-08     -V/T= 2.0104
   1 Symmetry operations used in ECPInt.
 ECPInt:  NShTT=    8001 NPrTT=   29641 LenC2=    7591 LenP2D=   20293.
 LDataN:  DoStor=T MaxTD1= 5 Len=  102
 Calling FoFJK, ICntrl=      2527 FMM=F ISym2X=0 I1Cent= 0 IOpClX= 0 NMat=1 NMatS=1 NMatT=0.
 -------------------------------------------------------------------
 Center     Atomic                   Forces (Hartrees/Bohr)
 Number     Number              X              Y              Z
 -------------------------------------------------------------------
      1        6           0.000084048   -0.000423129   -0.001245109
      2        6          -0.000016936   -0.000008353    0.000000203
      3        6           0.000000876   -0.000003015    0.000007303
      4        6           0.000001653    0.000010225   -0.000001664
      5        6          -0.000001154   -0.000006686   -0.000001693
      6        6           0.000001889    0.000004924   -0.000003857
      7        9          -0.000127738   -0.000194157    0.001338249
      8        6           0.000059747    0.000669717   -0.000104513
      9        6           0.000044650    0.000439875   -0.000118199
     10        6          -0.000000091   -0.000009475   -0.000002905
     11        8           0.000091964   -0.000381990   -0.001277499
     12        6          -0.000002177    0.000000276    0.000004483
     13        6          -0.000002660    0.000003860   -0.000003041
     14        6           0.000000224   -0.000002848   -0.000001179
     15        6           0.000001723   -0.000003950    0.000005501
     16        9          -0.000131129   -0.000097035    0.001400782
     17        1          -0.000000154   -0.000001079    0.000001946
     18        1          -0.000000036    0.000001573   -0.000000330
     19        1          -0.000000544    0.000000975    0.000002500
     20        1          -0.000000013    0.000000052   -0.000000251
     21        1           0.000000016    0.000000020    0.000001050
     22        1          -0.000000006    0.000001857   -0.000000571
     23        1          -0.000002985   -0.000003276   -0.000002068
     24        1           0.000000100    0.000000072   -0.000000378
     25        1          -0.000000690    0.000001046    0.000000686
     26        1          -0.000000577    0.000000520    0.000000553
 -------------------------------------------------------------------
 Cartesian Forces:  Max     0.001400782 RMS     0.000320853

 GradGradGradGradGradGradGradGradGradGradGradGradGradGradGradGradGradGrad
 Berny optimization.
 Using GEDIIS/GDIIS optimizer.
 FormGI is forming the generalized inverse of G from B-inverse, IUseBI=4.
 Internal  Forces:  Max     0.002503686 RMS     0.000487708
 Search for a local minimum.
 Step number   7 out of a maximum of  142
 All quantities printed in internal units (Hartrees-Bohrs-Radians)
 Mixed Optimization -- En-DIIS/RFO-DIIS
 Swapping is turned off.
 Update second derivatives using D2CorX and points    1    2    3    4    5
                                                      6    7
 DE= -3.77D-08 DEPred=-8.21D-08 R= 4.59D-01
 Trust test= 4.59D-01 RLast= 2.39D-03 DXMaxT set to 5.00D-02
 ITU=  0  0 -1  1  0 -1  0
     Eigenvalues ---    0.00532   0.01173   0.01351   0.01621   0.01734
     Eigenvalues ---    0.01878   0.02006   0.02021   0.02035   0.02061
     Eigenvalues ---    0.02115   0.02122   0.02130   0.02148   0.02160
     Eigenvalues ---    0.02167   0.02306   0.02473   0.03316   0.06709
     Eigenvalues ---    0.07405   0.15709   0.15884   0.15949   0.15963
     Eigenvalues ---    0.15968   0.15979   0.15988   0.16001   0.16120
     Eigenvalues ---    0.16238   0.20527   0.22042   0.22106   0.22860
     Eigenvalues ---    0.23163   0.23987   0.24066   0.24741   0.24910
     Eigenvalues ---    0.26486   0.29725   0.30162   0.32643   0.33014
     Eigenvalues ---    0.33461   0.33521   0.33636   0.33688   0.33732
     Eigenvalues ---    0.33788   0.33804   0.34351   0.35452   0.37971
     Eigenvalues ---    0.38130   0.41191   0.41569   0.42890   0.44102
     Eigenvalues ---    0.44385   0.45292   0.45614   0.46499   0.46811
     Eigenvalues ---    0.51189   0.54057   0.55198   0.81559   2.14848
     Eigenvalues --- 1000.000001000.000001000.000001000.000001000.00000
     Eigenvalues --- 1000.000001000.000001000.000001000.000001000.00000
     Eigenvalues --- 1000.000001000.000001000.000001000.000001000.00000
     Eigenvalues --- 1000.000001000.000001000.000001000.000001000.00000
     Eigenvalues --- 1000.000001000.000001000.000001000.000001000.00000
     Eigenvalues --- 1000.000001000.000001000.000001000.000001000.00000
     Eigenvalues --- 1000.000001000.000001000.000001000.000001000.00000
     Eigenvalues --- 1000.000001000.000001000.000001000.000001000.00000
     Eigenvalues --- 1000.000001000.000001000.000001000.000001000.00000
     Eigenvalues --- 1000.000001000.000001000.000001000.000001000.00000
     Eigenvalues --- 1000.000001000.000001000.000001000.000001000.00000
     Eigenvalues --- 1000.000001000.000001000.000001000.000001000.00000
     Eigenvalues --- 1000.000001000.00000
 En-DIIS/RFO-DIIS/Sim-DIIS IScMMF=       -3 using points:     7    6    5    4    3    2    1
 RFO step:  Lambda=-3.43728649D-08.
 DIIS inversion failure, remove point   7.
 RFO-DIIS uses    6 points instead of    7
 DidBck=F Rises=F RFO-DIIS coefs:    1.03816    0.01219   -0.06114   -0.08289    0.07423
                  RFO-DIIS coefs:    0.01945    0.00000
 Iteration  1 RMS(Cart)=  0.00012214 RMS(Int)=  0.00000024
 Iteration  2 RMS(Cart)=  0.00000001 RMS(Int)=  0.00000024
 Iteration  1 RMS(Cart)=  0.00000084 RMS(Int)=  0.00000029
 Variable       Old X    -DE/DX   Delta X   Delta X   Delta X     New X
                                 (Linear)    (Quad)   (Total)
    R1        2.87413   0.00015  -0.00000   0.00002   0.00002   2.87415
    R2        2.09648  -0.00000   0.00000  -0.00001  -0.00001   2.09648
    R3        2.09099   0.00000  -0.00000   0.00000   0.00000   2.09099
    R4        2.08536  -0.00000  -0.00000  -0.00000  -0.00000   2.08536
    R5        2.67013  -0.00009   0.00000  -0.00002  -0.00001   2.67012
    R6        2.75343  -0.00016   0.00001  -0.00002  -0.00001   2.75342
    R7        2.64232  -0.00006  -0.00000  -0.00002  -0.00002   2.64231
    R8        2.08237   0.00000   0.00000  -0.00000  -0.00000   2.08237
    R9        2.64209   0.00007   0.00000   0.00002   0.00002   2.64211
   R10        2.07866   0.00000   0.00000   0.00000   0.00000   2.07866
   R11        2.63136   0.00009  -0.00000   0.00001   0.00001   2.63137
   R12        2.07776  -0.00000   0.00000  -0.00001  -0.00001   2.07776
   R13        2.61562  -0.00015   0.00002   0.00000   0.00002   2.61564
   R14        2.70390   0.00015  -0.00001   0.00001   0.00000   2.70390
   R15        2.83982   0.00000   0.00001  -0.00002  -0.00001   2.83982
   R16        2.75765   0.00007  -0.00000   0.00002   0.00002   2.75766
   R17        2.71424  -0.00007   0.00001  -0.00002  -0.00001   2.71422
   R18        2.55207  -0.00008  -0.00000   0.00001   0.00000   2.55207
   R19        2.67767   0.00004  -0.00000   0.00000  -0.00000   2.67767
   R20        1.85218   0.00000   0.00000   0.00001   0.00001   1.85219
   R21        2.62888   0.00003  -0.00000   0.00001   0.00001   2.62888
   R22        2.07732   0.00000   0.00000  -0.00000  -0.00000   2.07732
   R23        2.64641  -0.00003  -0.00000  -0.00001  -0.00001   2.64640
   R24        2.07948  -0.00000   0.00000  -0.00000  -0.00000   2.07948
   R25        2.63604  -0.00004   0.00000  -0.00001  -0.00001   2.63603
   R26        2.07670  -0.00000   0.00000  -0.00000  -0.00000   2.07670
   R27        2.55224   0.00008  -0.00001   0.00001   0.00000   2.55225
    A1        1.86986  -0.00000  -0.00000  -0.00001  -0.00001   1.86985
    A2        1.98643   0.00000   0.00000   0.00000   0.00001   1.98643
    A3        1.96921   0.00000   0.00001  -0.00000   0.00000   1.96922
    A4        1.87477  -0.00000  -0.00000  -0.00000  -0.00001   1.87476
    A5        1.87312   0.00000  -0.00001   0.00003   0.00002   1.87314
    A6        1.88498  -0.00000   0.00001  -0.00002  -0.00001   1.88497
    A7        1.97422   0.00022  -0.00002   0.00005   0.00003   1.97425
    A8        2.20797  -0.00052   0.00003  -0.00006  -0.00003   2.20794
    A9        2.08865   0.00025  -0.00001   0.00001   0.00000   2.08866
   A10        2.15596  -0.00014   0.00000  -0.00002  -0.00002   2.15594
   A11        2.04611   0.00008  -0.00000   0.00001   0.00000   2.04612
   A12        2.07856   0.00006  -0.00000   0.00001   0.00001   2.07857
   A13        2.04408  -0.00000  -0.00000   0.00001   0.00000   2.04408
   A14        2.11900   0.00001  -0.00000  -0.00000  -0.00000   2.11899
   A15        2.11432  -0.00001   0.00000  -0.00000   0.00000   2.11432
   A16        2.06536   0.00012  -0.00001  -0.00000  -0.00001   2.06536
   A17        2.14921  -0.00005   0.00001  -0.00001  -0.00000   2.14920
   A18        2.06732  -0.00006   0.00000   0.00001   0.00001   2.06733
   A19        1.97557  -0.00019   0.00000   0.00001   0.00001   1.97558
   A20        2.20966  -0.00019   0.00001  -0.00003  -0.00002   2.20965
   A21        2.09536   0.00042  -0.00001   0.00003   0.00001   2.09537
   A22        1.92952  -0.00005  -0.00001  -0.00001  -0.00002   1.92950
   A23        2.20864   0.00016   0.00004  -0.00003   0.00001   2.20865
   A24        2.14497  -0.00011  -0.00002   0.00003   0.00001   2.14498
   A25        2.20122   0.00006  -0.00003   0.00002  -0.00001   2.20120
   A26        2.13974  -0.00007   0.00004  -0.00005  -0.00001   2.13973
   A27        1.93361   0.00001  -0.00001   0.00003   0.00002   1.93364
   A28        2.20669   0.00023  -0.00001   0.00002   0.00001   2.20669
   A29        2.12005  -0.00012   0.00001  -0.00003  -0.00002   2.12003
   A30        1.95292  -0.00008  -0.00000   0.00001   0.00001   1.95293
   A31        1.94701   0.00000   0.00000   0.00001   0.00002   1.94703
   A32        2.13147   0.00007  -0.00000   0.00001   0.00000   2.13148
   A33        2.02301  -0.00004   0.00000  -0.00000  -0.00000   2.02300
   A34        2.12717  -0.00003   0.00000  -0.00000   0.00000   2.12717
   A35        2.06359  -0.00000  -0.00000   0.00001   0.00001   2.06360
   A36        2.10872  -0.00000   0.00000  -0.00000   0.00000   2.10872
   A37        2.10928   0.00001   0.00000  -0.00001  -0.00001   2.10927
   A38        2.07679  -0.00006   0.00001  -0.00001  -0.00000   2.07679
   A39        2.14685   0.00002  -0.00000   0.00001   0.00001   2.14686
   A40        2.05788   0.00004  -0.00000   0.00000  -0.00000   2.05788
   A41        2.20177   0.00010  -0.00000  -0.00000  -0.00000   2.20177
   A42        2.09503  -0.00021   0.00002  -0.00002   0.00000   2.09503
   A43        1.98455   0.00007  -0.00002   0.00003   0.00001   1.98456
    D1       -0.60739   0.00015  -0.00004  -0.00008  -0.00011  -0.60750
    D2        2.36394  -0.00015  -0.00006  -0.00003  -0.00009   2.36385
    D3        1.46228   0.00015  -0.00004  -0.00008  -0.00012   1.46215
    D4       -1.84957  -0.00015  -0.00007  -0.00004  -0.00010  -1.84968
    D5       -2.66501   0.00015  -0.00003  -0.00011  -0.00013  -2.66515
    D6        0.30632  -0.00015  -0.00005  -0.00006  -0.00011   0.30621
    D7        2.83264  -0.00034  -0.00002  -0.00010  -0.00012   2.83251
    D8       -0.23136  -0.00028  -0.00002  -0.00004  -0.00005  -0.23142
    D9       -0.15157   0.00002  -0.00001  -0.00013  -0.00014  -0.15170
   D10        3.06762   0.00008  -0.00000  -0.00007  -0.00007   3.06755
   D11       -2.59299   0.00038   0.00005   0.00010   0.00015  -2.59284
   D12        0.53776   0.00037   0.00004   0.00012   0.00016   0.53792
   D13        0.36828   0.00005   0.00003   0.00015   0.00018   0.36846
   D14       -2.78416   0.00004   0.00001   0.00017   0.00019  -2.78397
   D15       -0.12653  -0.00003  -0.00002   0.00002   0.00000  -0.12653
   D16        3.12923  -0.00004   0.00000   0.00000   0.00001   3.12924
   D17        2.93611  -0.00010  -0.00002  -0.00004  -0.00007   2.93604
   D18       -0.09132  -0.00010   0.00000  -0.00006  -0.00006  -0.09138
   D19        0.14420  -0.00004   0.00002   0.00005   0.00007   0.14427
   D20       -2.94175  -0.00011   0.00002   0.00000   0.00002  -2.94173
   D21       -3.11123  -0.00004  -0.00000   0.00007   0.00007  -3.11117
   D22        0.08600  -0.00010  -0.00000   0.00002   0.00001   0.08602
   D23       -2.94043  -0.00044   0.00003  -0.00013  -0.00010  -2.94054
   D24        0.12310   0.00009   0.00001  -0.00002  -0.00002   0.12308
   D25        0.14817  -0.00037   0.00003  -0.00008  -0.00005   0.14812
   D26       -3.07149   0.00016   0.00001   0.00003   0.00003  -3.07145
   D27       -0.37237  -0.00005  -0.00003  -0.00007  -0.00010  -0.37247
   D28        2.77960  -0.00003  -0.00002  -0.00009  -0.00011   2.77948
   D29        2.68631   0.00049  -0.00005   0.00004  -0.00001   2.68630
   D30       -0.44491   0.00050  -0.00004   0.00002  -0.00002  -0.44493
   D31        0.40149   0.00250   0.00000   0.00000   0.00000   0.40149
   D32        3.04332   0.00194   0.00003  -0.00005  -0.00002   3.04330
   D33        0.05561   0.00193  -0.00001  -0.00001  -0.00002   0.05559
   D34       -0.11036   0.00192   0.00002  -0.00003  -0.00001  -0.11037
   D35       -3.09807   0.00192  -0.00002   0.00001  -0.00001  -3.09809
   D36       -0.43159   0.00245   0.00000   0.00000   0.00000  -0.43159
   D37       -0.24463   0.00044   0.00000   0.00003   0.00003  -0.24460
   D38        2.99474  -0.00002  -0.00002   0.00008   0.00006   2.99481
   D39        2.75840   0.00044   0.00004  -0.00001   0.00003   2.75843
   D40       -0.28542  -0.00002   0.00003   0.00004   0.00007  -0.28535
   D41       -2.99844  -0.00002   0.00001  -0.00003  -0.00001  -2.99845
   D42        0.21249   0.00054  -0.00001  -0.00011  -0.00011   0.21238
   D43        0.27598  -0.00003  -0.00002   0.00000  -0.00002   0.27596
   D44       -2.79628   0.00053  -0.00004  -0.00008  -0.00012  -2.79639
   D45        0.51517  -0.00021   0.00002   0.00007   0.00009   0.51526
   D46       -2.71628   0.00021   0.00004   0.00002   0.00006  -2.71622
   D47        0.14396   0.00007  -0.00002  -0.00007  -0.00008   0.14387
   D48       -3.05611   0.00012  -0.00001  -0.00001  -0.00002  -3.05613
   D49       -2.91289  -0.00035  -0.00003  -0.00002  -0.00005  -2.91294
   D50        0.17023  -0.00030  -0.00002   0.00003   0.00001   0.17024
   D51        0.05324  -0.00003  -0.00000   0.00004   0.00003   0.05328
   D52        3.13459  -0.00005   0.00000   0.00003   0.00003   3.13462
   D53       -3.02641  -0.00008  -0.00001  -0.00002  -0.00003  -3.02644
   D54        0.05494  -0.00010  -0.00000  -0.00003  -0.00004   0.05490
   D55       -0.07497  -0.00005   0.00001   0.00000   0.00002  -0.07495
   D56        3.00346  -0.00012   0.00002  -0.00000   0.00001   3.00347
   D57        3.12689  -0.00004   0.00001   0.00002   0.00002   3.12691
   D58       -0.07787  -0.00011   0.00001   0.00001   0.00002  -0.07785
   D59       -0.10621   0.00009   0.00000  -0.00002  -0.00002  -0.10623
   D60        2.96984  -0.00045   0.00002   0.00005   0.00007   2.96991
   D61        3.09532   0.00015  -0.00000  -0.00002  -0.00002   3.09530
   D62       -0.11182  -0.00039   0.00001   0.00006   0.00007  -0.11175
         Item               Value     Threshold  Converged?
 Maximum Force            0.000008     0.000450     YES
 RMS     Force            0.000002     0.000300     YES
 Maximum Displacement     0.000552     0.001800     YES
 RMS     Displacement     0.000122     0.001200     YES
 Predicted change in Energy=-7.784824D-09
 Optimization completed.
    -- Stationary point found.
                           ----------------------------
                           !   Optimized Parameters   !
                           ! (Angstroms and Degrees)  !
 --------------------------                            --------------------------
 ! Name  Definition              Value          Derivative Info.                !
 --------------------------------------------------------------------------------
 ! R1    R(1,2)                  1.5209         -DE/DX =    0.0002              !
 ! R2    R(1,17)                 1.1094         -DE/DX =    0.0                 !
 ! R3    R(1,18)                 1.1065         -DE/DX =    0.0                 !
 ! R4    R(1,19)                 1.1035         -DE/DX =    0.0                 !
 ! R5    R(2,3)                  1.413          -DE/DX =   -0.0001              !
 ! R6    R(2,8)                  1.4571         -DE/DX =   -0.0002              !
 ! R7    R(3,4)                  1.3983         -DE/DX =   -0.0001              !
 ! R8    R(3,20)                 1.1019         -DE/DX =    0.0                 !
 ! R9    R(4,5)                  1.3981         -DE/DX =    0.0001              !
 ! R10   R(4,21)                 1.1            -DE/DX =    0.0                 !
 ! R11   R(5,6)                  1.3925         -DE/DX =    0.0001              !
 ! R12   R(5,22)                 1.0995         -DE/DX =    0.0                 !
 ! R13   R(6,7)                  1.3841         -DE/DX =   -0.0001              !
 ! R14   R(6,8)                  1.4308         -DE/DX =    0.0002              !
 ! R15   R(8,9)                  1.5028         -DE/DX =    0.0                 !
 ! R16   R(9,10)                 1.4593         -DE/DX =    0.0001              !
 ! R17   R(9,15)                 1.4363         -DE/DX =   -0.0001              !
 ! R18   R(10,11)                1.3505         -DE/DX =   -0.0001              !
 ! R19   R(10,12)                1.417          -DE/DX =    0.0                 !
 ! R20   R(11,23)                0.9801         -DE/DX =    0.0                 !
 ! R21   R(12,13)                1.3911         -DE/DX =    0.0                 !
 ! R22   R(12,24)                1.0993         -DE/DX =    0.0                 !
 ! R23   R(13,14)                1.4004         -DE/DX =    0.0                 !
 ! R24   R(13,25)                1.1004         -DE/DX =    0.0                 !
 ! R25   R(14,15)                1.3949         -DE/DX =    0.0                 !
 ! R26   R(14,26)                1.0989         -DE/DX =    0.0                 !
 ! R27   R(15,16)                1.3506         -DE/DX =    0.0001              !
 ! A1    A(2,1,17)             107.1351         -DE/DX =    0.0                 !
 ! A2    A(2,1,18)             113.814          -DE/DX =    0.0                 !
 ! A3    A(2,1,19)             112.8276         -DE/DX =    0.0                 !
 ! A4    A(17,1,18)            107.4162         -DE/DX =    0.0                 !
 ! A5    A(17,1,19)            107.3219         -DE/DX =    0.0                 !
 ! A6    A(18,1,19)            108.0015         -DE/DX =    0.0                 !
 ! A7    A(1,2,3)              113.1144         -DE/DX =    0.0002              !
 ! A8    A(1,2,8)              126.5072         -DE/DX =   -0.0005              !
 ! A9    A(3,2,8)              119.671          -DE/DX =    0.0003              !
 ! A10   A(2,3,4)              123.5274         -DE/DX =   -0.0001              !
 ! A11   A(2,3,20)             117.2337         -DE/DX =    0.0001              !
 ! A12   A(4,3,20)             119.0926         -DE/DX =    0.0001              !
 ! A13   A(3,4,5)              117.1171         -DE/DX =    0.0                 !
 ! A14   A(3,4,21)             121.4096         -DE/DX =    0.0                 !
 ! A15   A(5,4,21)             121.1416         -DE/DX =    0.0                 !
 ! A16   A(4,5,6)              118.3365         -DE/DX =    0.0001              !
 ! A17   A(4,5,22)             123.1405         -DE/DX =   -0.0001              !
 ! A18   A(6,5,22)             118.4486         -DE/DX =   -0.0001              !
 ! A19   A(5,6,7)              113.1917         -DE/DX =   -0.0002              !
 ! A20   A(5,6,8)              126.6043         -DE/DX =   -0.0002              !
 ! A21   A(7,6,8)              120.0551         -DE/DX =    0.0004              !
 ! A22   A(2,8,6)              110.5536         -DE/DX =   -0.0001              !
 ! A23   A(2,8,9)              126.5456         -DE/DX =    0.0002              !
 ! A24   A(6,8,9)              122.8978         -DE/DX =   -0.0001              !
 ! A25   A(8,9,10)             126.1205         -DE/DX =    0.0001              !
 ! A26   A(8,9,15)             122.5979         -DE/DX =   -0.0001              !
 ! A27   A(10,9,15)            110.788          -DE/DX =    0.0                 !
 ! A28   A(9,10,11)            126.4337         -DE/DX =    0.0002              !
 ! A29   A(9,10,12)            121.4697         -DE/DX =   -0.0001              !
 ! A30   A(11,10,12)           111.894          -DE/DX =   -0.0001              !
 ! A31   A(10,11,23)           111.5556         -DE/DX =    0.0                 !
 ! A32   A(10,12,13)           122.1244         -DE/DX =    0.0001              !
 ! A33   A(10,12,24)           115.9098         -DE/DX =    0.0                 !
 ! A34   A(13,12,24)           121.8779         -DE/DX =    0.0                 !
 ! A35   A(12,13,14)           118.2352         -DE/DX =    0.0                 !
 ! A36   A(12,13,25)           120.8206         -DE/DX =    0.0                 !
 ! A37   A(14,13,25)           120.8526         -DE/DX =    0.0                 !
 ! A38   A(13,14,15)           118.9914         -DE/DX =   -0.0001              !
 ! A39   A(13,14,26)           123.0056         -DE/DX =    0.0                 !
 ! A40   A(15,14,26)           117.908          -DE/DX =    0.0                 !
 ! A41   A(9,15,14)            126.1522         -DE/DX =    0.0001              !
 ! A42   A(9,15,16)            120.0362         -DE/DX =   -0.0002              !
 ! A43   A(14,15,16)           113.7065         -DE/DX =    0.0001              !
 ! D1    D(17,1,2,3)           -34.801          -DE/DX =    0.0002              !
 ! D2    D(17,1,2,8)           135.444          -DE/DX =   -0.0002              !
 ! D3    D(18,1,2,3)            83.7822         -DE/DX =    0.0002              !
 ! D4    D(18,1,2,8)          -105.9728         -DE/DX =   -0.0002              !
 ! D5    D(19,1,2,3)          -152.694          -DE/DX =    0.0002              !
 ! D6    D(19,1,2,8)            17.5509         -DE/DX =   -0.0002              !
 ! D7    D(1,2,3,4)            162.2981         -DE/DX =   -0.0003              !
 ! D8    D(1,2,3,20)           -13.2562         -DE/DX =   -0.0003              !
 ! D9    D(8,2,3,4)             -8.6842         -DE/DX =    0.0                 !
 ! D10   D(8,2,3,20)           175.7616         -DE/DX =    0.0001              !
 ! D11   D(1,2,8,6)           -148.5673         -DE/DX =    0.0004              !
 ! D12   D(1,2,8,9)             30.8115         -DE/DX =    0.0004              !
 ! D13   D(3,2,8,6)             21.1008         -DE/DX =    0.0001              !
 ! D14   D(3,2,8,9)           -159.5204         -DE/DX =    0.0                 !
 ! D15   D(2,3,4,5)             -7.2495         -DE/DX =    0.0                 !
 ! D16   D(2,3,4,21)           179.2919         -DE/DX =    0.0                 !
 ! D17   D(20,3,4,5)           168.2267         -DE/DX =   -0.0001              !
 ! D18   D(20,3,4,21)           -5.232          -DE/DX =   -0.0001              !
 ! D19   D(3,4,5,6)              8.2622         -DE/DX =    0.0                 !
 ! D20   D(3,4,5,22)          -168.5496         -DE/DX =   -0.0001              !
 ! D21   D(21,4,5,6)          -178.2606         -DE/DX =    0.0                 !
 ! D22   D(21,4,5,22)            4.9276         -DE/DX =   -0.0001              !
 ! D23   D(4,5,6,7)           -168.4743         -DE/DX =   -0.0004              !
 ! D24   D(4,5,6,8)              7.0528         -DE/DX =    0.0001              !
 ! D25   D(22,5,6,7)             8.4896         -DE/DX =   -0.0004              !
 ! D26   D(22,5,6,8)          -175.9832         -DE/DX =    0.0002              !
 ! D27   D(5,6,8,2)            -21.3352         -DE/DX =    0.0                 !
 ! D28   D(5,6,8,9)            159.2591         -DE/DX =    0.0                 !
 ! D29   D(7,6,8,2)            153.9141         -DE/DX =    0.0005              !
 ! D30   D(7,6,8,9)            -25.4916         -DE/DX =    0.0005              !
 ! D31   D(1,8,9,16)            23.0037         -DE/DX =    0.0025              !
 ! D32   D(2,8,9,10)           174.3693         -DE/DX =    0.0019              !
 ! D33   D(2,8,9,15)             3.1861         -DE/DX =    0.0019              !
 ! D34   D(6,8,9,10)            -6.3234         -DE/DX =    0.0019              !
 ! D35   D(6,8,9,15)          -177.5065         -DE/DX =    0.0019              !
 ! D36   D(7,8,9,11)           -24.7285         -DE/DX =    0.0025              !
 ! D37   D(8,9,10,11)          -14.0163         -DE/DX =    0.0004              !
 ! D38   D(8,9,10,12)          171.5862         -DE/DX =    0.0                 !
 ! D39   D(15,9,10,11)         158.0444         -DE/DX =    0.0004              !
 ! D40   D(15,9,10,12)         -16.3531         -DE/DX =    0.0                 !
 ! D41   D(8,9,15,14)         -171.7977         -DE/DX =    0.0                 !
 ! D42   D(8,9,15,16)           12.1747         -DE/DX =    0.0005              !
 ! D43   D(10,9,15,14)          15.8126         -DE/DX =    0.0                 !
 ! D44   D(10,9,15,16)        -160.2149         -DE/DX =    0.0005              !
 ! D45   D(9,10,11,23)          29.5173         -DE/DX =   -0.0002              !
 ! D46   D(12,10,11,23)       -155.6313         -DE/DX =    0.0002              !
 ! D47   D(9,10,12,13)           8.2481         -DE/DX =    0.0001              !
 ! D48   D(9,10,12,24)        -175.1021         -DE/DX =    0.0001              !
 ! D49   D(11,10,12,13)       -166.8961         -DE/DX =   -0.0004              !
 ! D50   D(11,10,12,24)          9.7537         -DE/DX =   -0.0003              !
 ! D51   D(10,12,13,14)          3.0506         -DE/DX =    0.0                 !
 ! D52   D(10,12,13,25)        179.5989         -DE/DX =    0.0                 !
 ! D53   D(24,12,13,14)       -173.4004         -DE/DX =   -0.0001              !
 ! D54   D(24,12,13,25)          3.1478         -DE/DX =   -0.0001              !
 ! D55   D(12,13,14,15)         -4.2953         -DE/DX =   -0.0001              !
 ! D56   D(12,13,14,26)        172.0855         -DE/DX =   -0.0001              !
 ! D57   D(25,13,14,15)        179.1575         -DE/DX =    0.0                 !
 ! D58   D(25,13,14,26)         -4.4616         -DE/DX =   -0.0001              !
 ! D59   D(13,14,15,9)          -6.0854         -DE/DX =    0.0001              !
 ! D60   D(13,14,15,16)        170.159          -DE/DX =   -0.0005              !
 ! D61   D(26,14,15,9)         177.3489         -DE/DX =    0.0002              !
 ! D62   D(26,14,15,16)         -6.4067         -DE/DX =   -0.0004              !
 --------------------------------------------------------------------------------
 GradGradGradGradGradGradGradGradGradGradGradGradGradGradGradGradGradGrad

                          Input orientation:                          
 ---------------------------------------------------------------------
 Center     Atomic      Atomic             Coordinates (Angstroms)
 Number     Number       Type             X           Y           Z
 ---------------------------------------------------------------------
      1          6           0       -1.033625    2.457110   -1.295929
      2          6           0       -1.489768    1.188657   -0.591531
      3          6           0       -2.866172    1.195840   -0.272228
      4          6           0       -3.592423    0.042688    0.040700
      5          6           0       -2.941029   -1.183935   -0.120105
      6          6           0       -1.578329   -1.176096   -0.406326
      7          9           0       -1.095189   -2.414554   -0.791814
      8          6           0       -0.716181   -0.034259   -0.421106
      9          6           0        0.777284   -0.137399   -0.289803
     10          6           0        1.533931   -1.352255   -0.004984
     11          8           0        1.032392   -2.522408    0.445620
     12          6           0        2.948969   -1.375875   -0.074906
     13          6           0        3.700377   -0.218352   -0.250405
     14          6           0        3.026626    1.008547   -0.294670
     15          6           0        1.632335    1.016088   -0.253076
     16          9           0        1.100599    2.246852   -0.090076
     17          1           0       -1.871727    2.792204   -1.940981
     18          1           0       -0.792930    3.288837   -0.606985
     19          1           0       -0.160513    2.292958   -1.950528
     20          1           0       -3.396322    2.158919   -0.347693
     21          1           0       -4.661441    0.089987    0.295486
     22          1           0       -3.462605   -2.151092   -0.081680
     23          1           0        0.109302   -2.658004    0.145326
     24          1           0        3.420988   -2.357240    0.075154
     25          1           0        4.799062   -0.260766   -0.295177
     26          1           0        3.546217    1.976862   -0.302986
 ---------------------------------------------------------------------
                    Distance matrix (angstroms):
                    1          2          3          4          5
     1  C    0.000000
     2  C    1.520926   0.000000
     3  C    2.448875   1.412974   0.000000
     4  C    3.763437   2.476716   1.398258   0.000000
     5  C    4.275273   2.820921   2.385807   1.398132   0.000000
     6  C    3.779984   2.373647   2.702333   2.396214   1.392457
     7  F    4.898064   3.630281   4.054787   3.601013   2.317918
     8  C    2.659512   1.457053   2.481485   2.914095   2.522361
     9  C    3.320114   2.643669   3.879769   4.385887   3.866509
    10  C    4.771807   3.992872   5.091671   5.312952   4.479604
    11  O    5.665423   4.605320   5.435023   5.304016   4.230796
    12  C    5.660718   5.152292   6.361487   6.694438   5.893298
    13  C    5.537328   5.388288   6.717141   7.303274   6.712496
    14  C    4.425663   4.529722   5.895816   6.697549   6.360060
    15  C    3.204908   3.145133   4.502138   5.322773   5.076755
    16  F    2.460326   2.842751   4.107685   5.186511   5.301505
    17  H    1.109412   2.130322   2.514366   3.801013   4.502075
    18  H    1.106503   2.212821   2.964967   4.335221   4.985686
    19  H    1.103526   2.198470   3.367632   4.561437   4.813575
    20  H    2.563280   2.153094   1.101942   2.160496   3.381385
    21  H    4.614858   3.471799   2.183621   1.099979   2.180690
    22  H    5.348819   3.912283   3.404996   2.201023   1.099505
    23  H    5.435797   4.230459   4.886707   4.583388   3.398213
    24  H    6.700852   6.093716   7.230037   7.412744   6.472251
    25  H    6.512188   6.460497   7.802438   8.403684   7.796916
    26  H    4.710789   5.105454   6.459850   7.404007   7.218618
                    6          7          8          9         10
     6  C    0.000000
     7  F    1.384125   0.000000
     8  C    1.430842   2.438622   0.000000
     9  C    2.577088   2.990587   1.502770   0.000000
    10  C    3.142972   2.942763   2.640696   1.459285   0.000000
    11  O    3.058469   2.463631   3.162216   2.508824   1.350497
    12  C    4.543807   4.236511   3.918305   2.509227   1.416962
    13  C    5.367153   5.302253   4.423689   2.924479   2.457531
    14  C    5.098112   5.380905   3.887421   2.524432   2.808103
    15  C    3.890697   4.415760   2.578177   1.436313   2.383335
    16  F    4.358124   5.200253   2.934917   2.414348   3.626098
    17  H    4.264816   5.388315   3.410895   4.280914   5.702906
    18  H    4.537923   5.714385   3.329175   3.782231   5.226512
    19  H    4.053283   4.937298   2.839690   3.089354   4.465855
    20  H    3.798798   5.138980   3.463896   4.763971   6.062441
    21  H    3.406037   4.491448   4.011734   5.474851   6.368122
    22  H    2.146277   2.485630   3.484112   4.698397   5.060572
    23  H    2.312676   1.545412   2.808257   2.643670   1.938335
    24  H    5.159467   4.598997   4.770606   3.471320   2.139486
    25  H    6.443702   6.295050   5.521329   4.023673   3.454945
    26  H    6.017707   6.408287   4.714509   3.483857   3.901425
                   11         12         13         14         15
    11  O    0.000000
    12  C    2.293197   0.000000
    13  C    3.593226   1.391141   0.000000
    14  C    4.122213   2.395787   1.400422   0.000000
    15  C    3.656373   2.736194   2.408454   1.394931   0.000000
    16  F    4.799735   4.067045   3.586332   2.298877   1.350589
    17  H    6.509599   6.640349   6.555139   5.466776   4.275754
    18  H    6.181452   6.003704   5.711159   4.459403   3.342536
    19  H    5.509292   5.162091   4.909539   3.814372   2.779577
    20  H    6.492894   7.268556   7.484920   6.525368   5.157752
    21  H    6.266329   7.759142   8.385289   7.765205   6.385155
    22  H    4.541026   6.458273   7.421069   7.220720   6.001568
    23  H    0.980132   3.123470   4.359395   4.706163   3.997163
    24  H    2.422791   1.099271   2.181488   3.408932   3.832279
    25  H    4.455515   2.171367   1.100414   2.180065   3.414716
    26  H    5.207990   3.413147   2.201248   1.098944   2.142083
                   16         17         18         19         20
    16  F    0.000000
    17  H    3.543725   0.000000
    18  H    2.222247   1.786055   0.000000
    19  H    2.248069   1.782580   1.787970   0.000000
    20  H    4.505153   2.294342   2.849841   3.613517   0.000000
    21  H    6.164562   4.481770   5.100242   5.491449   2.508921
    22  H    6.337571   5.515802   6.082428   5.843457   4.318722
    23  H    5.009560   6.162948   6.061758   5.383069   5.977894
    24  H    5.158407   7.654699   7.078178   6.209258   8.188419
    25  H    4.473124   7.518559   6.630783   5.818855   8.545288
    26  H    2.469670   5.718560   4.543335   4.068680   6.945069
                   21         22         23         24         25
    21  H    0.000000
    22  H    2.569417   0.000000
    23  H    5.507631   3.614832   0.000000
    24  H    8.447670   6.888464   3.326056   0.000000
    25  H    9.485411   8.477857   5.285324   2.536028   0.000000
    26  H    8.442992   8.137110   5.787517   4.352369   2.564500
                   26
    26  H    0.000000
 Symmetry turned off by external request.
 Stoichiometry    C13H10F2O
 Framework group  C1[X(C13H10F2O)]
 Deg. of freedom    72
 Full point group                 C1      NOp   1
 Rotational constants (GHZ):           0.8401167           0.4715376           0.3134130

 **********************************************************************

            Population analysis using the SCF Density.

 **********************************************************************

 Alpha  occ. eigenvalues --  -24.33367 -24.30352 -18.80181 -10.01182 -10.00329
 Alpha  occ. eigenvalues --   -9.98938  -9.96201  -9.95107  -9.94760  -9.93308
 Alpha  occ. eigenvalues --   -9.93228  -9.92721  -9.92460  -9.91807  -9.91664
 Alpha  occ. eigenvalues --   -9.91208  -1.13506  -1.11340  -0.96171  -0.79532
 Alpha  occ. eigenvalues --   -0.77247  -0.71581  -0.70128  -0.66813  -0.66210
 Alpha  occ. eigenvalues --   -0.62581  -0.58998  -0.56138  -0.54945  -0.53640
 Alpha  occ. eigenvalues --   -0.51852  -0.48540  -0.47862  -0.46206  -0.44157
 Alpha  occ. eigenvalues --   -0.43568  -0.42977  -0.42349  -0.41757  -0.40400
 Alpha  occ. eigenvalues --   -0.38658  -0.38313  -0.38101  -0.36578  -0.35930
 Alpha  occ. eigenvalues --   -0.34272  -0.33931  -0.33102  -0.32982  -0.31133
 Alpha  occ. eigenvalues --   -0.30603  -0.30258  -0.28803  -0.26733  -0.22433
 Alpha  occ. eigenvalues --   -0.20876  -0.19635
 Alpha virt. eigenvalues --   -0.09130  -0.05008  -0.03032  -0.02571   0.02440
 Alpha virt. eigenvalues --    0.03855   0.04669   0.06478   0.07545   0.08182
 Alpha virt. eigenvalues --    0.09608   0.09972   0.11020   0.11192   0.12220
 Alpha virt. eigenvalues --    0.12703   0.13679   0.15687   0.17162   0.18944
 Alpha virt. eigenvalues --    0.19997   0.21927   0.23695   0.25072   0.25615
 Alpha virt. eigenvalues --    0.26503   0.27795   0.28570   0.29820   0.30645
 Alpha virt. eigenvalues --    0.32723   0.34893   0.35926   0.36660   0.37341
 Alpha virt. eigenvalues --    0.38761   0.39514   0.40439   0.41599   0.41645
 Alpha virt. eigenvalues --    0.42359   0.42976   0.43861   0.44366   0.45959
 Alpha virt. eigenvalues --    0.46740   0.47054   0.48732   0.49905   0.51175
 Alpha virt. eigenvalues --    0.51832   0.52341   0.53258   0.53789   0.55374
 Alpha virt. eigenvalues --    0.55774   0.56788   0.58424   0.59103   0.59820
 Alpha virt. eigenvalues --    0.60500   0.61052   0.61541   0.62045   0.62683
 Alpha virt. eigenvalues --    0.63678   0.64808   0.65058   0.65656   0.65913
 Alpha virt. eigenvalues --    0.67509   0.68401   0.70312   0.71261   0.71756
 Alpha virt. eigenvalues --    0.72728   0.73803   0.75025   0.76065   0.78046
 Alpha virt. eigenvalues --    0.80345   0.81455   0.82293   0.88466   0.92133
 Alpha virt. eigenvalues --    0.94625   0.95249   0.96721   0.97719   1.00764
 Alpha virt. eigenvalues --    1.04617   1.04931   1.07689   1.09061   1.10357
 Alpha virt. eigenvalues --    1.12106   1.13899   1.15612   1.17365   1.19716
 Alpha virt. eigenvalues --    1.20763   1.22250   1.23604   1.25024   1.27254
 Alpha virt. eigenvalues --    1.28219   1.30897   1.31712   1.34164   1.36193
 Alpha virt. eigenvalues --    1.37415   1.38286   1.41546   1.43724   1.47228
 Alpha virt. eigenvalues --    1.49110   1.52115   1.55286   1.56635   1.57255
 Alpha virt. eigenvalues --    1.58671   1.59180   1.61827   1.62027   1.62568
 Alpha virt. eigenvalues --    1.62790   1.64053   1.64460   1.65414   1.65726
 Alpha virt. eigenvalues --    1.66951   1.67397   1.70658   1.71904   1.72112
 Alpha virt. eigenvalues --    1.72603   1.73427   1.74706   1.75942   1.77785
 Alpha virt. eigenvalues --    1.78178   1.81229   1.82993   1.84321   1.85348
 Alpha virt. eigenvalues --    1.86111   1.87416   1.90448   1.90996   1.92635
 Alpha virt. eigenvalues --    1.93884   1.95410   1.96799   1.97217   1.98967
 Alpha virt. eigenvalues --    1.99720   2.01676   2.04490   2.05508   2.08928
 Alpha virt. eigenvalues --    2.09171   2.09811   2.13785   2.15101   2.17317
 Alpha virt. eigenvalues --    2.17773   2.18712   2.19770   2.20417   2.23429
 Alpha virt. eigenvalues --    2.23538   2.28362   2.30801   2.33473   2.35885
 Alpha virt. eigenvalues --    2.36457   2.37798   2.43628   2.45489   2.47070
 Alpha virt. eigenvalues --    2.48142   2.48544   2.52011   2.54721   2.55411
 Alpha virt. eigenvalues --    2.59612   2.61514   2.62771   2.65367   2.67671
 Alpha virt. eigenvalues --    2.69275   2.75712   2.77580   2.81083   2.81387
 Alpha virt. eigenvalues --    2.83964   2.86184   2.88478   2.90183   2.93071
 Alpha virt. eigenvalues --    2.93565   2.98218   3.00729   3.02960   3.06435
 Alpha virt. eigenvalues --    3.09730   3.12312   3.15826   3.20277   3.29661
 Alpha virt. eigenvalues --    3.32013   3.38487   3.43004   3.47941   3.67968
 Alpha virt. eigenvalues --    3.74592   3.79496
          Condensed to atoms (all electrons):
               1          2          3          4          5          6
     1  C    4.558967   0.434654  -0.071236   0.012762   0.000189   0.009272
     2  C    0.434654   5.209420   0.355927   0.058149  -0.118655   0.036736
     3  C   -0.071236   0.355927   5.086647   0.296237   0.082942  -0.133770
     4  C    0.012762   0.058149   0.296237   5.064711   0.243809   0.086932
     5  C    0.000189  -0.118655   0.082942   0.243809   5.181312   0.334877
     6  C    0.009272   0.036736  -0.133770   0.086932   0.334877   5.195679
     7  F   -0.000014   0.001745   0.000025   0.004890  -0.058616   0.299511
     8  C   -0.062901   0.304686   0.035744  -0.089149  -0.004467   0.202769
     9  C   -0.019091  -0.048405   0.014108   0.000050   0.010482  -0.064054
    10  C   -0.000274   0.008437   0.000201  -0.000216   0.001156  -0.026210
    11  O   -0.000002  -0.000007   0.000002   0.000001  -0.000711   0.006438
    12  C   -0.000007   0.000134  -0.000001   0.000000  -0.000025   0.001394
    13  C   -0.000009  -0.000114   0.000001  -0.000000   0.000001  -0.000253
    14  C   -0.000426   0.000690  -0.000023   0.000001  -0.000002   0.000110
    15  C   -0.002537  -0.023049   0.000279  -0.000086   0.000015   0.011061
    16  F    0.004806  -0.002324  -0.000506   0.000003  -0.000004   0.000292
    17  H    0.376554  -0.022454  -0.018142   0.001772  -0.000017  -0.000020
    18  H    0.360197  -0.002260  -0.000715  -0.000079  -0.000058  -0.000249
    19  H    0.372749  -0.003225   0.008474  -0.000827   0.000184  -0.000860
    20  H   -0.016665  -0.066572   0.425569  -0.066153   0.013663  -0.000502
    21  H   -0.000412   0.014441  -0.065484   0.432721  -0.070677   0.013686
    22  H    0.000016  -0.000862   0.012434  -0.064248   0.414217  -0.057320
    23  H   -0.000002   0.000431  -0.000071   0.000184  -0.001720  -0.015518
    24  H    0.000000   0.000001  -0.000000   0.000000   0.000000   0.000011
    25  H    0.000000  -0.000000  -0.000000   0.000000   0.000000   0.000001
    26  H   -0.000008   0.000025  -0.000000   0.000000  -0.000000   0.000002
               7          8          9         10         11         12
     1  C   -0.000014  -0.062901  -0.019091  -0.000274  -0.000002  -0.000007
     2  C    0.001745   0.304686  -0.048405   0.008437  -0.000007   0.000134
     3  C    0.000025   0.035744   0.014108   0.000201   0.000002  -0.000001
     4  C    0.004890  -0.089149   0.000050  -0.000216   0.000001   0.000000
     5  C   -0.058616  -0.004467   0.010482   0.001156  -0.000711  -0.000025
     6  C    0.299511   0.202769  -0.064054  -0.026210   0.006438   0.001394
     7  F    8.988945  -0.067618  -0.000299   0.001504  -0.026396  -0.000300
     8  C   -0.067618   5.460398   0.227113  -0.064058  -0.004704   0.008595
     9  C   -0.000299   0.227113   5.757097   0.132663  -0.074680   0.005241
    10  C    0.001504  -0.064058   0.132663   5.173885   0.459524   0.294529
    11  O   -0.026396  -0.004704  -0.074680   0.459524   7.552186  -0.089622
    12  C   -0.000300   0.008595   0.005241   0.294529  -0.089622   5.245226
    13  C   -0.000000   0.000247  -0.101436   0.110713   0.005609   0.223506
    14  C    0.000002   0.013314   0.002814  -0.138433   0.000163   0.106252
    15  C    0.000159  -0.054950   0.175808   0.088104   0.001254  -0.136153
    16  F   -0.000000  -0.000904  -0.073926   0.001672  -0.000001   0.000038
    17  H    0.000002   0.005888  -0.000700   0.000006   0.000000   0.000000
    18  H    0.000000   0.000005   0.003511   0.000028   0.000000  -0.000003
    19  H   -0.000004  -0.012168   0.005850   0.000174   0.000001  -0.000014
    20  H    0.000004   0.015044  -0.000252   0.000001   0.000000  -0.000000
    21  H   -0.000073  -0.001354   0.000015   0.000000  -0.000000   0.000000
    22  H    0.000829   0.017299  -0.000260   0.000052   0.000009  -0.000000
    23  H    0.051434   0.005549  -0.012582  -0.023202   0.337837   0.005138
    24  H    0.000015  -0.000192   0.019804  -0.055665   0.003465   0.414425
    25  H   -0.000000   0.000009  -0.001934   0.014484  -0.000109  -0.069412
    26  H   -0.000000  -0.000244   0.018844  -0.001247   0.000007   0.013293
              13         14         15         16         17         18
     1  C   -0.000009  -0.000426  -0.002537   0.004806   0.376554   0.360197
     2  C   -0.000114   0.000690  -0.023049  -0.002324  -0.022454  -0.002260
     3  C    0.000001  -0.000023   0.000279  -0.000506  -0.018142  -0.000715
     4  C   -0.000000   0.000001  -0.000086   0.000003   0.001772  -0.000079
     5  C    0.000001  -0.000002   0.000015  -0.000004  -0.000017  -0.000058
     6  C   -0.000253   0.000110   0.011061   0.000292  -0.000020  -0.000249
     7  F   -0.000000   0.000002   0.000159  -0.000000   0.000002   0.000000
     8  C    0.000247   0.013314  -0.054950  -0.000904   0.005888   0.000005
     9  C   -0.101436   0.002814   0.175808  -0.073926  -0.000700   0.003511
    10  C    0.110713  -0.138433   0.088104   0.001672   0.000006   0.000028
    11  O    0.005609   0.000163   0.001254  -0.000001   0.000000   0.000000
    12  C    0.223506   0.106252  -0.136153   0.000038   0.000000  -0.000003
    13  C    5.161366   0.170763   0.112033   0.005209  -0.000002   0.000002
    14  C    0.170763   5.280116   0.314683  -0.061103   0.000044  -0.000158
    15  C    0.112033   0.314683   5.059199   0.359477   0.000188  -0.002209
    16  F    0.005209  -0.061103   0.359477   8.928347   0.001748   0.003186
    17  H   -0.000002   0.000044   0.000188   0.001748   0.667458  -0.023241
    18  H    0.000002  -0.000158  -0.002209   0.003186  -0.023241   0.624033
    19  H    0.000095  -0.001449   0.003477  -0.003546  -0.028411  -0.017867
    20  H    0.000000   0.000000   0.000030  -0.000014   0.004124   0.002273
    21  H   -0.000000   0.000000   0.000000   0.000000  -0.000015   0.000013
    22  H    0.000000  -0.000000   0.000001  -0.000000  -0.000002  -0.000001
    23  H   -0.000014  -0.000153   0.000183   0.000001  -0.000001   0.000000
    24  H   -0.072474   0.014120  -0.001440   0.000004  -0.000000  -0.000000
    25  H    0.436021  -0.070528   0.014077  -0.000084   0.000000   0.000000
    26  H   -0.068886   0.415975  -0.059179   0.001703  -0.000002   0.000031
              19         20         21         22         23         24
     1  C    0.372749  -0.016665  -0.000412   0.000016  -0.000002   0.000000
     2  C   -0.003225  -0.066572   0.014441  -0.000862   0.000431   0.000001
     3  C    0.008474   0.425569  -0.065484   0.012434  -0.000071  -0.000000
     4  C   -0.000827  -0.066153   0.432721  -0.064248   0.000184   0.000000
     5  C    0.000184   0.013663  -0.070677   0.414217  -0.001720   0.000000
     6  C   -0.000860  -0.000502   0.013686  -0.057320  -0.015518   0.000011
     7  F   -0.000004   0.000004  -0.000073   0.000829   0.051434   0.000015
     8  C   -0.012168   0.015044  -0.001354   0.017299   0.005549  -0.000192
     9  C    0.005850  -0.000252   0.000015  -0.000260  -0.012582   0.019804
    10  C    0.000174   0.000001   0.000000   0.000052  -0.023202  -0.055665
    11  O    0.000001   0.000000  -0.000000   0.000009   0.337837   0.003465
    12  C   -0.000014  -0.000000   0.000000  -0.000000   0.005138   0.414425
    13  C    0.000095   0.000000  -0.000000   0.000000  -0.000014  -0.072474
    14  C   -0.001449   0.000000   0.000000  -0.000000  -0.000153   0.014120
    15  C    0.003477   0.000030   0.000000   0.000001   0.000183  -0.001440
    16  F   -0.003546  -0.000014   0.000000  -0.000000   0.000001   0.000004
    17  H   -0.028411   0.004124  -0.000015  -0.000002  -0.000001  -0.000000
    18  H   -0.017867   0.002273   0.000013  -0.000001   0.000000  -0.000000
    19  H    0.642213   0.000479   0.000010  -0.000001   0.000002  -0.000000
    20  H    0.000479   0.700404  -0.012334  -0.000363  -0.000001   0.000000
    21  H    0.000010  -0.012334   0.688846  -0.011790   0.000003  -0.000000
    22  H   -0.000001  -0.000363  -0.011790   0.673768   0.000110  -0.000000
    23  H    0.000002  -0.000001   0.000003   0.000110   0.468302  -0.000026
    24  H   -0.000000   0.000000  -0.000000  -0.000000  -0.000026   0.685684
    25  H   -0.000002  -0.000000   0.000000  -0.000000   0.000013  -0.013182
    26  H    0.000047  -0.000000  -0.000000   0.000000  -0.000002  -0.000306
              25         26
     1  C    0.000000  -0.000008
     2  C   -0.000000   0.000025
     3  C   -0.000000  -0.000000
     4  C    0.000000   0.000000
     5  C    0.000000  -0.000000
     6  C    0.000001   0.000002
     7  F   -0.000000  -0.000000
     8  C    0.000009  -0.000244
     9  C   -0.001934   0.018844
    10  C    0.014484  -0.001247
    11  O   -0.000109   0.000007
    12  C   -0.069412   0.013293
    13  C    0.436021  -0.068886
    14  C   -0.070528   0.415975
    15  C    0.014077  -0.059179
    16  F   -0.000084   0.001703
    17  H    0.000000  -0.000002
    18  H    0.000000   0.000031
    19  H   -0.000002   0.000047
    20  H   -0.000000  -0.000000
    21  H    0.000000  -0.000000
    22  H   -0.000000   0.000000
    23  H    0.000013  -0.000002
    24  H   -0.013182  -0.000306
    25  H    0.691560  -0.012287
    26  H   -0.012287   0.685048
 Mulliken charges:
               1
     1  C    0.043417
     2  C   -0.137548
     3  C   -0.028640
     4  C    0.018536
     5  C   -0.027896
     6  C    0.099986
     7  F   -0.195744
     8  C    0.066051
     9  C    0.024217
    10  C    0.022171
    11  O   -0.170264
    12  C   -0.022233
    13  C    0.017621
    14  C   -0.046773
    15  C    0.139575
    16  F   -0.164074
    17  H    0.035222
    18  H    0.053559
    19  H    0.034621
    20  H    0.001266
    21  H    0.012404
    22  H    0.016112
    23  H    0.184105
    24  H    0.005755
    25  H    0.011371
    26  H    0.007186
 Sum of Mulliken charges =  -0.00000
 Mulliken charges with hydrogens summed into heavy atoms:
               1
     1  C    0.166818
     2  C   -0.137548
     3  C   -0.027375
     4  C    0.030940
     5  C   -0.011784
     6  C    0.099986
     7  F   -0.195744
     8  C    0.066051
     9  C    0.024217
    10  C    0.022171
    11  O    0.013841
    12  C   -0.016477
    13  C    0.028991
    14  C   -0.039587
    15  C    0.139575
    16  F   -0.164074
 Electronic spatial extent (au):  <R**2>=           3417.2476
 Charge=             -0.0000 electrons
 Dipole moment (field-independent basis, Debye):
    X=             -1.3797    Y=              0.6806    Z=             -0.5330  Tot=              1.6282
 Quadrupole moment (field-independent basis, Debye-Ang):
   XX=            -78.9625   YY=            -88.9118   ZZ=            -94.8988
   XY=              1.6699   XZ=             -1.0668   YZ=             -1.2466
 Traceless Quadrupole moment (field-independent basis, Debye-Ang):
   XX=              8.6285   YY=             -1.3207   ZZ=             -7.3078
   XY=              1.6699   XZ=             -1.0668   YZ=             -1.2466
 Octapole moment (field-independent basis, Debye-Ang**2):
  XXX=             -2.4908  YYY=             15.5737  ZZZ=             84.9949  XYY=            -13.3784
  XXY=              4.3220  XXZ=             29.4697  XZZ=             -2.3953  YZZ=              7.0190
  YYZ=             23.5327  XYZ=              3.5319
 Hexadecapole moment (field-independent basis, Debye-Ang**3):
 XXXX=          -2563.2962 YYYY=          -1348.0393 ZZZZ=           -245.0040 XXXY=             71.9746
 XXXZ=            -72.0791 YYYX=             79.4968 YYYZ=             82.5470 ZZZX=            -43.2722
 ZZZY=             83.0539 XXYY=           -657.8163 XXZZ=           -563.5038 YYZZ=           -273.2479
 XXYZ=             19.7440 YYXZ=            -17.7145 ZZXY=             23.0729
 N-N= 1.070004932468D+03 E-N=-3.951068113386D+03  KE= 7.677380884259D+02

 Test job not archived.
 1\1\GINC-SEMLSCPN055\FOpt\RBP86\def2SVP\C13H10F2O1\KTVF206\23-Jul-2026
 \0\\# opt=modredundant bp86 empiricaldispersion=GD3BJ def2svp IOP(1/8=
 2) nosymm\\example\\0,1\C,-1.033625429,2.4571095784,-1.2959292554\C,-1
 .4897675089,1.1886568675,-0.5915312136\C,-2.8661716956,1.1958399561,-0
 .2722279961\C,-3.5924226916,0.0426877013,0.0407003311\C,-2.9410291919,
 -1.1839347316,-0.1201046673\C,-1.5783290876,-1.1760963773,-0.406326341
 6\F,-1.0951891223,-2.4145544396,-0.7918137558\C,-0.7161813789,-0.03425
 91652,-0.421105751\C,0.7772841408,-0.1373988758,-0.2898032236\C,1.5339
 309675,-1.3522553061,-0.0049840624\O,1.0323920068,-2.5224080937,0.4456
 197007\C,2.9489691812,-1.3758753865,-0.074905662\C,3.7003773649,-0.218
 3521598,-0.2504047662\C,3.0266261414,1.0085469238,-0.2946697318\C,1.63
 23353564,1.0160883788,-0.2530755148\F,1.1005993682,2.2468515994,-0.090
 0762863\H,-1.8717271651,2.7922044196,-1.9409812147\H,-0.7929301537,3.2
 888368535,-0.6069846032\H,-0.1605132483,2.2929580288,-1.9505282504\H,-
 3.3963219022,2.1589193403,-0.3476933147\H,-4.6614409344,0.0899874712,0
 .2954857819\H,-3.4626046615,-2.1510923352,-0.0816803062\H,0.1093018901
 ,-2.6580043117,0.1453257264\H,3.420988001,-2.357240219,0.07515426\H,4.
 7990620056,-0.2607655577,-0.2951769158\H,3.546216747,1.9768618406,-0.3
 029859672\\Version=ES64L-G16RevC.02\HF=-775.7515136\RMSD=5.316e-09\RMS
 F=3.209e-04\Dipole=-0.5428254,0.2677786,-0.2096828\Quadrupole=6.41511,
 -0.9819285,-5.4331816,1.2414937,-0.7931225,-0.9267926\PG=C01 [X(C13H10
 F2O1)]\\@


  ON THE CHOICE OF THE CORRECT LANGUAGE -
 I SPEAK SPANISH TO GOD, ITALIAN TO WOMEN,
 FRENCH TO MEN, AND GERMAN TO MY HORSE.
          -- CHARLES V
 Job cpu time:       0 days  0 hours 20 minutes 21.1 seconds.
 Elapsed time:       0 days  0 hours  2 minutes 39.4 seconds.
 File lengths (MBytes):  RWF=     46 Int=      0 D2E=      0 Chk=      7 Scr=      1
 Normal termination of Gaussian 16 at Thu Jul 23 14:21:59 2026.
