%mem=12000MB
%nprocshared=8
# opt=modredundant bp86 empiricaldispersion=GD3BJ def2svp  IOP(1/8=2) nosymm

example

0 1
C -1.0331120000 2.4573070000 -1.2952580000
C -1.4896940000 1.1887410000 -0.5911810000
C -2.8661380000 1.1956610000 -0.2723810000
C -3.5923920000 0.0422830000 0.0396380000
C -2.9408460000 -1.1842300000 -0.1210520000
C -1.5780340000 -1.1763890000 -0.4070100000
F -1.0946310000 -2.4148880000 -0.7905640000
C -0.7161550000 -0.0341950000 -0.4215800000
C 0.7772240000 -0.1374340000 -0.2900230000
C 1.5336720000 -1.3522630000 -0.0045250000
O 1.0319740000 -2.5220340000 0.4471870000
C 2.9487370000 -1.3758060000 -0.0752380000
C 3.7000840000 -0.2182800000 -0.2513670000
C 3.0263890000 1.0086570000 -0.2954640000
C 1.6321610000 1.0160180000 -0.2535060000
F 1.0999650000 2.2465080000 -0.0892470000
H -1.8713420000 2.7932460000 -1.9396360000
H -0.7914050000 3.2885900000 -0.6061320000
H -0.1603270000 2.2927910000 -1.9502090000
H -3.3962890000 2.1587480000 -0.3475770000
H -4.6614590000 0.0893270000 0.2942470000
H -3.4624750000 -2.1513560000 -0.0826920000
H 0.1083270000 -2.6568690000 0.1483390000
H 3.4209030000 -2.3570670000 0.0748650000
H 4.7987410000 -0.2607280000 -0.2966430000
H 3.5459510000 1.9769740000 -0.3036940000

D 7 8 9 11 F
D 1 8 9 16 F

