26
 energy: -46.467136146540 gnorm: 0.000317930413 xtb: 6.6.1 (8d0f1dd)
C           -1.37844013168442       -1.83962139256624       -0.70937465135418
C           -1.66693346133949       -0.52750650510574       -0.04778328322142
C           -2.95719374983058       -0.20389862155124        0.35110404527591
C           -3.23918412524911        1.00214145668684        0.96677761687296
C           -2.22754278117185        1.91613877649039        1.20023053240710
C           -0.94537706139637        1.59221994287338        0.80402342684495
F            0.04382315724183        2.48831793690713        1.01796677163581
C           -0.63912199681774        0.38984519772198        0.17824984296911
C            0.76112470781179        0.11879005575118       -0.21344248662202
C            1.74378334808984       -0.05577445003788        0.76885435788894
O            1.34837959722021       -0.03396424351780        2.06525925713004
C            3.06719137616827       -0.26725253191233        0.40170029926852
C            3.42794998951697       -0.30566010555432       -0.93288298585766
C            2.47444993761455       -0.13806520568203       -1.91988472575099
C            1.16187804760254        0.07261900383797       -1.54031358523308
F            0.23318596177332        0.25001165692866       -2.50502406547018
H           -2.19175047244283       -2.54096525035619       -0.54137062853464
H           -0.45331557799272       -2.26941109857507       -0.32919878610222
H           -1.26647619713517       -1.69889920631833       -1.78404364494458
H           -3.75327571806881       -0.91287612792065        0.17730323507714
H           -4.24960451769083        1.23241651410285        1.26839890554080
H           -2.41482107193628        2.86446538877695        1.67793090189556
H            2.11533539546040       -0.10841992448611        2.64547895352341
H            3.81641419001887       -0.39830557074593        1.17057281062868
H            4.45960629328598       -0.46681334773752       -1.20396556147428
H            2.72991386095110       -0.15953334800973       -2.96656755239332
