      -----------------------------------------------------------      
     |                   =====================                   |     
     |                           x T B                           |     
     |                   =====================                   |     
     |                         S. Grimme                         |     
     |          Mulliken Center for Theoretical Chemistry        |     
     |                    University of Bonn                     |     
      -----------------------------------------------------------      

   * xtb version 6.6.1 (8d0f1dd) compiled by 'stahn@M-Bot' on 2023-08-01

   xtb is free software: you can redistribute it and/or modify it under
   the terms of the GNU Lesser General Public License as published by
   the Free Software Foundation, either version 3 of the License, or
   (at your option) any later version.
   
   xtb is distributed in the hope that it will be useful,
   but WITHOUT ANY WARRANTY; without even the implied warranty of
   MERCHANTABILITY or FITNESS FOR A PARTICULAR PURPOSE.  See the
   GNU Lesser General Public License for more details.
   
   Cite this work as:
   * C. Bannwarth, E. Caldeweyher, S. Ehlert, A. Hansen, P. Pracht,
     J. Seibert, S. Spicher, S. Grimme, WIREs Comput. Mol. Sci., 2020, 11,
     e01493. DOI: 10.1002/wcms.1493
   
   for GFN2-xTB:
   * C. Bannwarth, S. Ehlert and S. Grimme., J. Chem. Theory Comput., 2019,
     15, 1652-1671. DOI: 10.1021/acs.jctc.8b01176
   for GFN1-xTB:
   * S. Grimme, C. Bannwarth, P. Shushkov, J. Chem. Theory Comput., 2017,
     13, 1989-2009. DOI: 10.1021/acs.jctc.7b00118
   for GFN0-xTB:
   * P. Pracht, E. Caldeweyher, S. Ehlert, S. Grimme, ChemRxiv, 2019, preprint.
     DOI: 10.26434/chemrxiv.8326202.v1
   for GFN-FF:
   * S. Spicher and S. Grimme, Angew. Chem. Int. Ed., 2020, 59, 15665-15673.
     DOI: 10.1002/anie.202004239
   
   for ALPB and GBSA implicit solvation:
   * S. Ehlert, M. Stahn, S. Spicher, S. Grimme, J. Chem. Theory Comput.,
     2021, 17, 4250-4261. DOI: 10.1021/acs.jctc.1c00471
   
   for DFT-D4:
   * E. Caldeweyher, C. Bannwarth and S. Grimme, J. Chem. Phys., 2017,
     147, 034112. DOI: 10.1063/1.4993215
   * E. Caldeweyher, S. Ehlert, A. Hansen, H. Neugebauer, S. Spicher,
     C. Bannwarth and S. Grimme, J. Chem. Phys., 2019, 150, 154122.
     DOI: 10.1063/1.5090222
   * E. Caldeweyher, J.-M. Mewes, S. Ehlert and S. Grimme, Phys. Chem. Chem. Phys.
     2020, 22, 8499-8512. DOI: 10.1039/D0CP00502A
   
   for sTDA-xTB:
   * S. Grimme and C. Bannwarth, J. Chem. Phys., 2016, 145, 054103.
     DOI: 10.1063/1.4959605
   
   in the mass-spec context:
   * V. Asgeirsson, C. Bauer and S. Grimme, Chem. Sci., 2017, 8, 4879.
     DOI: 10.1039/c7sc00601b
   * J. Koopman and S. Grimme, ACS Omega 2019, 4, 12, 15120-15133.
     DOI: 10.1021/acsomega.9b02011
   
   for metadynamics refer to:
   * S. Grimme, J. Chem. Theory Comput., 2019, 155, 2847-2862
     DOI: 10.1021/acs.jctc.9b00143
   
   for SPH calculations refer to:
   * S. Spicher and S. Grimme, J. Chem. Theory Comput., 2021, 17, 1701-1714
     DOI: 10.1021/acs.jctc.0c01306
   
   with help from (in alphabetical order)
   P. Atkinson, C. Bannwarth, F. Bohle, G. Brandenburg, E. Caldeweyher
   M. Checinski, S. Dohm, S. Ehlert, S. Ehrlich, I. Gerasimov, C. Hölzer
   A. Katbashev, J. Koopman, C. Lavigne, S. Lehtola, F. März, M. Müller,
   F. Musil, H. Neugebauer, J. Pisarek, C. Plett, P. Pracht, F. Pultar,
   J. Seibert, P. Shushkov, S. Spicher, M. Stahn, M. Steiner, T. Strunk,
   J. Stückrath, T. Rose, and J. Unsleber
   
 * started run on 2026/07/23 at 12:55:34.032     

           -------------------------------------------------
          |                Calculation Setup                |
           -------------------------------------------------

          program call               : /path/to/xtb /path/to/atropisomers_workflow/example/reactant_censo/confs/17.xyz --opt --etemp 298.15 --chrg 0 --uhf 0 -P 4
          hostname                   : node
          coordinate file            : /path/to/atropisomers_workflow/example/reactant_censo/confs/17.xyz
          omp threads                :                     4

   ID    Z sym.   atoms
    1    6 C      1-6, 8-10, 12-15
    2    9 F      7, 16
    3    8 O      11
    4    1 H      17-26

           -------------------------------------------------
          |                 G F N 2 - x T B                 |
           -------------------------------------------------

        Reference                      10.1021/acs.jctc.8b01176
      * Hamiltonian:
        H0-scaling (s, p, d)           1.850000    2.230000    2.230000
        zeta-weighting                 0.500000
      * Dispersion:
        s8                             2.700000
        a1                             0.520000
        a2                             5.000000
        s9                             5.000000
      * Repulsion:
        kExp                           1.500000    1.000000
        rExp                           1.000000
      * Coulomb:
        alpha                          2.000000
        third order                    shell-resolved
        anisotropic                    true
        a3                             3.000000
        a5                             4.000000
        cn-shift                       1.200000
        cn-exp                         4.000000
        max-rad                        5.000000


          ...................................................
          :                      SETUP                      :
          :.................................................:
          :  # basis functions                  74          :
          :  # atomic orbitals                  74          :
          :  # shells                           42          :
          :  # electrons                        82          :
          :  max. iterations                   250          :
          :  Hamiltonian                  GFN2-xTB          :
          :  restarted?                      false          :
          :  GBSA solvation                  false          :
          :  PC potential                    false          :
          :  electronic temp.          298.1500000     K    :
          :  accuracy                    1.0000000          :
          :  -> integral cutoff          0.2500000E+02      :
          :  -> integral neglect         0.1000000E-07      :
          :  -> SCF convergence          0.1000000E-05 Eh   :
          :  -> wf. convergence          0.1000000E-03 e    :
          :  Broyden damping             0.4000000          :
          ...................................................

 iter      E             dE          RMSdq      gap      omega  full diag
   1    -47.0707446 -0.470707E+02  0.442E+00    4.42       0.0  T
   2    -47.1090108 -0.382662E-01  0.268E+00    4.34       1.0  T
   3    -47.1024418  0.656902E-02  0.143E+00    4.39       1.0  T
   4    -47.1220441 -0.196023E-01  0.241E-01    4.40       1.0  T
   5    -47.1223876 -0.343530E-03  0.107E-01    4.40       1.0  T
   6    -47.1226074 -0.219843E-03  0.471E-02    4.40       1.0  T
   7    -47.1226213 -0.138465E-04  0.184E-02    4.40       1.1  T
   8    -47.1226245 -0.318915E-05  0.752E-03    4.40       2.6  T
   9    -47.1226248 -0.314193E-06  0.166E-03    4.40      11.8  T
  10    -47.1226248 -0.132155E-07  0.740E-04    4.40      26.5  T
  11    -47.1226248 -0.111237E-08  0.287E-04    4.40      68.3  T

   *** convergence criteria satisfied after 11 iterations ***

         #    Occupation            Energy/Eh            Energy/eV
      -------------------------------------------------------------
         1        2.0000           -0.8138162             -22.1451
       ...           ...                  ...                  ...
        35        2.0000           -0.4501777             -12.2500
        36        2.0000           -0.4426551             -12.0453
        37        2.0000           -0.4253747             -11.5750
        38        2.0000           -0.4093721             -11.1396
        39        2.0000           -0.4043861             -11.0039
        40        2.0000           -0.4017073             -10.9310
        41        2.0000           -0.3972979             -10.8110 (HOMO)
        42                         -0.2355015              -6.4083 (LUMO)
        43                         -0.2297719              -6.2524
        44                         -0.2283675              -6.2142
        45                         -0.2233348              -6.0772
        46                         -0.1022653              -2.7828
       ...                                ...                  ...
        74                          0.7058944              19.2084
      -------------------------------------------------------------
                  HL-Gap            0.1617964 Eh            4.4027 eV
             Fermi-level           -0.3163997 Eh           -8.6097 eV

 SCC (total)                   0 d,  0 h,  0 min,  0.027 sec
 SCC setup                      ...        0 min,  0.000 sec (  0.752%)
 Dispersion                     ...        0 min,  0.000 sec (  0.955%)
 classical contributions        ...        0 min,  0.000 sec (  0.081%)
 integral evaluation            ...        0 min,  0.002 sec (  6.296%)
 iterations                     ...        0 min,  0.020 sec ( 74.496%)
 molecular gradient             ...        0 min,  0.004 sec ( 16.530%)
 printout                       ...        0 min,  0.000 sec (  0.804%)

         :::::::::::::::::::::::::::::::::::::::::::::::::::::
         ::                     SUMMARY                     ::
         :::::::::::::::::::::::::::::::::::::::::::::::::::::
         :: total energy             -46.453495985888 Eh    ::
         :: gradient norm              0.086248037791 Eh/a0 ::
         :: HOMO-LUMO gap              4.402703852848 eV    ::
         ::.................................................::
         :: SCC energy               -47.122624793142 Eh    ::
         :: -> isotropic ES            0.048236290520 Eh    ::
         :: -> anisotropic ES          0.002062247057 Eh    ::
         :: -> anisotropic XC          0.007634071061 Eh    ::
         :: -> dispersion             -0.027670767255 Eh    ::
         :: repulsion energy           0.668873537901 Eh    ::
         :: add. restraining           0.000000000000 Eh    ::
         :: total charge              -0.000000000000 e     ::
         :::::::::::::::::::::::::::::::::::::::::::::::::::::

      ----------------------------------------------------------- 
     |                   =====================                   |
     |                        A N C O P T                        |
     |                   =====================                   |
     |               Approximate Normal Coordinate               |
     |                Rational Function Optimizer                |
      ----------------------------------------------------------- 

          ...................................................
          :                      SETUP                      :
          :.................................................:
          :   optimization level            normal          :
          :   max. optcycles                   200          :
          :   ANC micro-cycles                  20          :
          :   degrees of freedom                72          :
          :.................................................:
          :   RF solver                   davidson          :
          :   write xtbopt.log                true          :
          :   linear?                        false          :
          :   energy convergence         0.5000000E-05 Eh   :
          :   grad. convergence          0.1000000E-02 Eh/α :
          :   maxmium RF displ.          1.0000000          :
          :   Hlow (freq-cutoff)         0.1000000E-01      :
          :   Hmax (freq-cutoff)         5.0000000          :
          :   S6 in model hess.         20.0000000          :
          ...................................................

generating ANC from model Hessian ...
Using Lindh-Hessian (1995)
 Shifting diagonal of input Hessian by   8.682933629289076E-003
 Lowest  eigenvalues of input Hessian
    0.000000    0.000000    0.000000    0.000000    0.000000    0.000000
    0.010000    0.010623    0.010882    0.013970    0.015243    0.016582
    0.021034    0.022676    0.025445    0.030866    0.031809    0.032876
 Highest eigenvalues
    1.943192    1.951092    2.084878    2.145489    2.161331    2.206093
 

........................................................................
.............................. CYCLE    1 ..............................
........................................................................

 iter      E             dE          RMSdq      gap      omega  full diag
   1    -47.1226248 -0.471226E+02  0.112E-04    4.40       0.0  T
   2    -47.1226248 -0.417870E-10  0.705E-05    4.40     278.2  T
   3    -47.1226248 -0.124203E-10  0.448E-05    4.40     437.4  T
     SCC iter.                  ...        0 min,  0.004 sec
     gradient                   ...        0 min,  0.004 sec
 * total energy  :   -46.4534960 Eh     change       -0.9440484E-09 Eh
   gradient norm :     0.0862484 Eh/α   predicted     0.0000000E+00 (-100.00%)
   displ. norm   :     0.2744485 α      lambda       -0.1390610E-01
   maximum displ.:     0.0836939 α      in ANC's #40, #17, #14, ...

........................................................................
.............................. CYCLE    2 ..............................
........................................................................

 iter      E             dE          RMSdq      gap      omega  full diag
   1    -47.1211611 -0.471212E+02  0.222E-01    4.30       0.0  T
   2    -47.1213342 -0.173089E-03  0.138E-01    4.35       1.0  T
   3    -47.1213257  0.850748E-05  0.629E-02    4.34       1.0  T
   4    -47.1213506 -0.248681E-04  0.214E-02    4.35       1.0  T
   5    -47.1213558 -0.522588E-05  0.420E-03    4.35       4.7  T
   6    -47.1213559 -0.984195E-07  0.231E-03    4.34       8.5  T
   7    -47.1213559 -0.233978E-07  0.927E-04    4.34      21.2  T
   8    -47.1213559 -0.315992E-08  0.306E-04    4.34      64.1  T
     SCC iter.                  ...        0 min,  0.010 sec
     gradient                   ...        0 min,  0.004 sec
 * total energy  :   -46.4630584 Eh     change       -0.9562411E-02 Eh
   gradient norm :     0.0329028 Eh/α   predicted    -0.7478318E-02 ( -21.79%)
   displ. norm   :     0.2415245 α      lambda       -0.4328767E-02
   maximum displ.:     0.0906015 α      in ANC's #9, #12, #7, ...

........................................................................
.............................. CYCLE    3 ..............................
........................................................................

 iter      E             dE          RMSdq      gap      omega  full diag
   1    -47.1194775 -0.471195E+02  0.145E-01    4.27       0.0  T
   2    -47.1195829 -0.105433E-03  0.910E-02    4.31       1.0  T
   3    -47.1195867 -0.373449E-05  0.482E-02    4.30       1.0  T
   4    -47.1195959 -0.920849E-05  0.175E-02    4.31       1.1  T
   5    -47.1195984 -0.248032E-05  0.377E-03    4.31       5.2  T
   6    -47.1195984 -0.912468E-07  0.216E-03    4.30       9.1  T
   7    -47.1195985 -0.263548E-07  0.106E-03    4.30      18.5  T
   8    -47.1195985 -0.569568E-08  0.413E-04    4.31      47.5  T
   9    -47.1195985 -0.373104E-08  0.132E-04    4.31     148.1  T
     SCC iter.                  ...        0 min,  0.012 sec
     gradient                   ...        0 min,  0.004 sec
 * total energy  :   -46.4655870 Eh     change       -0.2528602E-02 Eh
   gradient norm :     0.0135869 Eh/α   predicted    -0.2291495E-02 (  -9.38%)
   displ. norm   :     0.1228675 α      lambda       -0.5273677E-03
   maximum displ.:     0.0488873 α      in ANC's #7, #9, #3, ...

........................................................................
.............................. CYCLE    4 ..............................
........................................................................

 iter      E             dE          RMSdq      gap      omega  full diag
   1    -47.1191179 -0.471191E+02  0.448E-02    4.30       0.0  T
   2    -47.1191219 -0.394851E-05  0.271E-02    4.31       1.0  T
   3    -47.1191206  0.131787E-05  0.131E-02    4.31       1.5  T
   4    -47.1191228 -0.219121E-05  0.336E-03    4.31       5.8  T
   5    -47.1191229 -0.156357E-06  0.130E-03    4.31      15.1  T
   6    -47.1191229 -0.137314E-07  0.747E-04    4.31      26.2  T
   7    -47.1191229 -0.590155E-08  0.261E-04    4.31      75.2  T
     SCC iter.                  ...        0 min,  0.009 sec
     gradient                   ...        0 min,  0.004 sec
 * total energy  :   -46.4659658 Eh     change       -0.3787843E-03 Eh
   gradient norm :     0.0119458 Eh/α   predicted    -0.2676677E-03 ( -29.34%)
   displ. norm   :     0.1431374 α      lambda       -0.3639733E-03
   maximum displ.:     0.0677742 α      in ANC's #3, #7, #6, ...

........................................................................
.............................. CYCLE    5 ..............................
........................................................................

 iter      E             dE          RMSdq      gap      omega  full diag
   1    -47.1198205 -0.471198E+02  0.457E-02    4.32       0.0  T
   2    -47.1198226 -0.209834E-05  0.279E-02    4.31       1.0  T
   3    -47.1198192  0.333457E-05  0.137E-02    4.32       1.4  T
   4    -47.1198240 -0.471107E-05  0.178E-03    4.31      11.0  T
   5    -47.1198240 -0.467091E-07  0.948E-04    4.31      20.7  T
   6    -47.1198240 -0.792169E-08  0.454E-04    4.31      43.2  T
     SCC iter.                  ...        0 min,  0.008 sec
     gradient                   ...        0 min,  0.004 sec
 * total energy  :   -46.4661990 Eh     change       -0.2332456E-03 Eh
   gradient norm :     0.0059931 Eh/α   predicted    -0.1857165E-03 ( -20.38%)
   displ. norm   :     0.0954743 α      lambda       -0.1052520E-03
   maximum displ.:     0.0581705 α      in ANC's #3, #6, #2, ...

........................................................................
.............................. CYCLE    6 ..............................
........................................................................

 iter      E             dE          RMSdq      gap      omega  full diag
   1    -47.1204836 -0.471205E+02  0.293E-02    4.32       0.0  T
   2    -47.1204844 -0.809105E-06  0.176E-02    4.32       1.1  T
   3    -47.1204835  0.924539E-06  0.801E-03    4.32       2.4  T
   4    -47.1204848 -0.129934E-05  0.968E-04    4.32      20.3  T
   5    -47.1204848 -0.939576E-08  0.516E-04    4.32      38.0  T
   6    -47.1204848 -0.367955E-08  0.256E-04    4.32      76.8  T
     SCC iter.                  ...        0 min,  0.008 sec
     gradient                   ...        0 min,  0.004 sec
 * total energy  :   -46.4662746 Eh     change       -0.7552603E-04 Eh
   gradient norm :     0.0032964 Eh/α   predicted    -0.5313255E-04 ( -29.65%)
   displ. norm   :     0.1080208 α      lambda       -0.7374968E-04
   maximum displ.:     0.0735312 α      in ANC's #3, #6, #2, ...

........................................................................
.............................. CYCLE    7 ..............................
........................................................................

 iter      E             dE          RMSdq      gap      omega  full diag
   1    -47.1208525 -0.471209E+02  0.336E-02    4.32       0.0  T
   2    -47.1208529 -0.384839E-06  0.199E-02    4.31       1.0  T
   3    -47.1208524  0.557301E-06  0.601E-03    4.32       3.3  T
   4    -47.1208531 -0.705441E-06  0.865E-04    4.31      22.7  T
   5    -47.1208531 -0.404685E-08  0.450E-04    4.31      43.6  T
     SCC iter.                  ...        0 min,  0.007 sec
     gradient                   ...        0 min,  0.004 sec
 * total energy  :   -46.4663279 Eh     change       -0.5334267E-04 Eh
   gradient norm :     0.0027992 Eh/α   predicted    -0.3730684E-04 ( -30.06%)
   displ. norm   :     0.1072546 α      lambda       -0.5108520E-04
   maximum displ.:     0.0764223 α      in ANC's #3, #6, #5, ...

........................................................................
.............................. CYCLE    8 ..............................
........................................................................

 iter      E             dE          RMSdq      gap      omega  full diag
   1    -47.1209294 -0.471209E+02  0.333E-02    4.31       0.0  T
   2    -47.1209296 -0.163269E-06  0.197E-02    4.31       1.0  T
   3    -47.1209293  0.306756E-06  0.380E-03    4.31       5.2  T
   4    -47.1209297 -0.391882E-06  0.713E-04    4.31      27.5  T
   5    -47.1209297 -0.746361E-09  0.366E-04    4.31      53.5  T
     SCC iter.                  ...        0 min,  0.007 sec
     gradient                   ...        0 min,  0.004 sec
 * total energy  :   -46.4663672 Eh     change       -0.3934799E-04 Eh
   gradient norm :     0.0030890 Eh/α   predicted    -0.2585097E-04 ( -34.30%)
   displ. norm   :     0.1180190 α      lambda       -0.4618281E-04
   maximum displ.:     0.0847441 α      in ANC's #3, #6, #1, ...

........................................................................
.............................. CYCLE    9 ..............................
........................................................................

 iter      E             dE          RMSdq      gap      omega  full diag
   1    -47.1208231 -0.471208E+02  0.352E-02    4.30       0.0  T
   2    -47.1208234 -0.319389E-06  0.209E-02    4.30       1.0  T
   3    -47.1208226  0.798182E-06  0.567E-03    4.30       3.5  T
   4    -47.1208236 -0.972156E-06  0.744E-04    4.30      26.4  T
   5    -47.1208236 -0.121067E-08  0.386E-04    4.30      50.9  T
     SCC iter.                  ...        0 min,  0.007 sec
     gradient                   ...        0 min,  0.004 sec
 * total energy  :   -46.4664042 Eh     change       -0.3692902E-04 Eh
   gradient norm :     0.0028742 Eh/α   predicted    -0.2341357E-04 ( -36.60%)
   displ. norm   :     0.1402321 α      lambda       -0.4961901E-04
   maximum displ.:     0.0989578 α      in ANC's #3, #6, #1, ...

........................................................................
.............................. CYCLE   10 ..............................
........................................................................

 iter      E             dE          RMSdq      gap      omega  full diag
   1    -47.1207120 -0.471207E+02  0.401E-02    4.30       0.0  T
   2    -47.1207125 -0.508659E-06  0.238E-02    4.30       1.0  T
   3    -47.1207113  0.120129E-05  0.736E-03    4.30       2.7  T
   4    -47.1207128 -0.146886E-05  0.824E-04    4.30      23.8  T
   5    -47.1207128 -0.240216E-08  0.442E-04    4.30      44.4  T
   6    -47.1207128 -0.990788E-09  0.207E-04    4.30      94.9  T
     SCC iter.                  ...        0 min,  0.008 sec
     gradient                   ...        0 min,  0.004 sec
 * total energy  :   -46.4664452 Eh     change       -0.4104900E-04 Eh
   gradient norm :     0.0028341 Eh/α   predicted    -0.2530149E-04 ( -38.36%)
   displ. norm   :     0.1974889 α      lambda       -0.6768738E-04
   maximum displ.:     0.1363652 α      in ANC's #3, #6, #1, ...

........................................................................
.............................. CYCLE   11 ..............................
........................................................................

 iter      E             dE          RMSdq      gap      omega  full diag
   1    -47.1203850 -0.471204E+02  0.556E-02    4.28       0.0  T
   2    -47.1203858 -0.798056E-06  0.328E-02    4.29       1.0  T
   3    -47.1203839  0.184997E-05  0.924E-03    4.29       2.1  T
   4    -47.1203862 -0.224809E-05  0.106E-03    4.29      18.5  T
   5    -47.1203862 -0.422954E-08  0.570E-04    4.29      34.4  T
   6    -47.1203862 -0.122702E-08  0.273E-04    4.29      72.0  T
     SCC iter.                  ...        0 min,  0.008 sec
     gradient                   ...        0 min,  0.004 sec
 * total energy  :   -46.4665004 Eh     change       -0.5515329E-04 Eh
   gradient norm :     0.0032351 Eh/α   predicted    -0.3516540E-04 ( -36.24%)
   displ. norm   :     0.2986038 α      lambda       -0.9918120E-04
   maximum displ.:     0.2031770 α      in ANC's #3, #1, #6, ...

........................................................................
.............................. CYCLE   12 ..............................
........................................................................

 iter      E             dE          RMSdq      gap      omega  full diag
   1    -47.1197954 -0.471198E+02  0.850E-02    4.27       0.0  T
   2    -47.1197967 -0.133257E-05  0.502E-02    4.27       1.0  T
   3    -47.1197935  0.320843E-05  0.119E-02    4.27       1.6  T
   4    -47.1197974 -0.389305E-05  0.151E-03    4.27      12.9  T
   5    -47.1197974 -0.637025E-08  0.838E-04    4.27      23.4  T
   6    -47.1197974 -0.191885E-08  0.375E-04    4.27      52.4  T
     SCC iter.                  ...        0 min,  0.008 sec
     gradient                   ...        0 min,  0.004 sec
 * total energy  :   -46.4665720 Eh     change       -0.7165497E-04 Eh
   gradient norm :     0.0047908 Eh/α   predicted    -0.5401633E-04 ( -24.62%)
   displ. norm   :     0.2307623 α      lambda       -0.9796800E-04
   maximum displ.:     0.1501081 α      in ANC's #3, #1, #6, ...

........................................................................
.............................. CYCLE   13 ..............................
........................................................................

 iter      E             dE          RMSdq      gap      omega  full diag
   1    -47.1205185 -0.471205E+02  0.690E-02    4.25       0.0  T
   2    -47.1205192 -0.684738E-06  0.405E-02    4.25       1.0  T
   3    -47.1205181  0.106919E-05  0.738E-03    4.25       2.7  T
   4    -47.1205195 -0.135792E-05  0.129E-03    4.25      15.2  T
   5    -47.1205195 -0.649361E-08  0.697E-04    4.25      28.1  T
   6    -47.1205195 -0.307502E-09  0.308E-04    4.25      63.7  T
     SCC iter.                  ...        0 min,  0.008 sec
     gradient                   ...        0 min,  0.004 sec
 * total energy  :   -46.4666399 Eh     change       -0.6784680E-04 Eh
   gradient norm :     0.0051940 Eh/α   predicted    -0.5161193E-04 ( -23.93%)
   displ. norm   :     0.2946007 α      lambda       -0.9630632E-04
   maximum displ.:     0.1917258 α      in ANC's #3, #1, #6, ...

........................................................................
.............................. CYCLE   14 ..............................
........................................................................

 iter      E             dE          RMSdq      gap      omega  full diag
   1    -47.1190618 -0.471191E+02  0.869E-02    4.23       0.0  T
   2    -47.1190627 -0.885887E-06  0.511E-02    4.23       1.0  T
   3    -47.1190625  0.183580E-06  0.457E-03    4.23       4.3  T
   4    -47.1190629 -0.395469E-06  0.163E-03    4.23      12.0  T
   5    -47.1190629 -0.265777E-07  0.864E-04    4.23      22.7  T
   6    -47.1190629 -0.578304E-09  0.242E-04    4.23      81.1  T
     SCC iter.                  ...        0 min,  0.008 sec
     gradient                   ...        0 min,  0.004 sec
 * total energy  :   -46.4666985 Eh     change       -0.5866838E-04 Eh
   gradient norm :     0.0057746 Eh/α   predicted    -0.5234702E-04 ( -10.77%)
   displ. norm   :     0.1470266 α      lambda       -0.1234721E-03
   maximum displ.:     0.1161902 α      in ANC's #1, #3, #4, ...

........................................................................
.............................. CYCLE   15 ..............................
........................................................................

 iter      E             dE          RMSdq      gap      omega  full diag
   1    -47.1216677 -0.471217E+02  0.502E-02    4.22       0.0  T
   2    -47.1216690 -0.124859E-05  0.292E-02    4.22       1.0  T
   3    -47.1216680  0.937354E-06  0.759E-03    4.22       2.6  T
   4    -47.1216692 -0.118912E-05  0.151E-03    4.22      13.0  T
   5    -47.1216693 -0.325219E-07  0.636E-04    4.22      30.8  T
   6    -47.1216693  0.681268E-10  0.317E-04    4.22      62.0  T
     SCC iter.                  ...        0 min,  0.008 sec
     gradient                   ...        0 min,  0.004 sec
 * total energy  :   -46.4667652 Eh     change       -0.6661149E-04 Eh
   gradient norm :     0.0026663 Eh/α   predicted    -0.6308012E-04 (  -5.30%)
   displ. norm   :     0.1516670 α      lambda       -0.3581041E-04
   maximum displ.:     0.1033454 α      in ANC's #1, #3, #6, ...

........................................................................
.............................. CYCLE   16 ..............................
........................................................................

 iter      E             dE          RMSdq      gap      omega  full diag
   1    -47.1209274 -0.471209E+02  0.460E-02    4.20       0.0  T
   2    -47.1209277 -0.246551E-06  0.270E-02    4.21       1.0  T
   3    -47.1209273  0.434350E-06  0.476E-03    4.20       4.1  T
   4    -47.1209278 -0.550673E-06  0.760E-04    4.21      25.8  T
   5    -47.1209278 -0.149673E-08  0.392E-04    4.21      50.1  T
     SCC iter.                  ...        0 min,  0.007 sec
     gradient                   ...        0 min,  0.004 sec
 * total energy  :   -46.4667945 Eh     change       -0.2933011E-04 Eh
   gradient norm :     0.0022622 Eh/α   predicted    -0.1833985E-04 ( -37.47%)
   displ. norm   :     0.1158765 α      lambda       -0.3021547E-04
   maximum displ.:     0.0872719 α      in ANC's #1, #3, #6, ...

........................................................................
.............................. CYCLE   17 ..............................
........................................................................

 iter      E             dE          RMSdq      gap      omega  full diag
   1    -47.1208114 -0.471208E+02  0.356E-02    4.19       0.0  T
   2    -47.1208116 -0.202993E-06  0.209E-02    4.19       1.0  T
   3    -47.1208110  0.514780E-06  0.449E-03    4.19       4.4  T
   4    -47.1208117 -0.623752E-06  0.571E-04    4.19      34.3  T
   5    -47.1208117 -0.733017E-09  0.279E-04    4.19      70.2  T
     SCC iter.                  ...        0 min,  0.007 sec
     gradient                   ...        0 min,  0.004 sec
 * total energy  :   -46.4668201 Eh     change       -0.2556175E-04 Eh
   gradient norm :     0.0016994 Eh/α   predicted    -0.1531133E-04 ( -40.10%)
   displ. norm   :     0.1365980 α      lambda       -0.2464963E-04
   maximum displ.:     0.1144677 α      in ANC's #1, #3, #6, ...

........................................................................
.............................. CYCLE   18 ..............................
........................................................................

 iter      E             dE          RMSdq      gap      omega  full diag
   1    -47.1213578 -0.471214E+02  0.423E-02    4.17       0.0  T
   2    -47.1213583 -0.464156E-06  0.248E-02    4.17       1.0  T
   3    -47.1213573  0.105190E-05  0.666E-03    4.17       2.9  T
   4    -47.1213585 -0.127390E-05  0.768E-04    4.17      25.5  T
   5    -47.1213585 -0.290241E-08  0.387E-04    4.17      50.7  T
   6    -47.1213585 -0.528509E-09  0.211E-04    4.17      93.0  T
     SCC iter.                  ...        0 min,  0.008 sec
     gradient                   ...        0 min,  0.004 sec
 * total energy  :   -46.4668481 Eh     change       -0.2799928E-04 Eh
   gradient norm :     0.0016790 Eh/α   predicted    -0.1243126E-04 ( -55.60%)
   displ. norm   :     0.0979137 α      lambda       -0.1391593E-04
   maximum displ.:     0.0817767 α      in ANC's #1, #3, #6, ...

........................................................................
.............................. CYCLE   19 ..............................
........................................................................

 iter      E             dE          RMSdq      gap      omega  full diag
   1    -47.1213639 -0.471214E+02  0.285E-02    4.16       0.0  T
   2    -47.1213642 -0.206878E-06  0.168E-02    4.16       1.2  T
   3    -47.1213636  0.512164E-06  0.499E-03    4.16       3.9  T
   4    -47.1213643 -0.622750E-06  0.501E-04    4.16      39.1  T
   5    -47.1213643 -0.102644E-08  0.271E-04    4.16      72.4  T
     SCC iter.                  ...        0 min,  0.007 sec
     gradient                   ...        0 min,  0.004 sec
 * total energy  :   -46.4668658 Eh     change       -0.1775365E-04 Eh
   gradient norm :     0.0015587 Eh/α   predicted    -0.6989688E-05 ( -60.63%)
   displ. norm   :     0.0689752 α      lambda       -0.1234999E-04
   maximum displ.:     0.0634777 α      in ANC's #1, #3, #4, ...

........................................................................
.............................. CYCLE   20 ..............................
........................................................................

 iter      E             dE          RMSdq      gap      omega  full diag
   1    -47.1217152 -0.471217E+02  0.204E-02    4.16       0.0  T
   2    -47.1217153 -0.149882E-06  0.120E-02    4.16       1.6  T
   3    -47.1217150  0.305995E-06  0.430E-03    4.16       4.6  T
   4    -47.1217154 -0.383866E-06  0.411E-04    4.16      47.7  T
   5    -47.1217154 -0.982496E-09  0.221E-04    4.16      88.8  T
     SCC iter.                  ...        0 min,  0.007 sec
     gradient                   ...        0 min,  0.004 sec
 * total energy  :   -46.4668817 Eh     change       -0.1590257E-04 Eh
   gradient norm :     0.0011429 Eh/α   predicted    -0.6188630E-05 ( -61.08%)
   displ. norm   :     0.0653185 α      lambda       -0.1045057E-04
   maximum displ.:     0.0609150 α      in ANC's #1, #3, #4, ...
 * RMSD in coord.:     0.4856511 α      energy gain  -0.1338572E-01 Eh

generating ANC from model Hessian ...
Using Lindh-Hessian (1995)
 Shifting diagonal of input Hessian by   8.730836660865925E-003
 Lowest  eigenvalues of input Hessian
    0.000000    0.000000    0.000000    0.000000    0.000000    0.000000
    0.010000    0.010563    0.010849    0.013935    0.015667    0.017794
    0.021219    0.022262    0.024930    0.030069    0.031391    0.033636
 Highest eigenvalues
    1.892971    1.913515    2.031112    2.074892    2.116005    2.137196
 

........................................................................
.............................. CYCLE   21 ..............................
........................................................................

 iter      E             dE          RMSdq      gap      omega  full diag
   1    -47.1217192 -0.471217E+02  0.196E-02    4.15       0.0  T
   2    -47.1217192 -0.791450E-07  0.115E-02    4.15       1.7  T
   3    -47.1217191  0.176587E-06  0.306E-03    4.15       6.4  T
   4    -47.1217193 -0.216798E-06  0.339E-04    4.15      57.9  T
   5    -47.1217193 -0.479226E-09  0.186E-04    4.15     105.2  T
     SCC iter.                  ...        0 min,  0.007 sec
     gradient                   ...        0 min,  0.004 sec
 * total energy  :   -46.4668960 Eh     change       -0.1424907E-04 Eh
   gradient norm :     0.0010290 Eh/α   predicted     0.0000000E+00 (-100.00%)
   displ. norm   :     0.0375241 α      lambda       -0.8804302E-05
   maximum displ.:     0.0337814 α      in ANC's #1, #6, #5, ...

........................................................................
.............................. CYCLE   22 ..............................
........................................................................

 iter      E             dE          RMSdq      gap      omega  full diag
   1    -47.1213946 -0.471214E+02  0.112E-02    4.15       0.0  T
   2    -47.1213946 -0.422551E-07  0.654E-03    4.15       3.0  T
   3    -47.1213946  0.144471E-07  0.114E-03    4.15      17.2  T
   4    -47.1213946 -0.204040E-07  0.315E-04    4.15      62.2  T
   5    -47.1213946 -0.127706E-08  0.140E-04    4.15     139.9  T
     SCC iter.                  ...        0 min,  0.007 sec
     gradient                   ...        0 min,  0.004 sec
 * total energy  :   -46.4669073 Eh     change       -0.1138263E-04 Eh
   gradient norm :     0.0004129 Eh/α   predicted    -0.4414338E-05 ( -61.22%)
   displ. norm   :     0.0666566 α      lambda       -0.1251400E-04
   maximum displ.:     0.0542035 α      in ANC's #1, #6, #5, ...

........................................................................
.............................. CYCLE   23 ..............................
........................................................................

 iter      E             dE          RMSdq      gap      omega  full diag
   1    -47.1211766 -0.471212E+02  0.187E-02    4.14       0.0  T
   2    -47.1211766 -0.375156E-07  0.110E-02    4.14       1.8  T
   3    -47.1211766  0.251545E-07  0.142E-03    4.14      13.8  T
   4    -47.1211766 -0.365942E-07  0.327E-04    4.14      59.9  T
   5    -47.1211766 -0.551303E-09  0.177E-04    4.14     110.7  T
     SCC iter.                  ...        0 min,  0.007 sec
     gradient                   ...        0 min,  0.004 sec
 * total energy  :   -46.4669243 Eh     change       -0.1697473E-04 Eh
   gradient norm :     0.0009854 Eh/α   predicted    -0.6271574E-05 ( -63.05%)
   displ. norm   :     0.1140469 α      lambda       -0.1915762E-04
   maximum displ.:     0.0880344 α      in ANC's #1, #6, #2, ...

........................................................................
.............................. CYCLE   24 ..............................
........................................................................

 iter      E             dE          RMSdq      gap      omega  full diag
   1    -47.1209726 -0.471210E+02  0.300E-02    4.13       0.0  T
   2    -47.1209726 -0.594636E-07  0.178E-02    4.13       1.1  T
   3    -47.1209726  0.256213E-07  0.152E-03    4.13      12.9  T
   4    -47.1209727 -0.489322E-07  0.497E-04    4.13      39.4  T
   5    -47.1209727 -0.100387E-08  0.259E-04    4.13      75.8  T
     SCC iter.                  ...        0 min,  0.007 sec
     gradient                   ...        0 min,  0.004 sec
 * total energy  :   -46.4669499 Eh     change       -0.2558979E-04 Eh
   gradient norm :     0.0017022 Eh/α   predicted    -0.9634918E-05 ( -62.35%)
   displ. norm   :     0.1563425 α      lambda       -0.2418619E-04
   maximum displ.:     0.1198796 α      in ANC's #1, #6, #2, ...

........................................................................
.............................. CYCLE   25 ..............................
........................................................................

 iter      E             dE          RMSdq      gap      omega  full diag
   1    -47.1206872 -0.471207E+02  0.408E-02    4.12       0.0  T
   2    -47.1206873 -0.119715E-06  0.242E-02    4.12       1.0  T
   3    -47.1206872  0.132549E-06  0.262E-03    4.12       7.5  T
   4    -47.1206874 -0.184058E-06  0.669E-04    4.12      29.3  T
   5    -47.1206874 -0.169585E-08  0.344E-04    4.12      57.0  T
     SCC iter.                  ...        0 min,  0.007 sec
     gradient                   ...        0 min,  0.004 sec
 * total energy  :   -46.4669808 Eh     change       -0.3089330E-04 Eh
   gradient norm :     0.0024306 Eh/α   predicted    -0.1222553E-04 ( -60.43%)
   displ. norm   :     0.1139016 α      lambda       -0.2577551E-04
   maximum displ.:     0.0890342 α      in ANC's #1, #6, #2, ...

........................................................................
.............................. CYCLE   26 ..............................
........................................................................

 iter      E             dE          RMSdq      gap      omega  full diag
   1    -47.1206561 -0.471207E+02  0.297E-02    4.11       0.0  T
   2    -47.1206562 -0.700892E-07  0.176E-02    4.11       1.1  T
   3    -47.1206560  0.151257E-06  0.261E-03    4.11       7.5  T
   4    -47.1206562 -0.190347E-06  0.469E-04    4.11      41.8  T
   5    -47.1206562 -0.132495E-09  0.228E-04    4.11      85.9  T
     SCC iter.                  ...        0 min,  0.007 sec
     gradient                   ...        0 min,  0.004 sec
 * total energy  :   -46.4670041 Eh     change       -0.2326226E-04 Eh
   gradient norm :     0.0024827 Eh/α   predicted    -0.1305582E-04 ( -43.88%)
   displ. norm   :     0.1683129 α      lambda       -0.3942697E-04
   maximum displ.:     0.1332431 α      in ANC's #1, #6, #2, ...

........................................................................
.............................. CYCLE   27 ..............................
........................................................................

 iter      E             dE          RMSdq      gap      omega  full diag
   1    -47.1206845 -0.471207E+02  0.448E-02    4.09       0.0  T
   2    -47.1206847 -0.200536E-06  0.264E-02    4.09       1.0  T
   3    -47.1206842  0.516051E-06  0.483E-03    4.09       4.1  T
   4    -47.1206848 -0.629025E-06  0.710E-04    4.09      27.6  T
   5    -47.1206848 -0.444032E-09  0.385E-04    4.09      51.0  T
     SCC iter.                  ...        0 min,  0.007 sec
     gradient                   ...        0 min,  0.004 sec
 * total energy  :   -46.4670385 Eh     change       -0.3446319E-04 Eh
   gradient norm :     0.0021835 Eh/α   predicted    -0.2028534E-04 ( -41.14%)
   displ. norm   :     0.2351680 α      lambda       -0.5017745E-04
   maximum displ.:     0.1879391 α      in ANC's #1, #6, #3, ...

........................................................................
.............................. CYCLE   28 ..............................
........................................................................

 iter      E             dE          RMSdq      gap      omega  full diag
   1    -47.1205663 -0.471206E+02  0.638E-02    4.07       0.0  T
   2    -47.1205668 -0.472110E-06  0.376E-02    4.07       1.0  T
   3    -47.1205655  0.127265E-05  0.755E-03    4.07       2.6  T
   4    -47.1205670 -0.153709E-05  0.101E-03    4.07      19.5  T
   5    -47.1205670 -0.169302E-08  0.563E-04    4.07      34.9  T
   6    -47.1205670 -0.212636E-08  0.244E-04    4.07      80.2  T
     SCC iter.                  ...        0 min,  0.008 sec
     gradient                   ...        0 min,  0.004 sec
 * total energy  :   -46.4670798 Eh     change       -0.4131206E-04 Eh
   gradient norm :     0.0018616 Eh/α   predicted    -0.2649053E-04 ( -35.88%)
   displ. norm   :     0.3973651 α      lambda       -0.4709192E-04
   maximum displ.:     0.3207525 α      in ANC's #1, #6, #3, ...

........................................................................
.............................. CYCLE   29 ..............................
........................................................................

 iter      E             dE          RMSdq      gap      omega  full diag
   1    -47.1200132 -0.471200E+02  0.111E-01    4.02       0.0  T
   2    -47.1200146 -0.145093E-05  0.650E-02    4.02       1.0  T
   3    -47.1200106  0.400326E-05  0.133E-02    4.02       1.5  T
   4    -47.1200154 -0.481682E-05  0.172E-03    4.02      11.4  T
   5    -47.1200154 -0.707083E-08  0.986E-04    4.02      19.9  T
   6    -47.1200154 -0.695482E-08  0.445E-04    4.02      44.1  T
     SCC iter.                  ...        0 min,  0.008 sec
     gradient                   ...        0 min,  0.004 sec
 * total energy  :   -46.4671242 Eh     change       -0.4439907E-04 Eh
   gradient norm :     0.0017995 Eh/α   predicted    -0.2519997E-04 ( -43.24%)
   displ. norm   :     0.1379041 α      lambda       -0.1990917E-04
   maximum displ.:     0.1117606 α      in ANC's #1, #3, #6, ...

........................................................................
.............................. CYCLE   30 ..............................
........................................................................

 iter      E             dE          RMSdq      gap      omega  full diag
   1    -47.1219256 -0.471219E+02  0.444E-02    4.01       0.0  T
   2    -47.1219263 -0.721993E-06  0.259E-02    4.01       1.0  T
   3    -47.1219255  0.809533E-06  0.731E-03    4.01       2.7  T
   4    -47.1219265 -0.101198E-05  0.111E-03    4.01      17.6  T
   5    -47.1219265 -0.123784E-07  0.497E-04    4.01      39.5  T
   6    -47.1219265  0.299181E-09  0.269E-04    4.01      72.8  T
     SCC iter.                  ...        0 min,  0.008 sec
     gradient                   ...        0 min,  0.004 sec
 * total energy  :   -46.4671309 Eh     change       -0.6694792E-05 Eh
   gradient norm :     0.0023328 Eh/α   predicted    -0.1003979E-04 (  49.96%)
   displ. norm   :     0.1185086 α      lambda       -0.1398188E-04
   maximum displ.:     0.0934531 α      in ANC's #1, #6, #3, ...

........................................................................
.............................. CYCLE   31 ..............................
........................................................................

 iter      E             dE          RMSdq      gap      omega  full diag
   1    -47.1212927 -0.471213E+02  0.336E-02    4.00       0.0  T
   2    -47.1212930 -0.279801E-06  0.197E-02    4.00       1.0  T
   3    -47.1212927  0.332926E-06  0.430E-03    4.00       4.6  T
   4    -47.1212931 -0.410686E-06  0.731E-04    4.00      26.8  T
   5    -47.1212931 -0.577359E-08  0.347E-04    4.00      56.4  T
     SCC iter.                  ...        0 min,  0.007 sec
     gradient                   ...        0 min,  0.004 sec
 * total energy  :   -46.4671390 Eh     change       -0.8069751E-05 Eh
   gradient norm :     0.0005366 Eh/α   predicted    -0.7090648E-05 ( -12.13%)
   displ. norm   :     0.0049650 α      lambda       -0.5168188E-06
   maximum displ.:     0.0022774 α      in ANC's #6, #17, #5, ...

........................................................................
.............................. CYCLE   32 ..............................
........................................................................

 iter      E             dE          RMSdq      gap      omega  full diag
   1    -47.1211860 -0.471212E+02  0.291E-03    4.00       0.0  T
   2    -47.1211860 -0.565286E-08  0.170E-03    4.00      11.5  T
   3    -47.1211860  0.286994E-08  0.409E-04    4.00      47.9  T
   4    -47.1211860 -0.343658E-08  0.137E-04    4.00     143.1  T
     SCC iter.                  ...        0 min,  0.005 sec
     gradient                   ...        0 min,  0.004 sec
 * total energy  :   -46.4671395 Eh     change       -0.5105099E-06 Eh
   gradient norm :     0.0002028 Eh/α   predicted    -0.2887900E-06 ( -43.43%)
   displ. norm   :     0.0060211 α      lambda       -0.2580964E-06
   maximum displ.:     0.0046843 α      in ANC's #3, #4, #17, ...

   *** GEOMETRY OPTIMIZATION CONVERGED AFTER 32 ITERATIONS ***

------------------------------------------------------------------------
 total energy gain   :        -0.0136435 Eh       -8.5614 kcal/mol
 total RMSD          :         0.6617549 a0        0.3502 Å
 total power (kW/mol):        -1.1194082 (step)  -77.5059 (real)
------------------------------------------------------------------------

 ANCopt (total)                0 d,  0 h,  0 min,  0.462 sec
 optimizer setup                ...        0 min,  0.000 sec (  0.066%)
 model hessian                  ...        0 min,  0.014 sec (  2.948%)
 ANC generation                 ...        0 min,  0.002 sec (  0.377%)
 coordinate transformation      ...        0 min,  0.000 sec (  0.079%)
 single point calculation       ...        0 min,  0.437 sec ( 94.537%)
 optimization log               ...        0 min,  0.005 sec (  0.978%)
 hessian update                 ...        0 min,  0.000 sec (  0.087%)
 rational function              ...        0 min,  0.003 sec (  0.566%)

================
 final structure:
================
26
 xtb: 6.6.1 (8d0f1dd)
C           -1.21565628944877       -1.01467346692015        1.81345358084057
C           -1.62588894221651       -0.37420549673007        0.52338990439201
C           -2.96959635888437       -0.21432332944093        0.21028491126521
C           -3.36723744252467        0.37810409877852       -0.97442606877059
C           -2.42112829882411        0.82896873708709       -1.87740694854215
C           -1.08615196600580        0.66953528131589       -1.56452502199408
F           -0.15869539107468        1.09450028645415       -2.45133820802346
C           -0.66254318448283        0.07155148659100       -0.38345016058039
C            0.78728894902421       -0.06152269732818       -0.12369824960191
C            1.57520966915108        1.08020562001688        0.06815670680752
O            0.95055917523919        2.28296641133517        0.07185204040050
C            2.94434882438667        0.95653579848980        0.27145503243128
C            3.54234450356989       -0.29038142182983        0.28525943359963
C            2.78406401292052       -1.43156403775512        0.09977729617288
C            1.42353052542529       -1.29394516369122       -0.10319556197267
F            0.68603602269707       -2.40822874036577       -0.29971490399536
H           -2.03498672392450       -0.99674749048961        2.52747570757795
H           -0.93687527323379       -2.05398019919736        1.64120784481332
H           -0.35651677117062       -0.50365029048972        2.24414886347104
H           -3.71579751095536       -0.55889982053687        0.91099489957635
H           -4.41731330074306        0.49228223338081       -1.19658662999814
H           -2.69937464726136        1.29523644885822       -2.80897634137891
H            1.59936775809978        2.99171129791955        0.15720234553098
H            3.54158111388230        1.84653208428131        0.41614780791954
H            4.60678272659509       -0.37186132682075        0.44070824498769
H            3.22664781975959       -2.41414630291285        0.10180647507093
 
 Bond Distances (Angstroems)
 ---------------------------
C1-C2=1.4976         C1-H17=1.0869        C1-H18=1.0897        C1-H19=1.0885        C2-C1=1.4976         C2-C3=1.3889         
C2-C8=1.3961         C3-C2=1.3889         C3-C4=1.3830         C3-H20=1.0801        C4-C3=1.3830         C4-C5=1.3834         
C4-H21=1.0794        C5-C4=1.3834         C5-C6=1.3804         C5-H22=1.0783        C6-C5=1.3804         C6-F7=1.3517         
C6-C8=1.3900         F7-C6=1.3517         C8-C2=1.3961         C8-C6=1.3900         C8-C9=1.4789         C9-C8=1.4789         
C9-C10=1.4004        C9-C15=1.3871        C10-C9=1.4004        C10-O11=1.3553       C10-C12=1.3897       O11-C10=1.3553       
O11-H23=0.9647       C12-C10=1.3897       C12-C13=1.3830       C12-H24=1.0815       C13-C12=1.3830       C13-C14=1.3826       
C13-H25=1.0788       C14-C13=1.3826       C14-C15=1.3825       C14-H26=1.0777       C15-C9=1.3871        C15-C14=1.3825       
C15-F16=1.3506       F16-C15=1.3506       H17-C1=1.0869        H18-C1=1.0897        H19-C1=1.0885        H20-C3=1.0801        
H21-C4=1.0794        H22-C5=1.0783        H23-O11=0.9647       H24-C12=1.0815       H25-C13=1.0788       H26-C14=1.0777       
 C  H  Rav=1.0823 sigma=0.0045  Rmin=1.0777  Rmax=1.0897     9
 C  C  Rav=1.4017 sigma=0.0359  Rmin=1.3804  Rmax=1.4976    14
 O  H  Rav=0.9647 sigma=0.0000  Rmin=0.9647  Rmax=0.9647     1
 O  C  Rav=1.3553 sigma=0.0000  Rmin=1.3553  Rmax=1.3553     1
 F  C  Rav=1.3512 sigma=0.0006  Rmin=1.3506  Rmax=1.3517     2
 
 selected bond angles (degree)
 --------------------
H17-C1-C2=110.63               H18-C1-C2=109.99               H18-C1-H17=108.20              H19-C1-C2=110.87               
H19-C1-H17=109.11              H19-C1-H18=107.96              C3-C2-C1=120.56                C8-C2-C1=120.47                
C8-C2-C3=118.97                C4-C3-C2=121.37                H20-C3-C2=119.04               H20-C3-C4=119.59               
C5-C4-C3=120.14                H21-C4-C3=120.09               H21-C4-C5=119.77               C6-C5-C4=118.41                
H22-C5-C4=121.90               H22-C5-C6=119.69               F7-C6-C5=118.59                C8-C6-C5=122.48                
C8-C6-F7=118.92                C6-C8-C2=118.62                C9-C8-C2=122.25                C9-C8-C6=119.13                
C10-C9-C8=120.15               C15-C9-C8=122.15               C15-C9-C10=117.66              O11-C10-C9=117.68              
C12-C10-C9=120.12              C12-C10-O11=122.19             
 
 selected dihedral angles (degree)
 ---------------------------------
C3-C2-C1-H17=341.05           C3-C2-C1-H18=100.53           C3-C2-C1-H19=219.86           C8-C2-C1-H17=161.05           
C8-C2-C1-H18=280.53           C8-C2-C1-H19= 39.86           C4-C3-C2-C1=179.82            C4-C3-C2-C8=359.82            
H20-C3-C2-C1=  0.00           H20-C3-C2-C8=179.99           C5-C4-C3-C2=359.89            C5-C4-C3-H20=179.71           
H21-C4-C3-C2=180.03           H21-C4-C3-H20=359.85          C6-C5-C4-C3=  0.10            C6-C5-C4-H21=179.96           
H22-C5-C4-C3=180.02           H22-C5-C4-H21=359.89          F7-C6-C5-C4=179.23            F7-C6-C5-H22=359.30           
C8-C6-C5-C4=  0.22            C8-C6-C5-H22=180.29           C6-C8-C2-C1=180.48            C6-C8-C2-C3=  0.48            
C9-C8-C2-C1=359.97            C9-C8-C2-C3=179.97            C2-C8-C6-C5=359.49            C2-C8-C6-F7=180.48            
C9-C8-C6-C5=179.98            C9-C8-C6-F7=  0.98            C10-C9-C8-C2=246.51           C10-C9-C8-C6= 65.99           
C15-C9-C8-C2= 68.64           C15-C9-C8-C6=248.12           O11-C10-C9-C8=  3.18          O11-C10-C9-C15=181.14         
C12-C10-C9-C8=181.97          C12-C10-C9-C15=359.93         
           -------------------------------------------------
          |                Final Singlepoint                |
           -------------------------------------------------

          ...................................................
          :                      SETUP                      :
          :.................................................:
          :  # basis functions                  74          :
          :  # atomic orbitals                  74          :
          :  # shells                           42          :
          :  # electrons                        82          :
          :  max. iterations                   250          :
          :  Hamiltonian                  GFN2-xTB          :
          :  restarted?                      false          :
          :  GBSA solvation                  false          :
          :  PC potential                    false          :
          :  electronic temp.          298.1500000     K    :
          :  accuracy                    1.0000000          :
          :  -> integral cutoff          0.2500000E+02      :
          :  -> integral neglect         0.1000000E-07      :
          :  -> SCF convergence          0.1000000E-05 Eh   :
          :  -> wf. convergence          0.1000000E-03 e    :
          :  Broyden damping             0.4000000          :
          ...................................................

 iter      E             dE          RMSdq      gap      omega  full diag
   1    -47.1211860 -0.471212E+02  0.515E-05    4.00       0.0  T
   2    -47.1211860 -0.331113E-11  0.324E-05    4.00     605.1  T
   3    -47.1211860  0.370903E-11  0.209E-05    4.00     940.2  T

   *** convergence criteria satisfied after 3 iterations ***

         #    Occupation            Energy/Eh            Energy/eV
      -------------------------------------------------------------
         1        2.0000           -0.8145852             -22.1660
       ...           ...                  ...                  ...
        35        2.0000           -0.4503701             -12.2552
        36        2.0000           -0.4429612             -12.0536
        37        2.0000           -0.4253506             -11.5744
        38        2.0000           -0.4129613             -11.2372
        39        2.0000           -0.4018238             -10.9342
        40        2.0000           -0.3980471             -10.8314
        41        2.0000           -0.3928584             -10.6902 (HOMO)
        42                         -0.2458639              -6.6903 (LUMO)
        43                         -0.2291743              -6.2362
        44                         -0.2245936              -6.1115
        45                         -0.2206013              -6.0029
        46                         -0.1091927              -2.9713
       ...                                ...                  ...
        74                          0.6742772              18.3480
      -------------------------------------------------------------
                  HL-Gap            0.1469945 Eh            3.9999 eV
             Fermi-level           -0.3193612 Eh           -8.6903 eV

 SCC (total)                   0 d,  0 h,  0 min,  0.011 sec
 SCC setup                      ...        0 min,  0.000 sec (  1.059%)
 Dispersion                     ...        0 min,  0.000 sec (  1.010%)
 classical contributions        ...        0 min,  0.000 sec (  0.198%)
 integral evaluation            ...        0 min,  0.002 sec ( 14.926%)
 iterations                     ...        0 min,  0.004 sec ( 40.016%)
 molecular gradient             ...        0 min,  0.004 sec ( 41.058%)
 printout                       ...        0 min,  0.000 sec (  1.530%)

         :::::::::::::::::::::::::::::::::::::::::::::::::::::
         ::                     SUMMARY                     ::
         :::::::::::::::::::::::::::::::::::::::::::::::::::::
         :: total energy             -46.467139508146 Eh    ::
         :: gradient norm              0.000202798871 Eh/a0 ::
         :: HOMO-LUMO gap              3.999924216925 eV    ::
         ::.................................................::
         :: SCC energy               -47.121185990359 Eh    ::
         :: -> isotropic ES            0.045212658776 Eh    ::
         :: -> anisotropic ES          0.002443742535 Eh    ::
         :: -> anisotropic XC          0.007528307312 Eh    ::
         :: -> dispersion             -0.027410354069 Eh    ::
         :: repulsion energy           0.653814432609 Eh    ::
         :: add. restraining           0.000000000000 Eh    ::
         :: total charge               0.000000000000 e     ::
         :::::::::::::::::::::::::::::::::::::::::::::::::::::

           -------------------------------------------------
          |                Property Printout                |
           -------------------------------------------------

    * Orbital Energies and Occupations

         #    Occupation            Energy/Eh            Energy/eV
      -------------------------------------------------------------
         1        2.0000           -0.8145852             -22.1660
       ...           ...                  ...                  ...
        29        2.0000           -0.4790723             -13.0362
        30        2.0000           -0.4740955             -12.9008
        31        2.0000           -0.4661971             -12.6859
        32        2.0000           -0.4638166             -12.6211
        33        2.0000           -0.4582091             -12.4685
        34        2.0000           -0.4564262             -12.4200
        35        2.0000           -0.4503701             -12.2552
        36        2.0000           -0.4429612             -12.0536
        37        2.0000           -0.4253506             -11.5744
        38        2.0000           -0.4129613             -11.2372
        39        2.0000           -0.4018238             -10.9342
        40        2.0000           -0.3980471             -10.8314
        41        2.0000           -0.3928584             -10.6902 (HOMO)
        42                         -0.2458639              -6.6903 (LUMO)
        43                         -0.2291743              -6.2362
        44                         -0.2245936              -6.1115
        45                         -0.2206013              -6.0029
        46                         -0.1091927              -2.9713
        47                         -0.0937460              -2.5510
        48                          0.0345614               0.9405
        49                          0.0544663               1.4821
        50                          0.0769527               2.0940
        51                          0.0992914               2.7019
        52                          0.1227592               3.3404
       ...                                ...                  ...
        74                          0.6742772              18.3480
      -------------------------------------------------------------
                  HL-Gap            0.1469945 Eh            3.9999 eV
             Fermi-level           -0.3193612 Eh           -8.6903 eV

     #   Z          covCN         q      C6AA      α(0)
     1   6 C        3.758    -0.109    22.635     6.783
     2   6 C        2.971     0.022    27.512     8.604
     3   6 C        2.924    -0.045    29.127     8.850
     4   6 C        2.923    -0.032    28.788     8.799
     5   6 C        2.917    -0.054    29.340     8.882
     6   6 C        2.791     0.169    24.352     8.084
     7   9 F        0.787    -0.229    11.534     4.012
     8   6 C        2.979     0.003    27.943     8.671
     9   6 C        2.974    -0.014    28.346     8.733
    10   6 C        2.853     0.149    24.762     8.156
    11   8 O        1.660    -0.376    20.396     6.097
    12   6 C        2.916    -0.077    29.925     8.970
    13   6 C        2.924    -0.031    28.774     8.797
    14   6 C        2.916    -0.062    29.551     8.914
    15   6 C        2.790     0.165    24.433     8.097
    16   9 F        0.787    -0.224    11.487     4.004
    17   1 H        0.925     0.045     2.379     2.412
    18   1 H        0.925     0.064     2.155     2.296
    19   1 H        0.925     0.045     2.378     2.412
    20   1 H        0.926     0.042     2.425     2.435
    21   1 H        0.926     0.043     2.413     2.429
    22   1 H        0.926     0.055     2.257     2.349
    23   1 H        0.805     0.305     0.705     1.319
    24   1 H        0.925     0.038     2.475     2.460
    25   1 H        0.926     0.048     2.346     2.395
    26   1 H        0.926     0.059     2.206     2.323

 Mol. C6AA /au·bohr⁶  :       8741.330495
 Mol. C8AA /au·bohr⁸  :     214353.379361
 Mol. α(0) /au        :        147.282384


Wiberg/Mayer (AO) data.
largest (>0.10) Wiberg bond orders for each atom

 ---------------------------------------------------------------------------
     #   Z sym  total        # sym  WBO       # sym  WBO       # sym  WBO
 ---------------------------------------------------------------------------
     1   6 C    3.996 --     2 C    1.029    17 H    0.983    19 H    0.977
                            18 H    0.963
     2   6 C    3.988 --     3 C    1.412     8 C    1.373     1 C    1.029
                             5 C    0.105
     3   6 C    3.990 --     4 C    1.444     2 C    1.412    20 H    0.968
     4   6 C    3.990 --     3 C    1.444     5 C    1.433    21 H    0.970
                             8 C    0.105
     5   6 C    3.988 --     4 C    1.433     6 C    1.403    22 H    0.967
                             2 C    0.105
     6   6 C    3.885 --     5 C    1.403     8 C    1.363     7 F    0.956
     7   9 F    1.086 --     6 C    0.956
     8   6 C    3.988 --     2 C    1.373     6 C    1.363     9 C    1.017
                             4 C    0.105
     9   6 C    3.986 --    15 C    1.376    10 C    1.322     8 C    1.017
                            13 C    0.103
    10   6 C    3.942 --    12 C    1.374     9 C    1.322    11 O    1.088
    11   8 O    2.141 --    10 C    1.088    23 H    0.885
    12   6 C    3.985 --    13 C    1.443    10 C    1.374    24 H    0.965
    13   6 C    3.989 --    12 C    1.443    14 C    1.435    25 H    0.970
                             9 C    0.103
    14   6 C    3.987 --    13 C    1.435    15 C    1.392    26 H    0.967
    15   6 C    3.886 --    14 C    1.392     9 C    1.376    16 F    0.959
    16   9 F    1.090 --    15 C    0.959
    17   1 H    0.998 --     1 C    0.983
    18   1 H    0.996 --     1 C    0.963
    19   1 H    0.998 --     1 C    0.977
    20   1 H    0.998 --     3 C    0.968
    21   1 H    0.998 --     4 C    0.970
    22   1 H    0.996 --     5 C    0.967
    23   1 H    0.906 --    11 O    0.885
    24   1 H    0.998 --    12 C    0.965
    25   1 H    0.997 --    13 C    0.970
    26   1 H    0.996 --    14 C    0.967
 ---------------------------------------------------------------------------

Topologies differ in total number of bonds
Writing topology from bond orders to xtbtopo.mol

molecular dipole:
                 x           y           z       tot (Debye)
 q only:        0.246       0.500       0.897
   full:        0.470       0.643       0.919       3.092
molecular quadrupole (traceless):
                xx          xy          yy          xz          yz          zz
 q only:        9.614       3.602      -3.169       2.071       0.289      -6.446
  q+dip:       13.293       4.431      -4.263       3.620      -0.687      -9.030
   full:       10.900       4.799      -3.369       2.900       0.439      -7.531

           -------------------------------------------------
          |                Geometry Summary                 |
           -------------------------------------------------

      molecular mass/u    :      220.2151854
   center of mass at/Å    :        0.0932315       0.0133307      -0.3075384
  moments of inertia/u·Å² :        0.5680689E+03   0.1108833E+04   0.1323168E+04
rotational constants/cm⁻¹ :        0.2967533E-01   0.1520304E-01   0.1274036E-01

 * 23 selected distances

     #   Z          #   Z                                           value/Å
     2   6 C        3   6 C                                       1.3889374
     3   6 C        4   6 C                                       1.3829784
     4   6 C        5   6 C                                       1.3833930
     5   6 C        6   6 C                                       1.3803899
     2   6 C        8   6 C                                       1.3960994
     6   6 C        8   6 C                                       1.3899522
     9   6 C       10   6 C                                       1.4004183 (max)
    10   6 C       11   8 O                                       1.3552991
    10   6 C       12   6 C                                       1.3896643
    12   6 C       13   6 C                                       1.3829650
    13   6 C       14   6 C                                       1.3826392
     9   6 C       15   6 C                                       1.3871154
    14   6 C       15   6 C                                       1.3824575
     1   6 C       17   1 H                                       1.0869460
     1   6 C       18   1 H                                       1.0897459
     1   6 C       19   1 H                                       1.0884687
     3   6 C       20   1 H                                       1.0800666
     4   6 C       21   1 H                                       1.0793755
     5   6 C       22   1 H                                       1.0782617
    11   8 O       23   1 H                                       0.9646537 (min)
    12   6 C       24   1 H                                       1.0815341
    13   6 C       25   1 H                                       1.0788106
    14   6 C       26   1 H                                       1.0776607

 * 4 distinct bonds (by element types)

   Z      Z             #   av. dist./Å        max./Å        min./Å
   1 H    6 C           9     1.0823189     1.0897459     1.0776607
   6 C    6 C          12     1.3872508     1.4004183     1.3803899
   1 H    8 O           1     0.9646537     0.9646537     0.9646537
   6 C    8 O           1     1.3552991     1.3552991     1.3552991


optimized geometry written to: xtbopt.xyz


           -------------------------------------------------
          | TOTAL ENERGY              -46.467139508146 Eh   |
          | GRADIENT NORM               0.000202798871 Eh/α |
          | HOMO-LUMO GAP               3.999924216925 eV   |
           -------------------------------------------------

------------------------------------------------------------------------
 * finished run on 2026/07/23 at 12:55:34.558     
------------------------------------------------------------------------
 total:
 * wall-time:     0 d,  0 h,  0 min,  0.525 sec
 *  cpu-time:     0 d,  0 h,  0 min,  2.057 sec
 * ratio c/w:     3.918 speedup
 SCF:
 * wall-time:     0 d,  0 h,  0 min,  0.027 sec
 *  cpu-time:     0 d,  0 h,  0 min,  0.104 sec
 * ratio c/w:     3.823 speedup
 ANC optimizer:
 * wall-time:     0 d,  0 h,  0 min,  0.477 sec
 *  cpu-time:     0 d,  0 h,  0 min,  1.895 sec
 * ratio c/w:     3.977 speedup

