26
 energy: -46.467139508146 gnorm: 0.000202798871 xtb: 6.6.1 (8d0f1dd)
C           -1.21565628944877       -1.01467346692015        1.81345358084057
C           -1.62588894221651       -0.37420549673007        0.52338990439201
C           -2.96959635888437       -0.21432332944093        0.21028491126521
C           -3.36723744252467        0.37810409877852       -0.97442606877059
C           -2.42112829882411        0.82896873708709       -1.87740694854215
C           -1.08615196600580        0.66953528131589       -1.56452502199408
F           -0.15869539107468        1.09450028645415       -2.45133820802346
C           -0.66254318448283        0.07155148659100       -0.38345016058039
C            0.78728894902421       -0.06152269732818       -0.12369824960191
C            1.57520966915108        1.08020562001688        0.06815670680752
O            0.95055917523919        2.28296641133517        0.07185204040050
C            2.94434882438667        0.95653579848980        0.27145503243128
C            3.54234450356989       -0.29038142182983        0.28525943359963
C            2.78406401292052       -1.43156403775512        0.09977729617288
C            1.42353052542529       -1.29394516369122       -0.10319556197267
F            0.68603602269707       -2.40822874036577       -0.29971490399536
H           -2.03498672392450       -0.99674749048961        2.52747570757795
H           -0.93687527323379       -2.05398019919736        1.64120784481332
H           -0.35651677117062       -0.50365029048972        2.24414886347104
H           -3.71579751095536       -0.55889982053687        0.91099489957635
H           -4.41731330074306        0.49228223338081       -1.19658662999814
H           -2.69937464726136        1.29523644885822       -2.80897634137891
H            1.59936775809978        2.99171129791955        0.15720234553098
H            3.54158111388230        1.84653208428131        0.41614780791954
H            4.60678272659509       -0.37186132682075        0.44070824498769
H            3.22664781975959       -2.41414630291285        0.10180647507093
