%mem=12000MB
%nprocshared=8
# opt=modredundant bp86 empiricaldispersion=GD3BJ def2svp  IOP(1/8=2) nosymm

example

0 1
C -1.2523890000 2.6374280000 -0.5587070000
C -1.5729720000 1.2390210000 -0.0597840000
C -2.9165800000 1.1135190000 0.2927130000
C -3.5564460000 -0.0955330000 0.4610900000
C -2.8609630000 -1.2268400000 0.0877060000
C -1.5175220000 -1.1167930000 -0.2051530000
F -0.9979700000 -2.2644070000 -0.7394910000
C -0.7499320000 0.0659180000 -0.0676980000
C 0.7489540000 0.0072870000 0.0283370000
C 1.5019570000 -1.1989230000 0.1810550000
O 1.0656000000 -2.4205620000 0.5832110000
C 2.8871550000 -1.1953470000 -0.0092210000
C 3.6017470000 -0.0377280000 -0.1981000000
C 2.9294060000 1.1650600000 -0.0845190000
C 1.5582260000 1.1630070000 0.0593090000
F 1.0386750000 2.3853470000 0.3220900000
H -0.9900730000 3.3179270000 0.2464670000
H -0.4574720000 2.6299160000 -1.2970260000
H -2.1497190000 3.0209940000 -1.0406970000
H -3.4907840000 2.0222580000 0.3987470000
H -4.5889340000 -0.1482090000 0.7659990000
H -3.3331130000 -2.1912720000 -0.0102120000
H 0.1309060000 -2.4317670000 0.8097320000
H 3.3764420000 -2.1547440000 0.0434930000
H 4.6675740000 -0.0637450000 -0.3563890000
H 3.4452020000 2.1115820000 -0.0805950000

1 F
7 F
8 F
9 F
11 F
16 F

