26
 energy: -46.468085875633 gnorm: 0.000448691918 xtb: 6.6.1 (8d0f1dd)
C            0.94112329179734        2.00451083363446        0.74284681834683
C            1.50091507148512        0.70809941043091        0.24724445484914
C            2.87197104676938        0.52884478007396        0.11931123325194
C            3.40420540596773       -0.66403505816133       -0.33714863497193
C            2.56867416376200       -1.70988461461797       -0.68538220597459
C            1.20524763985062       -1.52965791710877       -0.55817069760385
F            0.38164526920870       -2.54781238961278       -0.90223822717280
C            0.64481817825422       -0.34371589598074       -0.09423599077395
C           -0.82685444873930       -0.22020467572669        0.03935292887602
C           -1.65814815808389       -0.16016012353782       -1.08486400944508
O           -1.16199679865853       -0.18441383686632       -2.34390278270560
C           -3.03626304982934       -0.04050609760837       -0.92717491245901
C           -3.59478044420792        0.00671286245346        0.33382082579850
C           -2.79295191946796       -0.06234913634774        1.46114858172998
C           -1.42803379927495       -0.17304719939949        1.29122917820507
F           -0.64000611439540       -0.24140059007373        2.38784418667219
H            0.06578045284101        2.29723605633324        0.16504307804253
H            0.63458121230628        1.90303125581645        1.78342681404033
H            1.68746980501731        2.79223101590731        0.68351139947604
H            3.53315983376271        1.34017846685139        0.38474159647822
H            4.47326918625174       -0.78117965875314       -0.42393238946314
H            2.95077526159779       -2.65207801587828       -1.04370408878953
H           -0.20802312421674       -0.33944695481806       -2.32403895531537
H           -3.64645948252067        0.00975393197012       -1.81402605022860
H           -4.66401938509637        0.09441695167874        0.44324778689205
H           -3.20609909438062       -0.03512340065906        2.45604906224409
