      -----------------------------------------------------------      
     |                   =====================                   |     
     |                           x T B                           |     
     |                   =====================                   |     
     |                         S. Grimme                         |     
     |          Mulliken Center for Theoretical Chemistry        |     
     |                    University of Bonn                     |     
      -----------------------------------------------------------      

   * xtb version 6.6.1 (8d0f1dd) compiled by 'stahn@M-Bot' on 2023-08-01

   xtb is free software: you can redistribute it and/or modify it under
   the terms of the GNU Lesser General Public License as published by
   the Free Software Foundation, either version 3 of the License, or
   (at your option) any later version.
   
   xtb is distributed in the hope that it will be useful,
   but WITHOUT ANY WARRANTY; without even the implied warranty of
   MERCHANTABILITY or FITNESS FOR A PARTICULAR PURPOSE.  See the
   GNU Lesser General Public License for more details.
   
   Cite this work as:
   * C. Bannwarth, E. Caldeweyher, S. Ehlert, A. Hansen, P. Pracht,
     J. Seibert, S. Spicher, S. Grimme, WIREs Comput. Mol. Sci., 2020, 11,
     e01493. DOI: 10.1002/wcms.1493
   
   for GFN2-xTB:
   * C. Bannwarth, S. Ehlert and S. Grimme., J. Chem. Theory Comput., 2019,
     15, 1652-1671. DOI: 10.1021/acs.jctc.8b01176
   for GFN1-xTB:
   * S. Grimme, C. Bannwarth, P. Shushkov, J. Chem. Theory Comput., 2017,
     13, 1989-2009. DOI: 10.1021/acs.jctc.7b00118
   for GFN0-xTB:
   * P. Pracht, E. Caldeweyher, S. Ehlert, S. Grimme, ChemRxiv, 2019, preprint.
     DOI: 10.26434/chemrxiv.8326202.v1
   for GFN-FF:
   * S. Spicher and S. Grimme, Angew. Chem. Int. Ed., 2020, 59, 15665-15673.
     DOI: 10.1002/anie.202004239
   
   for ALPB and GBSA implicit solvation:
   * S. Ehlert, M. Stahn, S. Spicher, S. Grimme, J. Chem. Theory Comput.,
     2021, 17, 4250-4261. DOI: 10.1021/acs.jctc.1c00471
   
   for DFT-D4:
   * E. Caldeweyher, C. Bannwarth and S. Grimme, J. Chem. Phys., 2017,
     147, 034112. DOI: 10.1063/1.4993215
   * E. Caldeweyher, S. Ehlert, A. Hansen, H. Neugebauer, S. Spicher,
     C. Bannwarth and S. Grimme, J. Chem. Phys., 2019, 150, 154122.
     DOI: 10.1063/1.5090222
   * E. Caldeweyher, J.-M. Mewes, S. Ehlert and S. Grimme, Phys. Chem. Chem. Phys.
     2020, 22, 8499-8512. DOI: 10.1039/D0CP00502A
   
   for sTDA-xTB:
   * S. Grimme and C. Bannwarth, J. Chem. Phys., 2016, 145, 054103.
     DOI: 10.1063/1.4959605
   
   in the mass-spec context:
   * V. Asgeirsson, C. Bauer and S. Grimme, Chem. Sci., 2017, 8, 4879.
     DOI: 10.1039/c7sc00601b
   * J. Koopman and S. Grimme, ACS Omega 2019, 4, 12, 15120-15133.
     DOI: 10.1021/acsomega.9b02011
   
   for metadynamics refer to:
   * S. Grimme, J. Chem. Theory Comput., 2019, 155, 2847-2862
     DOI: 10.1021/acs.jctc.9b00143
   
   for SPH calculations refer to:
   * S. Spicher and S. Grimme, J. Chem. Theory Comput., 2021, 17, 1701-1714
     DOI: 10.1021/acs.jctc.0c01306
   
   with help from (in alphabetical order)
   P. Atkinson, C. Bannwarth, F. Bohle, G. Brandenburg, E. Caldeweyher
   M. Checinski, S. Dohm, S. Ehlert, S. Ehrlich, I. Gerasimov, C. Hölzer
   A. Katbashev, J. Koopman, C. Lavigne, S. Lehtola, F. März, M. Müller,
   F. Musil, H. Neugebauer, J. Pisarek, C. Plett, P. Pracht, F. Pultar,
   J. Seibert, P. Shushkov, S. Spicher, M. Stahn, M. Steiner, T. Strunk,
   J. Stückrath, T. Rose, and J. Unsleber
   
 * started run on 2025/08/28 at 10:02:09.265     

           -------------------------------------------------
          |                Calculation Setup                |
           -------------------------------------------------

          program call               : /path/to/xtb /path/to/9.xyz --opt --etemp 298.15 --chrg 0 --uhf 0 -P 4
          hostname                   : semlscpn101
          coordinate file            : /path/to/9.xyz
          omp threads                :                     4

   ID    Z sym.   atoms
    1    6 C      1-6, 8-10, 12-15
    2    9 F      7, 16
    3    8 O      11
    4    1 H      17-26

           -------------------------------------------------
          |                 G F N 2 - x T B                 |
           -------------------------------------------------

        Reference                      10.1021/acs.jctc.8b01176
      * Hamiltonian:
        H0-scaling (s, p, d)           1.850000    2.230000    2.230000
        zeta-weighting                 0.500000
      * Dispersion:
        s8                             2.700000
        a1                             0.520000
        a2                             5.000000
        s9                             5.000000
      * Repulsion:
        kExp                           1.500000    1.000000
        rExp                           1.000000
      * Coulomb:
        alpha                          2.000000
        third order                    shell-resolved
        anisotropic                    true
        a3                             3.000000
        a5                             4.000000
        cn-shift                       1.200000
        cn-exp                         4.000000
        max-rad                        5.000000


          ...................................................
          :                      SETUP                      :
          :.................................................:
          :  # basis functions                  74          :
          :  # atomic orbitals                  74          :
          :  # shells                           42          :
          :  # electrons                        82          :
          :  max. iterations                   250          :
          :  Hamiltonian                  GFN2-xTB          :
          :  restarted?                      false          :
          :  GBSA solvation                  false          :
          :  PC potential                    false          :
          :  electronic temp.          298.1500000     K    :
          :  accuracy                    1.0000000          :
          :  -> integral cutoff          0.2500000E+02      :
          :  -> integral neglect         0.1000000E-07      :
          :  -> SCF convergence          0.1000000E-05 Eh   :
          :  -> wf. convergence          0.1000000E-03 e    :
          :  Broyden damping             0.4000000          :
          ...................................................

 iter      E             dE          RMSdq      gap      omega  full diag
   1    -47.0530916 -0.470531E+02  0.460E+00    4.46       0.0  T
   2    -47.0920941 -0.390025E-01  0.280E+00    4.37       1.0  T
   3    -47.0846170  0.747711E-02  0.147E+00    4.34       1.0  T
   4    -47.1048930 -0.202761E-01  0.237E-01    4.35       1.0  T
   5    -47.1051681 -0.275004E-03  0.929E-02    4.33       1.0  T
   6    -47.1052956 -0.127503E-03  0.466E-02    4.33       1.0  T
   7    -47.1053119 -0.163724E-04  0.180E-02    4.33       1.1  T
   8    -47.1053148 -0.284489E-05  0.781E-03    4.34       2.5  T
   9    -47.1053153 -0.540014E-06  0.183E-03    4.34      10.7  T
  10    -47.1053153 -0.166077E-07  0.751E-04    4.34      26.1  T
  11    -47.1053153 -0.930761E-09  0.400E-04    4.34      49.0  T

   *** convergence criteria satisfied after 11 iterations ***

         #    Occupation            Energy/Eh            Energy/eV
      -------------------------------------------------------------
         1        2.0000           -0.8189735             -22.2854
       ...           ...                  ...                  ...
        35        2.0000           -0.4506723             -12.2634
        36        2.0000           -0.4452030             -12.1146
        37        2.0000           -0.4265236             -11.6063
        38        2.0000           -0.4121349             -11.2148
        39        2.0000           -0.4056934             -11.0395
        40        2.0000           -0.4013499             -10.9213
        41        2.0000           -0.3981979             -10.8355 (HOMO)
        42                         -0.2388524              -6.4995 (LUMO)
        43                         -0.2344119              -6.3787
        44                         -0.2290031              -6.2315
        45                         -0.2247063              -6.1146
        46                         -0.1073353              -2.9207
       ...                                ...                  ...
        74                          0.6982692              19.0009
      -------------------------------------------------------------
                  HL-Gap            0.1593455 Eh            4.3360 eV
             Fermi-level           -0.3185252 Eh           -8.6675 eV

 SCC (total)                   0 d,  0 h,  0 min,  0.171 sec
 SCC setup                      ...        0 min,  0.032 sec ( 18.758%)
 Dispersion                     ...        0 min,  0.000 sec (  0.175%)
 classical contributions        ...        0 min,  0.004 sec (  2.306%)
 integral evaluation            ...        0 min,  0.027 sec ( 15.844%)
 iterations                     ...        0 min,  0.085 sec ( 49.728%)
 molecular gradient             ...        0 min,  0.022 sec ( 13.015%)
 printout                       ...        0 min,  0.000 sec (  0.162%)

         :::::::::::::::::::::::::::::::::::::::::::::::::::::
         ::                     SUMMARY                     ::
         :::::::::::::::::::::::::::::::::::::::::::::::::::::
         :: total energy             -46.449066259060 Eh    ::
         :: gradient norm              0.096379361974 Eh/a0 ::
         :: HOMO-LUMO gap              4.336010485498 eV    ::
         ::.................................................::
         :: SCC energy               -47.105315329526 Eh    ::
         :: -> isotropic ES            0.048229328804 Eh    ::
         :: -> anisotropic ES          0.002559909420 Eh    ::
         :: -> anisotropic XC          0.008148959740 Eh    ::
         :: -> dispersion             -0.027564365082 Eh    ::
         :: repulsion energy           0.655999101089 Eh    ::
         :: add. restraining           0.000000000000 Eh    ::
         :: total charge               0.000000000000 e     ::
         :::::::::::::::::::::::::::::::::::::::::::::::::::::

      ----------------------------------------------------------- 
     |                   =====================                   |
     |                        A N C O P T                        |
     |                   =====================                   |
     |               Approximate Normal Coordinate               |
     |                Rational Function Optimizer                |
      ----------------------------------------------------------- 

          ...................................................
          :                      SETUP                      :
          :.................................................:
          :   optimization level            normal          :
          :   max. optcycles                   200          :
          :   ANC micro-cycles                  20          :
          :   degrees of freedom                72          :
          :.................................................:
          :   RF solver                   davidson          :
          :   write xtbopt.log                true          :
          :   linear?                        false          :
          :   energy convergence         0.5000000E-05 Eh   :
          :   grad. convergence          0.1000000E-02 Eh/α :
          :   maxmium RF displ.          1.0000000          :
          :   Hlow (freq-cutoff)         0.1000000E-01      :
          :   Hmax (freq-cutoff)         5.0000000          :
          :   S6 in model hess.         20.0000000          :
          ...................................................

generating ANC from model Hessian ...
Using Lindh-Hessian (1995)
 Shifting diagonal of input Hessian by   8.633738234397720E-003
 Lowest  eigenvalues of input Hessian
    0.000000    0.000000    0.000000    0.000000    0.000000    0.000000
    0.010000    0.010534    0.010706    0.014231    0.015255    0.017036
    0.020913    0.022445    0.025649    0.029066    0.030724    0.031122
 Highest eigenvalues
    1.925017    1.947133    2.061583    2.119781    2.129932    2.184384
 

........................................................................
.............................. CYCLE    1 ..............................
........................................................................

 iter      E             dE          RMSdq      gap      omega  full diag
   1    -47.1053153 -0.471053E+02  0.116E-04    4.34       0.0  T
   2    -47.1053153 -0.406786E-10  0.709E-05    4.34     276.7  T
   3    -47.1053153 -0.627409E-11  0.460E-05    4.34     426.2  T
     SCC iter.                  ...        0 min,  0.010 sec
     gradient                   ...        0 min,  0.013 sec
 * total energy  :   -46.4490663 Eh     change       -0.2305029E-08 Eh
   gradient norm :     0.0963788 Eh/α   predicted     0.0000000E+00 (-100.00%)
   displ. norm   :     0.2743688 α      lambda       -0.1611396E-01
   maximum displ.:     0.0996270 α      in ANC's #28, #40, #10, ...

........................................................................
.............................. CYCLE    2 ..............................
........................................................................

 iter      E             dE          RMSdq      gap      omega  full diag
   1    -47.1128685 -0.471129E+02  0.286E-01    4.28       0.0  T
   2    -47.1130479 -0.179316E-03  0.178E-01    4.33       1.0  T
   3    -47.1130011  0.467422E-04  0.853E-02    4.30       1.0  T
   4    -47.1130870 -0.859042E-04  0.209E-02    4.31       1.0  T
   5    -47.1130932 -0.619012E-05  0.650E-03    4.32       3.0  T
   6    -47.1130941 -0.855006E-06  0.272E-03    4.32       7.2  T
   7    -47.1130941 -0.652649E-07  0.123E-03    4.32      15.9  T
   8    -47.1130941 -0.671488E-08  0.493E-04    4.32      39.8  T
   9    -47.1130941 -0.260778E-08  0.138E-04    4.32     142.6  T
     SCC iter.                  ...        0 min,  0.031 sec
     gradient                   ...        0 min,  0.013 sec
 * total energy  :   -46.4602288 Eh     change       -0.1116249E-01 Eh
   gradient norm :     0.0420845 Eh/α   predicted    -0.8664434E-02 ( -22.38%)
   displ. norm   :     0.2685339 α      lambda       -0.5246938E-02
   maximum displ.:     0.1249819 α      in ANC's #10, #14, #12, ...

........................................................................
.............................. CYCLE    3 ..............................
........................................................................

 iter      E             dE          RMSdq      gap      omega  full diag
   1    -47.1156418 -0.471156E+02  0.208E-01    4.27       0.0  T
   2    -47.1157947 -0.152947E-03  0.126E-01    4.32       1.0  T
   3    -47.1157966 -0.183080E-05  0.685E-02    4.31       1.0  T
   4    -47.1158273 -0.307190E-04  0.176E-02    4.31       1.1  T
   5    -47.1158298 -0.248729E-05  0.543E-03    4.31       3.6  T
   6    -47.1158303 -0.558471E-06  0.231E-03    4.31       8.5  T
   7    -47.1158304 -0.447578E-07  0.116E-03    4.31      16.9  T
   8    -47.1158304 -0.707838E-08  0.466E-04    4.31      42.0  T
   9    -47.1158304 -0.283418E-08  0.972E-05    4.31     201.8  T
     SCC iter.                  ...        0 min,  0.031 sec
     gradient                   ...        0 min,  0.015 sec
 * total energy  :   -46.4634637 Eh     change       -0.3234955E-02 Eh
   gradient norm :     0.0177389 Eh/α   predicted    -0.2813521E-02 ( -13.03%)
   displ. norm   :     0.2022489 α      lambda       -0.1138302E-02
   maximum displ.:     0.1035390 α      in ANC's #10, #5, #7, ...

........................................................................
.............................. CYCLE    4 ..............................
........................................................................

 iter      E             dE          RMSdq      gap      omega  full diag
   1    -47.1149046 -0.471149E+02  0.956E-02    4.29       0.0  T
   2    -47.1149309 -0.262872E-04  0.555E-02    4.31       1.0  T
   3    -47.1149301  0.824585E-06  0.309E-02    4.31       1.0  T
   4    -47.1149375 -0.747372E-05  0.670E-03    4.31       2.9  T
   5    -47.1149378 -0.277525E-06  0.211E-03    4.31       9.3  T
   6    -47.1149379 -0.412412E-07  0.107E-03    4.31      18.3  T
   7    -47.1149379 -0.366081E-08  0.431E-04    4.31      45.5  T
   8    -47.1149379 -0.299067E-09  0.119E-04    4.31     165.1  T
     SCC iter.                  ...        0 min,  0.028 sec
     gradient                   ...        0 min,  0.013 sec
 * total energy  :   -46.4642325 Eh     change       -0.7687479E-03 Eh
   gradient norm :     0.0223944 Eh/α   predicted    -0.5924387E-03 ( -22.93%)
   displ. norm   :     0.1751690 α      lambda       -0.9114032E-03
   maximum displ.:     0.0884292 α      in ANC's #5, #7, #10, ...

........................................................................
.............................. CYCLE    5 ..............................
........................................................................

 iter      E             dE          RMSdq      gap      omega  full diag
   1    -47.1170451 -0.471170E+02  0.753E-02    4.31       0.0  T
   2    -47.1170513 -0.622635E-05  0.449E-02    4.32       1.0  T
   3    -47.1170474  0.393123E-05  0.221E-02    4.31       1.0  T
   4    -47.1170540 -0.668338E-05  0.301E-03    4.32       6.5  T
   5    -47.1170541 -0.505161E-07  0.153E-03    4.32      12.8  T
   6    -47.1170541 -0.210961E-07  0.698E-04    4.32      28.1  T
   7    -47.1170541 -0.641755E-09  0.271E-04    4.32      72.4  T
     SCC iter.                  ...        0 min,  0.024 sec
     gradient                   ...        0 min,  0.015 sec
 * total energy  :   -46.4648304 Eh     change       -0.5979467E-03 Eh
   gradient norm :     0.0142586 Eh/α   predicted    -0.4697330E-03 ( -21.44%)
   displ. norm   :     0.1763548 α      lambda       -0.5402560E-03
   maximum displ.:     0.0950747 α      in ANC's #5, #3, #10, ...

........................................................................
.............................. CYCLE    6 ..............................
........................................................................

 iter      E             dE          RMSdq      gap      omega  full diag
   1    -47.1178455 -0.471178E+02  0.666E-02    4.32       0.0  T
   2    -47.1178467 -0.123309E-05  0.403E-02    4.32       1.0  T
   3    -47.1178429  0.380477E-05  0.124E-02    4.32       1.6  T
   4    -47.1178476 -0.463983E-05  0.222E-03    4.32       8.8  T
   5    -47.1178476 -0.251054E-07  0.135E-03    4.32      14.6  T
   6    -47.1178476 -0.154249E-07  0.371E-04    4.32      52.9  T
   7    -47.1178476 -0.564953E-09  0.156E-04    4.32     126.0  T
     SCC iter.                  ...        0 min,  0.024 sec
     gradient                   ...        0 min,  0.015 sec
 * total energy  :   -46.4651731 Eh     change       -0.3427367E-03 Eh
   gradient norm :     0.0172911 Eh/α   predicted    -0.2785404E-03 ( -18.73%)
   displ. norm   :     0.1469823 α      lambda       -0.5804966E-03
   maximum displ.:     0.0733621 α      in ANC's #3, #5, #2, ...

........................................................................
.............................. CYCLE    7 ..............................
........................................................................

 iter      E             dE          RMSdq      gap      omega  full diag
   1    -47.1213035 -0.471213E+02  0.647E-02    4.33       0.0  T
   2    -47.1213101 -0.666909E-05  0.386E-02    4.32       1.0  T
   3    -47.1213075  0.265850E-05  0.171E-02    4.32       1.1  T
   4    -47.1213119 -0.439279E-05  0.374E-03    4.32       5.2  T
   5    -47.1213120 -0.120338E-06  0.137E-03    4.32      14.4  T
   6    -47.1213120 -0.105152E-07  0.774E-04    4.32      25.3  T
   7    -47.1213120 -0.208773E-08  0.275E-04    4.32      71.2  T
     SCC iter.                  ...        0 min,  0.025 sec
     gradient                   ...        0 min,  0.015 sec
 * total energy  :   -46.4655016 Eh     change       -0.3284895E-03 Eh
   gradient norm :     0.0086817 Eh/α   predicted    -0.2965267E-03 (  -9.73%)
   displ. norm   :     0.1691960 α      lambda       -0.2949797E-03
   maximum displ.:     0.0888607 α      in ANC's #3, #2, #5, ...

........................................................................
.............................. CYCLE    8 ..............................
........................................................................

 iter      E             dE          RMSdq      gap      omega  full diag
   1    -47.1198885 -0.471199E+02  0.595E-02    4.31       0.0  T
   2    -47.1198902 -0.167645E-05  0.361E-02    4.31       1.0  T
   3    -47.1198876  0.259392E-05  0.110E-02    4.31       1.8  T
   4    -47.1198911 -0.345043E-05  0.230E-03    4.31       8.5  T
   5    -47.1198911 -0.222624E-07  0.123E-03    4.31      15.9  T
   6    -47.1198911 -0.401279E-09  0.555E-04    4.31      35.3  T
   7    -47.1198911 -0.627448E-08  0.150E-04    4.31     130.8  T
     SCC iter.                  ...        0 min,  0.024 sec
     gradient                   ...        0 min,  0.014 sec
 * total energy  :   -46.4656779 Eh     change       -0.1762692E-03 Eh
   gradient norm :     0.0095725 Eh/α   predicted    -0.1517140E-03 ( -13.93%)
   displ. norm   :     0.1108308 α      lambda       -0.2024928E-03
   maximum displ.:     0.0608404 α      in ANC's #2, #3, #6, ...

........................................................................
.............................. CYCLE    9 ..............................
........................................................................

 iter      E             dE          RMSdq      gap      omega  full diag
   1    -47.1196902 -0.471197E+02  0.429E-02    4.31       0.0  T
   2    -47.1196909 -0.735163E-06  0.257E-02    4.31       1.0  T
   3    -47.1196895  0.149124E-05  0.823E-03    4.31       2.4  T
   4    -47.1196913 -0.181914E-05  0.144E-03    4.31      13.6  T
   5    -47.1196913 -0.211201E-07  0.746E-04    4.31      26.3  T
   6    -47.1196913 -0.501738E-08  0.354E-04    4.31      55.5  T
     SCC iter.                  ...        0 min,  0.021 sec
     gradient                   ...        0 min,  0.014 sec
 * total energy  :   -46.4658060 Eh     change       -0.1281173E-03 Eh
   gradient norm :     0.0042688 Eh/α   predicted    -0.1024930E-03 ( -20.00%)
   displ. norm   :     0.0892837 α      lambda       -0.5616203E-04
   maximum displ.:     0.0585567 α      in ANC's #3, #2, #6, ...

........................................................................
.............................. CYCLE   10 ..............................
........................................................................

 iter      E             dE          RMSdq      gap      omega  full diag
   1    -47.1195325 -0.471195E+02  0.309E-02    4.31       0.0  T
   2    -47.1195326 -0.126350E-06  0.184E-02    4.31       1.1  T
   3    -47.1195323  0.362048E-06  0.411E-03    4.31       4.8  T
   4    -47.1195327 -0.447769E-06  0.775E-04    4.31      25.3  T
   5    -47.1195327 -0.172148E-08  0.453E-04    4.31      43.3  T
     SCC iter.                  ...        0 min,  0.018 sec
     gradient                   ...        0 min,  0.009 sec
 * total energy  :   -46.4658463 Eh     change       -0.4030700E-04 Eh
   gradient norm :     0.0027351 Eh/α   predicted    -0.2830798E-04 ( -29.77%)
   displ. norm   :     0.1027555 α      lambda       -0.4361754E-04
   maximum displ.:     0.0709755 α      in ANC's #3, #2, #6, ...

........................................................................
.............................. CYCLE   11 ..............................
........................................................................

 iter      E             dE          RMSdq      gap      omega  full diag
   1    -47.1197293 -0.471197E+02  0.331E-02    4.31       0.0  T
   2    -47.1197295 -0.138301E-06  0.196E-02    4.31       1.0  T
   3    -47.1197290  0.410912E-06  0.397E-03    4.31       4.9  T
   4    -47.1197295 -0.503700E-06  0.761E-04    4.31      25.8  T
   5    -47.1197295 -0.725940E-09  0.443E-04    4.31      44.3  T
     SCC iter.                  ...        0 min,  0.018 sec
     gradient                   ...        0 min,  0.015 sec
 * total energy  :   -46.4658780 Eh     change       -0.3170322E-04 Eh
   gradient norm :     0.0019999 Eh/α   predicted    -0.2204049E-04 ( -30.48%)
   displ. norm   :     0.2047852 α      lambda       -0.3990721E-04
   maximum displ.:     0.1410685 α      in ANC's #3, #2, #6, ...

........................................................................
.............................. CYCLE   12 ..............................
........................................................................

 iter      E             dE          RMSdq      gap      omega  full diag
   1    -47.1195658 -0.471196E+02  0.614E-02    4.32       0.0  T
   2    -47.1195663 -0.491046E-06  0.364E-02    4.32       1.0  T
   3    -47.1195656  0.712569E-06  0.562E-03    4.32       3.5  T
   4    -47.1195665 -0.958390E-06  0.136E-03    4.32      14.4  T
   5    -47.1195665 -0.411406E-08  0.741E-04    4.32      26.4  T
   6    -47.1195665 -0.290095E-08  0.324E-04    4.32      60.6  T
     SCC iter.                  ...        0 min,  0.021 sec
     gradient                   ...        0 min,  0.015 sec
 * total energy  :   -46.4659138 Eh     change       -0.3582407E-04 Eh
   gradient norm :     0.0038233 Eh/α   predicted    -0.2032717E-04 ( -43.26%)
   displ. norm   :     0.1103623 α      lambda       -0.4270489E-04
   maximum displ.:     0.0650731 α      in ANC's #3, #1, #6, ...

........................................................................
.............................. CYCLE   13 ..............................
........................................................................

 iter      E             dE          RMSdq      gap      omega  full diag
   1    -47.1206767 -0.471207E+02  0.341E-02    4.32       0.0  T
   2    -47.1206770 -0.309053E-06  0.201E-02    4.32       1.0  T
   3    -47.1206764  0.580047E-06  0.497E-03    4.32       3.9  T
   4    -47.1206771 -0.723160E-06  0.850E-04    4.32      23.1  T
   5    -47.1206771 -0.370689E-08  0.482E-04    4.32      40.7  T
     SCC iter.                  ...        0 min,  0.017 sec
     gradient                   ...        0 min,  0.013 sec
 * total energy  :   -46.4659436 Eh     change       -0.2980072E-04 Eh
   gradient norm :     0.0056084 Eh/α   predicted    -0.2161983E-04 ( -27.45%)
   displ. norm   :     0.2683331 α      lambda       -0.8387450E-04
   maximum displ.:     0.1643849 α      in ANC's #3, #1, #6, ...

........................................................................
.............................. CYCLE   14 ..............................
........................................................................

 iter      E             dE          RMSdq      gap      omega  full diag
   1    -47.1205848 -0.471206E+02  0.771E-02    4.32       0.0  T
   2    -47.1205857 -0.907587E-06  0.454E-02    4.32       1.0  T
   3    -47.1205842  0.149762E-05  0.805E-03    4.32       2.4  T
   4    -47.1205861 -0.190821E-05  0.144E-03    4.32      13.6  T
   5    -47.1205861 -0.736483E-08  0.769E-04    4.32      25.5  T
   6    -47.1205861 -0.164491E-08  0.282E-04    4.32      69.5  T
     SCC iter.                  ...        0 min,  0.021 sec
     gradient                   ...        0 min,  0.014 sec
 * total energy  :   -46.4660113 Eh     change       -0.6768529E-04 Eh
   gradient norm :     0.0054262 Eh/α   predicted    -0.4495723E-04 ( -33.58%)
   displ. norm   :     0.3153449 α      lambda       -0.1142232E-03
   maximum displ.:     0.1772480 α      in ANC's #3, #1, #6, ...

........................................................................
.............................. CYCLE   15 ..............................
........................................................................

 iter      E             dE          RMSdq      gap      omega  full diag
   1    -47.1200503 -0.471201E+02  0.906E-02    4.30       0.0  T
   2    -47.1200514 -0.108747E-05  0.534E-02    4.30       1.0  T
   3    -47.1200496  0.184416E-05  0.888E-03    4.30       2.2  T
   4    -47.1200519 -0.236448E-05  0.160E-03    4.30      12.2  T
   5    -47.1200520 -0.661793E-08  0.860E-04    4.30      22.8  T
   6    -47.1200520 -0.292301E-08  0.335E-04    4.30      58.5  T
     SCC iter.                  ...        0 min,  0.021 sec
     gradient                   ...        0 min,  0.013 sec
 * total energy  :   -46.4660972 Eh     change       -0.8588694E-04 Eh
   gradient norm :     0.0046269 Eh/α   predicted    -0.6279518E-04 ( -26.89%)
   displ. norm   :     0.2095599 α      lambda       -0.1096019E-03
   maximum displ.:     0.1547020 α      in ANC's #1, #3, #6, ...

........................................................................
.............................. CYCLE   16 ..............................
........................................................................

 iter      E             dE          RMSdq      gap      omega  full diag
   1    -47.1210807 -0.471211E+02  0.623E-02    4.29       0.0  T
   2    -47.1210812 -0.513482E-06  0.367E-02    4.29       1.0  T
   3    -47.1210809  0.309472E-06  0.437E-03    4.29       4.5  T
   4    -47.1210814 -0.507556E-06  0.133E-03    4.29      14.8  T
   5    -47.1210814 -0.980046E-08  0.721E-04    4.29      27.2  T
   6    -47.1210815 -0.839449E-09  0.254E-04    4.29      77.4  T
     SCC iter.                  ...        0 min,  0.021 sec
     gradient                   ...        0 min,  0.015 sec
 * total energy  :   -46.4661751 Eh     change       -0.7783576E-04 Eh
   gradient norm :     0.0047731 Eh/α   predicted    -0.5721369E-04 ( -26.49%)
   displ. norm   :     0.4670396 α      lambda       -0.1668444E-03
   maximum displ.:     0.2866834 α      in ANC's #1, #3, #6, ...

........................................................................
.............................. CYCLE   17 ..............................
........................................................................

 iter      E             dE          RMSdq      gap      omega  full diag
   1    -47.1166190 -0.471166E+02  0.134E-01    4.25       0.0  T
   2    -47.1166240 -0.502485E-05  0.787E-02    4.25       1.0  T
   3    -47.1166229  0.109150E-05  0.100E-02    4.25       2.0  T
   4    -47.1166247 -0.179684E-05  0.345E-03    4.25       5.7  T
   5    -47.1166249 -0.193262E-06  0.164E-03    4.25      11.9  T
   6    -47.1166249 -0.314112E-08  0.384E-04    4.25      51.1  T
   7    -47.1166249 -0.157433E-08  0.160E-04    4.25     122.4  T
     SCC iter.                  ...        0 min,  0.024 sec
     gradient                   ...        0 min,  0.016 sec
 * total energy  :   -46.4661951 Eh     change       -0.2005690E-04 Eh
   gradient norm :     0.0110881 Eh/α   predicted    -0.1016271E-03 ( 406.69%)
   displ. norm   :     0.1215297 α      lambda       -0.2350007E-03
   maximum displ.:     0.0729245 α      in ANC's #3, #2, #6, ...

........................................................................
.............................. CYCLE   18 ..............................
........................................................................

 iter      E             dE          RMSdq      gap      omega  full diag
   1    -47.1204569 -0.471205E+02  0.479E-02    4.26       0.0  T
   2    -47.1204597 -0.285145E-05  0.274E-02    4.26       1.0  T
   3    -47.1204593  0.458174E-06  0.886E-03    4.26       2.2  T
   4    -47.1204600 -0.738835E-06  0.245E-03    4.26       8.0  T
   5    -47.1204601 -0.878717E-07  0.906E-04    4.26      21.7  T
   6    -47.1204601 -0.932765E-09  0.301E-04    4.26      65.1  T
     SCC iter.                  ...        0 min,  0.022 sec
     gradient                   ...        0 min,  0.016 sec
 * total energy  :   -46.4663226 Eh     change       -0.1274394E-03 Eh
   gradient norm :     0.0051011 Eh/α   predicted    -0.1192369E-03 (  -6.44%)
   displ. norm   :     0.1786008 α      lambda       -0.8793324E-04
   maximum displ.:     0.1411490 α      in ANC's #1, #3, #6, ...

........................................................................
.............................. CYCLE   19 ..............................
........................................................................

 iter      E             dE          RMSdq      gap      omega  full diag
   1    -47.1205747 -0.471206E+02  0.466E-02    4.25       0.0  T
   2    -47.1205750 -0.241647E-06  0.275E-02    4.25       1.0  T
   3    -47.1205746  0.363664E-06  0.419E-03    4.25       4.7  T
   4    -47.1205751 -0.479233E-06  0.855E-04    4.25      22.9  T
   5    -47.1205751 -0.251067E-08  0.429E-04    4.25      45.8  T
     SCC iter.                  ...        0 min,  0.019 sec
     gradient                   ...        0 min,  0.014 sec
 * total energy  :   -46.4664032 Eh     change       -0.8064215E-04 Eh
   gradient norm :     0.0045935 Eh/α   predicted    -0.4537104E-04 ( -43.74%)
   displ. norm   :     0.4928374 α      lambda       -0.2474548E-03
   maximum displ.:     0.3764117 α      in ANC's #1, #3, #6, ...

........................................................................
.............................. CYCLE   20 ..............................
........................................................................

 iter      E             dE          RMSdq      gap      omega  full diag
   1    -47.1185277 -0.471185E+02  0.126E-01    4.21       0.0  T
   2    -47.1185297 -0.202334E-05  0.741E-02    4.21       1.0  T
   3    -47.1185269  0.278226E-05  0.109E-02    4.21       1.8  T
   4    -47.1185305 -0.359259E-05  0.229E-03    4.21       8.6  T
   5    -47.1185306 -0.310208E-07  0.119E-03    4.21      16.5  T
   6    -47.1185306  0.181645E-08  0.542E-04    4.21      36.2  T
   7    -47.1185306 -0.587582E-08  0.146E-04    4.21     134.1  T
     SCC iter.                  ...        0 min,  0.026 sec
     gradient                   ...        0 min,  0.014 sec
 * total energy  :   -46.4665997 Eh     change       -0.1964644E-03 Eh
   gradient norm :     0.0055573 Eh/α   predicted    -0.1537948E-03 ( -21.72%)
   displ. norm   :     0.4546463 α      lambda       -0.1973283E-03
   maximum displ.:     0.3713202 α      in ANC's #1, #3, #6, ...
 * RMSD in coord.:     0.5968018 α      energy gain  -0.1753340E-01 Eh

generating ANC from model Hessian ...
Using Lindh-Hessian (1995)
 Shifting diagonal of input Hessian by   8.767112206060988E-003
 Lowest  eigenvalues of input Hessian
    0.000000    0.000000    0.000000    0.000000    0.000000    0.000000
    0.010000    0.010584    0.010850    0.013879    0.015588    0.017563
    0.021076    0.022209    0.024828    0.030000    0.031250    0.033568
 Highest eigenvalues
    1.889823    1.907532    2.026569    2.070155    2.111442    2.129968
 

........................................................................
.............................. CYCLE   21 ..............................
........................................................................

 iter      E             dE          RMSdq      gap      omega  full diag
   1    -47.1166576 -0.471167E+02  0.117E-01    4.17       0.0  T
   2    -47.1166589 -0.132509E-05  0.686E-02    4.17       1.0  T
   3    -47.1166568  0.214361E-05  0.960E-03    4.17       2.0  T
   4    -47.1166595 -0.276972E-05  0.181E-03    4.17      10.8  T
   5    -47.1166595 -0.954892E-08  0.980E-04    4.17      20.0  T
   6    -47.1166595 -0.251220E-08  0.435E-04    4.17      45.1  T
     SCC iter.                  ...        0 min,  0.022 sec
     gradient                   ...        0 min,  0.016 sec
 * total energy  :   -46.4667332 Eh     change       -0.1335868E-03 Eh
   gradient norm :     0.0079429 Eh/α   predicted     0.0000000E+00 (-100.00%)
   displ. norm   :     0.0464216 α      lambda       -0.1488012E-03
   maximum displ.:     0.0263763 α      in ANC's #1, #4, #9, ...

........................................................................
.............................. CYCLE   22 ..............................
........................................................................

 iter      E             dE          RMSdq      gap      omega  full diag
   1    -47.1203383 -0.471203E+02  0.274E-02    4.17       0.0  T
   2    -47.1203392 -0.895631E-06  0.157E-02    4.17       1.3  T
   3    -47.1203390  0.224909E-06  0.552E-03    4.17       3.6  T
   4    -47.1203393 -0.346720E-06  0.142E-03    4.17      13.8  T
   5    -47.1203393 -0.255687E-07  0.563E-04    4.17      34.8  T
   6    -47.1203393  0.240803E-09  0.229E-04    4.17      85.8  T
     SCC iter.                  ...        0 min,  0.022 sec
     gradient                   ...        0 min,  0.014 sec
 * total energy  :   -46.4668329 Eh     change       -0.9963874E-04 Eh
   gradient norm :     0.0027988 Eh/α   predicted    -0.7461207E-04 ( -25.12%)
   displ. norm   :     0.0596706 α      lambda       -0.4951735E-04
   maximum displ.:     0.0414610 α      in ANC's #1, #4, #3, ...

........................................................................
.............................. CYCLE   23 ..............................
........................................................................

 iter      E             dE          RMSdq      gap      omega  full diag
   1    -47.1220022 -0.471220E+02  0.225E-02    4.17       0.0  T
   2    -47.1220024 -0.213411E-06  0.131E-02    4.17       1.5  T
   3    -47.1220022  0.292382E-06  0.407E-03    4.17       4.8  T
   4    -47.1220025 -0.370484E-06  0.664E-04    4.17      29.5  T
   5    -47.1220025 -0.391044E-08  0.337E-04    4.17      58.2  T
     SCC iter.                  ...        0 min,  0.019 sec
     gradient                   ...        0 min,  0.014 sec
 * total energy  :   -46.4668670 Eh     change       -0.3411130E-04 Eh
   gradient norm :     0.0012435 Eh/α   predicted    -0.2485399E-04 ( -27.14%)
   displ. norm   :     0.1050897 α      lambda       -0.2842010E-04
   maximum displ.:     0.0759510 α      in ANC's #1, #3, #4, ...

........................................................................
.............................. CYCLE   24 ..............................
........................................................................

 iter      E             dE          RMSdq      gap      omega  full diag
   1    -47.1224589 -0.471225E+02  0.333E-02    4.16       0.0  T
   2    -47.1224590 -0.179377E-06  0.196E-02    4.16       1.0  T
   3    -47.1224586  0.484507E-06  0.456E-03    4.16       4.3  T
   4    -47.1224592 -0.594423E-06  0.603E-04    4.16      32.5  T
   5    -47.1224592 -0.188798E-09  0.327E-04    4.16      59.9  T
     SCC iter.                  ...        0 min,  0.019 sec
     gradient                   ...        0 min,  0.016 sec
 * total energy  :   -46.4668972 Eh     change       -0.3023216E-04 Eh
   gradient norm :     0.0023564 Eh/α   predicted    -0.1432959E-04 ( -52.60%)
   displ. norm   :     0.0692451 α      lambda       -0.2364372E-04
   maximum displ.:     0.0505064 α      in ANC's #1, #3, #6, ...

........................................................................
.............................. CYCLE   25 ..............................
........................................................................

 iter      E             dE          RMSdq      gap      omega  full diag
   1    -47.1219473 -0.471219E+02  0.203E-02    4.15       0.0  T
   2    -47.1219473 -0.616922E-07  0.120E-02    4.15       1.6  T
   3    -47.1219472  0.107893E-06  0.211E-03    4.15       9.3  T
   4    -47.1219474 -0.134492E-06  0.351E-04    4.15      55.9  T
   5    -47.1219474 -0.634984E-09  0.193E-04    4.15     101.7  T
     SCC iter.                  ...        0 min,  0.018 sec
     gradient                   ...        0 min,  0.014 sec
 * total energy  :   -46.4669184 Eh     change       -0.2113799E-04 Eh
   gradient norm :     0.0018903 Eh/α   predicted    -0.1187965E-04 ( -43.80%)
   displ. norm   :     0.1648320 α      lambda       -0.3498198E-04
   maximum displ.:     0.1180365 α      in ANC's #1, #3, #6, ...

........................................................................
.............................. CYCLE   26 ..............................
........................................................................

 iter      E             dE          RMSdq      gap      omega  full diag
   1    -47.1206432 -0.471206E+02  0.478E-02    4.13       0.0  T
   2    -47.1206435 -0.303063E-06  0.281E-02    4.13       1.0  T
   3    -47.1206431  0.470117E-06  0.440E-03    4.13       4.5  T
   4    -47.1206437 -0.591720E-06  0.817E-04    4.13      24.0  T
   5    -47.1206437 -0.414482E-08  0.446E-04    4.13      44.0  T
     SCC iter.                  ...        0 min,  0.018 sec
     gradient                   ...        0 min,  0.016 sec
 * total energy  :   -46.4669577 Eh     change       -0.3934372E-04 Eh
   gradient norm :     0.0017530 Eh/α   predicted    -0.1770292E-04 ( -55.00%)
   displ. norm   :     0.1310671 α      lambda       -0.2252818E-04
   maximum displ.:     0.0980271 α      in ANC's #1, #3, #6, ...

........................................................................
.............................. CYCLE   27 ..............................
........................................................................

 iter      E             dE          RMSdq      gap      omega  full diag
   1    -47.1203893 -0.471204E+02  0.368E-02    4.12       0.0  T
   2    -47.1203894 -0.123978E-06  0.217E-02    4.12       1.0  T
   3    -47.1203891  0.269143E-06  0.327E-03    4.12       6.0  T
   4    -47.1203895 -0.339317E-06  0.561E-04    4.12      34.9  T
   5    -47.1203895 -0.175113E-09  0.285E-04    4.12      68.8  T
     SCC iter.                  ...        0 min,  0.019 sec
     gradient                   ...        0 min,  0.014 sec
 * total energy  :   -46.4669867 Eh     change       -0.2902904E-04 Eh
   gradient norm :     0.0020899 Eh/α   predicted    -0.1135388E-04 ( -60.89%)
   displ. norm   :     0.0879961 α      lambda       -0.2590946E-04
   maximum displ.:     0.0675950 α      in ANC's #1, #3, #6, ...

........................................................................
.............................. CYCLE   28 ..............................
........................................................................

 iter      E             dE          RMSdq      gap      omega  full diag
   1    -47.1206780 -0.471207E+02  0.247E-02    4.11       0.0  T
   2    -47.1206781 -0.957916E-07  0.145E-02    4.11       1.4  T
   3    -47.1206779  0.187982E-06  0.296E-03    4.11       6.6  T
   4    -47.1206782 -0.232687E-06  0.443E-04    4.11      44.3  T
   5    -47.1206782 -0.800881E-09  0.238E-04    4.11      82.5  T
     SCC iter.                  ...        0 min,  0.018 sec
     gradient                   ...        0 min,  0.015 sec
 * total energy  :   -46.4670101 Eh     change       -0.2340044E-04 Eh
   gradient norm :     0.0017207 Eh/α   predicted    -0.1305867E-04 ( -44.19%)
   displ. norm   :     0.1899367 α      lambda       -0.3431597E-04
   maximum displ.:     0.1459317 α      in ANC's #1, #3, #6, ...

........................................................................
.............................. CYCLE   29 ..............................
........................................................................

 iter      E             dE          RMSdq      gap      omega  full diag
   1    -47.1212435 -0.471212E+02  0.535E-02    4.09       0.0  T
   2    -47.1212440 -0.501117E-06  0.314E-02    4.09       1.0  T
   3    -47.1212430  0.978815E-06  0.684E-03    4.09       2.9  T
   4    -47.1212442 -0.121021E-05  0.996E-04    4.09      19.7  T
   5    -47.1212442 -0.423684E-08  0.544E-04    4.09      36.1  T
   6    -47.1212442 -0.667704E-09  0.288E-04    4.09      68.0  T
     SCC iter.                  ...        0 min,  0.022 sec
     gradient                   ...        0 min,  0.013 sec
 * total energy  :   -46.4670484 Eh     change       -0.3827380E-04 Eh
   gradient norm :     0.0009796 Eh/α   predicted    -0.1743590E-04 ( -54.44%)
   displ. norm   :     0.1298193 α      lambda       -0.1387206E-04
   maximum displ.:     0.1014111 α      in ANC's #1, #3, #6, ...

........................................................................
.............................. CYCLE   30 ..............................
........................................................................

 iter      E             dE          RMSdq      gap      omega  full diag
   1    -47.1212530 -0.471213E+02  0.378E-02    4.07       0.0  T
   2    -47.1212532 -0.217684E-06  0.222E-02    4.07       1.0  T
   3    -47.1212527  0.556094E-06  0.499E-03    4.07       3.9  T
   4    -47.1212534 -0.672364E-06  0.588E-04    4.07      33.4  T
   5    -47.1212534 -0.101997E-08  0.337E-04    4.07      58.2  T
     SCC iter.                  ...        0 min,  0.019 sec
     gradient                   ...        0 min,  0.014 sec
 * total energy  :   -46.4670650 Eh     change       -0.1654391E-04 Eh
   gradient norm :     0.0006550 Eh/α   predicted    -0.6988553E-05 ( -57.76%)
   displ. norm   :     0.0703445 α      lambda       -0.6768950E-05
   maximum displ.:     0.0571099 α      in ANC's #1, #3, #2, ...

........................................................................
.............................. CYCLE   31 ..............................
........................................................................

 iter      E             dE          RMSdq      gap      omega  full diag
   1    -47.1214688 -0.471215E+02  0.216E-02    4.06       0.0  T
   2    -47.1214688 -0.796384E-07  0.127E-02    4.06       1.5  T
   3    -47.1214686  0.228624E-06  0.318E-03    4.06       6.2  T
   4    -47.1214689 -0.274762E-06  0.308E-04    4.06      63.7  T
   5    -47.1214689 -0.301576E-09  0.178E-04    4.06     110.2  T
     SCC iter.                  ...        0 min,  0.018 sec
     gradient                   ...        0 min,  0.016 sec
 * total energy  :   -46.4670737 Eh     change       -0.8738913E-05 Eh
   gradient norm :     0.0005814 Eh/α   predicted    -0.3392930E-05 ( -61.17%)
   displ. norm   :     0.0549287 α      lambda       -0.5415164E-05
   maximum displ.:     0.0439393 α      in ANC's #1, #2, #3, ...

........................................................................
.............................. CYCLE   32 ..............................
........................................................................

 iter      E             dE          RMSdq      gap      omega  full diag
   1    -47.1216029 -0.471216E+02  0.170E-02    4.06       0.0  T
   2    -47.1216030 -0.500523E-07  0.999E-03    4.06       2.0  T
   3    -47.1216028  0.152399E-06  0.263E-03    4.06       7.5  T
   4    -47.1216030 -0.183665E-06  0.252E-04    4.06      77.9  T
   5    -47.1216030 -0.167631E-09  0.150E-04    4.06     130.5  T
     SCC iter.                  ...        0 min,  0.019 sec
     gradient                   ...        0 min,  0.016 sec
 * total energy  :   -46.4670810 Eh     change       -0.7293013E-05 Eh
   gradient norm :     0.0006080 Eh/α   predicted    -0.2712637E-05 ( -62.80%)
   displ. norm   :     0.0641900 α      lambda       -0.6430090E-05
   maximum displ.:     0.0484673 α      in ANC's #1, #2, #6, ...

........................................................................
.............................. CYCLE   33 ..............................
........................................................................

 iter      E             dE          RMSdq      gap      omega  full diag
   1    -47.1216536 -0.471217E+02  0.186E-02    4.05       0.0  T
   2    -47.1216537 -0.451893E-07  0.109E-02    4.05       1.8  T
   3    -47.1216535  0.143392E-06  0.238E-03    4.05       8.2  T
   4    -47.1216537 -0.173441E-06  0.320E-04    4.05      61.3  T
   5    -47.1216537 -0.282014E-10  0.188E-04    4.05     104.4  T
     SCC iter.                  ...        0 min,  0.019 sec
     gradient                   ...        0 min,  0.015 sec
 * total energy  :   -46.4670897 Eh     change       -0.8670350E-05 Eh
   gradient norm :     0.0007387 Eh/α   predicted    -0.3222676E-05 ( -62.83%)
   displ. norm   :     0.0972668 α      lambda       -0.9041363E-05
   maximum displ.:     0.0698976 α      in ANC's #1, #2, #6, ...

........................................................................
.............................. CYCLE   34 ..............................
........................................................................

 iter      E             dE          RMSdq      gap      omega  full diag
   1    -47.1215561 -0.471216E+02  0.271E-02    4.04       0.0  T
   2    -47.1215562 -0.880332E-07  0.160E-02    4.04       1.2  T
   3    -47.1215559  0.263034E-06  0.325E-03    4.04       6.0  T
   4    -47.1215562 -0.318687E-06  0.475E-04    4.04      41.3  T
   5    -47.1215562 -0.356593E-09  0.275E-04    4.04      71.2  T
     SCC iter.                  ...        0 min,  0.019 sec
     gradient                   ...        0 min,  0.015 sec
 * total energy  :   -46.4671012 Eh     change       -0.1152117E-04 Eh
   gradient norm :     0.0006287 Eh/α   predicted    -0.4540963E-05 ( -60.59%)
   displ. norm   :     0.1149020 α      lambda       -0.8701247E-05
   maximum displ.:     0.0812721 α      in ANC's #1, #2, #6, ...

........................................................................
.............................. CYCLE   35 ..............................
........................................................................

 iter      E             dE          RMSdq      gap      omega  full diag
   1    -47.1213728 -0.471214E+02  0.300E-02    4.03       0.0  T
   2    -47.1213728 -0.887200E-07  0.178E-02    4.03       1.1  T
   3    -47.1213726  0.217851E-06  0.293E-03    4.03       6.7  T
   4    -47.1213729 -0.271187E-06  0.549E-04    4.03      35.7  T
   5    -47.1213729 -0.494104E-09  0.300E-04    4.03      65.3  T
     SCC iter.                  ...        0 min,  0.019 sec
     gradient                   ...        0 min,  0.016 sec
 * total energy  :   -46.4671115 Eh     change       -0.1028027E-04 Eh
   gradient norm :     0.0004325 Eh/α   predicted    -0.4377719E-05 ( -57.42%)
   displ. norm   :     0.0889729 α      lambda       -0.5284608E-05
   maximum displ.:     0.0637239 α      in ANC's #1, #6, #2, ...

........................................................................
.............................. CYCLE   36 ..............................
........................................................................

 iter      E             dE          RMSdq      gap      omega  full diag
   1    -47.1212218 -0.471212E+02  0.227E-02    4.02       0.0  T
   2    -47.1212219 -0.511602E-07  0.135E-02    4.02       1.5  T
   3    -47.1212218  0.122474E-06  0.235E-03    4.02       8.4  T
   4    -47.1212219 -0.150808E-06  0.398E-04    4.02      49.3  T
   5    -47.1212219 -0.368658E-09  0.218E-04    4.02      90.1  T
     SCC iter.                  ...        0 min,  0.018 sec
     gradient                   ...        0 min,  0.014 sec
 * total energy  :   -46.4671177 Eh     change       -0.6273040E-05 Eh
   gradient norm :     0.0003336 Eh/α   predicted    -0.2655352E-05 ( -57.67%)
   displ. norm   :     0.0683292 α      lambda       -0.4051197E-05
   maximum displ.:     0.0491247 α      in ANC's #1, #6, #2, ...

........................................................................
.............................. CYCLE   37 ..............................
........................................................................

 iter      E             dE          RMSdq      gap      omega  full diag
   1    -47.1211990 -0.471212E+02  0.165E-02    4.02       0.0  T
   2    -47.1211990 -0.225370E-07  0.976E-03    4.02       2.0  T
   3    -47.1211990  0.292107E-07  0.136E-03    4.02      14.4  T
   4    -47.1211990 -0.397289E-07  0.291E-04    4.02      67.4  T
   5    -47.1211990 -0.189260E-09  0.149E-04    4.02     131.9  T
     SCC iter.                  ...        0 min,  0.019 sec
     gradient                   ...        0 min,  0.014 sec
 * total energy  :   -46.4671229 Eh     change       -0.5148633E-05 Eh
   gradient norm :     0.0004386 Eh/α   predicted    -0.2033100E-05 ( -60.51%)
   displ. norm   :     0.0795863 α      lambda       -0.5326410E-05
   maximum displ.:     0.0551695 α      in ANC's #1, #6, #8, ...

........................................................................
.............................. CYCLE   38 ..............................
........................................................................

 iter      E             dE          RMSdq      gap      omega  full diag
   1    -47.1211210 -0.471211E+02  0.194E-02    4.01       0.0  T
   2    -47.1211210 -0.330540E-07  0.115E-02    4.01       1.7  T
   3    -47.1211209  0.447323E-07  0.174E-03    4.01      11.3  T
   4    -47.1211210 -0.589868E-07  0.328E-04    4.01      59.8  T
   5    -47.1211210 -0.241656E-09  0.165E-04    4.01     119.0  T
     SCC iter.                  ...        0 min,  0.019 sec
     gradient                   ...        0 min,  0.016 sec
 * total energy  :   -46.4671296 Eh     change       -0.6696649E-05 Eh
   gradient norm :     0.0005091 Eh/α   predicted    -0.2672492E-05 ( -60.09%)
   displ. norm   :     0.0854539 α      lambda       -0.5249370E-05
   maximum displ.:     0.0582561 α      in ANC's #1, #6, #2, ...

........................................................................
.............................. CYCLE   39 ..............................
........................................................................

 iter      E             dE          RMSdq      gap      omega  full diag
   1    -47.1209987 -0.471210E+02  0.219E-02    4.01       0.0  T
   2    -47.1209987 -0.431050E-07  0.129E-02    4.01       1.5  T
   3    -47.1209987  0.527174E-07  0.189E-03    4.01      10.4  T
   4    -47.1209987 -0.703735E-07  0.358E-04    4.01      54.7  T
   5    -47.1209987 -0.335056E-09  0.180E-04    4.01     108.8  T
     SCC iter.                  ...        0 min,  0.018 sec
     gradient                   ...        0 min,  0.016 sec
 * total energy  :   -46.4671358 Eh     change       -0.6186818E-05 Eh
   gradient norm :     0.0005881 Eh/α   predicted    -0.2633623E-05 ( -57.43%)
   displ. norm   :     0.0797402 α      lambda       -0.3759356E-05
   maximum displ.:     0.0534181 α      in ANC's #1, #6, #2, ...

........................................................................
.............................. CYCLE   40 ..............................
........................................................................

 iter      E             dE          RMSdq      gap      omega  full diag
   1    -47.1209873 -0.471210E+02  0.214E-02    4.00       0.0  T
   2    -47.1209873 -0.440771E-07  0.126E-02    4.00       1.6  T
   3    -47.1209873  0.752175E-07  0.204E-03    4.00       9.6  T
   4    -47.1209874 -0.958063E-07  0.338E-04    4.00      58.1  T
   5    -47.1209874 -0.221995E-09  0.168E-04    4.00     116.6  T
     SCC iter.                  ...        0 min,  0.019 sec
     gradient                   ...        0 min,  0.016 sec
 * total energy  :   -46.4671397 Eh     change       -0.3887303E-05 Eh
   gradient norm :     0.0004819 Eh/α   predicted    -0.1886234E-05 ( -51.48%)
   displ. norm   :     0.0473130 α      lambda       -0.1443429E-05
   maximum displ.:     0.0312327 α      in ANC's #1, #6, #2, ...

   *** GEOMETRY OPTIMIZATION CONVERGED AFTER 40 ITERATIONS ***

------------------------------------------------------------------------
 total energy gain   :        -0.0180734 Eh      -11.3412 kcal/mol
 total RMSD          :         0.8229912 a0        0.4355 Å
 total power (kW/mol):        -1.1862922 (step)  -28.0576 (real)
------------------------------------------------------------------------

 ANCopt (total)                0 d,  0 h,  0 min,  1.691 sec
 optimizer setup                ...        0 min,  0.000 sec (  0.011%)
 model hessian                  ...        0 min,  0.021 sec (  1.225%)
 ANC generation                 ...        0 min,  0.004 sec (  0.219%)
 coordinate transformation      ...        0 min,  0.000 sec (  0.029%)
 single point calculation       ...        0 min,  1.642 sec ( 97.094%)
 optimization log               ...        0 min,  0.007 sec (  0.386%)
 hessian update                 ...        0 min,  0.012 sec (  0.691%)
 rational function              ...        0 min,  0.004 sec (  0.218%)

================
 final structure:
================
26
 xtb: 6.6.1 (8d0f1dd)
C            1.04436734287582        2.02851215779151        0.77794174582782
C            1.56969819402005        0.69454400870180        0.34524134698786
C            2.93728507598899        0.46256677585023        0.27410677164815
C            3.44003613556991       -0.76124696045096       -0.12853549487861
C            2.57793095174819       -1.78645316372547       -0.47421671404812
C            1.21915388010484       -1.55415626138168       -0.40322970086495
F            0.37347139664319       -2.55853080869384       -0.72506458490560
C            0.69046933739928       -0.33522511356047        0.00510922300771
C           -0.77834360854757       -0.16956948830652        0.05470617755488
C           -1.52980108920564       -0.20099944307251       -1.12663433454248
O           -0.85748900972724       -0.31473178324659       -2.29822702684525
C           -2.91428897520466       -0.09224911234836       -1.07579464804432
C           -3.56350485361814        0.04642459744937        0.13744855337977
C           -2.84198643448830        0.08334996024516        1.31631820163604
C           -1.46548812387968       -0.02753790829095        1.25125463304664
F           -0.76314585871251       -0.00735293576432        2.40471013311931
H            0.19464017016398        2.32668691297505        0.16590120725163
H            0.71134196502858        1.98065090416730        1.81465468884190
H            1.81920963179194        2.78766685964114        0.70466296839617
H            3.61821707544820        1.25851379855619        0.53787901206408
H            4.50675072781819       -0.91876083939166       -0.17652280363703
H            2.93909090780823       -2.75118541968328       -0.79298185398218
H           -1.48153225361708       -0.38260471172866       -3.03076410963400
H           -3.48250655631200       -0.12079136649071       -1.99557057891963
H           -4.63912151393401        0.12556771294895        0.16312936300269
H           -3.32445351516102        0.18691062780928        2.27447982453778
 
 Bond Distances (Angstroems)
 ---------------------------
C1-C2=1.4976         C1-H17=1.0888        C1-H18=1.0899        C1-H19=1.0872        C2-C1=1.4976         C2-C3=1.3889         
C2-C8=1.3961         C3-C2=1.3889         C3-C4=1.3830         C3-H20=1.0802        C4-C3=1.3830         C4-C5=1.3834         
C4-H21=1.0793        C5-C4=1.3834         C5-C6=1.3803         C5-H22=1.0783        C6-C5=1.3803         C6-F7=1.3519         
C6-C8=1.3900         F7-C6=1.3519         C8-C2=1.3961         C8-C6=1.3900         C8-C9=1.4790         C9-C8=1.4790         
C9-C10=1.4004        C9-C15=1.3871        C10-C9=1.4004        C10-O11=1.3556       C10-C12=1.3897       O11-C10=1.3556       
O11-H23=0.9647       C12-C10=1.3897       C12-C13=1.3830       C12-H24=1.0815       C13-C12=1.3830       C13-C14=1.3826       
C13-H25=1.0788       C14-C13=1.3826       C14-C15=1.3825       C14-H26=1.0778       C15-C9=1.3871        C15-C14=1.3825       
C15-F16=1.3506       F16-C15=1.3506       H17-C1=1.0888        H18-C1=1.0899        H19-C1=1.0872        H20-C3=1.0802        
H21-C4=1.0793        H22-C5=1.0783        H23-O11=0.9647       H24-C12=1.0815       H25-C13=1.0788       H26-C14=1.0778       
 C  H  Rav=1.0824 sigma=0.0046  Rmin=1.0778  Rmax=1.0899     9
 C  C  Rav=1.4017 sigma=0.0359  Rmin=1.3803  Rmax=1.4976    14
 O  H  Rav=0.9647 sigma=0.0000  Rmin=0.9647  Rmax=0.9647     1
 O  C  Rav=1.3556 sigma=0.0000  Rmin=1.3556  Rmax=1.3556     1
 F  C  Rav=1.3512 sigma=0.0006  Rmin=1.3506  Rmax=1.3519     2
 
 selected bond angles (degree)
 --------------------
H17-C1-C2=110.81               H18-C1-C2=110.05               H18-C1-H17=107.95              H19-C1-C2=110.64               
H19-C1-H17=109.09              H19-C1-H18=108.21              C3-C2-C1=120.60                C8-C2-C1=120.43                
C8-C2-C3=118.97                C4-C3-C2=121.38                H20-C3-C2=119.02               H20-C3-C4=119.60               
C5-C4-C3=120.13                H21-C4-C3=120.09               H21-C4-C5=119.78               C6-C5-C4=118.42                
H22-C5-C4=121.88               H22-C5-C6=119.70               F7-C6-C5=118.59                C8-C6-C5=122.49                
C8-C6-F7=118.92                C6-C8-C2=118.61                C9-C8-C2=122.32                C9-C8-C6=119.07                
C10-C9-C8=120.14               C15-C9-C8=122.17               C15-C9-C10=117.65              O11-C10-C9=117.70              
C12-C10-C9=120.13              C12-C10-O11=122.16             
 
 selected dihedral angles (degree)
 ---------------------------------
C3-C2-C1-H17=138.70           C3-C2-C1-H18=258.03           C3-C2-C1-H19= 17.57           C8-C2-C1-H17=318.79           
C8-C2-C1-H18= 78.12           C8-C2-C1-H19=197.66           C4-C3-C2-C1=180.26            C4-C3-C2-C8=  0.18            
H20-C3-C2-C1=  0.14           H20-C3-C2-C8=180.05           C5-C4-C3-C2=  0.14            C5-C4-C3-H20=180.27           
H21-C4-C3-C2=179.99           H21-C4-C3-H20=  0.11          C6-C5-C4-C3=359.87            C6-C5-C4-H21=180.03           
H22-C5-C4-C3=179.93           H22-C5-C4-H21=  0.09          F7-C6-C5-C4=180.77            F7-C6-C5-H22=  0.71           
C8-C6-C5-C4=359.78            C8-C6-C5-H22=179.73           C6-C8-C2-C1=179.41            C6-C8-C2-C3=359.50            
C9-C8-C2-C1=359.89            C9-C8-C2-C3=179.98            C2-C8-C6-C5=  0.53            C2-C8-C6-F7=179.54            
C9-C8-C6-C5=180.07            C9-C8-C6-F7=359.08            C10-C9-C8-C2=113.51           C10-C9-C8-C6=293.99           
C15-C9-C8-C2=291.17           C15-C9-C8-C6=111.65           O11-C10-C9-C8=356.56          O11-C10-C9-C15=178.80         
C12-C10-C9-C8=177.75          C12-C10-C9-C15=  0.00         
           -------------------------------------------------
          |                Final Singlepoint                |
           -------------------------------------------------

          ...................................................
          :                      SETUP                      :
          :.................................................:
          :  # basis functions                  74          :
          :  # atomic orbitals                  74          :
          :  # shells                           42          :
          :  # electrons                        82          :
          :  max. iterations                   250          :
          :  Hamiltonian                  GFN2-xTB          :
          :  restarted?                      false          :
          :  GBSA solvation                  false          :
          :  PC potential                    false          :
          :  electronic temp.          298.1500000     K    :
          :  accuracy                    1.0000000          :
          :  -> integral cutoff          0.2500000E+02      :
          :  -> integral neglect         0.1000000E-07      :
          :  -> SCF convergence          0.1000000E-05 Eh   :
          :  -> wf. convergence          0.1000000E-03 e    :
          :  Broyden damping             0.4000000          :
          ...................................................

 iter      E             dE          RMSdq      gap      omega  full diag
   1    -47.1209874 -0.471210E+02  0.707E-05    4.00       0.0  T
   2    -47.1209874 -0.360885E-10  0.432E-05    4.00     453.9  T
   3    -47.1209874 -0.186162E-10  0.249E-05    4.00     786.1  T

   *** convergence criteria satisfied after 3 iterations ***

         #    Occupation            Energy/Eh            Energy/eV
      -------------------------------------------------------------
         1        2.0000           -0.8146606             -22.1680
       ...           ...                  ...                  ...
        35        2.0000           -0.4503908             -12.2558
        36        2.0000           -0.4430187             -12.0552
        37        2.0000           -0.4253506             -11.5744
        38        2.0000           -0.4129837             -11.2379
        39        2.0000           -0.4018206             -10.9341
        40        2.0000           -0.3981018             -10.8329
        41        2.0000           -0.3928902             -10.6911 (HOMO)
        42                         -0.2458503              -6.6899 (LUMO)
        43                         -0.2292118              -6.2372
        44                         -0.2246047              -6.1118
        45                         -0.2206857              -6.0052
        46                         -0.1092193              -2.9720
       ...                                ...                  ...
        74                          0.6742004              18.3459
      -------------------------------------------------------------
                  HL-Gap            0.1470399 Eh            4.0012 eV
             Fermi-level           -0.3193703 Eh           -8.6905 eV

 SCC (total)                   0 d,  0 h,  0 min,  0.033 sec
 SCC setup                      ...        0 min,  0.000 sec (  0.487%)
 Dispersion                     ...        0 min,  0.000 sec (  0.561%)
 classical contributions        ...        0 min,  0.000 sec (  0.180%)
 integral evaluation            ...        0 min,  0.005 sec ( 15.605%)
 iterations                     ...        0 min,  0.012 sec ( 34.797%)
 molecular gradient             ...        0 min,  0.016 sec ( 47.389%)
 printout                       ...        0 min,  0.000 sec (  0.901%)

         :::::::::::::::::::::::::::::::::::::::::::::::::::::
         ::                     SUMMARY                     ::
         :::::::::::::::::::::::::::::::::::::::::::::::::::::
         :: total energy             -46.467139653097 Eh    ::
         :: gradient norm              0.000481672675 Eh/a0 ::
         :: HOMO-LUMO gap              4.001159452257 eV    ::
         ::.................................................::
         :: SCC energy               -47.120987355243 Eh    ::
         :: -> isotropic ES            0.045230210266 Eh    ::
         :: -> anisotropic ES          0.002430042874 Eh    ::
         :: -> anisotropic XC          0.007540393696 Eh    ::
         :: -> dispersion             -0.027405401671 Eh    ::
         :: repulsion energy           0.653615468508 Eh    ::
         :: add. restraining           0.000000000000 Eh    ::
         :: total charge              -0.000000000000 e     ::
         :::::::::::::::::::::::::::::::::::::::::::::::::::::

           -------------------------------------------------
          |                Property Printout                |
           -------------------------------------------------

    * Orbital Energies and Occupations

         #    Occupation            Energy/Eh            Energy/eV
      -------------------------------------------------------------
         1        2.0000           -0.8146606             -22.1680
       ...           ...                  ...                  ...
        29        2.0000           -0.4790582             -13.0358
        30        2.0000           -0.4741399             -12.9020
        31        2.0000           -0.4662290             -12.6867
        32        2.0000           -0.4638197             -12.6212
        33        2.0000           -0.4582475             -12.4696
        34        2.0000           -0.4564079             -12.4195
        35        2.0000           -0.4503908             -12.2558
        36        2.0000           -0.4430187             -12.0552
        37        2.0000           -0.4253506             -11.5744
        38        2.0000           -0.4129837             -11.2379
        39        2.0000           -0.4018206             -10.9341
        40        2.0000           -0.3981018             -10.8329
        41        2.0000           -0.3928902             -10.6911 (HOMO)
        42                         -0.2458503              -6.6899 (LUMO)
        43                         -0.2292118              -6.2372
        44                         -0.2246047              -6.1118
        45                         -0.2206857              -6.0052
        46                         -0.1092193              -2.9720
        47                         -0.0938186              -2.5529
        48                          0.0344869               0.9384
        49                          0.0543493               1.4789
        50                          0.0768434               2.0910
        51                          0.0992485               2.7007
        52                          0.1226331               3.3370
       ...                                ...                  ...
        74                          0.6742004              18.3459
      -------------------------------------------------------------
                  HL-Gap            0.1470399 Eh            4.0012 eV
             Fermi-level           -0.3193703 Eh           -8.6905 eV

     #   Z          covCN         q      C6AA      α(0)
     1   6 C        3.758    -0.109    22.635     6.783
     2   6 C        2.971     0.022    27.511     8.604
     3   6 C        2.924    -0.045    29.125     8.850
     4   6 C        2.923    -0.032    28.788     8.799
     5   6 C        2.917    -0.054    29.339     8.882
     6   6 C        2.791     0.169    24.353     8.084
     7   9 F        0.787    -0.229    11.536     4.012
     8   6 C        2.979     0.003    27.943     8.671
     9   6 C        2.974    -0.013    28.345     8.733
    10   6 C        2.853     0.149    24.763     8.156
    11   8 O        1.660    -0.377    20.400     6.097
    12   6 C        2.916    -0.077    29.923     8.970
    13   6 C        2.924    -0.031    28.773     8.797
    14   6 C        2.916    -0.062    29.550     8.914
    15   6 C        2.790     0.165    24.433     8.097
    16   9 F        0.787    -0.224    11.488     4.004
    17   1 H        0.925     0.046     2.376     2.410
    18   1 H        0.925     0.064     2.156     2.296
    19   1 H        0.925     0.045     2.380     2.413
    20   1 H        0.926     0.042     2.425     2.435
    21   1 H        0.926     0.043     2.413     2.429
    22   1 H        0.926     0.055     2.257     2.349
    23   1 H        0.805     0.305     0.705     1.319
    24   1 H        0.925     0.038     2.475     2.460
    25   1 H        0.926     0.048     2.346     2.395
    26   1 H        0.926     0.059     2.206     2.323

 Mol. C6AA /au·bohr⁶  :       8741.268381
 Mol. C8AA /au·bohr⁸  :     214351.707606
 Mol. α(0) /au        :        147.281663


Wiberg/Mayer (AO) data.
largest (>0.10) Wiberg bond orders for each atom

 ---------------------------------------------------------------------------
     #   Z sym  total        # sym  WBO       # sym  WBO       # sym  WBO
 ---------------------------------------------------------------------------
     1   6 C    3.996 --     2 C    1.029    19 H    0.984    17 H    0.976
                            18 H    0.964
     2   6 C    3.988 --     3 C    1.412     8 C    1.373     1 C    1.029
                             5 C    0.105
     3   6 C    3.990 --     4 C    1.444     2 C    1.412    20 H    0.968
     4   6 C    3.990 --     3 C    1.444     5 C    1.433    21 H    0.970
                             8 C    0.105
     5   6 C    3.988 --     4 C    1.433     6 C    1.403    22 H    0.967
                             2 C    0.105
     6   6 C    3.885 --     5 C    1.403     8 C    1.363     7 F    0.956
     7   9 F    1.086 --     6 C    0.956
     8   6 C    3.988 --     2 C    1.373     6 C    1.363     9 C    1.017
                             4 C    0.105
     9   6 C    3.986 --    15 C    1.376    10 C    1.323     8 C    1.017
                            13 C    0.103
    10   6 C    3.942 --    12 C    1.374     9 C    1.323    11 O    1.088
    11   8 O    2.141 --    10 C    1.088    23 H    0.885
    12   6 C    3.985 --    13 C    1.443    10 C    1.374    24 H    0.965
    13   6 C    3.989 --    12 C    1.443    14 C    1.435    25 H    0.970
                             9 C    0.103
    14   6 C    3.987 --    13 C    1.435    15 C    1.392    26 H    0.967
    15   6 C    3.886 --    14 C    1.392     9 C    1.376    16 F    0.959
    16   9 F    1.090 --    15 C    0.959
    17   1 H    0.998 --     1 C    0.976
    18   1 H    0.996 --     1 C    0.964
    19   1 H    0.998 --     1 C    0.984
    20   1 H    0.997 --     3 C    0.968
    21   1 H    0.998 --     4 C    0.970
    22   1 H    0.996 --     5 C    0.967
    23   1 H    0.906 --    11 O    0.885
    24   1 H    0.998 --    12 C    0.965
    25   1 H    0.997 --    13 C    0.970
    26   1 H    0.996 --    14 C    0.967
 ---------------------------------------------------------------------------

Topologies differ in total number of bonds
Writing topology from bond orders to xtbtopo.mol

molecular dipole:
                 x           y           z       tot (Debye)
 q only:       -0.289       0.792      -0.631
   full:       -0.508       0.776      -0.783       3.085
molecular quadrupole (traceless):
                xx          xy          yy          xz          yz          zz
 q only:        9.516      -0.324      -6.587       4.222       0.460      -2.930
  q+dip:       13.310      -1.299      -9.044       5.331       1.649      -4.266
   full:       10.801      -0.789      -7.775       5.565       0.527      -3.027

           -------------------------------------------------
          |                Geometry Summary                 |
           -------------------------------------------------

      molecular mass/u    :      220.2151854
   center of mass at/Å    :       -0.0709468      -0.3115892       0.0284147
  moments of inertia/u·Å² :        0.5681011E+03   0.1109328E+04   0.1322633E+04
rotational constants/cm⁻¹ :        0.2967365E-01   0.1519625E-01   0.1274551E-01

 * 23 selected distances

     #   Z          #   Z                                           value/Å
     2   6 C        3   6 C                                       1.3889449
     3   6 C        4   6 C                                       1.3829678
     4   6 C        5   6 C                                       1.3833904
     5   6 C        6   6 C                                       1.3803175
     2   6 C        8   6 C                                       1.3961225
     6   6 C        8   6 C                                       1.3899790
     9   6 C       10   6 C                                       1.4004435 (max)
    10   6 C       11   8 O                                       1.3555694
    10   6 C       12   6 C                                       1.3896828
    12   6 C       13   6 C                                       1.3829935
    13   6 C       14   6 C                                       1.3826374
     9   6 C       15   6 C                                       1.3871082
    14   6 C       15   6 C                                       1.3824895
     1   6 C       17   1 H                                       1.0888243
     1   6 C       18   1 H                                       1.0899406
     1   6 C       19   1 H                                       1.0872288
     3   6 C       20   1 H                                       1.0801741
     4   6 C       21   1 H                                       1.0793487
     5   6 C       22   1 H                                       1.0783118
    11   8 O       23   1 H                                       0.9647007 (min)
    12   6 C       24   1 H                                       1.0815146
    13   6 C       25   1 H                                       1.0788302
    14   6 C       26   1 H                                       1.0777631

 * 4 distinct bonds (by element types)

   Z      Z             #   av. dist./Å        max./Å        min./Å
   1 H    6 C           9     1.0824373     1.0899406     1.0777631
   6 C    6 C          12     1.3872564     1.4004435     1.3803175
   1 H    8 O           1     0.9647007     0.9647007     0.9647007
   6 C    8 O           1     1.3555694     1.3555694     1.3555694


optimized geometry written to: xtbopt.xyz


           -------------------------------------------------
          | TOTAL ENERGY              -46.467139653097 Eh   |
          | GRADIENT NORM               0.000481672675 Eh/α |
          | HOMO-LUMO GAP               4.001159452257 eV   |
           -------------------------------------------------

------------------------------------------------------------------------
 * finished run on 2025/08/28 at 10:02:11.300     
------------------------------------------------------------------------
 total:
 * wall-time:     0 d,  0 h,  0 min,  2.035 sec
 *  cpu-time:     0 d,  0 h,  0 min,  3.957 sec
 * ratio c/w:     1.945 speedup
 SCF:
 * wall-time:     0 d,  0 h,  0 min,  0.171 sec
 *  cpu-time:     0 d,  0 h,  0 min,  0.304 sec
 * ratio c/w:     1.781 speedup
 ANC optimizer:
 * wall-time:     0 d,  0 h,  0 min,  1.728 sec
 *  cpu-time:     0 d,  0 h,  0 min,  3.440 sec
 * ratio c/w:     1.991 speedup

