26
 energy: -46.467139653097 gnorm: 0.000481672675 xtb: 6.6.1 (8d0f1dd)
C            1.04436734287582        2.02851215779151        0.77794174582782
C            1.56969819402005        0.69454400870180        0.34524134698786
C            2.93728507598899        0.46256677585023        0.27410677164815
C            3.44003613556991       -0.76124696045096       -0.12853549487861
C            2.57793095174819       -1.78645316372547       -0.47421671404812
C            1.21915388010484       -1.55415626138168       -0.40322970086495
F            0.37347139664319       -2.55853080869384       -0.72506458490560
C            0.69046933739928       -0.33522511356047        0.00510922300771
C           -0.77834360854757       -0.16956948830652        0.05470617755488
C           -1.52980108920564       -0.20099944307251       -1.12663433454248
O           -0.85748900972724       -0.31473178324659       -2.29822702684525
C           -2.91428897520466       -0.09224911234836       -1.07579464804432
C           -3.56350485361814        0.04642459744937        0.13744855337977
C           -2.84198643448830        0.08334996024516        1.31631820163604
C           -1.46548812387968       -0.02753790829095        1.25125463304664
F           -0.76314585871251       -0.00735293576432        2.40471013311931
H            0.19464017016398        2.32668691297505        0.16590120725163
H            0.71134196502858        1.98065090416730        1.81465468884190
H            1.81920963179194        2.78766685964114        0.70466296839617
H            3.61821707544820        1.25851379855619        0.53787901206408
H            4.50675072781819       -0.91876083939166       -0.17652280363703
H            2.93909090780823       -2.75118541968328       -0.79298185398218
H           -1.48153225361708       -0.38260471172866       -3.03076410963400
H           -3.48250655631200       -0.12079136649071       -1.99557057891963
H           -4.63912151393401        0.12556771294895        0.16312936300269
H           -3.32445351516102        0.18691062780928        2.27447982453778
