 Entering Gaussian System, Link 0=/path/to/g16
 Initial command:
 /path/to/g16 "path/to/scratch/gaussian_tmp/Gau-1017163.inp" -scrdir="path/to/scratch/gaussian_tmp/"
 Entering Link 1 = /path/to/g16 PID=   1017164.
  
 Copyright (c) 1988-2021, Gaussian, Inc.  All Rights Reserved.
  
 This is part of the Gaussian(R) 16 program.  It is based on
 the Gaussian(R) 09 system (copyright 2009, Gaussian, Inc.),
 the Gaussian(R) 03 system (copyright 2003, Gaussian, Inc.),
 the Gaussian(R) 98 system (copyright 1998, Gaussian, Inc.),
 the Gaussian(R) 94 system (copyright 1995, Gaussian, Inc.),
 the Gaussian 92(TM) system (copyright 1992, Gaussian, Inc.),
 the Gaussian 90(TM) system (copyright 1990, Gaussian, Inc.),
 the Gaussian 88(TM) system (copyright 1988, Gaussian, Inc.),
 the Gaussian 86(TM) system (copyright 1986, Carnegie Mellon
 University), and the Gaussian 82(TM) system (copyright 1983,
 Carnegie Mellon University). Gaussian is a federally registered
 trademark of Gaussian, Inc.
  
 This software contains proprietary and confidential information,
 including trade secrets, belonging to Gaussian, Inc.
  
 This software is provided under written license and may be
 used, copied, transmitted, or stored only in accord with that
 written license.
  
 The following legend is applicable only to US Government
 contracts under FAR:
  
                    RESTRICTED RIGHTS LEGEND
  
 Use, reproduction and disclosure by the US Government is
 subject to restrictions as set forth in subparagraphs (a)
 and (c) of the Commercial Computer Software - Restricted
 Rights clause in FAR 52.227-19.
  
 Gaussian, Inc.
 340 Quinnipiac St., Bldg. 40, Wallingford CT 06492
  
  
 ---------------------------------------------------------------
 Warning -- This program may not be used in any manner that
 competes with the business of Gaussian, Inc. or will provide
 assistance to any competitor of Gaussian, Inc.  The licensee
 of this program is prohibited from giving any competitor of
 Gaussian, Inc. access to this program.  By using this program,
 the user acknowledges that Gaussian, Inc. is engaged in the
 business of creating and licensing software in the field of
 computational chemistry and represents and warrants to the
 licensee that it is not a competitor of Gaussian, Inc. and that
 it will not use this program in any manner prohibited above.
 ---------------------------------------------------------------
  

 Cite this work as:
 Gaussian 16, Revision C.02,
 M. J. Frisch, G. W. Trucks, H. B. Schlegel, G. E. Scuseria, 
 M. A. Robb, J. R. Cheeseman, G. Scalmani, V. Barone, 
 G. A. Petersson, H. Nakatsuji, X. Li, M. Caricato, A. V. Marenich, 
 J. Bloino, B. G. Janesko, R. Gomperts, B. Mennucci, H. P. Hratchian, 
 J. V. Ortiz, A. F. Izmaylov, J. L. Sonnenberg, D. Williams-Young, 
 F. Ding, F. Lipparini, F. Egidi, J. Goings, B. Peng, A. Petrone, 
 T. Henderson, D. Ranasinghe, V. G. Zakrzewski, J. Gao, N. Rega, 
 G. Zheng, W. Liang, M. Hada, M. Ehara, K. Toyota, R. Fukuda, 
 J. Hasegawa, M. Ishida, T. Nakajima, Y. Honda, O. Kitao, H. Nakai, 
 T. Vreven, K. Throssell, J. A. Montgomery, Jr., J. E. Peralta, 
 F. Ogliaro, M. J. Bearpark, J. J. Heyd, E. N. Brothers, K. N. Kudin, 
 V. N. Staroverov, T. A. Keith, R. Kobayashi, J. Normand, 
 K. Raghavachari, A. P. Rendell, J. C. Burant, S. S. Iyengar, 
 J. Tomasi, M. Cossi, J. M. Millam, M. Klene, C. Adamo, R. Cammi, 
 J. W. Ochterski, R. L. Martin, K. Morokuma, O. Farkas, 
 J. B. Foresman, and D. J. Fox, Gaussian, Inc., Wallingford CT, 2019.
 
 ******************************************
 Gaussian 16:  ES64L-G16RevC.02  7-Dec-2021
                23-Jul-2026 
 ******************************************
 %mem=8000MB
 %nprocshared=8
 Will use up to    8 processors via shared memory.
 --------------------------------------------
 # PW6B95D3 def2tzvp nosymm integral=NoXCTest
 --------------------------------------------
 1/38=1,172=1/1;
 2/12=2,15=1,17=6,18=5,40=1/2;
 3/5=44,7=101,11=2,25=1,30=1,47=8,74=-76/1,2,3;
 4//1;
 5/5=2,38=5/2;
 6/7=2,8=2,9=2,10=2,28=1/1;
 99/5=1,9=1/99;
 -------
 example
 -------
 Symbolic Z-matrix:
 Charge =  0 Multiplicity = 1
 C                    -1.08208   2.50668  -1.24824 
 C                    -1.50318   1.20463  -0.58267 
 C                    -2.87864   1.17586  -0.2586 
 C                    -3.58488   0.0038    0.02932 
 C                    -2.91248  -1.20603  -0.16094 
 C                    -1.55075  -1.16499  -0.4505 
 F                    -1.04517  -2.38855  -0.85412 
 C                    -0.70693  -0.00911  -0.44419 
 C                     0.78887  -0.11877  -0.31257 
 C                     1.51816  -1.33541   0.0354 
 O                     0.98705  -2.47934   0.5214 
 C                     2.9334   -1.3904   -0.00425 
 C                     3.71275  -0.25995  -0.22552 
 C                     3.06471   0.97424  -0.35375 
 C                     1.67029   1.01367  -0.33632 
 F                     1.16873   2.26546  -0.26868 
 H                    -1.95974   2.88914  -1.80758 
 H                    -0.77382   3.29496  -0.53545 
 H                    -0.26261   2.36682  -1.97337 
 H                    -3.42641   2.1306   -0.30747 
 H                    -4.65363   0.02762   0.28834 
 H                    -3.41494  -2.1838   -0.14127 
 H                     0.0856   -2.63431   0.17078 
 H                     3.38087  -2.37304   0.20175 
 H                     4.81092  -0.32644  -0.2473 
 H                     3.60372   1.92998  -0.41489 
 
                          Input orientation:                          
 ---------------------------------------------------------------------
 Center     Atomic      Atomic             Coordinates (Angstroms)
 Number     Number       Type             X           Y           Z
 ---------------------------------------------------------------------
      1          6           0       -1.082079    2.506680   -1.248244
      2          6           0       -1.503184    1.204629   -0.582673
      3          6           0       -2.878640    1.175857   -0.258596
      4          6           0       -3.584876    0.003797    0.029316
      5          6           0       -2.912480   -1.206034   -0.160943
      6          6           0       -1.550750   -1.164988   -0.450496
      7          9           0       -1.045171   -2.388553   -0.854123
      8          6           0       -0.706929   -0.009107   -0.444194
      9          6           0        0.788867   -0.118774   -0.312565
     10          6           0        1.518162   -1.335406    0.035396
     11          8           0        0.987051   -2.479339    0.521396
     12          6           0        2.933398   -1.390402   -0.004250
     13          6           0        3.712754   -0.259945   -0.225524
     14          6           0        3.064713    0.974243   -0.353748
     15          6           0        1.670292    1.013665   -0.336315
     16          9           0        1.168725    2.265457   -0.268684
     17          1           0       -1.959736    2.889138   -1.807584
     18          1           0       -0.773818    3.294964   -0.535452
     19          1           0       -0.262608    2.366820   -1.973367
     20          1           0       -3.426409    2.130602   -0.307469
     21          1           0       -4.653629    0.027623    0.288338
     22          1           0       -3.414943   -2.183796   -0.141265
     23          1           0        0.085604   -2.634309    0.170776
     24          1           0        3.380872   -2.373043    0.201750
     25          1           0        4.810923   -0.326441   -0.247301
     26          1           0        3.603721    1.929977   -0.414886
 ---------------------------------------------------------------------
                    Distance matrix (angstroms):
                    1          2          3          4          5
     1  C    0.000000
     2  C    1.521726   0.000000
     3  C    2.445020   1.413412   0.000000
     4  C    3.763054   2.479913   1.398352   0.000000
     5  C    4.279817   2.824052   2.384132   1.397142   0.000000
     6  C    3.786450   2.373777   2.698087   2.394566   1.392779
     7  F    4.911212   3.632412   4.052318   3.599153   2.316396
     8  C    2.667662   1.458202   2.480910   2.916669   2.525336
     9  C    3.356925   2.660423   3.889677   4.388796   3.860711
    10  C    4.813586   3.995287   5.071956   5.275841   4.436877
    11  O    5.680960   4.581687   5.377026   5.225957   4.158513
    12  C    5.732262   5.172235   6.358472   6.665794   5.850883
    13  C    5.629440   5.429414   6.746043   7.306840   6.692756
    14  C    4.510473   4.579429   5.947533   6.730939   6.365345
    15  C    3.261327   3.188747   4.552486   5.363796   5.095058
    16  F    2.466545   2.891893   4.191479   5.272631   5.359020
    17  H    1.108791   2.132233   2.485776   3.786882   4.515482
    18  H    1.106566   2.214431   2.999590   4.364950   4.997311
    19  H    1.103131   2.196303   3.347007   4.542255   4.803331
    20  H    2.553894   2.152198   1.101806   2.159128   3.379162
    21  H    4.611158   3.474091   2.183613   1.099951   2.180679
    22  H    5.354271   3.915493   3.404211   2.200804   1.099488
    23  H    5.459567   4.222485   4.846490   4.522393   3.337441
    24  H    6.769942   6.104839   7.210277   7.362116   6.410908
    25  H    6.614827   6.505736   7.834948   8.406843   7.773808
    26  H    4.794142   5.160888   6.527950   7.455428   7.236016
                    6          7          8          9         10
     6  C    0.000000
     7  F    1.384065   0.000000
     8  C    1.431130   2.438076   0.000000
     9  C    2.566592   2.967975   1.505576   0.000000
    10  C    3.111809   2.910505   2.634408   1.460528   0.000000
    11  O    3.018696   2.455651   3.147059   2.511381   1.351613
    12  C    4.511932   4.188986   3.918355   2.512192   1.416859
    13  C    5.345483   5.250139   4.432193   2.928587   2.457830
    14  C    5.088042   5.333847   3.898774   2.525046   2.806730
    15  C    3.890331   4.383714   2.590151   1.435232   2.383159
    16  F    4.381387   5.186895   2.953392   2.414700   3.630535
    17  H    4.294752   5.440546   3.439212   4.340211   5.774004
    18  H    4.527915   5.698908   3.306008   3.761020   5.198016
    19  H    4.056121   4.947594   2.860213   3.168918   4.573046
    20  H    3.794663   5.137303   3.463036   4.777894   6.048103
    21  H    3.405298   4.490445   4.014274   5.477525   6.325570
    22  H    2.146814   2.483125   3.486313   4.686756   5.008642
    23  H    2.285287   1.545790   2.810335   2.656335   1.938479
    24  H    5.119152   4.550271   4.766084   3.473433   2.138704
    25  H    6.419917   6.238139   5.530475   4.027942   3.455460
    26  H    6.012375   6.360411   4.726797   3.482995   3.900646
                   11         12         13         14         15
    11  O    0.000000
    12  C    2.291365   0.000000
    13  C    3.593474   1.390788   0.000000
    14  C    4.124292   2.393938   1.399864   0.000000
    15  C    3.661088   2.735917   2.409566   1.395087   0.000000
    16  F    4.813556   4.068083   3.584913   2.295483   1.350232
    17  H    6.551965   6.746053   6.678082   5.570058   4.342711
    18  H    6.128635   5.998190   5.732605   4.489218   3.349277
    19  H    5.592025   5.311176   5.075269   3.953922   2.871771
    20  H    6.435620   7.275751   7.529215   6.593480   5.217733
    21  H    6.177090   7.723949   8.387080   7.802638   6.430742
    22  H    4.461392   6.399194   7.383249   7.211401   6.010110
    23  H    0.979570   3.112534   4.353260   4.708701   4.009500
    24  H    2.417406   1.099205   2.181259   3.407764   3.832152
    25  H    4.455094   2.171678   1.100396   2.179991   3.415753
    26  H    5.212068   3.412165   2.200796   1.098952   2.141016
                   16         17         18         19         20
    16  F    0.000000
    17  H    3.541816   0.000000
    18  H    2.214616   1.785894   0.000000
    19  H    2.228213   1.783408   1.786165   0.000000
    20  H    4.597276   2.230886   2.905848   3.583386   0.000000
    21  H    6.262426   4.454011   5.138782   5.465182   2.506706
    22  H    6.389217   5.534339   6.094894   5.831117   4.317613
    23  H    5.037259   6.213356   6.032714   5.452512   5.938630
    24  H    5.160483   7.762092   7.066203   6.361791   8.178092
    25  H    4.470347   7.656125   6.662352   5.997806   8.596180
    26  H    2.462342   5.814779   4.587000   4.191443   7.033812
                   21         22         23         24         25
    21  H    0.000000
    22  H    2.570851   0.000000
    23  H    5.436914   3.543185   0.000000
    24  H    8.385935   6.807097   3.305754   0.000000
    25  H    9.486307   8.433616   5.275385   2.536784   0.000000
    26  H    8.502782   8.140003   5.792483   4.352687   2.564536
                   26
    26  H    0.000000
 Symmetry turned off by external request.
 Stoichiometry    C13H10F2O
 Framework group  C1[X(C13H10F2O)]
 Deg. of freedom    72
 Full point group                 C1      NOp   1
 Rotational constants (GHZ):           0.8392625           0.4706823           0.3127272
 Standard basis: def2TZVP (5D, 7F)
   556 basis functions,   896 primitive gaussians,   636 cartesian basis functions
    57 alpha electrons       57 beta electrons
       nuclear repulsion energy      1069.5390842721 Hartrees.
 NAtoms=   26 NActive=   26 NUniq=   26 SFac= 1.00D+00 NAtFMM=   60 NAOKFM=F Big=F
 Integral buffers will be    131072 words long.
 Raffenetti 2 integral format.
 Two-electron integral symmetry is turned off.
 Nuclear repulsion after empirical dispersion term =     1069.5221187347 Hartrees.
 One-electron integrals computed using PRISM.
   1 Symmetry operations used in ECPInt.
 ECPInt:  NShTT=   23436 NPrTT=   72772 LenC2=   21682 LenP2D=   49497.
 LDataN:  DoStor=T MaxTD1= 6 Len=  172
 NBasis=   556 RedAO= T EigKep=  1.40D-05  NBF=   556
 NBsUse=   556 1.00D-06 EigRej= -1.00D+00 NBFU=   556
 ExpMin= 9.52D-02 ExpMax= 3.55D+04 ExpMxC= 1.21D+03 IAcc=3 IRadAn=         5 AccDes= 0.00D+00
 Harris functional with IExCor= 7409 and IRadAn=       5 diagonalized for initial guess.
 HarFok:  IExCor= 7409 AccDes= 0.00D+00 IRadAn=         5 IDoV= 1 UseB2=F ITyADJ=14
 ICtDFT=  3500011 ScaDFX=  1.000000  1.000000  1.000000  1.000000
 FoFCou: FMM=F IPFlag=           8 FMFlag=      100000 FMFlg1=           0
         NFxFlg=           0 DoJE=T BraDBF=F KetDBF=T FulRan=T
         wScrn=  0.000000 ICntrl=       500 IOpCl=  0 I1Cent=   200000004 NGrid=           0
         NMat0=    1 NMatS0=      1 NMatT0=    0 NMatD0=    1 NMtDS0=    0 NMtDT0=    0
 Symmetry not used in FoFCou.
 Requested convergence on RMS density matrix=1.00D-08 within 128 cycles.
 Requested convergence on MAX density matrix=1.00D-06.
 Requested convergence on             energy=1.00D-06.
 No special actions if energy rises.
 Integral accuracy reduced to 1.0D-05 until final iterations.
 Problem detected with inexpensive integrals.
 Switching to full accuracy and repeating last cycle.
 SCF Done:  E(RPW6B95D3) =  -777.527506728     A.U. after   18 cycles
            NFock= 18  Conv=0.77D-08     -V/T= 2.0051

 **********************************************************************

            Population analysis using the SCF Density.

 **********************************************************************

 Alpha  occ. eigenvalues --  -24.91287 -24.88498 -19.31615 -10.40327 -10.39553
 Alpha  occ. eigenvalues --  -10.38027 -10.35328 -10.34217 -10.33704 -10.31858
 Alpha  occ. eigenvalues --  -10.31711 -10.31304 -10.30940 -10.30160 -10.29785
 Alpha  occ. eigenvalues --  -10.29693  -1.29099  -1.27102  -1.09121  -0.90406
 Alpha  occ. eigenvalues --   -0.88002  -0.81813  -0.80347  -0.76894  -0.76071
 Alpha  occ. eigenvalues --   -0.71913  -0.67726  -0.64728  -0.63407  -0.62027
 Alpha  occ. eigenvalues --   -0.59440  -0.56169  -0.55384  -0.53714  -0.52335
 Alpha  occ. eigenvalues --   -0.51081  -0.50512  -0.49727  -0.49149  -0.46840
 Alpha  occ. eigenvalues --   -0.46163  -0.45133  -0.44350  -0.43288  -0.43155
 Alpha  occ. eigenvalues --   -0.40812  -0.39938  -0.39245  -0.38847  -0.37581
 Alpha  occ. eigenvalues --   -0.36673  -0.36393  -0.35156  -0.31272  -0.26603
 Alpha  occ. eigenvalues --   -0.24913  -0.23684
 Alpha virt. eigenvalues --   -0.06293  -0.01697   0.00222   0.00888   0.04776
 Alpha virt. eigenvalues --    0.05154   0.06104   0.07589   0.08269   0.09585
 Alpha virt. eigenvalues --    0.10038   0.10873   0.11082   0.12112   0.12121
 Alpha virt. eigenvalues --    0.13698   0.14398   0.14807   0.16254   0.17025
 Alpha virt. eigenvalues --    0.18161   0.18398   0.19193   0.20123   0.21102
 Alpha virt. eigenvalues --    0.21461   0.22129   0.22486   0.23097   0.24006
 Alpha virt. eigenvalues --    0.24529   0.24660   0.25529   0.26581   0.27403
 Alpha virt. eigenvalues --    0.28051   0.28462   0.29248   0.29996   0.30576
 Alpha virt. eigenvalues --    0.31287   0.32335   0.32742   0.33428   0.33626
 Alpha virt. eigenvalues --    0.33960   0.34430   0.34971   0.36119   0.36235
 Alpha virt. eigenvalues --    0.37390   0.37788   0.38106   0.38874   0.39622
 Alpha virt. eigenvalues --    0.40355   0.41115   0.41552   0.42301   0.42838
 Alpha virt. eigenvalues --    0.43406   0.44048   0.44224   0.44940   0.45384
 Alpha virt. eigenvalues --    0.45706   0.46147   0.46630   0.46986   0.47780
 Alpha virt. eigenvalues --    0.48541   0.48870   0.49054   0.50449   0.51953
 Alpha virt. eigenvalues --    0.52253   0.53253   0.55332   0.56422   0.56857
 Alpha virt. eigenvalues --    0.57736   0.59103   0.59685   0.60071   0.61475
 Alpha virt. eigenvalues --    0.63290   0.64289   0.64881   0.65563   0.66052
 Alpha virt. eigenvalues --    0.66314   0.67123   0.67634   0.69491   0.70550
 Alpha virt. eigenvalues --    0.71487   0.71951   0.73035   0.73675   0.74914
 Alpha virt. eigenvalues --    0.75852   0.77823   0.78114   0.79825   0.80274
 Alpha virt. eigenvalues --    0.81695   0.82372   0.82455   0.83333   0.83602
 Alpha virt. eigenvalues --    0.85484   0.86197   0.86632   0.87904   0.88759
 Alpha virt. eigenvalues --    0.89013   0.89617   0.91134   0.92334   0.93340
 Alpha virt. eigenvalues --    0.94264   0.95822   0.96900   0.97958   0.99479
 Alpha virt. eigenvalues --    1.00745   1.01205   1.02539   1.04068   1.04714
 Alpha virt. eigenvalues --    1.06079   1.06567   1.06869   1.08580   1.09590
 Alpha virt. eigenvalues --    1.11839   1.12094   1.13242   1.13406   1.13739
 Alpha virt. eigenvalues --    1.15254   1.16705   1.18409   1.18956   1.20506
 Alpha virt. eigenvalues --    1.21922   1.23762   1.24955   1.25711   1.26246
 Alpha virt. eigenvalues --    1.27288   1.27589   1.28881   1.29788   1.30745
 Alpha virt. eigenvalues --    1.32024   1.34323   1.34715   1.35734   1.37881
 Alpha virt. eigenvalues --    1.39052   1.40329   1.41264   1.41806   1.42981
 Alpha virt. eigenvalues --    1.43724   1.46266   1.46721   1.48311   1.49605
 Alpha virt. eigenvalues --    1.50936   1.51641   1.52077   1.53324   1.54277
 Alpha virt. eigenvalues --    1.55023   1.55830   1.56301   1.58251   1.59451
 Alpha virt. eigenvalues --    1.61235   1.62365   1.63090   1.64470   1.64941
 Alpha virt. eigenvalues --    1.65547   1.67382   1.67761   1.68707   1.69778
 Alpha virt. eigenvalues --    1.71152   1.72164   1.73390   1.75486   1.76415
 Alpha virt. eigenvalues --    1.77323   1.81371   1.83358   1.84875   1.85482
 Alpha virt. eigenvalues --    1.86211   1.87723   1.88643   1.89201   1.91132
 Alpha virt. eigenvalues --    1.92102   1.94001   1.95068   1.95731   1.97268
 Alpha virt. eigenvalues --    1.97946   1.99315   2.02448   2.02896   2.04597
 Alpha virt. eigenvalues --    2.06351   2.06718   2.07036   2.08050   2.09224
 Alpha virt. eigenvalues --    2.11477   2.13221   2.14096   2.15371   2.15860
 Alpha virt. eigenvalues --    2.17781   2.18063   2.19966   2.21284   2.22969
 Alpha virt. eigenvalues --    2.23331   2.24816   2.25712   2.26775   2.27931
 Alpha virt. eigenvalues --    2.30090   2.32851   2.34031   2.36318   2.37001
 Alpha virt. eigenvalues --    2.38363   2.40408   2.42102   2.42335   2.42969
 Alpha virt. eigenvalues --    2.44808   2.45849   2.47162   2.47854   2.50493
 Alpha virt. eigenvalues --    2.51899   2.52418   2.53193   2.54661   2.54875
 Alpha virt. eigenvalues --    2.55633   2.57363   2.57803   2.57928   2.58895
 Alpha virt. eigenvalues --    2.59613   2.63046   2.63282   2.63691   2.64286
 Alpha virt. eigenvalues --    2.65418   2.66513   2.67076   2.67693   2.69552
 Alpha virt. eigenvalues --    2.70657   2.71338   2.73008   2.73938   2.74829
 Alpha virt. eigenvalues --    2.75431   2.76255   2.76978   2.77534   2.78507
 Alpha virt. eigenvalues --    2.80721   2.81798   2.82817   2.83522   2.84278
 Alpha virt. eigenvalues --    2.85771   2.87518   2.88214   2.88679   2.89712
 Alpha virt. eigenvalues --    2.91471   2.93070   2.93755   2.95790   2.96729
 Alpha virt. eigenvalues --    2.97436   2.98385   2.99017   2.99318   3.00401
 Alpha virt. eigenvalues --    3.01683   3.02047   3.03186   3.03329   3.03863
 Alpha virt. eigenvalues --    3.05304   3.05967   3.06699   3.07809   3.09093
 Alpha virt. eigenvalues --    3.09330   3.10616   3.11459   3.12784   3.13509
 Alpha virt. eigenvalues --    3.14015   3.15337   3.15696   3.17078   3.18610
 Alpha virt. eigenvalues --    3.18770   3.20012   3.21284   3.22729   3.23193
 Alpha virt. eigenvalues --    3.24255   3.24710   3.26211   3.26617   3.27513
 Alpha virt. eigenvalues --    3.28399   3.28639   3.29762   3.30732   3.31392
 Alpha virt. eigenvalues --    3.31683   3.33713   3.34927   3.35419   3.35786
 Alpha virt. eigenvalues --    3.36857   3.37688   3.38707   3.40484   3.41177
 Alpha virt. eigenvalues --    3.41819   3.44427   3.45153   3.46621   3.47047
 Alpha virt. eigenvalues --    3.47513   3.48231   3.48765   3.49284   3.50822
 Alpha virt. eigenvalues --    3.52338   3.52862   3.54411   3.55517   3.57465
 Alpha virt. eigenvalues --    3.58329   3.59398   3.62195   3.62537   3.64406
 Alpha virt. eigenvalues --    3.66438   3.68269   3.69264   3.70584   3.72300
 Alpha virt. eigenvalues --    3.73952   3.76988   3.78653   3.79848   3.82007
 Alpha virt. eigenvalues --    3.82880   3.84532   3.88519   3.88660   3.91326
 Alpha virt. eigenvalues --    3.92564   3.93137   3.94864   3.95571   3.96709
 Alpha virt. eigenvalues --    3.96870   3.98698   4.00036   4.01747   4.03015
 Alpha virt. eigenvalues --    4.05866   4.07526   4.08596   4.10763   4.12238
 Alpha virt. eigenvalues --    4.14086   4.14605   4.17105   4.17963   4.18935
 Alpha virt. eigenvalues --    4.20911   4.21741   4.23889   4.24865   4.26265
 Alpha virt. eigenvalues --    4.27414   4.28704   4.31235   4.32315   4.34198
 Alpha virt. eigenvalues --    4.36237   4.37554   4.39761   4.40736   4.44548
 Alpha virt. eigenvalues --    4.47697   4.49568   4.53439   4.53860   4.58004
 Alpha virt. eigenvalues --    4.59589   4.61777   4.66727   4.67997   4.69613
 Alpha virt. eigenvalues --    4.72190   4.79414   4.81393   4.85200   4.89390
 Alpha virt. eigenvalues --    4.90086   4.96029   4.99621   5.01288   5.02583
 Alpha virt. eigenvalues --    5.06036   5.08091   5.12286   5.14262   5.18833
 Alpha virt. eigenvalues --    5.24402   5.28283   5.30955   5.32400   5.38422
 Alpha virt. eigenvalues --    5.43845   5.50907   5.57940   5.62690   5.67982
 Alpha virt. eigenvalues --    5.83506   5.95512   6.26495   6.31273   6.53751
 Alpha virt. eigenvalues --    6.68696   6.79670   6.85238   6.88281   6.89251
 Alpha virt. eigenvalues --    6.91439   6.96128   6.99129   7.02684   7.04577
 Alpha virt. eigenvalues --    7.08292   7.15626   7.22081   7.27746   7.34628
 Alpha virt. eigenvalues --    7.37811   7.42948   7.51721   8.41397   8.45372
 Alpha virt. eigenvalues --    8.54400   8.59628   8.72209   8.76038   8.90215
 Alpha virt. eigenvalues --    8.98706   9.01943   9.06260  22.11696  22.31335
 Alpha virt. eigenvalues --   22.40684  22.58815  22.59890  22.63509  22.64751
 Alpha virt. eigenvalues --   22.75569  22.83165  22.84883  22.99047  23.04576
 Alpha virt. eigenvalues --   23.48247  44.03813  57.39109  57.47171
          Condensed to atoms (all electrons):
               1          2          3          4          5          6
     1  C    4.991348   0.291750  -0.057207   0.007168   0.001709   0.006661
     2  C    0.291750   5.172097   0.440262   0.043583  -0.103547   0.036855
     3  C   -0.057207   0.440262   5.033734   0.435796   0.026293  -0.131707
     4  C    0.007168   0.043583   0.435796   4.967786   0.405352   0.056091
     5  C    0.001709  -0.103547   0.026293   0.405352   5.046457   0.400175
     6  C    0.006661   0.036855  -0.131707   0.056091   0.400175   5.295710
     7  F   -0.000080  -0.000172  -0.000437   0.008007  -0.041114   0.195006
     8  C   -0.057147   0.273415   0.021717  -0.110974   0.050265   0.089099
     9  C   -0.001491  -0.036754   0.010753   0.001408   0.004462   0.004075
    10  C    0.002924   0.025201   0.000508  -0.001579   0.006312  -0.078671
    11  O    0.000051   0.003261  -0.000534   0.000748  -0.003551   0.035200
    12  C   -0.000329  -0.002634   0.000135  -0.000039  -0.000092   0.009107
    13  C    0.000504  -0.000026  -0.000014  -0.000003   0.000057  -0.001847
    14  C   -0.002214  -0.000428   0.000037  -0.000005  -0.000062  -0.000440
    15  C   -0.010095  -0.032456   0.002832  -0.000698  -0.001403   0.003053
    16  F   -0.012382   0.003826   0.000369  -0.000002   0.000006   0.001634
    17  H    0.393995  -0.043410  -0.008679   0.002116   0.000099   0.000616
    18  H    0.407172  -0.032970  -0.000103  -0.000116  -0.000180  -0.000705
    19  H    0.421346  -0.041050   0.003072  -0.000148  -0.000091   0.000433
    20  H   -0.008286  -0.065975   0.425336  -0.049600   0.008327  -0.000312
    21  H   -0.000572   0.009769  -0.043467   0.411629  -0.044091   0.009479
    22  H    0.000080  -0.001445   0.009504  -0.047195   0.415336  -0.059192
    23  H   -0.000021   0.002268   0.000001   0.000410  -0.000912  -0.033237
    24  H   -0.000003   0.000006   0.000001  -0.000001   0.000004  -0.000170
    25  H    0.000003  -0.000006  -0.000000   0.000000  -0.000000   0.000008
    26  H   -0.000066   0.000052  -0.000001   0.000000  -0.000001   0.000034
               7          8          9         10         11         12
     1  C   -0.000080  -0.057147  -0.001491   0.002924   0.000051  -0.000329
     2  C   -0.000172   0.273415  -0.036754   0.025201   0.003261  -0.002634
     3  C   -0.000437   0.021717   0.010753   0.000508  -0.000534   0.000135
     4  C    0.008007  -0.110974   0.001408  -0.001579   0.000748  -0.000039
     5  C   -0.041114   0.050265   0.004462   0.006312  -0.003551  -0.000092
     6  C    0.195006   0.089099   0.004075  -0.078671   0.035200   0.009107
     7  F    9.102083  -0.044027   0.003184   0.005389  -0.044307  -0.000997
     8  C   -0.044027   5.521564   0.162225   0.007020  -0.012451  -0.012325
     9  C    0.003184   0.162225   5.610490   0.155876  -0.071447   0.076643
    10  C    0.005389   0.007020   0.155876   4.983570   0.347199   0.374163
    11  O   -0.044307  -0.012451  -0.071447   0.347199   7.909032  -0.067758
    12  C   -0.000997  -0.012325   0.076643   0.374163  -0.067758   5.105569
    13  C   -0.000080   0.006364  -0.109371   0.070874   0.002049   0.420049
    14  C    0.000058   0.003048   0.046133  -0.135125   0.001985   0.050473
    15  C    0.002375  -0.014770   0.263142   0.074325  -0.005611  -0.113807
    16  F   -0.000000  -0.008844  -0.050768  -0.000349  -0.000042   0.000805
    17  H    0.000006   0.005656  -0.001033  -0.000128   0.000000   0.000006
    18  H    0.000003  -0.005991   0.002329   0.000160  -0.000001  -0.000029
    19  H   -0.000014  -0.004348  -0.000994   0.000550   0.000002   0.000049
    20  H    0.000014   0.013137  -0.000572  -0.000015  -0.000001   0.000001
    21  H   -0.000160  -0.002271   0.000037  -0.000010   0.000002  -0.000000
    22  H    0.002223   0.017138  -0.000631   0.000325  -0.000139  -0.000001
    23  H    0.037749   0.015406  -0.027827  -0.026488   0.316508   0.000664
    24  H    0.000060  -0.000237   0.013047  -0.050854   0.008525   0.414892
    25  H   -0.000000   0.000048  -0.003705   0.011890  -0.000212  -0.052556
    26  H   -0.000000  -0.000336   0.016835  -0.002942   0.000031   0.010501
              13         14         15         16         17         18
     1  C    0.000504  -0.002214  -0.010095  -0.012382   0.393995   0.407172
     2  C   -0.000026  -0.000428  -0.032456   0.003826  -0.043410  -0.032970
     3  C   -0.000014   0.000037   0.002832   0.000369  -0.008679  -0.000103
     4  C   -0.000003  -0.000005  -0.000698  -0.000002   0.002116  -0.000116
     5  C    0.000057  -0.000062  -0.001403   0.000006   0.000099  -0.000180
     6  C   -0.001847  -0.000440   0.003053   0.001634   0.000616  -0.000705
     7  F   -0.000080   0.000058   0.002375  -0.000000   0.000006   0.000003
     8  C    0.006364   0.003048  -0.014770  -0.008844   0.005656  -0.005991
     9  C   -0.109371   0.046133   0.263142  -0.050768  -0.001033   0.002329
    10  C    0.070874  -0.135125   0.074325  -0.000349  -0.000128   0.000160
    11  O    0.002049   0.001985  -0.005611  -0.000042   0.000000  -0.000001
    12  C    0.420049   0.050473  -0.113807   0.000805   0.000006  -0.000029
    13  C    4.938862   0.376602   0.037697   0.006294  -0.000015   0.000065
    14  C    0.376602   5.102076   0.444439  -0.047750   0.000061  -0.000644
    15  C    0.037697   0.444439   4.896708   0.244667   0.000471  -0.003956
    16  F    0.006294  -0.047750   0.244667   9.075918   0.003012  -0.004520
    17  H   -0.000015   0.000061   0.000471   0.003012   0.578904  -0.030263
    18  H    0.000065  -0.000644  -0.003956  -0.004520  -0.030263   0.550159
    19  H    0.000023   0.001421   0.003771  -0.010792  -0.025869  -0.020143
    20  H   -0.000000   0.000003   0.000129  -0.000022   0.001512   0.000373
    21  H   -0.000000   0.000000   0.000002   0.000000  -0.000068   0.000022
    22  H    0.000000  -0.000000  -0.000008  -0.000000  -0.000003  -0.000003
    23  H    0.001496  -0.001104   0.000818   0.000010  -0.000002   0.000001
    24  H   -0.052510   0.009978  -0.001467   0.000021   0.000000  -0.000000
    25  H    0.419346  -0.049135   0.011728  -0.000204   0.000000   0.000000
    26  H   -0.050485   0.416625  -0.056804   0.003938   0.000004  -0.000034
              19         20         21         22         23         24
     1  C    0.421346  -0.008286  -0.000572   0.000080  -0.000021  -0.000003
     2  C   -0.041050  -0.065975   0.009769  -0.001445   0.002268   0.000006
     3  C    0.003072   0.425336  -0.043467   0.009504   0.000001   0.000001
     4  C   -0.000148  -0.049600   0.411629  -0.047195   0.000410  -0.000001
     5  C   -0.000091   0.008327  -0.044091   0.415336  -0.000912   0.000004
     6  C    0.000433  -0.000312   0.009479  -0.059192  -0.033237  -0.000170
     7  F   -0.000014   0.000014  -0.000160   0.002223   0.037749   0.000060
     8  C   -0.004348   0.013137  -0.002271   0.017138   0.015406  -0.000237
     9  C   -0.000994  -0.000572   0.000037  -0.000631  -0.027827   0.013047
    10  C    0.000550  -0.000015  -0.000010   0.000325  -0.026488  -0.050854
    11  O    0.000002  -0.000001   0.000002  -0.000139   0.316508   0.008525
    12  C    0.000049   0.000001  -0.000000  -0.000001   0.000664   0.414892
    13  C    0.000023  -0.000000  -0.000000   0.000000   0.001496  -0.052510
    14  C    0.001421   0.000003   0.000000  -0.000000  -0.001104   0.009978
    15  C    0.003771   0.000129   0.000002  -0.000008   0.000818  -0.001467
    16  F   -0.010792  -0.000022   0.000000  -0.000000   0.000010   0.000021
    17  H   -0.025869   0.001512  -0.000068  -0.000003  -0.000002   0.000000
    18  H   -0.020143   0.000373   0.000022  -0.000003   0.000001  -0.000000
    19  H    0.537193   0.000464   0.000018  -0.000003   0.000007  -0.000000
    20  H    0.000464   0.568246  -0.006071  -0.000359  -0.000004   0.000000
    21  H    0.000018  -0.006071   0.554052  -0.006588  -0.000001  -0.000000
    22  H   -0.000003  -0.000359  -0.006588   0.543092   0.000259   0.000000
    23  H    0.000007  -0.000004  -0.000001   0.000259   0.366458  -0.000553
    24  H   -0.000000   0.000000  -0.000000   0.000000  -0.000553   0.550042
    25  H   -0.000002  -0.000000   0.000000  -0.000000   0.000035  -0.008092
    26  H   -0.000003  -0.000000  -0.000000   0.000000  -0.000010  -0.000270
              25         26
     1  C    0.000003  -0.000066
     2  C   -0.000006   0.000052
     3  C   -0.000000  -0.000001
     4  C    0.000000   0.000000
     5  C   -0.000000  -0.000001
     6  C    0.000008   0.000034
     7  F   -0.000000  -0.000000
     8  C    0.000048  -0.000336
     9  C   -0.003705   0.016835
    10  C    0.011890  -0.002942
    11  O   -0.000212   0.000031
    12  C   -0.052556   0.010501
    13  C    0.419346  -0.050485
    14  C   -0.049135   0.416625
    15  C    0.011728  -0.056804
    16  F   -0.000204   0.003938
    17  H    0.000000   0.000004
    18  H    0.000000  -0.000034
    19  H   -0.000002  -0.000003
    20  H   -0.000000  -0.000000
    21  H    0.000000  -0.000000
    22  H   -0.000000   0.000000
    23  H    0.000035  -0.000010
    24  H   -0.008092  -0.000270
    25  H    0.562166  -0.006923
    26  H   -0.006923   0.551002
 Mulliken charges:
               1
     1  C   -0.374817
     2  C    0.058526
     3  C   -0.168198
     4  C   -0.129733
     5  C   -0.169810
     6  C    0.163046
     7  F   -0.224769
     8  C    0.087620
     9  C   -0.066043
    10  C    0.229877
    11  O   -0.418538
    12  C   -0.212489
    13  C   -0.065931
    14  C   -0.216030
    15  C    0.254919
    16  F   -0.204823
    17  H    0.123012
    18  H    0.139375
    19  H    0.135108
    20  H    0.113677
    21  H    0.118288
    22  H    0.127610
    23  H    0.348071
    24  H    0.117582
    25  H    0.115614
    26  H    0.118854
 Sum of Mulliken charges =  -0.00000
 Mulliken charges with hydrogens summed into heavy atoms:
               1
     1  C    0.022679
     2  C    0.058526
     3  C   -0.054521
     4  C   -0.011446
     5  C   -0.042200
     6  C    0.163046
     7  F   -0.224769
     8  C    0.087620
     9  C   -0.066043
    10  C    0.229877
    11  O   -0.070466
    12  C   -0.094907
    13  C    0.049683
    14  C   -0.097175
    15  C    0.254919
    16  F   -0.204823
 Electronic spatial extent (au):  <R**2>=           3428.0656
 Charge=             -0.0000 electrons
 Dipole moment (field-independent basis, Debye):
    X=             -1.4071    Y=              0.8287    Z=             -0.5564  Tot=              1.7252
 Quadrupole moment (field-independent basis, Debye-Ang):
   XX=            -76.5255   YY=            -90.3161   ZZ=            -95.9108
   XY=              1.3101   XZ=             -1.1691   YZ=             -1.1185
 Traceless Quadrupole moment (field-independent basis, Debye-Ang):
   XX=             11.0586   YY=             -2.7320   ZZ=             -8.3266
   XY=              1.3101   XZ=             -1.1691   YZ=             -1.1185
 Octapole moment (field-independent basis, Debye-Ang**2):
  XXX=             -2.1859  YYY=             15.1647  ZZZ=             88.0842  XYY=            -14.9169
  XXY=              2.6806  XXZ=             31.2446  XZZ=             -2.9526  YZZ=              8.2164
  YYZ=             24.8962  XYZ=              2.9982
 Hexadecapole moment (field-independent basis, Debye-Ang**3):
 XXXX=          -2515.8495 YYYY=          -1378.4259 ZZZZ=           -259.3220 XXXY=             71.8277
 XXXZ=            -76.8332 YYYX=             79.0303 YYYZ=             93.0308 ZZZX=            -46.4911
 ZZZY=             92.7562 XXYY=           -655.1709 XXZZ=           -574.1663 YYZZ=           -282.0450
 XXYZ=             19.2119 YYXZ=            -17.6996 ZZXY=             24.4253
 N-N= 1.069522118735D+03 E-N=-3.957652263902D+03  KE= 7.736191630814D+02
 Unable to Open any file for archive entry.
 1\1\GINC-SEMLSCPN105\SP\RPW6B95D3\def2TZVP\C13H10F2O1\KTVF206\23-Jul-2
 026\0\\# PW6B95D3 def2tzvp nosymm integral=NoXCTest\\example\\0,1\C,0,
 -1.082079,2.50668,-1.248244\C,0,-1.503184,1.204629,-0.582673\C,0,-2.87
 864,1.175857,-0.258596\C,0,-3.584876,0.003797,0.029316\C,0,-2.91248,-1
 .206034,-0.160943\C,0,-1.55075,-1.164988,-0.450496\F,0,-1.045171,-2.38
 8553,-0.854123\C,0,-0.706929,-0.009107,-0.444194\C,0,0.788867,-0.11877
 4,-0.312565\C,0,1.518162,-1.335406,0.035396\O,0,0.987051,-2.479339,0.5
 21396\C,0,2.933398,-1.390402,-0.00425\C,0,3.712754,-0.259945,-0.225524
 \C,0,3.064713,0.974243,-0.353748\C,0,1.670292,1.013665,-0.336315\F,0,1
 .168725,2.265457,-0.268684\H,0,-1.959736,2.889138,-1.807584\H,0,-0.773
 818,3.294964,-0.535452\H,0,-0.262608,2.36682,-1.973367\H,0,-3.426409,2
 .130602,-0.307469\H,0,-4.653629,0.027623,0.288338\H,0,-3.414943,-2.183
 796,-0.141265\H,0,0.085604,-2.634309,0.170776\H,0,3.380872,-2.373043,0
 .20175\H,0,4.810923,-0.326441,-0.247301\H,0,3.603721,1.929977,-0.41488
 6\\Version=ES64L-G16RevC.02\HF=-777.5275067\RMSD=7.719e-09\Dipole=-0.5
 53608,0.3260285,-0.2189037\Quadrupole=8.2218328,-2.0311827,-6.1906501,
 0.9740466,-0.8692079,-0.831569\PG=C01 [X(C13H10F2O1)]\\@
 The archive entry for this job was punched.


 EDUCATION IS NOT TRAINING BUT RATHER THE PROCESS THAT EQUIPS YOU TO
 ENTERTAIN YOURSELF, A FRIEND, OR AN IDEA.  -- WALLACE STERLING
 Job cpu time:       0 days  0 hours 37 minutes 31.0 seconds.
 Elapsed time:       0 days  0 hours  4 minutes 47.5 seconds.
 File lengths (MBytes):  RWF=    172 Int=      0 D2E=      0 Chk=     19 Scr=      1
 Normal termination of Gaussian 16 at Thu Jul 23 14:47:06 2026.
