 Entering Gaussian System, Link 0=/path/to/g16
 Initial command:
 /path/to/g16 "path/to/scratch/gaussian_tmp/Gau-2280004.inp" -scrdir="path/to/scratch/gaussian_tmp/"
 Entering Link 1 = /path/to/g16 PID=   2280006.
  
 Copyright (c) 1988-2021, Gaussian, Inc.  All Rights Reserved.
  
 This is part of the Gaussian(R) 16 program.  It is based on
 the Gaussian(R) 09 system (copyright 2009, Gaussian, Inc.),
 the Gaussian(R) 03 system (copyright 2003, Gaussian, Inc.),
 the Gaussian(R) 98 system (copyright 1998, Gaussian, Inc.),
 the Gaussian(R) 94 system (copyright 1995, Gaussian, Inc.),
 the Gaussian 92(TM) system (copyright 1992, Gaussian, Inc.),
 the Gaussian 90(TM) system (copyright 1990, Gaussian, Inc.),
 the Gaussian 88(TM) system (copyright 1988, Gaussian, Inc.),
 the Gaussian 86(TM) system (copyright 1986, Carnegie Mellon
 University), and the Gaussian 82(TM) system (copyright 1983,
 Carnegie Mellon University). Gaussian is a federally registered
 trademark of Gaussian, Inc.
  
 This software contains proprietary and confidential information,
 including trade secrets, belonging to Gaussian, Inc.
  
 This software is provided under written license and may be
 used, copied, transmitted, or stored only in accord with that
 written license.
  
 The following legend is applicable only to US Government
 contracts under FAR:
  
                    RESTRICTED RIGHTS LEGEND
  
 Use, reproduction and disclosure by the US Government is
 subject to restrictions as set forth in subparagraphs (a)
 and (c) of the Commercial Computer Software - Restricted
 Rights clause in FAR 52.227-19.
  
 Gaussian, Inc.
 340 Quinnipiac St., Bldg. 40, Wallingford CT 06492
  
  
 ---------------------------------------------------------------
 Warning -- This program may not be used in any manner that
 competes with the business of Gaussian, Inc. or will provide
 assistance to any competitor of Gaussian, Inc.  The licensee
 of this program is prohibited from giving any competitor of
 Gaussian, Inc. access to this program.  By using this program,
 the user acknowledges that Gaussian, Inc. is engaged in the
 business of creating and licensing software in the field of
 computational chemistry and represents and warrants to the
 licensee that it is not a competitor of Gaussian, Inc. and that
 it will not use this program in any manner prohibited above.
 ---------------------------------------------------------------
  

 Cite this work as:
 Gaussian 16, Revision C.02,
 M. J. Frisch, G. W. Trucks, H. B. Schlegel, G. E. Scuseria, 
 M. A. Robb, J. R. Cheeseman, G. Scalmani, V. Barone, 
 G. A. Petersson, H. Nakatsuji, X. Li, M. Caricato, A. V. Marenich, 
 J. Bloino, B. G. Janesko, R. Gomperts, B. Mennucci, H. P. Hratchian, 
 J. V. Ortiz, A. F. Izmaylov, J. L. Sonnenberg, D. Williams-Young, 
 F. Ding, F. Lipparini, F. Egidi, J. Goings, B. Peng, A. Petrone, 
 T. Henderson, D. Ranasinghe, V. G. Zakrzewski, J. Gao, N. Rega, 
 G. Zheng, W. Liang, M. Hada, M. Ehara, K. Toyota, R. Fukuda, 
 J. Hasegawa, M. Ishida, T. Nakajima, Y. Honda, O. Kitao, H. Nakai, 
 T. Vreven, K. Throssell, J. A. Montgomery, Jr., J. E. Peralta, 
 F. Ogliaro, M. J. Bearpark, J. J. Heyd, E. N. Brothers, K. N. Kudin, 
 V. N. Staroverov, T. A. Keith, R. Kobayashi, J. Normand, 
 K. Raghavachari, A. P. Rendell, J. C. Burant, S. S. Iyengar, 
 J. Tomasi, M. Cossi, J. M. Millam, M. Klene, C. Adamo, R. Cammi, 
 J. W. Ochterski, R. L. Martin, K. Morokuma, O. Farkas, 
 J. B. Foresman, and D. J. Fox, Gaussian, Inc., Wallingford CT, 2019.
 
 ******************************************
 Gaussian 16:  ES64L-G16RevC.02  7-Dec-2021
                23-Jul-2026 
 ******************************************
 %mem=12000MB
 %nprocshared=8
 Will use up to    8 processors via shared memory.
 ----------------------------------------------------------------------
 # opt=(ts,noeigen,recalcfc=15) bp86 empiricaldispersion=GD3BJ def2svp 
 freq IOP(1/8=2) nosymm
 ----------------------------------------------------------------------
 1/5=1,8=2,10=4,11=1,18=20,26=3,38=1,71=15/1,3;
 2/9=110,12=2,15=1,17=6,18=5,40=1/2;
 3/5=43,7=101,11=2,25=1,30=1,71=2,74=404,124=41,140=1/1,2,3;
 4//1;
 5/5=2,38=5/2;
 8/6=4,10=90,11=11/1;
 11/6=1,8=1,9=11,15=111,16=1,31=1/1,2,10;
 10/6=1,13=1,31=1/2;
 6/7=2,8=2,9=2,10=2,28=1/1;
 7/10=1,25=1,30=1/1,2,3,16;
 1/5=1,8=2,10=4,11=1,18=20,26=3,71=15/3(3);
 2/9=110,15=1/2;
 7/9=1,25=1,30=1,44=-1/16;
 99//99;
 2/9=110,15=1/2;
 3/5=43,7=101,11=2,25=1,30=1,71=2,74=404,124=41,140=1/1,2,3;
 4/5=5,16=3,69=1/1;
 5/5=2,38=5/2;
 8/6=4,10=90,11=11/1;
 11/6=1,8=1,9=11,15=111,16=1,31=1/1,2,10;
 10/6=1,13=1,31=1/2;
 7/10=1,25=1,30=1/1,2,3,16;
 1/5=1,8=2,11=1,18=20,26=3,71=15/3(-8);
 2/9=110,15=1/2;
 6/7=2,8=2,9=2,10=2,19=2,28=1/1;
 7/9=1,25=1,30=1,44=-1/16;
 99/9=1/99;
 -------
 example
 -------
 Symbolic Z-matrix:
 Charge =  0 Multiplicity = 1
 C                    -1.13456   2.57584  -1.14396 
 C                    -1.52322   1.22111  -0.56902 
 C                    -2.90203   1.14307  -0.26461 
 C                    -3.58559  -0.05267  -0.02261 
 C                    -2.88052  -1.23832  -0.22996 
 C                    -1.51643  -1.15377  -0.50271 
 F                    -0.97642  -2.3655   -0.89655 
 C                    -0.6988    0.02009  -0.47211 
 C                     0.80314  -0.09753  -0.34688 
 C                     1.49789  -1.30416   0.09842 
 O                     0.93075  -2.41107   0.63083 
 C                     2.91203  -1.39278   0.10749 
 C                     3.72585  -0.3052   -0.18778 
 C                     3.11129   0.92265  -0.45635 
 C                     1.71815   0.99796  -0.47889 
 F                     1.25831   2.26294  -0.58332 
 H                    -2.05715   3.05612  -1.52484 
 H                    -0.68128   3.26384  -0.4057 
 H                    -0.43179   2.48234  -1.98917 
 H                    -3.47202   2.08527  -0.28028 
 H                    -4.65761  -0.05974   0.22349 
 H                    -3.35441  -2.23039  -0.23137 
 H                     0.05927  -2.59576   0.22556 
 H                     3.3279   -2.3666    0.40209 
 H                     4.82221  -0.39785  -0.17221 
 H                     3.67487   1.85343  -0.61027 
 

 GradGradGradGradGradGradGradGradGradGradGradGradGradGradGradGradGradGrad
 Berny optimization.
 Initialization pass.
                           ----------------------------
                           !    Initial Parameters    !
                           ! (Angstroms and Degrees)  !
 --------------------------                            --------------------------
 ! Name  Definition              Value          Derivative Info.                !
 --------------------------------------------------------------------------------
 ! R1    R(1,2)                  1.5221         calculate D2E/DX2 analytically  !
 ! R2    R(1,17)                 1.1077         calculate D2E/DX2 analytically  !
 ! R3    R(1,18)                 1.1063         calculate D2E/DX2 analytically  !
 ! R4    R(1,19)                 1.1032         calculate D2E/DX2 analytically  !
 ! R5    R(2,3)                  1.4142         calculate D2E/DX2 analytically  !
 ! R6    R(2,8)                  1.46           calculate D2E/DX2 analytically  !
 ! R7    R(3,4)                  1.3984         calculate D2E/DX2 analytically  !
 ! R8    R(3,20)                 1.1013         calculate D2E/DX2 analytically  !
 ! R9    R(4,5)                  1.395          calculate D2E/DX2 analytically  !
 ! R10   R(4,21)                 1.0999         calculate D2E/DX2 analytically  !
 ! R11   R(5,6)                  1.3937         calculate D2E/DX2 analytically  !
 ! R12   R(5,22)                 1.0994         calculate D2E/DX2 analytically  !
 ! R13   R(6,7)                  1.3838         calculate D2E/DX2 analytically  !
 ! R14   R(6,8)                  1.4309         calculate D2E/DX2 analytically  !
 ! R15   R(8,9)                  1.5117         calculate D2E/DX2 analytically  !
 ! R16   R(9,10)                 1.4618         calculate D2E/DX2 analytically  !
 ! R17   R(9,15)                 1.4334         calculate D2E/DX2 analytically  !
 ! R18   R(10,11)                1.3529         calculate D2E/DX2 analytically  !
 ! R19   R(10,12)                1.4169         calculate D2E/DX2 analytically  !
 ! R20   R(11,23)                0.9787         calculate D2E/DX2 analytically  !
 ! R21   R(12,13)                1.3901         calculate D2E/DX2 analytically  !
 ! R22   R(12,24)                1.0991         calculate D2E/DX2 analytically  !
 ! R23   R(13,14)                1.3991         calculate D2E/DX2 analytically  !
 ! R24   R(13,25)                1.1004         calculate D2E/DX2 analytically  !
 ! R25   R(14,15)                1.3954         calculate D2E/DX2 analytically  !
 ! R26   R(14,26)                1.0989         calculate D2E/DX2 analytically  !
 ! R27   R(15,16)                1.35           calculate D2E/DX2 analytically  !
 ! A1    A(2,1,17)             107.6451         calculate D2E/DX2 analytically  !
 ! A2    A(2,1,18)             113.9582         calculate D2E/DX2 analytically  !
 ! A3    A(2,1,19)             112.1246         calculate D2E/DX2 analytically  !
 ! A4    A(17,1,18)            107.5226         calculate D2E/DX2 analytically  !
 ! A5    A(17,1,19)            107.6917         calculate D2E/DX2 analytically  !
 ! A6    A(18,1,19)            107.6367         calculate D2E/DX2 analytically  !
 ! A7    A(1,2,3)              112.2951         calculate D2E/DX2 analytically  !
 ! A8    A(1,2,8)              127.8102         calculate D2E/DX2 analytically  !
 ! A9    A(3,2,8)              119.3982         calculate D2E/DX2 analytically  !
 ! A10   A(2,3,4)              124.1264         calculate D2E/DX2 analytically  !
 ! A11   A(2,3,20)             117.0223         calculate D2E/DX2 analytically  !
 ! A12   A(4,3,20)             118.7513         calculate D2E/DX2 analytically  !
 ! A13   A(3,4,5)              116.9988         calculate D2E/DX2 analytically  !
 ! A14   A(3,4,21)             121.3734         calculate D2E/DX2 analytically  !
 ! A15   A(5,4,21)             121.3607         calculate D2E/DX2 analytically  !
 ! A16   A(4,5,6)              118.1805         calculate D2E/DX2 analytically  !
 ! A17   A(4,5,22)             123.3174         calculate D2E/DX2 analytically  !
 ! A18   A(6,5,22)             118.4489         calculate D2E/DX2 analytically  !
 ! A19   A(5,6,7)              112.614          calculate D2E/DX2 analytically  !
 ! A20   A(5,6,8)              127.2203         calculate D2E/DX2 analytically  !
 ! A21   A(7,6,8)              120.0962         calculate D2E/DX2 analytically  !
 ! A22   A(2,8,6)              110.5353         calculate D2E/DX2 analytically  !
 ! A23   A(2,8,9)              129.0889         calculate D2E/DX2 analytically  !
 ! A24   A(6,8,9)              120.3752         calculate D2E/DX2 analytically  !
 ! A25   A(8,9,10)             124.1693         calculate D2E/DX2 analytically  !
 ! A26   A(8,9,15)             124.5484         calculate D2E/DX2 analytically  !
 ! A27   A(10,9,15)            110.8242         calculate D2E/DX2 analytically  !
 ! A28   A(9,10,11)            126.5829         calculate D2E/DX2 analytically  !
 ! A29   A(9,10,12)            121.8637         calculate D2E/DX2 analytically  !
 ! A30   A(11,10,12)           111.3879         calculate D2E/DX2 analytically  !
 ! A31   A(10,11,23)           111.3904         calculate D2E/DX2 analytically  !
 ! A32   A(10,12,13)           122.2755         calculate D2E/DX2 analytically  !
 ! A33   A(10,12,24)           115.7693         calculate D2E/DX2 analytically  !
 ! A34   A(13,12,24)           121.9123         calculate D2E/DX2 analytically  !
 ! A35   A(12,13,14)           118.0505         calculate D2E/DX2 analytically  !
 ! A36   A(12,13,25)           120.9589         calculate D2E/DX2 analytically  !
 ! A37   A(14,13,25)           120.9484         calculate D2E/DX2 analytically  !
 ! A38   A(13,14,15)           119.2763         calculate D2E/DX2 analytically  !
 ! A39   A(13,14,26)           123.0205         calculate D2E/DX2 analytically  !
 ! A40   A(15,14,26)           117.6491         calculate D2E/DX2 analytically  !
 ! A41   A(9,15,14)            126.483          calculate D2E/DX2 analytically  !
 ! A42   A(9,15,16)            120.3842         calculate D2E/DX2 analytically  !
 ! A43   A(14,15,16)           113.0724         calculate D2E/DX2 analytically  !
 ! D1    D(17,1,2,3)           -19.8852         calculate D2E/DX2 analytically  !
 ! D2    D(17,1,2,8)           151.8829         calculate D2E/DX2 analytically  !
 ! D3    D(18,1,2,3)            99.2635         calculate D2E/DX2 analytically  !
 ! D4    D(18,1,2,8)           -88.9685         calculate D2E/DX2 analytically  !
 ! D5    D(19,1,2,3)          -138.1512         calculate D2E/DX2 analytically  !
 ! D6    D(19,1,2,8)            33.6168         calculate D2E/DX2 analytically  !
 ! D7    D(1,2,3,4)            164.5818         calculate D2E/DX2 analytically  !
 ! D8    D(1,2,3,20)           -11.7279         calculate D2E/DX2 analytically  !
 ! D9    D(8,2,3,4)             -7.9579         calculate D2E/DX2 analytically  !
 ! D10   D(8,2,3,20)           175.7324         calculate D2E/DX2 analytically  !
 ! D11   D(1,2,8,6)           -151.9485         calculate D2E/DX2 analytically  !
 ! D12   D(1,2,8,9)             28.3446         calculate D2E/DX2 analytically  !
 ! D13   D(3,2,8,6)             19.3053         calculate D2E/DX2 analytically  !
 ! D14   D(3,2,8,9)           -160.4016         calculate D2E/DX2 analytically  !
 ! D15   D(2,3,4,5)             -6.6709         calculate D2E/DX2 analytically  !
 ! D16   D(2,3,4,21)           179.1888         calculate D2E/DX2 analytically  !
 ! D17   D(20,3,4,5)           169.5792         calculate D2E/DX2 analytically  !
 ! D18   D(20,3,4,21)           -4.5611         calculate D2E/DX2 analytically  !
 ! D19   D(3,4,5,6)              7.563          calculate D2E/DX2 analytically  !
 ! D20   D(3,4,5,22)          -169.7393         calculate D2E/DX2 analytically  !
 ! D21   D(21,4,5,6)          -178.2959         calculate D2E/DX2 analytically  !
 ! D22   D(21,4,5,22)            4.4018         calculate D2E/DX2 analytically  !
 ! D23   D(4,5,6,7)           -170.3585         calculate D2E/DX2 analytically  !
 ! D24   D(4,5,6,8)              6.5815         calculate D2E/DX2 analytically  !
 ! D25   D(22,5,6,7)             7.0777         calculate D2E/DX2 analytically  !
 ! D26   D(22,5,6,8)          -175.9824         calculate D2E/DX2 analytically  !
 ! D27   D(5,6,8,2)            -19.7194         calculate D2E/DX2 analytically  !
 ! D28   D(5,6,8,9)            160.0168         calculate D2E/DX2 analytically  !
 ! D29   D(7,6,8,2)            157.0154         calculate D2E/DX2 analytically  !
 ! D30   D(7,6,8,9)            -23.2483         calculate D2E/DX2 analytically  !
 ! D31   D(2,8,9,10)           162.807          calculate D2E/DX2 analytically  !
 ! D32   D(2,8,9,15)            -8.707          calculate D2E/DX2 analytically  !
 ! D33   D(6,8,9,10)           -16.8749         calculate D2E/DX2 analytically  !
 ! D34   D(6,8,9,15)           171.6111         calculate D2E/DX2 analytically  !
 ! D35   D(8,9,10,11)           -9.6614         calculate D2E/DX2 analytically  !
 ! D36   D(8,9,10,12)          175.4256         calculate D2E/DX2 analytically  !
 ! D37   D(15,9,10,11)         162.8668         calculate D2E/DX2 analytically  !
 ! D38   D(15,9,10,12)         -12.0463         calculate D2E/DX2 analytically  !
 ! D39   D(8,9,15,14)         -175.6025         calculate D2E/DX2 analytically  !
 ! D40   D(8,9,15,16)            7.4261         calculate D2E/DX2 analytically  !
 ! D41   D(10,9,15,14)          11.9034         calculate D2E/DX2 analytically  !
 ! D42   D(10,9,15,16)        -165.0681         calculate D2E/DX2 analytically  !
 ! D43   D(9,10,11,23)          35.2029         calculate D2E/DX2 analytically  !
 ! D44   D(12,10,11,23)       -149.436          calculate D2E/DX2 analytically  !
 ! D45   D(9,10,12,13)           5.9848         calculate D2E/DX2 analytically  !
 ! D46   D(9,10,12,24)        -176.356          calculate D2E/DX2 analytically  !
 ! D47   D(11,10,12,13)       -169.6298         calculate D2E/DX2 analytically  !
 ! D48   D(11,10,12,24)          8.0294         calculate D2E/DX2 analytically  !
 ! D49   D(10,12,13,14)          2.2104         calculate D2E/DX2 analytically  !
 ! D50   D(10,12,13,25)        179.8697         calculate D2E/DX2 analytically  !
 ! D51   D(24,12,13,14)       -175.3062         calculate D2E/DX2 analytically  !
 ! D52   D(24,12,13,25)          2.3531         calculate D2E/DX2 analytically  !
 ! D53   D(12,13,14,15)         -2.8981         calculate D2E/DX2 analytically  !
 ! D54   D(12,13,14,26)        174.3625         calculate D2E/DX2 analytically  !
 ! D55   D(25,13,14,15)        179.4423         calculate D2E/DX2 analytically  !
 ! D56   D(25,13,14,26)         -3.297          calculate D2E/DX2 analytically  !
 ! D57   D(13,14,15,9)          -4.9156         calculate D2E/DX2 analytically  !
 ! D58   D(13,14,15,16)        172.2448         calculate D2E/DX2 analytically  !
 ! D59   D(26,14,15,9)         177.6773         calculate D2E/DX2 analytically  !
 ! D60   D(26,14,15,16)         -5.1623         calculate D2E/DX2 analytically  !
 --------------------------------------------------------------------------------
 Trust Radius=2.00D-02 FncErr=1.00D-07 GrdErr=1.00D-06 EigMax=2.50D+02 EigMin=1.00D-04
 Number of steps in this run=    140 maximum allowed number of steps=    156.
 Search for a saddle point of order  1.
 GradGradGradGradGradGradGradGradGradGradGradGradGradGradGradGradGradGrad

                          Input orientation:                          
 ---------------------------------------------------------------------
 Center     Atomic      Atomic             Coordinates (Angstroms)
 Number     Number       Type             X           Y           Z
 ---------------------------------------------------------------------
      1          6           0       -1.134556    2.575835   -1.143956
      2          6           0       -1.523217    1.221108   -0.569018
      3          6           0       -2.902031    1.143067   -0.264609
      4          6           0       -3.585594   -0.052673   -0.022612
      5          6           0       -2.880517   -1.238321   -0.229963
      6          6           0       -1.516431   -1.153770   -0.502714
      7          9           0       -0.976424   -2.365495   -0.896546
      8          6           0       -0.698803    0.020087   -0.472107
      9          6           0        0.803142   -0.097533   -0.346876
     10          6           0        1.497891   -1.304159    0.098420
     11          8           0        0.930748   -2.411069    0.630830
     12          6           0        2.912031   -1.392784    0.107489
     13          6           0        3.725847   -0.305197   -0.187782
     14          6           0        3.111290    0.922654   -0.456351
     15          6           0        1.718150    0.997955   -0.478892
     16          9           0        1.258308    2.262940   -0.583322
     17          1           0       -2.057148    3.056121   -1.524838
     18          1           0       -0.681276    3.263844   -0.405695
     19          1           0       -0.431787    2.482338   -1.989171
     20          1           0       -3.472017    2.085274   -0.280278
     21          1           0       -4.657611   -0.059737    0.223487
     22          1           0       -3.354407   -2.230394   -0.231371
     23          1           0        0.059269   -2.595759    0.225559
     24          1           0        3.327897   -2.366598    0.402094
     25          1           0        4.822209   -0.397850   -0.172212
     26          1           0        3.674867    1.853429   -0.610272
 ---------------------------------------------------------------------
                    Distance matrix (angstroms):
                    1          2          3          4          5
     1  C    0.000000
     2  C    1.522135   0.000000
     3  C    2.439271   1.414172   0.000000
     4  C    3.764844   2.484849   1.398433   0.000000
     5  C    4.293198   2.829490   2.381737   1.394951   0.000000
     6  C    3.803547   2.375813   2.692961   2.392561   1.393654
     7  F    4.950046   3.642798   4.051828   3.594534   2.310936
     8  C    2.678266   1.459966   2.481603   2.922482   2.530237
     9  C    3.396602   2.683302   3.908217   4.400928   3.858032
    10  C    4.850529   3.993688   5.047774   5.236667   4.391199
    11  O    5.681950   4.544699   5.303196   5.136766   4.079466
    12  C    5.804388   5.192448   6.353921   6.635658   5.804425
    13  C    5.730456   5.479746   6.784699   7.317665   6.672072
    14  C    4.607930   4.645473   6.020413   6.781419   6.373603
    15  C    3.327153   3.250289   4.627423   5.426022   5.119632
    16  F    2.477501   2.970269   4.320198   5.398134   5.432639
    17  H    1.107665   2.136808   2.441676   3.775901   4.560359
    18  H    1.106277   2.215470   3.073980   4.425054   5.013685
    19  H    1.103184   2.190606   3.296948   4.498904   4.788987
    20  H    2.539747   2.151273   1.101310   2.156411   3.376194
    21  H    4.607392   3.477507   2.183354   1.099925   2.180078
    22  H    5.372186   3.921751   3.403820   2.199886   1.099446
    23  H    5.481439   4.207623   4.794620   4.451281   3.269936
    24  H    6.836037   6.111301   7.181521   7.302806   6.341680
    25  H    6.728309   6.560710   7.876982   8.416215   7.748659
    26  H    4.892570   5.236565   6.624174   7.529466   7.257866
                    6          7          8          9         10
     6  C    0.000000
     7  F    1.383831   0.000000
     8  C    1.430871   2.438898   0.000000
     9  C    2.553496   2.934731   1.511739   0.000000
    10  C    3.077355   2.870301   2.627659   1.461818   0.000000
    11  O    2.975636   2.443821   3.127687   2.514884   1.352908
    12  C    4.476690   4.132110   3.920492   2.516254   1.416943
    13  C    5.319844   5.182521   4.445692   2.934389   2.458378
    14  C    5.072424   5.264513   3.915569   2.525928   2.805267
    15  C    3.884971   4.329891   2.607285   1.433444   2.383596
    16  F    4.402225   5.149228   2.978765   2.415557   3.639556
    17  H    4.365810   5.563869   3.488674   4.417509   5.855366
    18  H    4.496911   5.658401   3.244484   3.675025   5.086212
    19  H    4.075204   4.999194   2.904386   3.298169   4.734897
    20  H    3.790145   5.139758   3.463021   4.800632   6.027574
    21  H    3.404598   4.485770   4.020247   5.490589   6.281276
    22  H    2.147301   2.472956   3.489248   4.674147   4.950906
    23  H    2.256667   1.544280   2.811416   2.668738   1.937531
    24  H    5.075150   4.495959   4.761807   3.476205   2.137736
    25  H    6.392105   6.166071   5.544924   4.034055   3.456259
    26  H    6.000366   6.286158   4.744388   3.481729   3.900235
                   11         12         13         14         15
    11  O    0.000000
    12  C    2.288290   0.000000
    13  C    3.594079   1.390082   0.000000
    14  C    4.129217   2.391416   1.399081   0.000000
    15  C    3.670549   2.735841   2.411182   1.395356   0.000000
    16  F    4.840229   4.071405   3.583368   2.290421   1.350018
    17  H    6.592768   6.866585   6.821232   5.692635   4.425260
    18  H    5.989795   5.904185   5.675233   4.457274   3.301039
    19  H    5.715447   5.531155   5.319894   4.163598   3.017709
    20  H    6.358581   7.280338   7.584995   6.687497   5.306557
    21  H    6.076549   7.686999   8.397128   7.860222   6.500952
    22  H    4.374767   6.331245   7.337457   7.197053   6.017835
    23  H    0.978688   3.098280   4.342962   4.707341   4.020313
    24  H    2.408448   1.099113   2.180755   3.406321   3.832446
    25  H    4.454368   2.171844   1.100380   2.179842   3.417237
    26  H    5.220773   3.411011   2.200173   1.098933   2.139588
                   16         17         18         19         20
    16  F    0.000000
    17  H    3.536642   0.000000
    18  H    2.189828   1.785680   0.000000
    19  H    2.209291   1.785114   1.783366   0.000000
    20  H    4.743351   2.119747   3.031995   3.510124   0.000000
    21  H    6.406549   4.419007   5.220469   5.405145   2.502096
    22  H    6.449113   5.594924   6.112501   5.817337   4.317547
    23  H    5.069412   6.283857   5.939851   5.561765   5.885399
    24  H    5.165933   7.881476   6.959013   6.585253   8.156202
    25  H    4.466565   7.815694   6.614444   6.261094   8.658624
    26  H    2.451160   5.927807   4.583351   4.377385   7.158254
                   21         22         23         24         25
    21  H    0.000000
    22  H    2.572351   0.000000
    23  H    5.355406   3.463446   0.000000
    24  H    8.313955   6.713644   3.281403   0.000000
    25  H    9.494097   8.379664   5.260668   2.537472   0.000000
    26  H    8.589851   8.138296   5.793655   4.353608   2.564478
                   26
    26  H    0.000000
 Symmetry turned off by external request.
 Stoichiometry    C13H10F2O
 Framework group  C1[X(C13H10F2O)]
 Deg. of freedom    72
 Full point group                 C1      NOp   1
 Rotational constants (GHZ):           0.8391313           0.4687317           0.3117395
 Standard basis: def2SVP (5D, 7F)
   274 basis functions,   470 primitive gaussians,   290 cartesian basis functions
    57 alpha electrons       57 beta electrons
       nuclear repulsion energy      1068.8018279544 Hartrees.
 NAtoms=   26 NActive=   26 NUniq=   26 SFac= 1.00D+00 NAtFMM=   60 NAOKFM=F Big=F
 Integral buffers will be    131072 words long.
 Raffenetti 2 integral format.
 Two-electron integral symmetry is turned off.
 Nuclear repulsion after empirical dispersion term =     1068.7504060352 Hartrees.
 One-electron integrals computed using PRISM.
   1 Symmetry operations used in ECPInt.
 ECPInt:  NShTT=    8001 NPrTT=   29641 LenC2=    7593 LenP2D=   20274.
 LDataN:  DoStor=T MaxTD1= 4 Len=   56
 NBasis=   274 RedAO= T EigKep=  2.97D-04  NBF=   274
 NBsUse=   274 1.00D-06 EigRej= -1.00D+00 NBFU=   274
 ExpMin= 1.22D-01 ExpMax= 2.89D+03 ExpMxC= 4.35D+02 IAcc=3 IRadAn=         5 AccDes= 0.00D+00
 Harris functional with IExCor=  404 and IRadAn=       5 diagonalized for initial guess.
 HarFok:  IExCor=  404 AccDes= 0.00D+00 IRadAn=         5 IDoV= 1 UseB2=F ITyADJ=14
 ICtDFT=  3500011 ScaDFX=  1.000000  1.000000  1.000000  1.000000
 FoFCou: FMM=F IPFlag=           0 FMFlag=      100000 FMFlg1=           0
         NFxFlg=           0 DoJE=T BraDBF=F KetDBF=T FulRan=T
         wScrn=  0.000000 ICntrl=       500 IOpCl=  0 I1Cent=   200000004 NGrid=           0
         NMat0=    1 NMatS0=      1 NMatT0=    0 NMatD0=    1 NMtDS0=    0 NMtDT0=    0
 Symmetry not used in FoFCou.
 Requested convergence on RMS density matrix=1.00D-08 within 128 cycles.
 Requested convergence on MAX density matrix=1.00D-06.
 Requested convergence on             energy=1.00D-06.
 No special actions if energy rises.
 Integral accuracy reduced to 1.0D-05 until final iterations.
 Initial convergence to 1.0D-05 achieved.  Increase integral accuracy.
 SCF Done:  E(RB-P86) =  -775.752402489     A.U. after   16 cycles
            NFock= 16  Conv=0.47D-08     -V/T= 2.0104
 DoSCS=F DFT=T ScalE2(SS,OS)=  1.000000  1.000000
 Range of M.O.s used for correlation:     1   274
 NBasis=   274 NAE=    57 NBE=    57 NFC=     0 NFV=     0
 NROrb=    274 NOA=    57 NOB=    57 NVA=   217 NVB=   217

 **** Warning!!: The largest alpha MO coefficient is  0.10756846D+02

   1 Symmetry operations used in ECPInt.
 ECPInt:  NShTT=    8001 NPrTT=   29641 LenC2=    7593 LenP2D=   20274.
 LDataN:  DoStor=T MaxTD1= 5 Len=  102
 Symmetrizing basis deriv contribution to polar:
 IMax=3 JMax=2 DiffMx= 0.00D+00
 G2DrvN: will do    27 centers at a time, making    1 passes.
 Calling FoFCou, ICntrl=  3507 FMM=F I1Cent=   0 AccDes= 0.00D+00.
 End of G2Drv F.D. properties file   721 does not exist.
 End of G2Drv F.D. properties file   722 does not exist.
 End of G2Drv F.D. properties file   788 does not exist.
          IDoAtm=11111111111111111111111111
          Differentiating once with respect to nuclear coordinates.
 Keep J ints in memory in canonical form, NReq=722055390.
          There are    81 degrees of freedom in the 1st order CPHF.  IDoFFX=6 NUNeed=     0.
     75 vectors produced by pass  0 Test12= 1.53D-14 1.23D-09 XBig12= 2.10D-01 2.27D-01.
 AX will form    75 AO Fock derivatives at one time.
     75 vectors produced by pass  1 Test12= 1.53D-14 1.23D-09 XBig12= 6.64D-02 6.62D-02.
     75 vectors produced by pass  2 Test12= 1.53D-14 1.23D-09 XBig12= 3.58D-04 1.46D-03.
     75 vectors produced by pass  3 Test12= 1.53D-14 1.23D-09 XBig12= 5.24D-07 5.61D-05.
     75 vectors produced by pass  4 Test12= 1.53D-14 1.23D-09 XBig12= 3.88D-10 1.45D-06.
     33 vectors produced by pass  5 Test12= 1.53D-14 1.23D-09 XBig12= 7.97D-14 2.15D-08.
 InvSVY:  IOpt=1 It=  1 EMax= 5.00D-16
 Solved reduced A of dimension   408 with    81 vectors.
 End of Minotr F.D. properties file   721 does not exist.
 End of Minotr F.D. properties file   722 does not exist.
 End of Minotr F.D. properties file   788 does not exist.

 **********************************************************************

            Population analysis using the SCF Density.

 **********************************************************************

 Alpha  occ. eigenvalues --  -24.33261 -24.30351 -18.79968 -10.01159 -10.00333
 Alpha  occ. eigenvalues --   -9.98849  -9.96343  -9.95204  -9.94900  -9.93339
 Alpha  occ. eigenvalues --   -9.93281  -9.92720  -9.92533  -9.91724  -9.91622
 Alpha  occ. eigenvalues --   -9.91227  -1.13491  -1.11396  -0.95970  -0.79486
 Alpha  occ. eigenvalues --   -0.77258  -0.71553  -0.70190  -0.66813  -0.66216
 Alpha  occ. eigenvalues --   -0.62517  -0.58929  -0.56186  -0.55089  -0.53517
 Alpha  occ. eigenvalues --   -0.51649  -0.48635  -0.47961  -0.46113  -0.44352
 Alpha  occ. eigenvalues --   -0.43403  -0.43021  -0.42300  -0.41696  -0.40448
 Alpha  occ. eigenvalues --   -0.38868  -0.38015  -0.37760  -0.36705  -0.35977
 Alpha  occ. eigenvalues --   -0.34342  -0.33963  -0.33195  -0.32799  -0.30890
 Alpha  occ. eigenvalues --   -0.30670  -0.30279  -0.28427  -0.26697  -0.22622
 Alpha  occ. eigenvalues --   -0.20987  -0.19877
 Alpha virt. eigenvalues --   -0.08984  -0.04981  -0.03108  -0.02507   0.02569
 Alpha virt. eigenvalues --    0.03956   0.04556   0.06715   0.07627   0.08045
 Alpha virt. eigenvalues --    0.09480   0.10275   0.10751   0.11225   0.11908
 Alpha virt. eigenvalues --    0.12654   0.14400   0.15875   0.16898   0.19243
 Alpha virt. eigenvalues --    0.19648   0.21825   0.23566   0.25108   0.25814
 Alpha virt. eigenvalues --    0.26596   0.27230   0.28406   0.29197   0.30588
 Alpha virt. eigenvalues --    0.32674   0.34943   0.36061   0.36474   0.37301
 Alpha virt. eigenvalues --    0.38792   0.39775   0.40079   0.41583   0.41770
 Alpha virt. eigenvalues --    0.42365   0.42605   0.43854   0.44004   0.45826
 Alpha virt. eigenvalues --    0.46900   0.47437   0.48680   0.49932   0.51361
 Alpha virt. eigenvalues --    0.51706   0.52262   0.53106   0.54142   0.54528
 Alpha virt. eigenvalues --    0.56813   0.57031   0.58392   0.58719   0.59101
 Alpha virt. eigenvalues --    0.60415   0.61036   0.61466   0.61843   0.62674
 Alpha virt. eigenvalues --    0.63727   0.64298   0.64714   0.65492   0.66421
 Alpha virt. eigenvalues --    0.67587   0.68153   0.70103   0.71346   0.71961
 Alpha virt. eigenvalues --    0.72947   0.74018   0.75123   0.76285   0.77440
 Alpha virt. eigenvalues --    0.81830   0.82332   0.83653   0.88347   0.92269
 Alpha virt. eigenvalues --    0.93483   0.95909   0.96925   0.98843   1.01523
 Alpha virt. eigenvalues --    1.04059   1.05702   1.07514   1.09503   1.10795
 Alpha virt. eigenvalues --    1.11988   1.14344   1.16123   1.18024   1.18803
 Alpha virt. eigenvalues --    1.20990   1.22016   1.22301   1.25382   1.26826
 Alpha virt. eigenvalues --    1.28179   1.29865   1.31323   1.34939   1.35484
 Alpha virt. eigenvalues --    1.37109   1.38917   1.43126   1.45121   1.45921
 Alpha virt. eigenvalues --    1.49884   1.52585   1.54694   1.56669   1.57572
 Alpha virt. eigenvalues --    1.58513   1.60049   1.60898   1.61831   1.62669
 Alpha virt. eigenvalues --    1.63744   1.63936   1.64246   1.65265   1.66171
 Alpha virt. eigenvalues --    1.67493   1.68257   1.70945   1.71592   1.72494
 Alpha virt. eigenvalues --    1.72734   1.73737   1.74447   1.76082   1.77737
 Alpha virt. eigenvalues --    1.78497   1.81369   1.82690   1.84843   1.86210
 Alpha virt. eigenvalues --    1.86665   1.87543   1.89342   1.90214   1.92829
 Alpha virt. eigenvalues --    1.94261   1.95394   1.96951   1.98485   1.99181
 Alpha virt. eigenvalues --    2.00381   2.01902   2.05514   2.06280   2.08833
 Alpha virt. eigenvalues --    2.09365   2.09495   2.13498   2.15306   2.17152
 Alpha virt. eigenvalues --    2.17547   2.18438   2.19138   2.20178   2.23155
 Alpha virt. eigenvalues --    2.23648   2.28266   2.31352   2.33092   2.35208
 Alpha virt. eigenvalues --    2.37003   2.38001   2.43276   2.44730   2.46588
 Alpha virt. eigenvalues --    2.48638   2.49194   2.52445   2.54661   2.54834
 Alpha virt. eigenvalues --    2.58907   2.61729   2.62759   2.65190   2.67559
 Alpha virt. eigenvalues --    2.68472   2.76061   2.77675   2.81056   2.82515
 Alpha virt. eigenvalues --    2.84044   2.87776   2.88528   2.89772   2.92867
 Alpha virt. eigenvalues --    2.93944   2.97954   2.98924   3.01608   3.07386
 Alpha virt. eigenvalues --    3.10418   3.12394   3.14974   3.19927   3.29548
 Alpha virt. eigenvalues --    3.32625   3.38740   3.44023   3.48128   3.67633
 Alpha virt. eigenvalues --    3.74619   3.78951
          Condensed to atoms (all electrons):
               1          2          3          4          5          6
     1  C    4.559083   0.444149  -0.078346   0.014886  -0.000216   0.008799
     2  C    0.444149   5.178075   0.365252   0.058615  -0.117818   0.044973
     3  C   -0.078346   0.365252   5.110835   0.282537   0.088141  -0.137507
     4  C    0.014886   0.058615   0.282537   5.087462   0.224027   0.095832
     5  C   -0.000216  -0.117818   0.088141   0.224027   5.220228   0.300537
     6  C    0.008799   0.044973  -0.137507   0.095832   0.300537   5.216763
     7  F   -0.000017   0.002045  -0.000050   0.005384  -0.060327   0.299333
     8  C   -0.065331   0.292285   0.029088  -0.090261   0.000133   0.222439
     9  C   -0.019543  -0.042559   0.013810  -0.000823   0.012605  -0.067139
    10  C   -0.000418   0.006784   0.000350  -0.000267   0.001669  -0.025925
    11  O   -0.000004  -0.000058  -0.000002   0.000005  -0.001441   0.009511
    12  C    0.000006   0.000094  -0.000003   0.000002  -0.000064   0.001867
    13  C   -0.000026  -0.000035   0.000001  -0.000000   0.000003  -0.000312
    14  C    0.000304  -0.000201  -0.000011   0.000001  -0.000003   0.000224
    15  C   -0.000012  -0.021184   0.000006  -0.000016  -0.000155   0.010812
    16  F    0.004890  -0.007692   0.000200   0.000001   0.000000   0.000251
    17  H    0.373000  -0.023304  -0.020861   0.002347  -0.000123  -0.000020
    18  H    0.354585   0.003156   0.001357  -0.000407  -0.000027  -0.000203
    19  H    0.370323  -0.000314   0.006581  -0.000926   0.000257  -0.000764
    20  H   -0.022380  -0.062025   0.425067  -0.067027   0.014143  -0.000642
    21  H   -0.000411   0.014303  -0.063950   0.431856  -0.070830   0.013456
    22  H    0.000020  -0.001006   0.012843  -0.064756   0.416805  -0.059358
    23  H    0.000002   0.000430  -0.000064   0.000318  -0.002513  -0.018457
    24  H    0.000000   0.000002  -0.000000   0.000000   0.000001  -0.000003
    25  H    0.000000  -0.000001   0.000000   0.000000  -0.000000   0.000001
    26  H   -0.000015   0.000031  -0.000000   0.000000  -0.000000   0.000001
               7          8          9         10         11         12
     1  C   -0.000017  -0.065331  -0.019543  -0.000418  -0.000004   0.000006
     2  C    0.002045   0.292285  -0.042559   0.006784  -0.000058   0.000094
     3  C   -0.000050   0.029088   0.013810   0.000350  -0.000002  -0.000003
     4  C    0.005384  -0.090261  -0.000823  -0.000267   0.000005   0.000002
     5  C   -0.060327   0.000133   0.012605   0.001669  -0.001441  -0.000064
     6  C    0.299333   0.222439  -0.067139  -0.025925   0.009511   0.001867
     7  F    8.989895  -0.071120   0.004316   0.000815  -0.027885  -0.000704
     8  C   -0.071120   5.456782   0.228697  -0.072100  -0.003077   0.010135
     9  C    0.004316   0.228697   5.767404   0.140263  -0.075803   0.011831
    10  C    0.000815  -0.072100   0.140263   5.183341   0.453556   0.284196
    11  O   -0.027885  -0.003077  -0.075803   0.453556   7.559005  -0.090211
    12  C   -0.000704   0.010135   0.011831   0.284196  -0.090211   5.264807
    13  C    0.000003  -0.000556  -0.105094   0.120004   0.006326   0.198957
    14  C   -0.000001   0.013519  -0.000691  -0.141137   0.000010   0.111133
    15  C    0.000085  -0.056635   0.149809   0.099721   0.001873  -0.139538
    16  F   -0.000000   0.001887  -0.075346   0.002129  -0.000001   0.000013
    17  H    0.000001   0.009397  -0.000539   0.000005   0.000000  -0.000000
    18  H    0.000000  -0.003058   0.004533   0.000032   0.000000  -0.000001
    19  H   -0.000003  -0.010481   0.004670   0.000151   0.000001  -0.000005
    20  H    0.000004   0.015145  -0.000199   0.000000   0.000000  -0.000000
    21  H   -0.000076  -0.001259   0.000023   0.000001  -0.000000  -0.000000
    22  H    0.000830   0.016875  -0.000289   0.000050   0.000007  -0.000000
    23  H    0.051499   0.005557  -0.011180  -0.026709   0.339620   0.004295
    24  H    0.000021  -0.000185   0.020083  -0.057486   0.003795   0.417662
    25  H   -0.000000   0.000014  -0.001980   0.014413  -0.000115  -0.069606
    26  H    0.000000  -0.000207   0.019705  -0.001529   0.000006   0.013872
              13         14         15         16         17         18
     1  C   -0.000026   0.000304  -0.000012   0.004890   0.373000   0.354585
     2  C   -0.000035  -0.000201  -0.021184  -0.007692  -0.023304   0.003156
     3  C    0.000001  -0.000011   0.000006   0.000200  -0.020861   0.001357
     4  C   -0.000000   0.000001  -0.000016   0.000001   0.002347  -0.000407
     5  C    0.000003  -0.000003  -0.000155   0.000000  -0.000123  -0.000027
     6  C   -0.000312   0.000224   0.010812   0.000251  -0.000020  -0.000203
     7  F    0.000003  -0.000001   0.000085  -0.000000   0.000001   0.000000
     8  C   -0.000556   0.013519  -0.056635   0.001887   0.009397  -0.003058
     9  C   -0.105094  -0.000691   0.149809  -0.075346  -0.000539   0.004533
    10  C    0.120004  -0.141137   0.099721   0.002129   0.000005   0.000032
    11  O    0.006326   0.000010   0.001873  -0.000001   0.000000   0.000000
    12  C    0.198957   0.111133  -0.139538   0.000013  -0.000000  -0.000001
    13  C    5.193240   0.156717   0.118947   0.005253  -0.000001   0.000002
    14  C    0.156717   5.289469   0.322246  -0.062354   0.000026  -0.000242
    15  C    0.118947   0.322246   5.052982   0.360032   0.000192  -0.002167
    16  F    0.005253  -0.062354   0.360032   8.926631   0.001662   0.004178
    17  H   -0.000001   0.000026   0.000192   0.001662   0.679596  -0.023025
    18  H    0.000002  -0.000242  -0.002167   0.004178  -0.023025   0.626478
    19  H    0.000039  -0.000797  -0.000914   0.001213  -0.028470  -0.018902
    20  H    0.000000  -0.000000   0.000017  -0.000007   0.006028   0.001574
    21  H    0.000000   0.000000   0.000000   0.000000  -0.000018   0.000013
    22  H    0.000000  -0.000000   0.000003  -0.000000  -0.000002  -0.000001
    23  H    0.000027  -0.000155   0.000211   0.000001  -0.000000   0.000001
    24  H   -0.075056   0.014818  -0.001779   0.000004  -0.000000  -0.000000
    25  H    0.437231  -0.071458   0.014107  -0.000084   0.000000   0.000000
    26  H   -0.070800   0.416857  -0.059868   0.001866  -0.000001   0.000022
              19         20         21         22         23         24
     1  C    0.370323  -0.022380  -0.000411   0.000020   0.000002   0.000000
     2  C   -0.000314  -0.062025   0.014303  -0.001006   0.000430   0.000002
     3  C    0.006581   0.425067  -0.063950   0.012843  -0.000064  -0.000000
     4  C   -0.000926  -0.067027   0.431856  -0.064756   0.000318   0.000000
     5  C    0.000257   0.014143  -0.070830   0.416805  -0.002513   0.000001
     6  C   -0.000764  -0.000642   0.013456  -0.059358  -0.018457  -0.000003
     7  F   -0.000003   0.000004  -0.000076   0.000830   0.051499   0.000021
     8  C   -0.010481   0.015145  -0.001259   0.016875   0.005557  -0.000185
     9  C    0.004670  -0.000199   0.000023  -0.000289  -0.011180   0.020083
    10  C    0.000151   0.000000   0.000001   0.000050  -0.026709  -0.057486
    11  O    0.000001   0.000000  -0.000000   0.000007   0.339620   0.003795
    12  C   -0.000005  -0.000000  -0.000000  -0.000000   0.004295   0.417662
    13  C    0.000039   0.000000   0.000000   0.000000   0.000027  -0.075056
    14  C   -0.000797  -0.000000   0.000000  -0.000000  -0.000155   0.014818
    15  C   -0.000914   0.000017   0.000000   0.000003   0.000211  -0.001779
    16  F    0.001213  -0.000007   0.000000  -0.000000   0.000001   0.000004
    17  H   -0.028470   0.006028  -0.000018  -0.000002  -0.000000  -0.000000
    18  H   -0.018902   0.001574   0.000013  -0.000001   0.000001  -0.000000
    19  H    0.639165   0.000643   0.000010  -0.000001   0.000001  -0.000000
    20  H    0.000643   0.701135  -0.012527  -0.000370  -0.000002   0.000000
    21  H    0.000010  -0.012527   0.689086  -0.011748   0.000002  -0.000000
    22  H   -0.000001  -0.000370  -0.011748   0.674220   0.000181  -0.000000
    23  H    0.000001  -0.000002   0.000002   0.000181   0.471444   0.000090
    24  H   -0.000000   0.000000  -0.000000  -0.000000   0.000090   0.687060
    25  H   -0.000000  -0.000000  -0.000000  -0.000000   0.000012  -0.013206
    26  H    0.000036  -0.000000  -0.000000   0.000000  -0.000002  -0.000305
              25         26
     1  C    0.000000  -0.000015
     2  C   -0.000001   0.000031
     3  C    0.000000  -0.000000
     4  C    0.000000   0.000000
     5  C   -0.000000  -0.000000
     6  C    0.000001   0.000001
     7  F   -0.000000   0.000000
     8  C    0.000014  -0.000207
     9  C   -0.001980   0.019705
    10  C    0.014413  -0.001529
    11  O   -0.000115   0.000006
    12  C   -0.069606   0.013872
    13  C    0.437231  -0.070800
    14  C   -0.071458   0.416857
    15  C    0.014107  -0.059868
    16  F   -0.000084   0.001866
    17  H    0.000000  -0.000001
    18  H    0.000000   0.000022
    19  H   -0.000000   0.000036
    20  H   -0.000000  -0.000000
    21  H   -0.000000  -0.000000
    22  H   -0.000000   0.000000
    23  H    0.000012  -0.000002
    24  H   -0.013206  -0.000305
    25  H    0.691750  -0.012383
    26  H   -0.012383   0.686184
 Mulliken charges:
               1
     1  C    0.056671
     2  C   -0.133997
     3  C   -0.035272
     4  C    0.021212
     5  C   -0.025034
     6  C    0.085528
     7  F   -0.194048
     8  C    0.072317
     9  C    0.023436
    10  C    0.018091
    11  O   -0.175118
    12  C   -0.018740
    13  C    0.015130
    14  C   -0.048275
    15  C    0.151227
    16  F   -0.164728
    17  H    0.024110
    18  H    0.052100
    19  H    0.038489
    20  H    0.001421
    21  H    0.012070
    22  H    0.015696
    23  H    0.185393
    24  H    0.004485
    25  H    0.011305
    26  H    0.006531
 Sum of Mulliken charges =  -0.00000
 Mulliken charges with hydrogens summed into heavy atoms:
               1
     1  C    0.171371
     2  C   -0.133997
     3  C   -0.033851
     4  C    0.033282
     5  C   -0.009338
     6  C    0.085528
     7  F   -0.194048
     8  C    0.072317
     9  C    0.023436
    10  C    0.018091
    11  O    0.010275
    12  C   -0.014255
    13  C    0.026435
    14  C   -0.041744
    15  C    0.151227
    16  F   -0.164728
 APT charges:
               1
     1  C   -0.579132
     2  C   -0.658834
     3  C   -0.518880
     4  C   -0.419998
     5  C   -0.434070
     6  C   -0.337390
     7  F    0.062288
     8  C   -0.415711
     9  C   -0.396564
    10  C   -0.556276
    11  O    0.126623
    12  C   -0.550744
    13  C   -0.273240
    14  C   -0.468964
    15  C   -0.400374
    16  F    0.111993
    17  H    0.606768
    18  H    0.284347
    19  H    0.207734
    20  H    0.660039
    21  H    0.865039
    22  H    0.673628
    23  H    0.173207
    24  H    0.654129
    25  H    0.907252
    26  H    0.677129
 Sum of APT charges =  -0.00000
 APT charges with hydrogens summed into heavy atoms:
               1
     1  C    0.519717
     2  C   -0.658834
     3  C    0.141159
     4  C    0.445041
     5  C    0.239558
     6  C   -0.337390
     7  F    0.062288
     8  C   -0.415711
     9  C   -0.396564
    10  C   -0.556276
    11  O    0.299830
    12  C    0.103384
    13  C    0.634012
    14  C    0.208165
    15  C   -0.400374
    16  F    0.111993
 Electronic spatial extent (au):  <R**2>=           3445.1863
 Charge=             -0.0000 electrons
 Dipole moment (field-independent basis, Debye):
    X=             -1.3637    Y=              0.5647    Z=             -0.4536  Tot=              1.5441
 Quadrupole moment (field-independent basis, Debye-Ang):
   XX=            -78.4450   YY=            -88.6679   ZZ=            -95.3147
   XY=              1.4548   XZ=             -0.9279   YZ=             -0.6679
 Traceless Quadrupole moment (field-independent basis, Debye-Ang):
   XX=              9.0309   YY=             -1.1920   ZZ=             -7.8388
   XY=              1.4548   XZ=             -0.9279   YZ=             -0.6679
 Octapole moment (field-independent basis, Debye-Ang**2):
  XXX=             -5.1978  YYY=             11.1629  ZZZ=             92.7262  XYY=            -14.7634
  XXY=              1.9087  XXZ=             32.6256  XZZ=             -2.7597  YZZ=              7.4525
  YYZ=             27.2635  XYZ=              1.5098
 Hexadecapole moment (field-independent basis, Debye-Ang**3):
 XXXX=          -2575.3206 YYYY=          -1342.3365 ZZZZ=           -263.8395 XXXY=             73.8372
 XXXZ=            -69.2431 YYYX=             78.4149 YYYZ=            108.7833 ZZZX=            -50.4354
 ZZZY=            107.0338 XXYY=           -659.9732 XXZZ=           -569.9702 YYZZ=           -278.2322
 XXYZ=             22.6514 YYXZ=            -16.8400 ZZXY=             26.0163
 N-N= 1.068750406035D+03 E-N=-3.948574893503D+03  KE= 7.677405987445D+02
  Exact polarizability:       0.000       0.000       0.000       0.000       0.000       0.000
 Approx polarizability:     463.321       0.834     364.769     -13.401     -38.916     134.477
   1 Symmetry operations used in ECPInt.
 ECPInt:  NShTT=    8001 NPrTT=   29641 LenC2=    7593 LenP2D=   20274.
 LDataN:  DoStor=T MaxTD1= 6 Len=  172
 Calling FoFJK, ICntrl=    100527 FMM=F ISym2X=0 I1Cent= 0 IOpClX= 0 NMat=1 NMatS=1 NMatT=0.
 -------------------------------------------------------------------
 Center     Atomic                   Forces (Hartrees/Bohr)
 Number     Number              X              Y              Z
 -------------------------------------------------------------------
      1        6          -0.000153133    0.000592660    0.002352840
      2        6           0.000001775   -0.000008317    0.000001258
      3        6          -0.000002524   -0.000002119    0.000005523
      4        6          -0.000001187    0.000007859   -0.000000650
      5        6           0.000001253   -0.000002028   -0.000000444
      6        6           0.000003355   -0.000005522   -0.000000428
      7        9           0.000247069    0.000410580   -0.002464201
      8        6          -0.000039166   -0.001110939   -0.000627407
      9        6          -0.000126875   -0.000539196    0.001066876
     10        6          -0.000000886    0.000005343   -0.000000082
     11        8          -0.000121130    0.000949670    0.002265257
     12        6          -0.000000248   -0.000003497    0.000000561
     13        6           0.000001818    0.000003628   -0.000001888
     14        6           0.000001855   -0.000003726    0.000000323
     15        6          -0.000003012   -0.000003334    0.000001994
     16        9           0.000187825   -0.000299773   -0.002611222
     17        1           0.000001551   -0.000001062    0.000004089
     18        1           0.000008694    0.000004882    0.000005982
     19        1          -0.000002444    0.000000417    0.000004438
     20        1           0.000000295    0.000000637   -0.000001391
     21        1           0.000000072    0.000000618    0.000000316
     22        1           0.000000403   -0.000000251   -0.000000471
     23        1          -0.000003573    0.000001849   -0.000000502
     24        1          -0.000001286   -0.000000678   -0.000000363
     25        1          -0.000000049    0.000000469   -0.000000270
     26        1          -0.000000453    0.000001833   -0.000000138
 -------------------------------------------------------------------
 Cartesian Forces:  Max     0.002611222 RMS     0.000602122
 FormGI is forming the generalized inverse of G from B-inverse, IUseBI=4.

 GradGradGradGradGradGradGradGradGradGradGradGradGradGradGradGradGradGrad
 Berny optimization.
 Internal  Forces:  Max     0.005932305 RMS     0.001165167
 Search for a saddle point.
 Step number   1 out of a maximum of  140
 All quantities printed in internal units (Hartrees-Bohrs-Radians)
 Swapping is turned off.
 Second derivative matrix not updated -- analytic derivatives used.
 ITU=  0
     Eigenvalues ---   -0.02244   0.00336   0.00639   0.01073   0.01409
     Eigenvalues ---    0.01578   0.01588   0.01612   0.01710   0.01763
     Eigenvalues ---    0.01840   0.02132   0.02157   0.02268   0.02311
     Eigenvalues ---    0.02587   0.02814   0.02911   0.03005   0.04012
     Eigenvalues ---    0.05226   0.05456   0.06054   0.09899   0.09941
     Eigenvalues ---    0.10655   0.10833   0.11043   0.11161   0.11645
     Eigenvalues ---    0.13231   0.13930   0.14863   0.16175   0.16453
     Eigenvalues ---    0.17013   0.17509   0.17832   0.18175   0.18698
     Eigenvalues ---    0.19490   0.19607   0.22753   0.25272   0.26266
     Eigenvalues ---    0.27329   0.29328   0.31512   0.32484   0.32954
     Eigenvalues ---    0.33165   0.33611   0.34073   0.34390   0.34517
     Eigenvalues ---    0.34585   0.34815   0.34912   0.35110   0.35807
     Eigenvalues ---    0.40278   0.40418   0.43740   0.45243   0.46059
     Eigenvalues ---    0.46586   0.47779   0.49267   0.49529   0.51416
     Eigenvalues ---    0.93013   2.32309
 Eigenvectors required to have negative eigenvalues:
                          D31       D32       D33       D34       D4
   1                   -0.43195  -0.42516  -0.35881  -0.35202   0.19320
                          D2        D6        D40       D42       D43
   1                    0.18579   0.17626  -0.17224  -0.15754   0.14451
 RFO step:  Lambda0=3.880152933D-03 Lambda=-1.71160611D-03.
 Linear search not attempted -- option 19 set.
 Maximum step size (   0.020) exceeded in Quadratic search.
    -- Step size scaled by   0.327
 Iteration  1 RMS(Cart)=  0.03197435 RMS(Int)=  0.00047148
 Iteration  2 RMS(Cart)=  0.00060471 RMS(Int)=  0.00000786
 Iteration  3 RMS(Cart)=  0.00000031 RMS(Int)=  0.00000786
 Variable       Old X    -DE/DX   Delta X   Delta X   Delta X     New X
                                 (Linear)    (Quad)   (Total)
    R1        2.87642  -0.00040   0.00000  -0.00005  -0.00005   2.87637
    R2        2.09318  -0.00000   0.00000   0.00050   0.00050   2.09369
    R3        2.09056   0.00001   0.00000   0.00030   0.00030   2.09086
    R4        2.08472  -0.00000   0.00000  -0.00019  -0.00019   2.08452
    R5        2.67240   0.00025   0.00000  -0.00024  -0.00023   2.67216
    R6        2.75894   0.00041   0.00000  -0.00077  -0.00077   2.75817
    R7        2.64266   0.00017   0.00000  -0.00001  -0.00000   2.64265
    R8        2.08117   0.00000   0.00000   0.00030   0.00030   2.08148
    R9        2.63608  -0.00015   0.00000   0.00118   0.00118   2.63726
   R10        2.07856   0.00000   0.00000   0.00001   0.00001   2.07856
   R11        2.63363  -0.00023   0.00000  -0.00057  -0.00057   2.63305
   R12        2.07765   0.00000   0.00000   0.00003   0.00003   2.07768
   R13        2.61506   0.00044   0.00000   0.00001   0.00001   2.61507
   R14        2.70395  -0.00046   0.00000   0.00019   0.00019   2.70414
   R15        2.85677  -0.00001   0.00000  -0.00356  -0.00356   2.85322
   R16        2.76244  -0.00014   0.00000  -0.00058  -0.00059   2.76185
   R17        2.70882   0.00010   0.00000   0.00083   0.00083   2.70964
   R18        2.55663   0.00017   0.00000  -0.00023  -0.00023   2.55640
   R19        2.67763  -0.00009   0.00000  -0.00024  -0.00024   2.67739
   R20        1.84945   0.00000   0.00000   0.00025   0.00025   1.84971
   R21        2.62687  -0.00005   0.00000   0.00044   0.00045   2.62733
   R22        2.07702  -0.00000   0.00000   0.00004   0.00004   2.07706
   R23        2.64388   0.00007   0.00000   0.00040   0.00040   2.64428
   R24        2.07942  -0.00000   0.00000   0.00000   0.00000   2.07942
   R25        2.63684   0.00009   0.00000  -0.00007  -0.00007   2.63677
   R26        2.07668   0.00000   0.00000   0.00003   0.00003   2.07671
   R27        2.55116  -0.00014   0.00000  -0.00010  -0.00010   2.55106
    A1        1.87876  -0.00000   0.00000  -0.00199  -0.00199   1.87677
    A2        1.98895   0.00000   0.00000  -0.00030  -0.00030   1.98865
    A3        1.95694  -0.00000   0.00000   0.00259   0.00259   1.95953
    A4        1.87662   0.00000   0.00000  -0.00045  -0.00045   1.87618
    A5        1.87957   0.00000   0.00000  -0.00088  -0.00088   1.87869
    A6        1.87861  -0.00000   0.00000   0.00085   0.00084   1.87946
    A7        1.95992  -0.00060   0.00000   0.00159   0.00159   1.96151
    A8        2.23071   0.00145   0.00000  -0.00217  -0.00217   2.22854
    A9        2.08389  -0.00072   0.00000  -0.00016  -0.00017   2.08372
   A10        2.16641   0.00038   0.00000  -0.00124  -0.00124   2.16517
   A11        2.04242  -0.00021   0.00000   0.00017   0.00017   2.04259
   A12        2.07260  -0.00017   0.00000   0.00089   0.00089   2.07349
   A13        2.04201   0.00002   0.00000   0.00004   0.00004   2.04205
   A14        2.11837  -0.00003   0.00000   0.00012   0.00011   2.11848
   A15        2.11814   0.00002   0.00000  -0.00051  -0.00051   2.11763
   A16        2.06264  -0.00034   0.00000  -0.00009  -0.00010   2.06254
   A17        2.15230   0.00015   0.00000  -0.00035  -0.00035   2.15195
   A18        2.06732   0.00018   0.00000   0.00035   0.00035   2.06767
   A19        1.96549   0.00062   0.00000   0.00293   0.00293   1.96841
   A20        2.22041   0.00050   0.00000  -0.00160  -0.00161   2.21880
   A21        2.09607  -0.00120   0.00000  -0.00156  -0.00156   2.09451
   A22        1.92920   0.00019   0.00000  -0.00046  -0.00047   1.92873
   A23        2.25303  -0.00051   0.00000  -0.00444  -0.00444   2.24859
   A24        2.10094   0.00032   0.00000   0.00491   0.00492   2.10586
   A25        2.16716  -0.00025   0.00000   0.00422   0.00424   2.17141
   A26        2.17378   0.00026   0.00000  -0.00375  -0.00373   2.17005
   A27        1.93425  -0.00002   0.00000  -0.00056  -0.00060   1.93364
   A28        2.20929  -0.00048   0.00000  -0.00101  -0.00099   2.20830
   A29        2.12692   0.00025   0.00000  -0.00088  -0.00091   2.12601
   A30        1.94409   0.00014   0.00000   0.00162   0.00164   1.94572
   A31        1.94413  -0.00000   0.00000   0.00066   0.00066   1.94479
   A32        2.13411  -0.00015   0.00000  -0.00066  -0.00067   2.13344
   A33        2.02055   0.00008   0.00000   0.00053   0.00053   2.02109
   A34        2.12777   0.00006   0.00000  -0.00001  -0.00000   2.12777
   A35        2.06037   0.00000   0.00000   0.00037   0.00036   2.06073
   A36        2.11113   0.00001   0.00000  -0.00029  -0.00029   2.11085
   A37        2.11095  -0.00001   0.00000  -0.00025  -0.00025   2.11070
   A38        2.08176   0.00012   0.00000  -0.00062  -0.00063   2.08113
   A39        2.14711  -0.00004   0.00000  -0.00010  -0.00010   2.14702
   A40        2.05336  -0.00008   0.00000   0.00056   0.00057   2.05393
   A41        2.20755  -0.00021   0.00000  -0.00121  -0.00124   2.20630
   A42        2.10110   0.00038   0.00000  -0.00072  -0.00071   2.10039
   A43        1.97349  -0.00010   0.00000   0.00182   0.00183   1.97532
    D1       -0.34706  -0.00048   0.00000  -0.05023  -0.05023  -0.39729
    D2        2.65086   0.00048   0.00000  -0.05622  -0.05622   2.59463
    D3        1.73247  -0.00047   0.00000  -0.05233  -0.05233   1.68014
    D4       -1.55279   0.00048   0.00000  -0.05833  -0.05833  -1.61112
    D5       -2.41119  -0.00048   0.00000  -0.04939  -0.04939  -2.46058
    D6        0.58672   0.00048   0.00000  -0.05539  -0.05538   0.53134
    D7        2.87249   0.00100   0.00000  -0.00925  -0.00925   2.86325
    D8       -0.20469   0.00082   0.00000  -0.00599  -0.00599  -0.21068
    D9       -0.13889  -0.00006   0.00000  -0.00361  -0.00360  -0.14250
   D10        3.06711  -0.00025   0.00000  -0.00035  -0.00035   3.06676
   D11       -2.65200  -0.00115   0.00000   0.01577   0.01576  -2.63624
   D12        0.49471  -0.00118   0.00000   0.01269   0.01270   0.50741
   D13        0.33694  -0.00011   0.00000   0.00950   0.00951   0.34645
   D14       -2.79954  -0.00014   0.00000   0.00643   0.00644  -2.79309
   D15       -0.11643   0.00008   0.00000  -0.00368  -0.00368  -0.12011
   D16        3.12743   0.00011   0.00000   0.00022   0.00022   3.12766
   D17        2.95972   0.00027   0.00000  -0.00701  -0.00701   2.95270
   D18       -0.07961   0.00030   0.00000  -0.00311  -0.00311  -0.08272
   D19        0.13200   0.00013   0.00000   0.00408   0.00408   0.13608
   D20       -2.96251   0.00034   0.00000   0.00645   0.00645  -2.95606
   D21       -3.11185   0.00010   0.00000   0.00023   0.00022  -3.11163
   D22        0.07683   0.00031   0.00000   0.00259   0.00260   0.07942
   D23       -2.97332   0.00133   0.00000   0.00816   0.00817  -2.96515
   D24        0.11487  -0.00027   0.00000   0.00284   0.00285   0.11771
   D25        0.12353   0.00114   0.00000   0.00589   0.00589   0.12942
   D26       -3.07147  -0.00046   0.00000   0.00057   0.00057  -3.07090
   D27       -0.34417   0.00012   0.00000  -0.00942  -0.00942  -0.35359
   D28        2.79282   0.00014   0.00000  -0.00669  -0.00668   2.78614
   D29        2.74044  -0.00153   0.00000  -0.01497  -0.01497   2.72547
   D30       -0.40576  -0.00151   0.00000  -0.01224  -0.01223  -0.41799
   D31        2.84152  -0.00591   0.00000   0.03093   0.03093   2.87245
   D32       -0.15197  -0.00583   0.00000   0.03187   0.03187  -0.12009
   D33       -0.29452  -0.00593   0.00000   0.02761   0.02761  -0.26691
   D34        2.99518  -0.00585   0.00000   0.02855   0.02855   3.02373
   D35       -0.16862  -0.00133   0.00000  -0.02019  -0.02019  -0.18881
   D36        3.06175   0.00010   0.00000  -0.01629  -0.01629   3.04546
   D37        2.84256  -0.00138   0.00000  -0.02132  -0.02132   2.82124
   D38       -0.21025   0.00006   0.00000  -0.01743  -0.01743  -0.22768
   D39       -3.06484   0.00004   0.00000   0.01631   0.01631  -3.04853
   D40        0.12961  -0.00172   0.00000   0.01925   0.01926   0.14887
   D41        0.20775   0.00014   0.00000   0.01673   0.01673   0.22448
   D42       -2.88098  -0.00163   0.00000   0.01968   0.01968  -2.86131
   D43        0.61441   0.00065   0.00000  -0.00629  -0.00629   0.60812
   D44       -2.60815  -0.00065   0.00000  -0.00994  -0.00994  -2.61809
   D45        0.10445  -0.00019   0.00000   0.00848   0.00848   0.11293
   D46       -3.07799  -0.00035   0.00000   0.00472   0.00471  -3.07328
   D47       -2.96060   0.00107   0.00000   0.01194   0.01194  -2.94865
   D48        0.14014   0.00092   0.00000   0.00818   0.00818   0.14832
   D49        0.03858   0.00008   0.00000   0.00390   0.00390   0.04248
   D50        3.13932   0.00013   0.00000  -0.00060  -0.00060   3.13872
   D51       -3.05967   0.00025   0.00000   0.00788   0.00788  -3.05179
   D52        0.04107   0.00029   0.00000   0.00339   0.00339   0.04446
   D53       -0.05058   0.00015   0.00000  -0.00526  -0.00526  -0.05584
   D54        3.04320   0.00036   0.00000  -0.00924  -0.00924   3.03396
   D55        3.13186   0.00011   0.00000  -0.00076  -0.00076   3.13110
   D56       -0.05754   0.00032   0.00000  -0.00474  -0.00474  -0.06228
   D57       -0.08579  -0.00028   0.00000  -0.00602  -0.00601  -0.09181
   D58        3.00624   0.00139   0.00000  -0.00884  -0.00884   2.99740
   D59        3.10105  -0.00048   0.00000  -0.00223  -0.00223   3.09882
   D60       -0.09010   0.00119   0.00000  -0.00506  -0.00506  -0.09516
         Item               Value     Threshold  Converged?
 Maximum Force            0.005932     0.000450     NO 
 RMS     Force            0.001165     0.000300     NO 
 Maximum Displacement     0.168653     0.001800     NO 
 RMS     Displacement     0.032049     0.001200     NO 
 Predicted change in Energy= 6.144742D-04
 GradGradGradGradGradGradGradGradGradGradGradGradGradGradGradGradGradGrad

                          Input orientation:                          
 ---------------------------------------------------------------------
 Center     Atomic      Atomic             Coordinates (Angstroms)
 Number     Number       Type             X           Y           Z
 ---------------------------------------------------------------------
      1          6           0       -1.125423    2.561058   -1.172530
      2          6           0       -1.518807    1.218513   -0.572835
      3          6           0       -2.896785    1.150133   -0.262943
      4          6           0       -3.584144   -0.040904   -0.008825
      5          6           0       -2.885652   -1.231623   -0.213589
      6          6           0       -1.522359   -1.155250   -0.491133
      7          9           0       -0.988397   -2.367359   -0.891982
      8          6           0       -0.699727    0.015322   -0.464420
      9          6           0        0.800154   -0.100543   -0.335569
     10          6           0        1.501912   -1.311518    0.085232
     11          8           0        0.941996   -2.424802    0.611662
     12          6           0        2.916192   -1.395904    0.077722
     13          6           0        3.723133   -0.298676   -0.201436
     14          6           0        3.102045    0.934009   -0.431140
     15          6           0        1.708508    1.004072   -0.439175
     16          9           0        1.240431    2.269099   -0.494074
     17          1           0       -2.039211    3.013702   -1.605677
     18          1           0       -0.715397    3.278577   -0.436838
     19          1           0       -0.387060    2.455690   -1.985247
     20          1           0       -3.462886    2.094677   -0.287488
     21          1           0       -4.655318   -0.041887    0.241030
     22          1           0       -3.365416   -2.220884   -0.211319
     23          1           0        0.062520   -2.602078    0.220269
     24          1           0        3.338530   -2.373598    0.349464
     25          1           0        4.819906   -0.387688   -0.198817
     26          1           0        3.661088    1.871175   -0.561047
 ---------------------------------------------------------------------
                    Distance matrix (angstroms):
                    1          2          3          4          5
     1  C    0.000000
     2  C    1.522108   0.000000
     3  C    2.440447   1.414048   0.000000
     4  C    3.764270   2.483920   1.398431   0.000000
     5  C    4.289803   2.828514   2.382294   1.395576   0.000000
     6  C    3.799053   2.375171   2.693679   2.392769   1.393352
     7  F    4.938298   3.638911   4.050974   3.595868   2.312940
     8  C    2.676455   1.459560   2.481019   2.920718   2.529043
     9  C    3.390055   2.678392   3.903437   4.396861   3.857381
    10  C    4.845792   3.994854   5.052672   5.243213   4.398454
    11  O    5.684748   4.553277   5.318020   5.153049   4.093361
    12  C    5.792696   5.189183   6.355239   6.640624   5.811475
    13  C    5.712232   5.469710   6.776883   7.314358   6.674322
    14  C    4.590036   4.631769   6.005077   6.770076   6.371013
    15  C    3.315597   3.237192   4.610978   5.411963   5.114247
    16  F    2.478469   2.953528   4.292093   5.371043   5.418329
    17  H    1.107931   2.135482   2.451786   3.777217   4.547214
    18  H    1.106434   2.215361   3.052698   4.408158   5.010165
    19  H    1.103083   2.192342   3.312027   4.512269   4.793539
    20  H    2.542546   2.151401   1.101470   2.157096   3.376823
    21  H    4.607997   3.476879   2.183424   1.099928   2.180337
    22  H    5.367352   3.920474   3.403827   2.200263   1.099461
    23  H    5.478054   4.210288   4.803131   4.462091   3.279953
    24  H    6.825992   6.111269   7.188245   7.313907   6.353076
    25  H    6.707470   6.549737   7.868693   8.413347   7.751649
    26  H    4.874478   5.220863   6.604125   7.513613   7.253129
                    6          7          8          9         10
     6  C    0.000000
     7  F    1.383837   0.000000
     8  C    1.430971   2.437891   0.000000
     9  C    2.555518   2.940572   1.509857   0.000000
    10  C    3.082667   2.876002   2.628657   1.461506   0.000000
    11  O    2.983449   2.447582   3.131679   2.513870   1.352788
    12  C    4.481322   4.138824   3.919227   2.515231   1.416815
    13  C    5.322859   5.191803   4.441783   2.932755   2.458017
    14  C    5.074812   5.276658   3.911337   2.525497   2.805255
    15  C    3.886370   4.341069   2.603432   1.433882   2.383200
    16  F    4.399907   5.159723   2.973987   2.415403   3.636590
    17  H    4.346205   5.528959   3.476632   4.401555   5.840056
    18  H    4.506989   5.670827   3.263408   3.704808   5.124255
    19  H    4.069418   4.981831   2.892416   3.265768   4.695418
    20  H    3.790665   5.137926   3.462668   4.795290   6.032438
    21  H    3.404566   4.487522   4.018413   5.486172   6.288698
    22  H    2.147261   2.476889   3.488636   4.675816   4.960421
    23  H    2.260807   1.548102   2.810801   2.666596   1.937945
    24  H    5.081261   4.501502   4.762022   3.475543   2.137988
    25  H    6.395227   6.175431   5.540695   4.032315   3.455897
    26  H    6.002688   6.300190   4.740277   3.481875   3.899904
                   11         12         13         14         15
    11  O    0.000000
    12  C    2.289361   0.000000
    13  C    3.593920   1.390321   0.000000
    14  C    4.127331   2.392065   1.399295   0.000000
    15  C    3.667284   2.735976   2.410889   1.395320   0.000000
    16  F    4.831606   4.070303   3.583701   2.291731   1.349964
    17  H    6.586464   6.843572   6.793257   5.668966   4.409619
    18  H    6.031155   5.941715   5.705497   4.479943   3.323957
    19  H    5.685906   5.477416   5.259486   4.111522   2.981432
    20  H    6.374727   7.280808   7.574589   6.668290   5.287319
    21  H    6.094717   7.693361   8.394055   7.847348   6.484982
    22  H    4.390066   6.342140   7.344557   7.199286   6.016392
    23  H    0.978822   3.101390   4.345524   4.708180   4.018514
    24  H    2.411378   1.099135   2.180989   3.406689   3.832437
    25  H    4.454761   2.171888   1.100382   2.179886   3.416952
    26  H    5.217674   3.411260   2.200323   1.098947   2.139927
                   16         17         18         19         20
    16  F    0.000000
    17  H    3.542054   0.000000
    18  H    2.201723   1.785729   0.000000
    19  H    2.215206   1.784672   1.783961   0.000000
    20  H    4.711081   2.146876   2.995433   3.531773   0.000000
    21  H    6.375021   4.426168   5.196919   5.423304   2.503225
    22  H    6.438457   5.577091   6.108808   5.821320   4.317334
    23  H    5.062225   6.268041   5.968169   5.536012   5.894558
    24  H    5.164127   7.859114   6.999976   6.530919   8.162747
    25  H    4.467475   7.784356   6.643623   6.195855   8.647233
    26  H    2.454060   5.906778   4.598894   4.330993   7.132726
                   21         22         23         24         25
    21  H    0.000000
    22  H    2.572255   0.000000
    23  H    5.367775   3.475964   0.000000
    24  H    8.327679   6.729093   3.286508   0.000000
    25  H    9.491729   8.388103   5.264207   2.537504   0.000000
    26  H    8.571216   8.138736   5.793974   4.353294   2.564475
                   26
    26  H    0.000000
 Symmetry turned off by external request.
 Stoichiometry    C13H10F2O
 Framework group  C1[X(C13H10F2O)]
 Deg. of freedom    72
 Full point group                 C1      NOp   1
 Rotational constants (GHZ):           0.8391740           0.4692839           0.3120047
 Standard basis: def2SVP (5D, 7F)
   274 basis functions,   470 primitive gaussians,   290 cartesian basis functions
    57 alpha electrons       57 beta electrons
       nuclear repulsion energy      1068.9755685328 Hartrees.
 NAtoms=   26 NActive=   26 NUniq=   26 SFac= 1.00D+00 NAtFMM=   60 NAOKFM=F Big=F
 Integral buffers will be    131072 words long.
 Raffenetti 2 integral format.
 Two-electron integral symmetry is turned off.
 Nuclear repulsion after empirical dispersion term =     1068.9241178262 Hartrees.
 One-electron integrals computed using PRISM.
   1 Symmetry operations used in ECPInt.
 ECPInt:  NShTT=    8001 NPrTT=   29641 LenC2=    7593 LenP2D=   20270.
 LDataN:  DoStor=T MaxTD1= 4 Len=   56
 NBasis=   274 RedAO= T EigKep=  3.03D-04  NBF=   274
 NBsUse=   274 1.00D-06 EigRej= -1.00D+00 NBFU=   274
 Initial guess from the checkpoint file:  "path/to/scratch/gaussian_tmp/Gau-2280006.chk"
 B after Tr=    -0.003613   -0.004084    0.014085
         Rot=    0.999995   -0.003106    0.000186   -0.000175 Ang=  -0.36 deg.
 ExpMin= 1.22D-01 ExpMax= 2.89D+03 ExpMxC= 4.35D+02 IAcc=3 IRadAn=         5 AccDes= 0.00D+00
 Harris functional with IExCor=  404 and IRadAn=       5 diagonalized for initial guess.
 HarFok:  IExCor=  404 AccDes= 0.00D+00 IRadAn=         5 IDoV= 1 UseB2=F ITyADJ=14
 ICtDFT=  3500011 ScaDFX=  1.000000  1.000000  1.000000  1.000000
 FoFCou: FMM=F IPFlag=           0 FMFlag=      100000 FMFlg1=           0
         NFxFlg=           0 DoJE=T BraDBF=F KetDBF=T FulRan=T
         wScrn=  0.000000 ICntrl=       500 IOpCl=  0 I1Cent=   200000004 NGrid=           0
         NMat0=    1 NMatS0=      1 NMatT0=    0 NMatD0=    1 NMtDS0=    0 NMtDT0=    0
 Symmetry not used in FoFCou.
 Requested convergence on RMS density matrix=1.00D-08 within 128 cycles.
 Requested convergence on MAX density matrix=1.00D-06.
 Requested convergence on             energy=1.00D-06.
 No special actions if energy rises.
 Integral accuracy reduced to 1.0D-05 until final iterations.
 Initial convergence to 1.0D-05 achieved.  Increase integral accuracy.
 SCF Done:  E(RB-P86) =  -775.751785478     A.U. after   12 cycles
            NFock= 12  Conv=0.48D-08     -V/T= 2.0104
 DoSCS=F DFT=T ScalE2(SS,OS)=  1.000000  1.000000
 Range of M.O.s used for correlation:     1   274
 NBasis=   274 NAE=    57 NBE=    57 NFC=     0 NFV=     0
 NROrb=    274 NOA=    57 NOB=    57 NVA=   217 NVB=   217

 **** Warning!!: The largest alpha MO coefficient is  0.10749422D+02

 Symmetrizing basis deriv contribution to polar:
 IMax=3 JMax=2 DiffMx= 0.00D+00
   1 Symmetry operations used in ECPInt.
 ECPInt:  NShTT=    8001 NPrTT=   29641 LenC2=    7593 LenP2D=   20270.
 LDataN:  DoStor=T MaxTD1= 5 Len=  102
 Calling FoFJK, ICntrl=      2527 FMM=F ISym2X=0 I1Cent= 0 IOpClX= 0 NMat=1 NMatS=1 NMatT=0.
 -------------------------------------------------------------------
 Center     Atomic                   Forces (Hartrees/Bohr)
 Number     Number              X              Y              Z
 -------------------------------------------------------------------
      1        6           0.000073933    0.000388652    0.001714664
      2        6          -0.000083557   -0.000079607    0.000099405
      3        6          -0.000008546    0.000019347    0.000032241
      4        6           0.000003630    0.000021394   -0.000009916
      5        6           0.000004722   -0.000000826   -0.000006645
      6        6           0.000039846   -0.000079688   -0.000148269
      7        9           0.000224419    0.000291961   -0.001591325
      8        6          -0.000025940   -0.000705973   -0.000389789
      9        6          -0.000077715   -0.000364706    0.000667564
     10        6          -0.000052867   -0.000008468    0.000085600
     11        8          -0.000167503    0.000664306    0.001605043
     12        6          -0.000011806   -0.000007100   -0.000003360
     13        6           0.000001842    0.000022145    0.000001177
     14        6           0.000010226    0.000000503    0.000036461
     15        6           0.000044175   -0.000053953   -0.000068240
     16        9          -0.000128299   -0.000061895   -0.001975514
     17        1           0.000015047    0.000015303    0.000010522
     18        1           0.000076350   -0.000009480    0.000032920
     19        1           0.000036614   -0.000010105   -0.000002681
     20        1          -0.000004940   -0.000002847    0.000003710
     21        1          -0.000000060   -0.000000056    0.000002087
     22        1          -0.000003214    0.000001423   -0.000005267
     23        1           0.000028271   -0.000038189   -0.000082313
     24        1           0.000002107    0.000000012    0.000000093
     25        1          -0.000000202   -0.000000898   -0.000003514
     26        1           0.000003467   -0.000001259   -0.000004655
 -------------------------------------------------------------------
 Cartesian Forces:  Max     0.001975514 RMS     0.000424626

 GradGradGradGradGradGradGradGradGradGradGradGradGradGradGradGradGradGrad
 Berny optimization.
 FormGI is forming the generalized inverse of G from B-inverse, IUseBI=4.
 Internal  Forces:  Max     0.004262088 RMS     0.000837968
 Search for a saddle point.
 Step number   2 out of a maximum of  140
 All quantities printed in internal units (Hartrees-Bohrs-Radians)
 Swapping is turned off.
 Update second derivatives using D2CorX and points    1    2
 ITU=  0  0
     Eigenvalues ---   -0.02216   0.00333   0.00647   0.01071   0.01409
     Eigenvalues ---    0.01578   0.01588   0.01612   0.01707   0.01763
     Eigenvalues ---    0.01833   0.02132   0.02156   0.02269   0.02310
     Eigenvalues ---    0.02586   0.02813   0.02910   0.03003   0.04009
     Eigenvalues ---    0.05227   0.05456   0.06066   0.09899   0.09941
     Eigenvalues ---    0.10655   0.10833   0.11042   0.11161   0.11645
     Eigenvalues ---    0.13231   0.13930   0.14863   0.16175   0.16453
     Eigenvalues ---    0.17013   0.17509   0.17833   0.18175   0.18698
     Eigenvalues ---    0.19490   0.19607   0.22753   0.25272   0.26266
     Eigenvalues ---    0.27329   0.29328   0.31512   0.32484   0.32954
     Eigenvalues ---    0.33165   0.33611   0.34073   0.34390   0.34517
     Eigenvalues ---    0.34585   0.34815   0.34912   0.35110   0.35807
     Eigenvalues ---    0.40277   0.40418   0.43739   0.45243   0.46059
     Eigenvalues ---    0.46586   0.47779   0.49266   0.49529   0.51416
     Eigenvalues ---    0.93036   2.32325
 Eigenvectors required to have negative eigenvalues:
                          D31       D32       D33       D34       D4
   1                    0.43322   0.42572   0.36041   0.35291  -0.19306
                          D2        D6        D40       D42       D43
   1                   -0.18571  -0.17603   0.17059   0.15517  -0.14724
 RFO step:  Lambda0=2.215723856D-03 Lambda=-8.87716808D-04.
 Linear search not attempted -- option 19 set.
 Maximum step size (   0.020) exceeded in Quadratic search.
    -- Step size scaled by   0.398
 Iteration  1 RMS(Cart)=  0.03180145 RMS(Int)=  0.00042973
 Iteration  2 RMS(Cart)=  0.00055261 RMS(Int)=  0.00000544
 Iteration  3 RMS(Cart)=  0.00000028 RMS(Int)=  0.00000544
 Variable       Old X    -DE/DX   Delta X   Delta X   Delta X     New X
                                 (Linear)    (Quad)   (Total)
    R1        2.87637  -0.00030   0.00000  -0.00004  -0.00004   2.87633
    R2        2.09369  -0.00001   0.00000   0.00053   0.00053   2.09422
    R3        2.09086   0.00004   0.00000   0.00025   0.00025   2.09111
    R4        2.08452   0.00003   0.00000  -0.00018  -0.00018   2.08435
    R5        2.67216   0.00016   0.00000  -0.00034  -0.00034   2.67182
    R6        2.75817  -0.00003   0.00000  -0.00081  -0.00081   2.75736
    R7        2.64265   0.00018   0.00000  -0.00001  -0.00001   2.64264
    R8        2.08148   0.00000   0.00000   0.00029   0.00029   2.08177
    R9        2.63726   0.00000   0.00000   0.00114   0.00114   2.63840
   R10        2.07856   0.00000   0.00000   0.00001   0.00001   2.07857
   R11        2.63305  -0.00014   0.00000  -0.00050  -0.00050   2.63255
   R12        2.07768   0.00000   0.00000   0.00002   0.00002   2.07770
   R13        2.61507   0.00029   0.00000   0.00015   0.00015   2.61522
   R14        2.70414  -0.00039   0.00000   0.00021   0.00021   2.70436
   R15        2.85322  -0.00034   0.00000  -0.00329  -0.00329   2.84993
   R16        2.76185  -0.00020   0.00000  -0.00055  -0.00056   2.76129
   R17        2.70964  -0.00009   0.00000   0.00082   0.00081   2.71046
   R18        2.55640   0.00014   0.00000  -0.00042  -0.00042   2.55598
   R19        2.67739  -0.00005   0.00000  -0.00015  -0.00015   2.67724
   R20        1.84971   0.00001   0.00000   0.00041   0.00041   1.85012
   R21        2.62733   0.00006   0.00000   0.00040   0.00040   2.62773
   R22        2.07706   0.00000   0.00000   0.00004   0.00004   2.07711
   R23        2.64428   0.00011   0.00000   0.00037   0.00037   2.64466
   R24        2.07942  -0.00000   0.00000   0.00001   0.00001   2.07943
   R25        2.63677   0.00005   0.00000  -0.00010  -0.00010   2.63667
   R26        2.07671   0.00000   0.00000   0.00002   0.00002   2.07673
   R27        2.55106   0.00007   0.00000   0.00000   0.00000   2.55106
    A1        1.87677   0.00005   0.00000  -0.00194  -0.00194   1.87483
    A2        1.98865  -0.00004   0.00000  -0.00032  -0.00032   1.98833
    A3        1.95953  -0.00002   0.00000   0.00244   0.00244   1.96198
    A4        1.87618   0.00002   0.00000  -0.00042  -0.00042   1.87576
    A5        1.87869   0.00001   0.00000  -0.00089  -0.00089   1.87781
    A6        1.87946  -0.00001   0.00000   0.00094   0.00094   1.88040
    A7        1.96151   0.00002   0.00000   0.00185   0.00184   1.96336
    A8        2.22854   0.00056   0.00000  -0.00280  -0.00280   2.22574
    A9        2.08372  -0.00048   0.00000   0.00015   0.00013   2.08385
   A10        2.16517   0.00016   0.00000  -0.00147  -0.00147   2.16370
   A11        2.04259  -0.00009   0.00000   0.00030   0.00030   2.04289
   A12        2.07349  -0.00007   0.00000   0.00097   0.00097   2.07445
   A13        2.04205   0.00007   0.00000   0.00009   0.00008   2.04214
   A14        2.11848  -0.00005   0.00000   0.00014   0.00014   2.11862
   A15        2.11763  -0.00001   0.00000  -0.00056  -0.00056   2.11707
   A16        2.06254  -0.00025   0.00000   0.00011   0.00011   2.06265
   A17        2.15195   0.00011   0.00000  -0.00044  -0.00044   2.15151
   A18        2.06767   0.00013   0.00000   0.00025   0.00025   2.06792
   A19        1.96841   0.00056   0.00000   0.00244   0.00244   1.97085
   A20        2.21880   0.00019   0.00000  -0.00176  -0.00177   2.21702
   A21        2.09451  -0.00081   0.00000  -0.00091  -0.00091   2.09360
   A22        1.92873   0.00036   0.00000  -0.00045  -0.00046   1.92827
   A23        2.24859  -0.00100   0.00000  -0.00529  -0.00528   2.24330
   A24        2.10586   0.00063   0.00000   0.00574   0.00575   2.11161
   A25        2.17141   0.00012   0.00000   0.00440   0.00442   2.17582
   A26        2.17005  -0.00034   0.00000  -0.00421  -0.00419   2.16585
   A27        1.93364   0.00022   0.00000  -0.00038  -0.00041   1.93323
   A28        2.20830  -0.00035   0.00000  -0.00081  -0.00080   2.20750
   A29        2.12601   0.00004   0.00000  -0.00096  -0.00098   2.12503
   A30        1.94572   0.00024   0.00000   0.00155   0.00156   1.94729
   A31        1.94479  -0.00003   0.00000   0.00054   0.00054   1.94533
   A32        2.13344  -0.00012   0.00000  -0.00049  -0.00051   2.13293
   A33        2.02109   0.00007   0.00000   0.00043   0.00043   2.02152
   A34        2.12777   0.00005   0.00000  -0.00006  -0.00006   2.12771
   A35        2.06073   0.00006   0.00000   0.00038   0.00038   2.06111
   A36        2.11085  -0.00002   0.00000  -0.00029  -0.00029   2.11055
   A37        2.11070  -0.00003   0.00000  -0.00024  -0.00024   2.11046
   A38        2.08113   0.00003   0.00000  -0.00066  -0.00066   2.08047
   A39        2.14702   0.00000   0.00000  -0.00008  -0.00007   2.14694
   A40        2.05393  -0.00002   0.00000   0.00059   0.00059   2.05452
   A41        2.20630  -0.00021   0.00000  -0.00102  -0.00104   2.20526
   A42        2.10039   0.00005   0.00000  -0.00086  -0.00085   2.09954
   A43        1.97532   0.00021   0.00000   0.00174   0.00175   1.97707
    D1       -0.39729  -0.00035   0.00000  -0.04916  -0.04916  -0.44645
    D2        2.59463   0.00038   0.00000  -0.05543  -0.05543   2.53920
    D3        1.68014  -0.00031   0.00000  -0.05121  -0.05121   1.62894
    D4       -1.61112   0.00041   0.00000  -0.05748  -0.05748  -1.66860
    D5       -2.46058  -0.00038   0.00000  -0.04826  -0.04826  -2.50884
    D6        0.53134   0.00035   0.00000  -0.05453  -0.05452   0.47682
    D7        2.86325   0.00076   0.00000  -0.00985  -0.00986   2.85339
    D8       -0.21068   0.00060   0.00000  -0.00635  -0.00635  -0.21703
    D9       -0.14250   0.00000   0.00000  -0.00386  -0.00386  -0.14635
   D10        3.06676  -0.00015   0.00000  -0.00035  -0.00035   3.06641
   D11       -2.63624  -0.00094   0.00000   0.01563   0.01563  -2.62061
   D12        0.50741  -0.00092   0.00000   0.01432   0.01432   0.52172
   D13        0.34645  -0.00013   0.00000   0.00907   0.00908   0.35553
   D14       -2.79309  -0.00011   0.00000   0.00776   0.00777  -2.78532
   D15       -0.12011   0.00009   0.00000  -0.00306  -0.00306  -0.12317
   D16        3.12766   0.00006   0.00000   0.00044   0.00044   3.12809
   D17        2.95270   0.00024   0.00000  -0.00665  -0.00665   2.94605
   D18       -0.08272   0.00021   0.00000  -0.00315  -0.00315  -0.08587
   D19        0.13608   0.00004   0.00000   0.00387   0.00386   0.13995
   D20       -2.95606   0.00018   0.00000   0.00576   0.00576  -2.95029
   D21       -3.11163   0.00007   0.00000   0.00042   0.00042  -3.11121
   D22        0.07942   0.00020   0.00000   0.00231   0.00231   0.08173
   D23       -2.96515   0.00086   0.00000   0.00691   0.00691  -2.95823
   D24        0.11771  -0.00022   0.00000   0.00224   0.00224   0.11995
   D25        0.12942   0.00074   0.00000   0.00509   0.00509   0.13451
   D26       -3.07090  -0.00035   0.00000   0.00042   0.00041  -3.07049
   D27       -0.35359   0.00016   0.00000  -0.00845  -0.00845  -0.36204
   D28        2.78614   0.00014   0.00000  -0.00727  -0.00727   2.77888
   D29        2.72547  -0.00096   0.00000  -0.01333  -0.01332   2.71214
   D30       -0.41799  -0.00098   0.00000  -0.01215  -0.01214  -0.43013
   D31        2.87245  -0.00426   0.00000   0.02932   0.02932   2.90176
   D32       -0.12009  -0.00422   0.00000   0.03106   0.03106  -0.08903
   D33       -0.26691  -0.00424   0.00000   0.02790   0.02790  -0.23902
   D34        3.02373  -0.00419   0.00000   0.02964   0.02964   3.05337
   D35       -0.18881  -0.00081   0.00000  -0.01533  -0.01533  -0.20414
   D36        3.04546   0.00017   0.00000  -0.01234  -0.01234   3.03313
   D37        2.82124  -0.00090   0.00000  -0.01723  -0.01723   2.80401
   D38       -0.22768   0.00009   0.00000  -0.01424  -0.01424  -0.24191
   D39       -3.04853   0.00000   0.00000   0.01229   0.01229  -3.03624
   D40        0.14887  -0.00129   0.00000   0.01544   0.01544   0.16431
   D41        0.22448   0.00004   0.00000   0.01341   0.01340   0.23788
   D42       -2.86131  -0.00125   0.00000   0.01655   0.01655  -2.84475
   D43        0.60812   0.00053   0.00000  -0.00653  -0.00653   0.60159
   D44       -2.61809  -0.00037   0.00000  -0.00936  -0.00937  -2.62745
   D45        0.11293  -0.00016   0.00000   0.00710   0.00710   0.12003
   D46       -3.07328  -0.00026   0.00000   0.00388   0.00388  -3.06940
   D47       -2.94865   0.00072   0.00000   0.00978   0.00978  -2.93888
   D48        0.14832   0.00062   0.00000   0.00656   0.00657   0.15488
   D49        0.04248   0.00002   0.00000   0.00309   0.00309   0.04557
   D50        3.13872   0.00010   0.00000  -0.00061  -0.00061   3.13812
   D51       -3.05179   0.00013   0.00000   0.00649   0.00649  -3.04530
   D52        0.04446   0.00020   0.00000   0.00279   0.00279   0.04725
   D53       -0.05584   0.00014   0.00000  -0.00445  -0.00445  -0.06029
   D54        3.03396   0.00031   0.00000  -0.00770  -0.00770   3.02626
   D55        3.13110   0.00006   0.00000  -0.00076  -0.00075   3.13034
   D56       -0.06228   0.00023   0.00000  -0.00400  -0.00400  -0.06629
   D57       -0.09181  -0.00016   0.00000  -0.00453  -0.00453  -0.09633
   D58        2.99740   0.00105   0.00000  -0.00755  -0.00755   2.98985
   D59        3.09882  -0.00032   0.00000  -0.00144  -0.00143   3.09739
   D60       -0.09516   0.00089   0.00000  -0.00446  -0.00446  -0.09961
         Item               Value     Threshold  Converged?
 Maximum Force            0.004262     0.000450     NO 
 RMS     Force            0.000838     0.000300     NO 
 Maximum Displacement     0.156682     0.001800     NO 
 RMS     Displacement     0.031872     0.001200     NO 
 Predicted change in Energy= 4.352998D-04
 GradGradGradGradGradGradGradGradGradGradGradGradGradGradGradGradGradGrad

                          Input orientation:                          
 ---------------------------------------------------------------------
 Center     Atomic      Atomic             Coordinates (Angstroms)
 Number     Number       Type             X           Y           Z
 ---------------------------------------------------------------------
      1          6           0       -1.114878    2.544640   -1.201472
      2          6           0       -1.513854    1.215298   -0.576635
      3          6           0       -2.890524    1.158215   -0.259547
      4          6           0       -3.582519   -0.027434    0.006862
      5          6           0       -2.892030   -1.223810   -0.196193
      6          6           0       -1.529758   -1.157205   -0.479870
      7          9           0       -1.003977   -2.370938   -0.886845
      8          6           0       -0.701041    0.009312   -0.458316
      9          6           0        0.796969   -0.104815   -0.326562
     10          6           0        1.506286   -1.319186    0.070061
     11          8           0        0.954074   -2.440671    0.586556
     12          6           0        2.920750   -1.396791    0.049795
     13          6           0        3.720113   -0.289266   -0.210959
     14          6           0        3.091722    0.946157   -0.404429
     15          6           0        1.697860    1.008731   -0.401793
     16          9           0        1.220502    2.271445   -0.411162
     17          1           0       -2.018107    2.969147   -1.683249
     18          1           0       -0.745738    3.290460   -0.472101
     19          1           0       -0.344356    2.428016   -1.982037
     20          1           0       -3.451758    2.105602   -0.291892
     21          1           0       -4.652508   -0.021372    0.261695
     22          1           0       -3.378631   -2.209719   -0.189493
     23          1           0        0.068349   -2.611738    0.206094
     24          1           0        3.350099   -2.377383    0.299283
     25          1           0        4.817295   -0.372857   -0.218255
     26          1           0        3.645490    1.889477   -0.510241
 ---------------------------------------------------------------------
                    Distance matrix (angstroms):
                    1          2          3          4          5
     1  C    0.000000
     2  C    1.522089   0.000000
     3  C    2.441785   1.413868   0.000000
     4  C    3.763627   2.482785   1.398425   0.000000
     5  C    4.286032   2.827251   2.382868   1.396182   0.000000
     6  C    3.794271   2.374529   2.694697   2.393140   1.393087
     7  F    4.926885   3.635560   4.050615   3.597166   2.314659
     8  C    2.674216   1.459132   2.480589   2.919017   2.527792
     9  C    3.382343   2.673040   3.898377   4.392844   3.857183
    10  C    4.839054   3.995381   5.057478   5.250576   4.407399
    11  O    5.686029   4.561775   5.333741   5.171115   4.109253
    12  C    5.778135   5.184702   6.355678   6.646013   5.820553
    13  C    5.691158   5.458191   6.767428   7.310571   6.677876
    14  C    4.570110   4.616646   5.987756   6.757405   6.368469
    15  C    3.303029   3.223096   4.593021   5.396577   5.108190
    16  F    2.480570   2.935904   4.261784   5.341217   5.401475
    17  H    1.108214   2.134210   2.463232   3.779332   4.533868
    18  H    1.106569   2.215227   3.031791   4.391486   5.006129
    19  H    1.102990   2.193984   3.326009   4.524450   4.797470
    20  H    2.545801   2.151556   1.101624   2.157822   3.377491
    21  H    4.608698   3.476103   2.183508   1.099933   2.180551
    22  H    5.362146   3.918930   3.403841   2.200567   1.099474
    23  H    5.474441   4.214526   4.815007   4.477406   3.294241
    24  H    6.812826   6.110044   7.194312   7.325911   6.367135
    25  H    6.683501   6.537134   7.858521   8.409927   7.756178
    26  H    4.854704   5.203630   6.581571   7.495736   7.247783
                    6          7          8          9         10
     6  C    0.000000
     7  F    1.383916   0.000000
     8  C    1.431083   2.437417   0.000000
     9  C    2.558259   2.948328   1.508118   0.000000
    10  C    3.089696   2.885008   2.629901   1.461210   0.000000
    11  O    2.992318   2.451476   3.135854   2.512904   1.352566
    12  C    4.488315   4.150872   3.918248   2.514217   1.416736
    13  C    5.327925   5.206459   4.438123   2.931238   2.457792
    14  C    5.078179   5.292504   3.907125   2.525172   2.805446
    15  C    3.887788   4.354006   2.599377   1.434312   2.382970
    16  F    4.395940   5.169749   2.968467   2.415191   3.633989
    17  H    4.325897   5.493562   3.463487   4.383434   5.821102
    18  H    4.516246   5.682441   3.281482   3.732161   5.158913
    19  H    4.063926   4.966338   2.880812   3.233954   4.655911
    20  H    3.791482   5.136635   3.462453   4.789451   6.036753
    21  H    3.404644   4.489029   4.016647   5.481771   6.296966
    22  H    2.147192   2.480175   3.487958   4.678145   4.972205
    23  H    2.267192   1.549963   2.811282   2.664445   1.938261
    24  H    5.090081   4.512751   4.762563   3.474870   2.138217
    25  H    6.400682   6.190844   5.536760   4.030707   3.455640
    26  H    6.005530   6.317477   4.736037   3.482099   3.899803
                   11         12         13         14         15
    11  O    0.000000
    12  C    2.290330   0.000000
    13  C    3.593821   1.390535   0.000000
    14  C    4.125796   2.392689   1.399492   0.000000
    15  C    3.664482   2.736043   2.410544   1.395268   0.000000
    16  F    4.823946   4.069309   3.584045   2.293010   1.349965
    17  H    6.576625   6.815949   6.761070   5.642536   4.392467
    18  H    6.070912   5.973762   5.729438   4.497380   3.344010
    19  H    5.655767   5.423874   5.200024   4.060958   2.946555
    20  H    6.391528   7.279586   7.561593   6.646361   5.266287
    21  H    6.114924   7.700059   8.390230   7.832811   6.467496
    22  H    4.407711   6.356123   7.353963   7.202167   6.014504
    23  H    0.979042   3.104305   4.347780   4.708730   4.016544
    24  H    2.414015   1.099157   2.181167   3.407036   3.832385
    25  H    4.455116   2.171906   1.100386   2.179923   3.416628
    26  H    5.215062   3.411517   2.200468   1.098958   2.140266
                   16         17         18         19         20
    16  F    0.000000
    17  H    3.548744   0.000000
    18  H    2.215447   1.785790   0.000000
    19  H    2.222824   1.784247   1.784608   0.000000
    20  H    4.676724   2.176451   2.959546   3.551970   0.000000
    21  H    6.340504   4.434645   5.173929   5.440037   2.504452
    22  H    6.425106   5.559045   6.104422   5.824828   4.317156
    23  H    5.055090   6.250535   5.996551   5.509752   5.906983
    24  H    5.162511   7.831568   7.035294   6.476518   8.167736
    25  H    4.468385   7.748414   6.665708   6.131759   8.632811
    26  H    2.456885   5.883704   4.609457   4.286617   7.103895
                   21         22         23         24         25
    21  H    0.000000
    22  H    2.572003   0.000000
    23  H    5.385126   3.492818   0.000000
    24  H    8.342297   6.748542   3.291427   0.000000
    25  H    9.488470   8.399291   5.267366   2.537446   0.000000
    26  H    8.550088   8.139077   5.793963   4.353008   2.564476
                   26
    26  H    0.000000
 Symmetry turned off by external request.
 Stoichiometry    C13H10F2O
 Framework group  C1[X(C13H10F2O)]
 Deg. of freedom    72
 Full point group                 C1      NOp   1
 Rotational constants (GHZ):           0.8390858           0.4697568           0.3123071
 Standard basis: def2SVP (5D, 7F)
   274 basis functions,   470 primitive gaussians,   290 cartesian basis functions
    57 alpha electrons       57 beta electrons
       nuclear repulsion energy      1069.1197906482 Hartrees.
 NAtoms=   26 NActive=   26 NUniq=   26 SFac= 1.00D+00 NAtFMM=   60 NAOKFM=F Big=F
 Integral buffers will be    131072 words long.
 Raffenetti 2 integral format.
 Two-electron integral symmetry is turned off.
 Nuclear repulsion after empirical dispersion term =     1069.0683117161 Hartrees.
 One-electron integrals computed using PRISM.
   1 Symmetry operations used in ECPInt.
 ECPInt:  NShTT=    8001 NPrTT=   29641 LenC2=    7594 LenP2D=   20277.
 LDataN:  DoStor=T MaxTD1= 4 Len=   56
 NBasis=   274 RedAO= T EigKep=  3.08D-04  NBF=   274
 NBsUse=   274 1.00D-06 EigRej= -1.00D+00 NBFU=   274
 Initial guess from the checkpoint file:  "path/to/scratch/gaussian_tmp/Gau-2280006.chk"
 B after Tr=    -0.004285   -0.004632    0.012895
         Rot=    0.999995   -0.003014    0.000093   -0.000146 Ang=  -0.35 deg.
 ExpMin= 1.22D-01 ExpMax= 2.89D+03 ExpMxC= 4.35D+02 IAcc=3 IRadAn=         5 AccDes= 0.00D+00
 Harris functional with IExCor=  404 and IRadAn=       5 diagonalized for initial guess.
 HarFok:  IExCor=  404 AccDes= 0.00D+00 IRadAn=         5 IDoV= 1 UseB2=F ITyADJ=14
 ICtDFT=  3500011 ScaDFX=  1.000000  1.000000  1.000000  1.000000
 FoFCou: FMM=F IPFlag=           0 FMFlag=      100000 FMFlg1=           0
         NFxFlg=           0 DoJE=T BraDBF=F KetDBF=T FulRan=T
         wScrn=  0.000000 ICntrl=       500 IOpCl=  0 I1Cent=   200000004 NGrid=           0
         NMat0=    1 NMatS0=      1 NMatT0=    0 NMatD0=    1 NMtDS0=    0 NMtDT0=    0
 Symmetry not used in FoFCou.
 Requested convergence on RMS density matrix=1.00D-08 within 128 cycles.
 Requested convergence on MAX density matrix=1.00D-06.
 Requested convergence on             energy=1.00D-06.
 No special actions if energy rises.
 Integral accuracy reduced to 1.0D-05 until final iterations.
 Initial convergence to 1.0D-05 achieved.  Increase integral accuracy.
 SCF Done:  E(RB-P86) =  -775.751343571     A.U. after   12 cycles
            NFock= 12  Conv=0.51D-08     -V/T= 2.0104
 DoSCS=F DFT=T ScalE2(SS,OS)=  1.000000  1.000000
 Range of M.O.s used for correlation:     1   274
 NBasis=   274 NAE=    57 NBE=    57 NFC=     0 NFV=     0
 NROrb=    274 NOA=    57 NOB=    57 NVA=   217 NVB=   217

 **** Warning!!: The largest alpha MO coefficient is  0.10617414D+02

 Symmetrizing basis deriv contribution to polar:
 IMax=3 JMax=2 DiffMx= 0.00D+00
   1 Symmetry operations used in ECPInt.
 ECPInt:  NShTT=    8001 NPrTT=   29641 LenC2=    7594 LenP2D=   20277.
 LDataN:  DoStor=T MaxTD1= 5 Len=  102
 Calling FoFJK, ICntrl=      2527 FMM=F ISym2X=0 I1Cent= 0 IOpClX= 0 NMat=1 NMatS=1 NMatT=0.
 -------------------------------------------------------------------
 Center     Atomic                   Forces (Hartrees/Bohr)
 Number     Number              X              Y              Z
 -------------------------------------------------------------------
      1        6           0.000346138    0.000156678    0.001207934
      2        6          -0.000125030   -0.000102509    0.000137086
      3        6          -0.000026417    0.000036255    0.000023501
      4        6           0.000003627    0.000030858   -0.000027043
      5        6           0.000008041   -0.000002236   -0.000007729
      6        6           0.000061315   -0.000130680   -0.000190462
      7        9           0.000231264    0.000186054   -0.000854685
      8        6          -0.000018925   -0.000392075   -0.000158010
      9        6          -0.000036999   -0.000243053    0.000321154
     10        6          -0.000054692    0.000001455    0.000103062
     11        8          -0.000209267    0.000382933    0.000976887
     12        6          -0.000022181   -0.000009537    0.000003248
     13        6           0.000002852    0.000036280   -0.000001205
     14        6           0.000022918    0.000000104    0.000057166
     15        6           0.000028687   -0.000041511   -0.000104507
     16        9          -0.000517222    0.000150231   -0.001441837
     17        1           0.000036728    0.000035389    0.000012778
     18        1           0.000157791   -0.000022734    0.000072162
     19        1           0.000104813   -0.000029843   -0.000017351
     20        1          -0.000009558   -0.000007698    0.000014398
     21        1          -0.000000166    0.000000020    0.000004438
     22        1          -0.000003485    0.000001536   -0.000003239
     23        1           0.000010825   -0.000031448   -0.000115266
     24        1           0.000004249   -0.000000027    0.000000373
     25        1          -0.000000449   -0.000001384   -0.000004669
     26        1           0.000005143   -0.000003057   -0.000008185
 -------------------------------------------------------------------
 Cartesian Forces:  Max     0.001441837 RMS     0.000288189

 GradGradGradGradGradGradGradGradGradGradGradGradGradGradGradGradGradGrad
 Berny optimization.
 FormGI is forming the generalized inverse of G from B-inverse, IUseBI=4.
 Internal  Forces:  Max     0.002777468 RMS     0.000615411
 Search for a saddle point.
 Step number   3 out of a maximum of  140
 All quantities printed in internal units (Hartrees-Bohrs-Radians)
 Swapping is turned off.
 Update second derivatives using D2CorX and points    1    2    3
 ITU=  0  0  0
     Eigenvalues ---   -0.02134   0.00322   0.00661   0.01064   0.01409
     Eigenvalues ---    0.01577   0.01588   0.01610   0.01697   0.01763
     Eigenvalues ---    0.01820   0.02132   0.02155   0.02269   0.02309
     Eigenvalues ---    0.02585   0.02811   0.02907   0.03000   0.04003
     Eigenvalues ---    0.05227   0.05456   0.06087   0.09899   0.09941
     Eigenvalues ---    0.10655   0.10833   0.11042   0.11160   0.11644
     Eigenvalues ---    0.13231   0.13930   0.14863   0.16174   0.16452
     Eigenvalues ---    0.17013   0.17508   0.17833   0.18174   0.18698
     Eigenvalues ---    0.19490   0.19606   0.22753   0.25273   0.26266
     Eigenvalues ---    0.27329   0.29327   0.31512   0.32484   0.32954
     Eigenvalues ---    0.33165   0.33611   0.34073   0.34390   0.34517
     Eigenvalues ---    0.34585   0.34815   0.34911   0.35110   0.35807
     Eigenvalues ---    0.40277   0.40418   0.43738   0.45241   0.46059
     Eigenvalues ---    0.46586   0.47778   0.49265   0.49529   0.51415
     Eigenvalues ---    0.93095   2.32369
 Eigenvectors required to have negative eigenvalues:
                          D31       D32       D33       D34       D4
   1                    0.43603   0.42654   0.36398   0.35450  -0.19218
                          D2        D6        D40       D43       D42
   1                   -0.18503  -0.17501   0.16735  -0.15371   0.15004
 RFO step:  Lambda0=1.031498222D-03 Lambda=-3.81173516D-04.
 Linear search not attempted -- option 19 set.
 Maximum step size (   0.020) exceeded in Quadratic search.
    -- Step size scaled by   0.516
 Iteration  1 RMS(Cart)=  0.03099384 RMS(Int)=  0.00036485
 Iteration  2 RMS(Cart)=  0.00047294 RMS(Int)=  0.00000296
 Iteration  3 RMS(Cart)=  0.00000022 RMS(Int)=  0.00000296
 Variable       Old X    -DE/DX   Delta X   Delta X   Delta X     New X
                                 (Linear)    (Quad)   (Total)
    R1        2.87633  -0.00023   0.00000  -0.00015  -0.00015   2.87618
    R2        2.09422  -0.00002   0.00000   0.00057   0.00057   2.09479
    R3        2.09111   0.00008   0.00000   0.00021   0.00021   2.09132
    R4        2.08435   0.00009   0.00000  -0.00016  -0.00016   2.08419
    R5        2.67182   0.00008   0.00000  -0.00041  -0.00041   2.67142
    R6        2.75736  -0.00057   0.00000  -0.00089  -0.00089   2.75647
    R7        2.64264   0.00023   0.00000  -0.00005  -0.00004   2.64260
    R8        2.08177  -0.00000   0.00000   0.00025   0.00025   2.08201
    R9        2.63840   0.00019   0.00000   0.00106   0.00106   2.63946
   R10        2.07857   0.00000   0.00000   0.00001   0.00001   2.07859
   R11        2.63255  -0.00005   0.00000  -0.00041  -0.00041   2.63214
   R12        2.07770   0.00000   0.00000   0.00002   0.00002   2.07772
   R13        2.61522   0.00018   0.00000   0.00025   0.00025   2.61548
   R14        2.70436  -0.00038   0.00000   0.00017   0.00017   2.70453
   R15        2.84993  -0.00080   0.00000  -0.00277  -0.00277   2.84716
   R16        2.76129  -0.00032   0.00000  -0.00054  -0.00054   2.76074
   R17        2.71046  -0.00034   0.00000   0.00083   0.00083   2.71128
   R18        2.55598   0.00012   0.00000  -0.00072  -0.00072   2.55525
   R19        2.67724  -0.00001   0.00000   0.00002   0.00002   2.67726
   R20        1.85012   0.00004   0.00000   0.00052   0.00052   1.85064
   R21        2.62773   0.00020   0.00000   0.00028   0.00028   2.62801
   R22        2.07711   0.00000   0.00000   0.00004   0.00004   2.07715
   R23        2.64466   0.00019   0.00000   0.00033   0.00034   2.64499
   R24        2.07943  -0.00000   0.00000   0.00001   0.00001   2.07944
   R25        2.63667   0.00002   0.00000  -0.00015  -0.00015   2.63652
   R26        2.07673   0.00000   0.00000   0.00000   0.00000   2.07673
   R27        2.55106   0.00033   0.00000   0.00016   0.00016   2.55122
    A1        1.87483   0.00013   0.00000  -0.00178  -0.00178   1.87305
    A2        1.98833  -0.00009   0.00000  -0.00055  -0.00055   1.98778
    A3        1.96198  -0.00006   0.00000   0.00233   0.00233   1.96431
    A4        1.87576   0.00004   0.00000  -0.00030  -0.00030   1.87545
    A5        1.87781   0.00002   0.00000  -0.00102  -0.00102   1.87679
    A6        1.88040  -0.00002   0.00000   0.00114   0.00114   1.88154
    A7        1.96336   0.00078   0.00000   0.00208   0.00207   1.96543
    A8        2.22574  -0.00044   0.00000  -0.00341  -0.00341   2.22233
    A9        2.08385  -0.00027   0.00000   0.00061   0.00060   2.08445
   A10        2.16370  -0.00008   0.00000  -0.00170  -0.00170   2.16200
   A11        2.04289   0.00005   0.00000   0.00050   0.00050   2.04339
   A12        2.07445   0.00004   0.00000   0.00101   0.00101   2.07546
   A13        2.04214   0.00014   0.00000   0.00022   0.00022   2.04236
   A14        2.11862  -0.00007   0.00000   0.00016   0.00016   2.11878
   A15        2.11707  -0.00005   0.00000  -0.00062  -0.00062   2.11645
   A16        2.06265  -0.00018   0.00000   0.00038   0.00038   2.06303
   A17        2.15151   0.00008   0.00000  -0.00052  -0.00052   2.15099
   A18        2.06792   0.00009   0.00000   0.00008   0.00008   2.06801
   A19        1.97085   0.00057   0.00000   0.00181   0.00181   1.97266
   A20        2.21702  -0.00015   0.00000  -0.00183  -0.00183   2.21519
   A21        2.09360  -0.00046   0.00000  -0.00021  -0.00021   2.09340
   A22        1.92827   0.00063   0.00000  -0.00025  -0.00025   1.92802
   A23        2.24330  -0.00181   0.00000  -0.00652  -0.00652   2.23679
   A24        2.11161   0.00118   0.00000   0.00677   0.00677   2.11838
   A25        2.17582   0.00064   0.00000   0.00474   0.00474   2.18056
   A26        2.16585  -0.00119   0.00000  -0.00494  -0.00493   2.16092
   A27        1.93323   0.00054   0.00000  -0.00003  -0.00004   1.93319
   A28        2.20750  -0.00025   0.00000  -0.00034  -0.00034   2.20716
   A29        2.12503  -0.00020   0.00000  -0.00099  -0.00100   2.12403
   A30        1.94729   0.00041   0.00000   0.00120   0.00121   1.94849
   A31        1.94533  -0.00007   0.00000   0.00058   0.00058   1.94591
   A32        2.13293  -0.00011   0.00000  -0.00026  -0.00026   2.13267
   A33        2.02152   0.00006   0.00000   0.00027   0.00027   2.02179
   A34        2.12771   0.00005   0.00000  -0.00012  -0.00012   2.12760
   A35        2.06111   0.00013   0.00000   0.00044   0.00044   2.06155
   A36        2.11055  -0.00006   0.00000  -0.00033  -0.00033   2.11022
   A37        2.11046  -0.00007   0.00000  -0.00022  -0.00022   2.11024
   A38        2.08047  -0.00009   0.00000  -0.00068  -0.00068   2.07978
   A39        2.14694   0.00006   0.00000  -0.00003  -0.00003   2.14691
   A40        2.05452   0.00004   0.00000   0.00062   0.00062   2.05514
   A41        2.20526  -0.00024   0.00000  -0.00070  -0.00071   2.20455
   A42        2.09954  -0.00035   0.00000  -0.00098  -0.00097   2.09856
   A43        1.97707   0.00062   0.00000   0.00156   0.00157   1.97864
    D1       -0.44645  -0.00024   0.00000  -0.04678  -0.04678  -0.49324
    D2        2.53920   0.00030   0.00000  -0.05217  -0.05217   2.48703
    D3        1.62894  -0.00016   0.00000  -0.04870  -0.04870   1.58023
    D4       -1.66860   0.00038   0.00000  -0.05410  -0.05409  -1.72269
    D5       -2.50884  -0.00031   0.00000  -0.04574  -0.04574  -2.55458
    D6        0.47682   0.00023   0.00000  -0.05113  -0.05113   0.42569
    D7        2.85339   0.00056   0.00000  -0.00880  -0.00881   2.84458
    D8       -0.21703   0.00042   0.00000  -0.00563  -0.00563  -0.22267
    D9       -0.14635   0.00010   0.00000  -0.00348  -0.00348  -0.14983
   D10        3.06641  -0.00005   0.00000  -0.00030  -0.00030   3.06611
   D11       -2.62061  -0.00082   0.00000   0.01282   0.01282  -2.60780
   D12        0.52172  -0.00079   0.00000   0.01347   0.01347   0.53519
   D13        0.35553  -0.00016   0.00000   0.00718   0.00718   0.36271
   D14       -2.78532  -0.00013   0.00000   0.00783   0.00783  -2.77749
   D15       -0.12317   0.00010   0.00000  -0.00190  -0.00190  -0.12507
   D16        3.12809  -0.00000   0.00000   0.00057   0.00057   3.12866
   D17        2.94605   0.00024   0.00000  -0.00516  -0.00516   2.94089
   D18       -0.08587   0.00014   0.00000  -0.00269  -0.00269  -0.08856
   D19        0.13995  -0.00006   0.00000   0.00297   0.00297   0.14291
   D20       -2.95029   0.00002   0.00000   0.00430   0.00430  -2.94600
   D21       -3.11121   0.00004   0.00000   0.00055   0.00055  -3.11066
   D22        0.08173   0.00012   0.00000   0.00188   0.00188   0.08361
   D23       -2.95823   0.00048   0.00000   0.00541   0.00542  -2.95282
   D24        0.11995  -0.00019   0.00000   0.00127   0.00128   0.12123
   D25        0.13451   0.00040   0.00000   0.00413   0.00413   0.13865
   D26       -3.07049  -0.00027   0.00000  -0.00001  -0.00001  -3.07049
   D27       -0.36204   0.00021   0.00000  -0.00605  -0.00605  -0.36809
   D28        2.77888   0.00018   0.00000  -0.00665  -0.00665   2.77222
   D29        2.71214  -0.00047   0.00000  -0.01040  -0.01039   2.70175
   D30       -0.43013  -0.00050   0.00000  -0.01099  -0.01099  -0.44112
   D31        2.90176  -0.00278   0.00000   0.02743   0.02743   2.92920
   D32       -0.08903  -0.00278   0.00000   0.02952   0.02952  -0.05951
   D33       -0.23902  -0.00274   0.00000   0.02815   0.02815  -0.21087
   D34        3.05337  -0.00274   0.00000   0.03023   0.03024   3.08361
   D35       -0.20414  -0.00036   0.00000  -0.00918  -0.00917  -0.21332
   D36        3.03313   0.00025   0.00000  -0.00741  -0.00740   3.02572
   D37        2.80401  -0.00049   0.00000  -0.01147  -0.01147   2.79254
   D38       -0.24191   0.00012   0.00000  -0.00970  -0.00970  -0.25161
   D39       -3.03624  -0.00001   0.00000   0.00718   0.00719  -3.02905
   D40        0.16431  -0.00091   0.00000   0.00967   0.00968   0.17398
   D41        0.23788  -0.00004   0.00000   0.00857   0.00857   0.24646
   D42       -2.84475  -0.00094   0.00000   0.01106   0.01106  -2.83369
   D43        0.60159   0.00038   0.00000  -0.01148  -0.01148   0.59012
   D44       -2.62745  -0.00020   0.00000  -0.01319  -0.01320  -2.64065
   D45        0.12003  -0.00014   0.00000   0.00525   0.00525   0.12528
   D46       -3.06940  -0.00020   0.00000   0.00273   0.00273  -3.06666
   D47       -2.93888   0.00041   0.00000   0.00684   0.00685  -2.93203
   D48        0.15488   0.00036   0.00000   0.00432   0.00433   0.15921
   D49        0.04557  -0.00004   0.00000   0.00182   0.00182   0.04738
   D50        3.13812   0.00007   0.00000  -0.00069  -0.00069   3.13742
   D51       -3.04530   0.00002   0.00000   0.00448   0.00448  -3.04083
   D52        0.04725   0.00013   0.00000   0.00197   0.00197   0.04921
   D53       -0.06029   0.00012   0.00000  -0.00330  -0.00330  -0.06359
   D54        3.02626   0.00028   0.00000  -0.00526  -0.00526   3.02100
   D55        3.13034   0.00002   0.00000  -0.00078  -0.00079   3.12956
   D56       -0.06629   0.00017   0.00000  -0.00275  -0.00275  -0.06904
   D57       -0.09633  -0.00004   0.00000  -0.00231  -0.00231  -0.09864
   D58        2.98985   0.00078   0.00000  -0.00472  -0.00472   2.98513
   D59        3.09739  -0.00018   0.00000  -0.00043  -0.00043   3.09696
   D60       -0.09961   0.00064   0.00000  -0.00284  -0.00284  -0.10245
         Item               Value     Threshold  Converged?
 Maximum Force            0.002777     0.000450     NO 
 RMS     Force            0.000615     0.000300     NO 
 Maximum Displacement     0.134644     0.001800     NO 
 RMS     Displacement     0.031052     0.001200     NO 
 Predicted change in Energy= 2.538562D-04
 GradGradGradGradGradGradGradGradGradGradGradGradGradGradGradGradGradGrad

                          Input orientation:                          
 ---------------------------------------------------------------------
 Center     Atomic      Atomic             Coordinates (Angstroms)
 Number     Number       Type             X           Y           Z
 ---------------------------------------------------------------------
      1          6           0       -1.101959    2.526771   -1.228530
      2          6           0       -1.508394    1.210964   -0.580475
      3          6           0       -2.883505    1.167054   -0.255580
      4          6           0       -3.581317   -0.012376    0.022865
      5          6           0       -2.900161   -1.215113   -0.177993
      6          6           0       -1.538982   -1.160191   -0.468268
      7          9           0       -1.023484   -2.377258   -0.878883
      8          6           0       -0.703042    0.001385   -0.453894
      9          6           0        0.793485   -0.110798   -0.320403
     10          6           0        1.511312   -1.327277    0.052686
     11          8           0        0.967790   -2.459098    0.554646
     12          6           0        2.926147   -1.395143    0.024219
     13          6           0        3.716879   -0.276641   -0.215978
     14          6           0        3.079901    0.959197   -0.377340
     15          6           0        1.685728    1.011731   -0.368713
     16          9           0        1.197467    2.270063   -0.339911
     17          1           0       -1.993047    2.924790   -1.754216
     18          1           0       -0.769994    3.297837   -0.507421
     19          1           0       -0.303043    2.399927   -1.978225
     20          1           0       -3.438666    2.117913   -0.294645
     21          1           0       -4.649931    0.001893    0.283116
     22          1           0       -3.394536   -2.197102   -0.165622
     23          1           0        0.076033   -2.623545    0.184795
     24          1           0        3.363358   -2.377426    0.252607
     25          1           0        4.814547   -0.352799   -0.229492
     26          1           0        3.627245    1.908557   -0.460049
 ---------------------------------------------------------------------
                    Distance matrix (angstroms):
                    1          2          3          4          5
     1  C    0.000000
     2  C    1.522009   0.000000
     3  C    2.443229   1.413653   0.000000
     4  C    3.763041   2.481449   1.398402   0.000000
     5  C    4.282389   2.825749   2.383488   1.396744   0.000000
     6  C    3.789812   2.374006   2.696117   2.393705   1.392869
     7  F    4.917104   3.633115   4.050967   3.598379   2.315976
     8  C    2.671473   1.458663   2.480429   2.917525   2.526523
     9  C    3.372561   2.667085   3.893246   4.389352   3.857825
    10  C    4.829533   3.995271   5.062720   5.259727   4.418924
    11  O    5.685284   4.570486   5.351441   5.192650   4.128596
    12  C    5.759897   5.179054   6.355722   6.652754   5.832595
    13  C    5.666178   5.445117   6.756544   7.306883   6.683367
    14  C    4.546401   4.599685   5.968270   6.743585   6.366200
    15  C    3.287222   3.207328   4.573272   5.379953   5.101528
    16  F    2.478487   2.915689   4.228247   5.308287   5.381749
    17  H    1.108514   2.133015   2.475573   3.782534   4.521740
    18  H    1.106681   2.214861   3.011742   4.375186   5.001285
    19  H    1.102905   2.195498   3.338603   4.535488   4.801497
    20  H    2.549413   2.151790   1.101754   2.158539   3.378262
    21  H    4.609576   3.475183   2.183587   1.099940   2.180692
    22  H    5.357299   3.917212   3.403937   2.200783   1.099483
    23  H    5.469086   4.218946   4.829227   4.496736   3.312556
    24  H    6.795878   6.107744   7.200340   7.339942   6.384987
    25  H    6.655451   6.522892   7.846696   8.406551   7.762922
    26  H    4.830955   5.184200   6.556029   7.475732   7.241817
                    6          7          8          9         10
     6  C    0.000000
     7  F    1.384050   0.000000
     8  C    1.431175   2.437467   0.000000
     9  C    2.561931   2.958060   1.506651   0.000000
    10  C    3.098968   2.897493   2.631603   1.460922   0.000000
    11  O    3.002901   2.454969   3.140511   2.512092   1.352183
    12  C    4.498346   4.168899   3.917894   2.513275   1.416747
    13  C    5.335577   5.227147   4.435043   2.929956   2.457751
    14  C    5.082731   5.312367   3.903066   2.525040   2.805950
    15  C    3.889205   4.368678   2.595049   1.434748   2.383056
    16  F    4.389905   5.178871   2.961726   2.414970   3.632284
    17  H    4.306612   5.460584   3.449818   4.362955   5.798750
    18  H    4.524035   5.692886   3.297566   3.754762   5.187462
    19  H    4.059798   4.954704   2.869946   3.202263   4.616117
    20  H    3.792744   5.136244   3.462468   4.783191   6.040882
    21  H    3.404852   4.490180   4.015110   5.477929   6.307195
    22  H    2.147058   2.482556   3.487203   4.681468   4.987143
    23  H    2.275119   1.549517   2.811608   2.661552   1.938501
    24  H    5.102378   4.530413   4.763769   3.474218   2.138423
    25  H    6.409074   6.213110   5.533497   4.029363   3.455516
    26  H    6.008926   6.338211   4.731674   3.482455   3.900089
                   11         12         13         14         15
    11  O    0.000000
    12  C    2.290964   0.000000
    13  C    3.593671   1.390683   0.000000
    14  C    4.124845   2.393284   1.399669   0.000000
    15  C    3.662605   2.736069   2.410146   1.395189   0.000000
    16  F    4.818500   4.068741   3.584480   2.294194   1.350047
    17  H    6.563813   6.784034   6.724477   5.611964   4.371819
    18  H    6.106569   5.997346   5.744028   4.506423   3.357990
    19  H    5.624996   5.370289   5.140943   4.010342   2.910813
    20  H    6.409927   7.276955   7.545985   6.621266   5.242951
    21  H    6.139136   7.708157   8.386309   7.816836   6.448661
    22  H    4.429143   6.374182   7.366337   7.205926   6.012232
    23  H    0.979317   3.107717   4.350210   4.709061   4.014065
    24  H    2.415915   1.099179   2.181249   3.407379   3.832344
    25  H    4.455211   2.171844   1.100390   2.179952   3.416259
    26  H    5.213321   3.411816   2.200613   1.098960   2.140591
                   16         17         18         19         20
    16  F    0.000000
    17  H    3.550817   0.000000
    18  H    2.226046   1.785922   0.000000
    19  H    2.225414   1.783753   1.785371   0.000000
    20  H    4.638849   2.207082   2.925629   3.570169   0.000000
    21  H    6.302762   4.444444   5.151903   5.455242   2.505696
    22  H    6.408777   5.542705   6.099131   5.828854   4.317169
    23  H    5.047804   6.230961   6.021436   5.482483   5.921519
    24  H    5.161522   7.799481   7.061930   6.422010   8.171602
    25  H    4.469325   7.707834   6.677686   6.068384   8.615345
    26  H    2.459460   5.856217   4.611731   4.241871   7.070947
                   21         22         23         24         25
    21  H    0.000000
    22  H    2.571568   0.000000
    23  H    5.407155   3.514185   0.000000
    24  H    8.359120   6.773223   3.297223   0.000000
    25  H    9.484983   8.413951   5.270809   2.537220   0.000000
    26  H    8.526389   8.139320   5.793693   4.352835   2.564483
                   26
    26  H    0.000000
 Symmetry turned off by external request.
 Stoichiometry    C13H10F2O
 Framework group  C1[X(C13H10F2O)]
 Deg. of freedom    72
 Full point group                 C1      NOp   1
 Rotational constants (GHZ):           0.8389115           0.4702147           0.3125902
 Standard basis: def2SVP (5D, 7F)
   274 basis functions,   470 primitive gaussians,   290 cartesian basis functions
    57 alpha electrons       57 beta electrons
       nuclear repulsion energy      1069.2767952479 Hartrees.
 NAtoms=   26 NActive=   26 NUniq=   26 SFac= 1.00D+00 NAtFMM=   60 NAOKFM=F Big=F
 Integral buffers will be    131072 words long.
 Raffenetti 2 integral format.
 Two-electron integral symmetry is turned off.
 Nuclear repulsion after empirical dispersion term =     1069.2252865313 Hartrees.
 One-electron integrals computed using PRISM.
   1 Symmetry operations used in ECPInt.
 ECPInt:  NShTT=    8001 NPrTT=   29641 LenC2=    7593 LenP2D=   20280.
 LDataN:  DoStor=T MaxTD1= 4 Len=   56
 NBasis=   274 RedAO= T EigKep=  3.11D-04  NBF=   274
 NBsUse=   274 1.00D-06 EigRej= -1.00D+00 NBFU=   274
 Initial guess from the checkpoint file:  "path/to/scratch/gaussian_tmp/Gau-2280006.chk"
 B after Tr=    -0.005083   -0.005305    0.010900
         Rot=    0.999996   -0.002728   -0.000062   -0.000140 Ang=  -0.31 deg.
 ExpMin= 1.22D-01 ExpMax= 2.89D+03 ExpMxC= 4.35D+02 IAcc=3 IRadAn=         5 AccDes= 0.00D+00
 Harris functional with IExCor=  404 and IRadAn=       5 diagonalized for initial guess.
 HarFok:  IExCor=  404 AccDes= 0.00D+00 IRadAn=         5 IDoV= 1 UseB2=F ITyADJ=14
 ICtDFT=  3500011 ScaDFX=  1.000000  1.000000  1.000000  1.000000
 FoFCou: FMM=F IPFlag=           0 FMFlag=      100000 FMFlg1=           0
         NFxFlg=           0 DoJE=T BraDBF=F KetDBF=T FulRan=T
         wScrn=  0.000000 ICntrl=       500 IOpCl=  0 I1Cent=   200000004 NGrid=           0
         NMat0=    1 NMatS0=      1 NMatT0=    0 NMatD0=    1 NMtDS0=    0 NMtDT0=    0
 Symmetry not used in FoFCou.
 Requested convergence on RMS density matrix=1.00D-08 within 128 cycles.
 Requested convergence on MAX density matrix=1.00D-06.
 Requested convergence on             energy=1.00D-06.
 No special actions if energy rises.
 Integral accuracy reduced to 1.0D-05 until final iterations.
 Initial convergence to 1.0D-05 achieved.  Increase integral accuracy.
 SCF Done:  E(RB-P86) =  -775.751086783     A.U. after   12 cycles
            NFock= 12  Conv=0.47D-08     -V/T= 2.0104
 DoSCS=F DFT=T ScalE2(SS,OS)=  1.000000  1.000000
 Range of M.O.s used for correlation:     1   274
 NBasis=   274 NAE=    57 NBE=    57 NFC=     0 NFV=     0
 NROrb=    274 NOA=    57 NOB=    57 NVA=   217 NVB=   217

 **** Warning!!: The largest alpha MO coefficient is  0.10461111D+02

 Symmetrizing basis deriv contribution to polar:
 IMax=3 JMax=2 DiffMx= 0.00D+00
   1 Symmetry operations used in ECPInt.
 ECPInt:  NShTT=    8001 NPrTT=   29641 LenC2=    7593 LenP2D=   20280.
 LDataN:  DoStor=T MaxTD1= 5 Len=  102
 Calling FoFJK, ICntrl=      2527 FMM=F ISym2X=0 I1Cent= 0 IOpClX= 0 NMat=1 NMatS=1 NMatT=0.
 -------------------------------------------------------------------
 Center     Atomic                   Forces (Hartrees/Bohr)
 Number     Number              X              Y              Z
 -------------------------------------------------------------------
      1        6           0.000431819   -0.000019604    0.000687657
      2        6          -0.000127978   -0.000078400    0.000125583
      3        6          -0.000039562    0.000030202   -0.000020231
      4        6           0.000002656    0.000022042   -0.000028101
      5        6           0.000002892   -0.000001270   -0.000005228
      6        6           0.000069696   -0.000127748   -0.000179715
      7        9           0.000224527    0.000093677   -0.000282568
      8        6          -0.000025044   -0.000135029    0.000079343
      9        6           0.000021374   -0.000166154    0.000024682
     10        6          -0.000015817    0.000052539    0.000087197
     11        8          -0.000229822    0.000140727    0.000432038
     12        6          -0.000029569   -0.000014091    0.000008740
     13        6           0.000003350    0.000037178   -0.000009802
     14        6           0.000027605   -0.000002535    0.000050468
     15        6          -0.000016518   -0.000018388   -0.000110399
     16        9          -0.000612508    0.000222493   -0.000835635
     17        1           0.000034518    0.000050551    0.000028551
     18        1           0.000188089   -0.000032737    0.000077630
     19        1           0.000109989   -0.000033877   -0.000039924
     20        1          -0.000010220   -0.000011250    0.000022064
     21        1          -0.000000430    0.000000812    0.000003846
     22        1          -0.000001664    0.000000571    0.000001642
     23        1          -0.000015412   -0.000006041   -0.000105989
     24        1           0.000004675   -0.000000130   -0.000000306
     25        1          -0.000000572   -0.000000464   -0.000001755
     26        1           0.000003925   -0.000003072   -0.000009785
 -------------------------------------------------------------------
 Cartesian Forces:  Max     0.000835635 RMS     0.000176665

 GradGradGradGradGradGradGradGradGradGradGradGradGradGradGradGradGradGrad
 Berny optimization.
 FormGI is forming the generalized inverse of G from B-inverse, IUseBI=4.
 Internal  Forces:  Max     0.001805825 RMS     0.000430138
 Search for a saddle point.
 Step number   4 out of a maximum of  140
 All quantities printed in internal units (Hartrees-Bohrs-Radians)
 Swapping is turned off.
 Update second derivatives using D2CorX and points    1    2    3    4
 ITU=  0  0  0  0
     Eigenvalues ---   -0.02128   0.00331   0.00678   0.01065   0.01409
     Eigenvalues ---    0.01576   0.01588   0.01609   0.01696   0.01763
     Eigenvalues ---    0.01817   0.02132   0.02155   0.02269   0.02308
     Eigenvalues ---    0.02584   0.02809   0.02906   0.02998   0.04000
     Eigenvalues ---    0.05228   0.05456   0.06112   0.09898   0.09941
     Eigenvalues ---    0.10655   0.10832   0.11042   0.11160   0.11644
     Eigenvalues ---    0.13230   0.13930   0.14863   0.16173   0.16452
     Eigenvalues ---    0.17014   0.17507   0.17833   0.18173   0.18697
     Eigenvalues ---    0.19490   0.19606   0.22753   0.25273   0.26265
     Eigenvalues ---    0.27329   0.29326   0.31512   0.32484   0.32954
     Eigenvalues ---    0.33164   0.33611   0.34073   0.34390   0.34517
     Eigenvalues ---    0.34585   0.34815   0.34911   0.35110   0.35807
     Eigenvalues ---    0.40277   0.40418   0.43737   0.45239   0.46058
     Eigenvalues ---    0.46585   0.47778   0.49264   0.49529   0.51415
     Eigenvalues ---    0.93136   2.32384
 Eigenvectors required to have negative eigenvalues:
                          D31       D32       D33       D34       D4
   1                   -0.43876  -0.42899  -0.36603  -0.35626   0.19011
                          D2        D6        D40       D43       D42
   1                    0.18320   0.17291  -0.16562   0.15723  -0.14793
 RFO step:  Lambda0=2.778902789D-04 Lambda=-9.61315161D-05.
 Linear search not attempted -- option 19 set.
 Maximum step size (   0.020) exceeded in Quadratic search.
    -- Step size scaled by   0.917
 Iteration  1 RMS(Cart)=  0.03064469 RMS(Int)=  0.00031353
 Iteration  2 RMS(Cart)=  0.00041802 RMS(Int)=  0.00000240
 Iteration  3 RMS(Cart)=  0.00000015 RMS(Int)=  0.00000240
 Variable       Old X    -DE/DX   Delta X   Delta X   Delta X     New X
                                 (Linear)    (Quad)   (Total)
    R1        2.87618  -0.00015   0.00000  -0.00036  -0.00036   2.87582
    R2        2.09479  -0.00002   0.00000   0.00059   0.00059   2.09537
    R3        2.09132   0.00008   0.00000   0.00004   0.00004   2.09136
    R4        2.08419   0.00011   0.00000   0.00003   0.00003   2.08421
    R5        2.67142   0.00003   0.00000  -0.00046  -0.00046   2.67096
    R6        2.75647  -0.00075   0.00000  -0.00097  -0.00097   2.75550
    R7        2.64260   0.00022   0.00000  -0.00007  -0.00007   2.64253
    R8        2.08201  -0.00001   0.00000   0.00018   0.00018   2.08219
    R9        2.63946   0.00026   0.00000   0.00093   0.00093   2.64040
   R10        2.07859   0.00000   0.00000   0.00002   0.00002   2.07861
   R11        2.63214   0.00001   0.00000  -0.00028  -0.00029   2.63186
   R12        2.07772   0.00000   0.00000   0.00001   0.00001   2.07773
   R13        2.61548   0.00009   0.00000   0.00020   0.00020   2.61568
   R14        2.70453  -0.00034   0.00000   0.00010   0.00010   2.70463
   R15        2.84716  -0.00091   0.00000  -0.00233  -0.00233   2.84483
   R16        2.76074  -0.00038   0.00000  -0.00064  -0.00064   2.76010
   R17        2.71128  -0.00042   0.00000   0.00085   0.00085   2.71213
   R18        2.55525   0.00011   0.00000  -0.00091  -0.00091   2.55434
   R19        2.67726   0.00000   0.00000   0.00012   0.00012   2.67739
   R20        1.85064   0.00006   0.00000   0.00054   0.00054   1.85118
   R21        2.62801   0.00025   0.00000   0.00022   0.00022   2.62823
   R22        2.07715   0.00000   0.00000   0.00004   0.00004   2.07719
   R23        2.64499   0.00020   0.00000   0.00033   0.00033   2.64533
   R24        2.07944  -0.00000   0.00000   0.00001   0.00001   2.07945
   R25        2.63652   0.00000   0.00000  -0.00017  -0.00017   2.63636
   R26        2.07673  -0.00000   0.00000  -0.00001  -0.00001   2.07672
   R27        2.55122   0.00041   0.00000   0.00030   0.00030   2.55152
    A1        1.87305   0.00014   0.00000  -0.00149  -0.00149   1.87155
    A2        1.98778  -0.00010   0.00000  -0.00066  -0.00066   1.98711
    A3        1.96431  -0.00007   0.00000   0.00212   0.00212   1.96643
    A4        1.87545   0.00005   0.00000  -0.00023  -0.00023   1.87522
    A5        1.87679   0.00002   0.00000  -0.00117  -0.00117   1.87562
    A6        1.88154  -0.00003   0.00000   0.00126   0.00126   1.88280
    A7        1.96543   0.00106   0.00000   0.00246   0.00246   1.96789
    A8        2.22233  -0.00090   0.00000  -0.00423  -0.00423   2.21810
    A9        2.08445  -0.00012   0.00000   0.00114   0.00113   2.08558
   A10        2.16200  -0.00020   0.00000  -0.00192  -0.00192   2.16008
   A11        2.04339   0.00011   0.00000   0.00075   0.00075   2.04413
   A12        2.07546   0.00009   0.00000   0.00102   0.00102   2.07648
   A13        2.04236   0.00015   0.00000   0.00039   0.00039   2.04274
   A14        2.11878  -0.00007   0.00000   0.00014   0.00014   2.11892
   A15        2.11645  -0.00006   0.00000  -0.00066  -0.00066   2.11579
   A16        2.06303  -0.00011   0.00000   0.00065   0.00065   2.06368
   A17        2.15099   0.00005   0.00000  -0.00059  -0.00059   2.15040
   A18        2.06801   0.00006   0.00000  -0.00010  -0.00010   2.06791
   A19        1.97266   0.00051   0.00000   0.00117   0.00117   1.97383
   A20        2.21519  -0.00031   0.00000  -0.00185  -0.00186   2.21333
   A21        2.09340  -0.00022   0.00000   0.00048   0.00048   2.09388
   A22        1.92802   0.00068   0.00000   0.00001   0.00000   1.92802
   A23        2.23679  -0.00181   0.00000  -0.00743  -0.00743   2.22936
   A24        2.11838   0.00113   0.00000   0.00743   0.00743   2.12581
   A25        2.18056   0.00069   0.00000   0.00522   0.00523   2.18579
   A26        2.16092  -0.00133   0.00000  -0.00560  -0.00560   2.15532
   A27        1.93319   0.00063   0.00000   0.00015   0.00014   1.93333
   A28        2.20716  -0.00022   0.00000  -0.00005  -0.00005   2.20712
   A29        2.12403  -0.00028   0.00000  -0.00105  -0.00105   2.12298
   A30        1.94849   0.00048   0.00000   0.00105   0.00106   1.94955
   A31        1.94591  -0.00010   0.00000   0.00058   0.00058   1.94649
   A32        2.13267  -0.00010   0.00000  -0.00018  -0.00018   2.13248
   A33        2.02179   0.00005   0.00000   0.00022   0.00022   2.02201
   A34        2.12760   0.00004   0.00000  -0.00014  -0.00014   2.12745
   A35        2.06155   0.00014   0.00000   0.00050   0.00050   2.06205
   A36        2.11022  -0.00007   0.00000  -0.00037  -0.00037   2.10985
   A37        2.11024  -0.00007   0.00000  -0.00023  -0.00023   2.11001
   A38        2.07978  -0.00013   0.00000  -0.00074  -0.00074   2.07904
   A39        2.14691   0.00007   0.00000  -0.00001  -0.00001   2.14691
   A40        2.05514   0.00006   0.00000   0.00067   0.00067   2.05582
   A41        2.20455  -0.00023   0.00000  -0.00060  -0.00061   2.20395
   A42        2.09856  -0.00047   0.00000  -0.00099  -0.00098   2.09758
   A43        1.97864   0.00072   0.00000   0.00147   0.00147   1.98011
    D1       -0.49324  -0.00011   0.00000  -0.04138  -0.04139  -0.53462
    D2        2.48703   0.00021   0.00000  -0.04574  -0.04574   2.44129
    D3        1.58023  -0.00002   0.00000  -0.04308  -0.04308   1.53715
    D4       -1.72269   0.00031   0.00000  -0.04744  -0.04744  -1.77013
    D5       -2.55458  -0.00019   0.00000  -0.04021  -0.04021  -2.59479
    D6        0.42569   0.00014   0.00000  -0.04457  -0.04457   0.38112
    D7        2.84458   0.00034   0.00000  -0.00708  -0.00709   2.83749
    D8       -0.22267   0.00023   0.00000  -0.00469  -0.00470  -0.22737
    D9       -0.14983   0.00013   0.00000  -0.00254  -0.00253  -0.15237
   D10        3.06611   0.00002   0.00000  -0.00015  -0.00015   3.06596
   D11       -2.60780  -0.00058   0.00000   0.00928   0.00928  -2.59852
   D12        0.53519  -0.00057   0.00000   0.00888   0.00888   0.54407
   D13        0.36271  -0.00015   0.00000   0.00472   0.00472   0.36743
   D14       -2.77749  -0.00013   0.00000   0.00432   0.00433  -2.77317
   D15       -0.12507   0.00008   0.00000  -0.00082  -0.00082  -0.12589
   D16        3.12866  -0.00004   0.00000   0.00055   0.00055   3.12921
   D17        2.94089   0.00020   0.00000  -0.00326  -0.00326   2.93763
   D18       -0.08856   0.00008   0.00000  -0.00189  -0.00189  -0.09045
   D19        0.14291  -0.00011   0.00000   0.00170   0.00170   0.14462
   D20       -2.94600  -0.00007   0.00000   0.00260   0.00260  -2.94340
   D21       -3.11066   0.00001   0.00000   0.00040   0.00040  -3.11026
   D22        0.08361   0.00004   0.00000   0.00129   0.00129   0.08491
   D23       -2.95282   0.00017   0.00000   0.00411   0.00411  -2.94870
   D24        0.12123  -0.00014   0.00000   0.00065   0.00065   0.12188
   D25        0.13865   0.00014   0.00000   0.00324   0.00324   0.14189
   D26       -3.07049  -0.00017   0.00000  -0.00022  -0.00022  -3.07071
   D27       -0.36809   0.00019   0.00000  -0.00352  -0.00352  -0.37161
   D28        2.77222   0.00017   0.00000  -0.00317  -0.00316   2.76906
   D29        2.70175  -0.00012   0.00000  -0.00718  -0.00718   2.69457
   D30       -0.44112  -0.00013   0.00000  -0.00683  -0.00682  -0.44795
   D31        2.92920  -0.00139   0.00000   0.02847   0.02846   2.95766
   D32       -0.05951  -0.00142   0.00000   0.03052   0.03052  -0.02899
   D33       -0.21087  -0.00138   0.00000   0.02803   0.02803  -0.18283
   D34        3.08361  -0.00140   0.00000   0.03009   0.03009   3.11370
   D35       -0.21332  -0.00004   0.00000  -0.00639  -0.00638  -0.21970
   D36        3.02572   0.00024   0.00000  -0.00584  -0.00583   3.01989
   D37        2.79254  -0.00017   0.00000  -0.00873  -0.00873   2.78381
   D38       -0.25161   0.00010   0.00000  -0.00818  -0.00818  -0.25979
   D39       -3.02905  -0.00001   0.00000   0.00563   0.00563  -3.02342
   D40        0.17398  -0.00052   0.00000   0.00805   0.00806   0.18204
   D41        0.24646  -0.00007   0.00000   0.00694   0.00694   0.25340
   D42       -2.83369  -0.00057   0.00000   0.00937   0.00936  -2.82433
   D43        0.59012   0.00021   0.00000  -0.01650  -0.01650   0.57362
   D44       -2.64065  -0.00008   0.00000  -0.01710  -0.01710  -2.65775
   D45        0.12528  -0.00011   0.00000   0.00466   0.00466   0.12994
   D46       -3.06666  -0.00012   0.00000   0.00252   0.00252  -3.06415
   D47       -2.93203   0.00016   0.00000   0.00517   0.00517  -2.92686
   D48        0.15921   0.00014   0.00000   0.00303   0.00303   0.16224
   D49        0.04738  -0.00006   0.00000   0.00136   0.00136   0.04875
   D50        3.13742   0.00004   0.00000  -0.00077  -0.00077   3.13665
   D51       -3.04083  -0.00004   0.00000   0.00363   0.00362  -3.03720
   D52        0.04921   0.00006   0.00000   0.00149   0.00149   0.05070
   D53       -0.06359   0.00009   0.00000  -0.00291  -0.00291  -0.06650
   D54        3.02100   0.00020   0.00000  -0.00439  -0.00439   3.01661
   D55        3.12956  -0.00001   0.00000  -0.00077  -0.00077   3.12879
   D56       -0.06904   0.00010   0.00000  -0.00225  -0.00225  -0.07128
   D57       -0.09864   0.00003   0.00000  -0.00154  -0.00153  -0.10017
   D58        2.98513   0.00047   0.00000  -0.00389  -0.00389   2.98124
   D59        3.09696  -0.00007   0.00000  -0.00011  -0.00011   3.09685
   D60       -0.10245   0.00037   0.00000  -0.00247  -0.00247  -0.10492
         Item               Value     Threshold  Converged?
 Maximum Force            0.001806     0.000450     NO 
 RMS     Force            0.000430     0.000300     NO 
 Maximum Displacement     0.127794     0.001800     NO 
 RMS     Displacement     0.030701     0.001200     NO 
 Predicted change in Energy= 9.147070D-05
 GradGradGradGradGradGradGradGradGradGradGradGradGradGradGradGradGradGrad

                          Input orientation:                          
 ---------------------------------------------------------------------
 Center     Atomic      Atomic             Coordinates (Angstroms)
 Number     Number       Type             X           Y           Z
 ---------------------------------------------------------------------
      1          6           0       -1.085873    2.507500   -1.252327
      2          6           0       -1.502910    1.205580   -0.583731
      3          6           0       -2.876982    1.176169   -0.253894
      4          6           0       -3.581815    0.003625    0.035552
      5          6           0       -2.910185   -1.205908   -0.159938
      6          6           0       -1.549587   -1.164060   -0.454366
      7          9           0       -1.044946   -2.386117   -0.864009
      8          6           0       -0.705927   -0.007941   -0.448176
      9          6           0        0.789513   -0.117881   -0.314544
     10          6           0        1.517125   -1.335237    0.034628
     11          8           0        0.983812   -2.478457    0.520133
     12          6           0        2.932355   -1.391446   -0.001688
     13          6           0        3.713181   -0.261655   -0.221242
     14          6           0        3.066395    0.972971   -0.351379
     15          6           0        1.671962    1.013737   -0.337213
     16          9           0        1.171627    2.266137   -0.272285
     17          1           0       -1.963255    2.882396   -1.817255
     18          1           0       -0.786243    3.300194   -0.540537
     19          1           0       -0.262166    2.370472   -1.972854
     20          1           0       -3.425238    2.130802   -0.300361
     21          1           0       -4.649483    0.026907    0.299056
     22          1           0       -3.412699   -2.183657   -0.140884
     23          1           0        0.085028   -2.635575    0.163590
     24          1           0        3.378482   -2.374453    0.205469
     25          1           0        4.811341   -0.329025   -0.240598
     26          1           0        3.606318    1.928235   -0.411852
 ---------------------------------------------------------------------
                    Distance matrix (angstroms):
                    1          2          3          4          5
     1  C    0.000000
     2  C    1.521819   0.000000
     3  C    2.444868   1.413411   0.000000
     4  C    3.762679   2.479931   1.398367   0.000000
     5  C    4.279114   2.824057   2.384160   1.397238   0.000000
     6  C    3.785779   2.373628   2.697932   2.394464   1.392718
     7  F    4.909170   3.631608   4.051972   3.599414   2.316835
     8  C    2.668044   1.458147   2.480593   2.916310   2.525264
     9  C    3.359930   2.660679   3.888628   4.387008   3.859464
    10  C    4.816480   3.994838   5.069377   5.271788   4.433470
    11  O    5.681987   4.579786   5.372257   5.219244   4.152721
    12  C    5.736901   5.172514   6.356466   6.661984   5.847627
    13  C    5.635802   5.430634   6.745269   7.304334   6.690616
    14  C    4.517501   4.581119   5.947649   6.729640   6.364249
    15  C    3.267172   3.190202   4.552606   5.362971   5.094538
    16  F    2.472861   2.893947   4.192804   5.273418   5.359935
    17  H    1.108824   2.131949   2.488012   3.786813   4.511939
    18  H    1.106701   2.214246   2.994134   4.360559   4.996092
    19  H    1.102919   2.196834   3.349395   4.544858   4.805118
    20  H    2.553579   2.152133   1.101847   2.159221   3.379146
    21  H    4.610797   3.474120   2.183648   1.099951   2.180749
    22  H    5.353165   3.915397   3.404144   2.200894   1.099490
    23  H    5.461414   4.223093   4.845326   4.519680   3.334654
    24  H    6.774149   6.104709   7.207549   7.357300   6.406743
    25  H    6.621676   6.507114   7.834290   8.404284   7.771576
    26  H    4.801937   5.162943   6.528685   7.454767   7.235407
                    6          7          8          9         10
     6  C    0.000000
     7  F    1.384157   0.000000
     8  C    1.431228   2.437944   0.000000
     9  C    2.566209   2.968509   1.505418   0.000000
    10  C    3.110167   2.911375   2.633775   1.460581   0.000000
    11  O    3.015858   2.457689   3.145837   2.511326   1.351699
    12  C    4.510480   4.189498   3.917976   2.512294   1.416812
    13  C    5.344662   5.250358   4.432198   2.928688   2.457785
    14  C    5.087711   5.333797   3.898970   2.524977   2.806611
    15  C    3.890361   4.383846   2.590462   1.435197   2.383258
    16  F    4.382284   5.187176   2.954246   2.414816   3.630903
    17  H    4.289801   5.432236   3.436466   4.340222   5.773296
    18  H    4.529866   5.701376   3.310398   3.770585   5.208027
    19  H    4.056621   4.946455   2.859793   3.169845   4.574729
    20  H    3.794456   5.136734   3.462762   4.777122   6.045874
    21  H    3.405202   4.490889   4.013877   5.475413   6.320792
    22  H    2.146866   2.483979   3.486372   4.685741   5.005375
    23  H    2.284555   1.547588   2.811464   2.657761   1.938663
    24  H    5.117255   4.550894   4.765504   3.473514   2.138646
    25  H    6.419065   6.238299   5.530500   4.028046   3.455441
    26  H    6.012275   6.360215   4.727108   3.482880   3.900554
                   11         12         13         14         15
    11  O    0.000000
    12  C    2.291443   0.000000
    13  C    3.593508   1.390798   0.000000
    14  C    4.124202   2.393892   1.399846   0.000000
    15  C    3.661150   2.736069   2.409699   1.395101   0.000000
    16  F    4.813977   4.068329   3.584945   2.295361   1.350205
    17  H    6.548842   6.747519   6.682383   5.576027   4.347092
    18  H    6.136035   6.010809   5.747481   4.504950   3.363331
    19  H    5.592813   5.314367   5.079333   3.957463   2.873483
    20  H    6.431034   7.274230   7.529086   6.594276   5.218298
    21  H    6.169258   7.719226   8.383802   7.800826   6.429568
    22  H    4.455688   6.395834   7.380970   7.210220   6.009630
    23  H    0.979603   3.111663   4.352825   4.709071   4.010816
    24  H    2.417493   1.099203   2.181289   3.407745   3.832304
    25  H    4.455194   2.171728   1.100395   2.179978   3.415852
    26  H    5.212012   3.412147   2.200766   1.098955   2.140937
                   16         17         18         19         20
    16  F    0.000000
    17  H    3.548830   0.000000
    18  H    2.230356   1.786035   0.000000
    19  H    2.226788   1.783250   1.786218   0.000000
    20  H    4.598942   2.236795   2.896456   3.586042   0.000000
    21  H    6.263059   4.455156   5.132636   5.468311   2.506882
    22  H    6.390147   5.529557   6.093490   5.832844   4.317424
    23  H    5.039589   6.210250   6.040552   5.453938   5.937640
    24  H    5.160769   7.762734   7.078353   6.365040   8.175805
    25  H    4.470278   7.661216   6.677885   6.002372   8.596252
    26  H    2.461986   5.822862   4.603631   4.194934   7.035356
                   21         22         23         24         25
    21  H    0.000000
    22  H    2.570948   0.000000
    23  H    5.433485   3.539919   0.000000
    24  H    8.379947   6.802683   3.304055   0.000000
    25  H    9.482885   8.431159   5.274617   2.536896   0.000000
    26  H    8.501688   8.139268   5.793011   4.352715   2.564495
                   26
    26  H    0.000000
 Symmetry turned off by external request.
 Stoichiometry    C13H10F2O
 Framework group  C1[X(C13H10F2O)]
 Deg. of freedom    72
 Full point group                 C1      NOp   1
 Rotational constants (GHZ):           0.8389023           0.4706515           0.3128341
 Standard basis: def2SVP (5D, 7F)
   274 basis functions,   470 primitive gaussians,   290 cartesian basis functions
    57 alpha electrons       57 beta electrons
       nuclear repulsion energy      1069.4680032096 Hartrees.
 NAtoms=   26 NActive=   26 NUniq=   26 SFac= 1.00D+00 NAtFMM=   60 NAOKFM=F Big=F
 Integral buffers will be    131072 words long.
 Raffenetti 2 integral format.
 Two-electron integral symmetry is turned off.
 Nuclear repulsion after empirical dispersion term =     1069.4164608926 Hartrees.
 One-electron integrals computed using PRISM.
   1 Symmetry operations used in ECPInt.
 ECPInt:  NShTT=    8001 NPrTT=   29641 LenC2=    7592 LenP2D=   20284.
 LDataN:  DoStor=T MaxTD1= 4 Len=   56
 NBasis=   274 RedAO= T EigKep=  3.14D-04  NBF=   274
 NBsUse=   274 1.00D-06 EigRej= -1.00D+00 NBFU=   274
 Initial guess from the checkpoint file:  "path/to/scratch/gaussian_tmp/Gau-2280006.chk"
 B after Tr=    -0.005816   -0.005710    0.010784
         Rot=    0.999997   -0.002478   -0.000163   -0.000180 Ang=  -0.29 deg.
 ExpMin= 1.22D-01 ExpMax= 2.89D+03 ExpMxC= 4.35D+02 IAcc=3 IRadAn=         5 AccDes= 0.00D+00
 Harris functional with IExCor=  404 and IRadAn=       5 diagonalized for initial guess.
 HarFok:  IExCor=  404 AccDes= 0.00D+00 IRadAn=         5 IDoV= 1 UseB2=F ITyADJ=14
 ICtDFT=  3500011 ScaDFX=  1.000000  1.000000  1.000000  1.000000
 FoFCou: FMM=F IPFlag=           0 FMFlag=      100000 FMFlg1=           0
         NFxFlg=           0 DoJE=T BraDBF=F KetDBF=T FulRan=T
         wScrn=  0.000000 ICntrl=       500 IOpCl=  0 I1Cent=   200000004 NGrid=           0
         NMat0=    1 NMatS0=      1 NMatT0=    0 NMatD0=    1 NMtDS0=    0 NMtDT0=    0
 Symmetry not used in FoFCou.
 Requested convergence on RMS density matrix=1.00D-08 within 128 cycles.
 Requested convergence on MAX density matrix=1.00D-06.
 Requested convergence on             energy=1.00D-06.
 No special actions if energy rises.
 Integral accuracy reduced to 1.0D-05 until final iterations.
 Initial convergence to 1.0D-05 achieved.  Increase integral accuracy.
 SCF Done:  E(RB-P86) =  -775.750997299     A.U. after   12 cycles
            NFock= 12  Conv=0.39D-08     -V/T= 2.0104
 DoSCS=F DFT=T ScalE2(SS,OS)=  1.000000  1.000000
 Range of M.O.s used for correlation:     1   274
 NBasis=   274 NAE=    57 NBE=    57 NFC=     0 NFV=     0
 NROrb=    274 NOA=    57 NOB=    57 NVA=   217 NVB=   217

 **** Warning!!: The largest alpha MO coefficient is  0.10085052D+02

 Symmetrizing basis deriv contribution to polar:
 IMax=3 JMax=2 DiffMx= 0.00D+00
   1 Symmetry operations used in ECPInt.
 ECPInt:  NShTT=    8001 NPrTT=   29641 LenC2=    7592 LenP2D=   20284.
 LDataN:  DoStor=T MaxTD1= 5 Len=  102
 Calling FoFJK, ICntrl=      2527 FMM=F ISym2X=0 I1Cent= 0 IOpClX= 0 NMat=1 NMatS=1 NMatT=0.
 -------------------------------------------------------------------
 Center     Atomic                   Forces (Hartrees/Bohr)
 Number     Number              X              Y              Z
 -------------------------------------------------------------------
      1        6           0.000315721   -0.000134625    0.000119668
      2        6          -0.000056370   -0.000013692    0.000054231
      3        6          -0.000039832   -0.000000519   -0.000057045
      4        6           0.000002806    0.000005320   -0.000009139
      5        6          -0.000003815    0.000000256   -0.000000800
      6        6           0.000045804   -0.000064216   -0.000104632
      7        9           0.000166816    0.000011047    0.000156555
      8        6          -0.000030956    0.000026340    0.000201917
      9        6           0.000052416   -0.000061310   -0.000140768
     10        6           0.000028405    0.000084197    0.000030275
     11        8          -0.000182808   -0.000054727   -0.000047711
     12        6          -0.000027866   -0.000014432    0.000008122
     13        6           0.000002639    0.000027367   -0.000013824
     14        6           0.000024566   -0.000005458    0.000019823
     15        6          -0.000047330    0.000011877   -0.000069852
     16        9          -0.000469529    0.000166347   -0.000156292
     17        1           0.000019305    0.000051625    0.000043464
     18        1           0.000165671   -0.000020734    0.000055860
     19        1           0.000068513   -0.000030816   -0.000045735
     20        1          -0.000005517   -0.000009152    0.000016957
     21        1          -0.000000577    0.000001600    0.000001204
     22        1           0.000000859   -0.000000684    0.000004865
     23        1          -0.000033997    0.000025097   -0.000060539
     24        1           0.000003732    0.000000142   -0.000000643
     25        1          -0.000000484    0.000000605    0.000001218
     26        1           0.000001829   -0.000001451   -0.000007179
 -------------------------------------------------------------------
 Cartesian Forces:  Max     0.000469529 RMS     0.000092108

 GradGradGradGradGradGradGradGradGradGradGradGradGradGradGradGradGradGrad
 Berny optimization.
 FormGI is forming the generalized inverse of G from B-inverse, IUseBI=4.
 Internal  Forces:  Max     0.001183568 RMS     0.000245648
 Search for a saddle point.
 Step number   5 out of a maximum of  140
 All quantities printed in internal units (Hartrees-Bohrs-Radians)
 Swapping is turned off.
 Update second derivatives using D2CorX and points    1    2    3    4    5
 ITU=  0  0  0  0  0
     Eigenvalues ---   -0.02230   0.00354   0.00700   0.01082   0.01408
     Eigenvalues ---    0.01577   0.01588   0.01607   0.01708   0.01764
     Eigenvalues ---    0.01825   0.02132   0.02158   0.02271   0.02307
     Eigenvalues ---    0.02583   0.02808   0.02907   0.02997   0.04001
     Eigenvalues ---    0.05229   0.05456   0.06150   0.09898   0.09942
     Eigenvalues ---    0.10656   0.10832   0.11042   0.11159   0.11643
     Eigenvalues ---    0.13230   0.13929   0.14863   0.16173   0.16451
     Eigenvalues ---    0.17014   0.17505   0.17833   0.18172   0.18697
     Eigenvalues ---    0.19490   0.19605   0.22752   0.25273   0.26264
     Eigenvalues ---    0.27329   0.29325   0.31511   0.32484   0.32954
     Eigenvalues ---    0.33164   0.33611   0.34073   0.34390   0.34517
     Eigenvalues ---    0.34585   0.34815   0.34911   0.35110   0.35806
     Eigenvalues ---    0.40276   0.40418   0.43735   0.45238   0.46058
     Eigenvalues ---    0.46585   0.47777   0.49263   0.49528   0.51415
     Eigenvalues ---    0.93109   2.32355
 Eigenvectors required to have negative eigenvalues:
                          D31       D32       D33       D34       D4
   1                    0.44167   0.43345   0.36835   0.36013  -0.18689
                          D2        D6        D40       D43       D42
   1                   -0.18063  -0.17014   0.16285  -0.15913   0.14641
 RFO step:  Lambda0=5.717039577D-07 Lambda=-7.53924539D-06.
 Linear search not attempted -- option 19 set.
 Iteration  1 RMS(Cart)=  0.00302116 RMS(Int)=  0.00000208
 Iteration  2 RMS(Cart)=  0.00000315 RMS(Int)=  0.00000012
 Iteration  3 RMS(Cart)=  0.00000000 RMS(Int)=  0.00000012
 Variable       Old X    -DE/DX   Delta X   Delta X   Delta X     New X
                                 (Linear)    (Quad)   (Total)
    R1        2.87582  -0.00003   0.00000  -0.00018  -0.00018   2.87564
    R2        2.09537  -0.00002   0.00000   0.00005   0.00005   2.09543
    R3        2.09136   0.00007   0.00000  -0.00006  -0.00006   2.09130
    R4        2.08421   0.00008   0.00000   0.00012   0.00012   2.08433
    R5        2.67096  -0.00001   0.00000  -0.00007  -0.00007   2.67089
    R6        2.75550  -0.00061   0.00000  -0.00019  -0.00019   2.75530
    R7        2.64253   0.00015   0.00000   0.00001   0.00001   2.64254
    R8        2.08219  -0.00001   0.00000  -0.00002  -0.00002   2.08217
    R9        2.64040   0.00021   0.00000   0.00003   0.00003   2.64043
   R10        2.07861   0.00000   0.00000   0.00001   0.00001   2.07861
   R11        2.63186   0.00004   0.00000   0.00005   0.00005   2.63190
   R12        2.07773   0.00000   0.00000  -0.00000  -0.00000   2.07773
   R13        2.61568   0.00000   0.00000  -0.00005  -0.00005   2.61563
   R14        2.70463  -0.00023   0.00000  -0.00015  -0.00015   2.70448
   R15        2.84483  -0.00070   0.00000  -0.00009  -0.00009   2.84474
   R16        2.76010  -0.00032   0.00000  -0.00021  -0.00021   2.75988
   R17        2.71213  -0.00034   0.00000   0.00004   0.00004   2.71217
   R18        2.55434   0.00007   0.00000  -0.00013  -0.00013   2.55421
   R19        2.67739   0.00001   0.00000   0.00002   0.00002   2.67741
   R20        1.85118   0.00005   0.00000   0.00004   0.00004   1.85122
   R21        2.62823   0.00020   0.00000   0.00003   0.00003   2.62826
   R22        2.07719   0.00000   0.00000   0.00001   0.00001   2.07720
   R23        2.64533   0.00015   0.00000   0.00005   0.00005   2.64537
   R24        2.07945  -0.00000   0.00000   0.00000   0.00000   2.07945
   R25        2.63636  -0.00000   0.00000  -0.00001  -0.00001   2.63634
   R26        2.07672  -0.00000   0.00000  -0.00001  -0.00001   2.07672
   R27        2.55152   0.00032   0.00000   0.00012   0.00012   2.55164
    A1        1.87155   0.00010   0.00000   0.00008   0.00008   1.87164
    A2        1.98711  -0.00006   0.00000  -0.00004  -0.00004   1.98708
    A3        1.96643  -0.00005   0.00000  -0.00004  -0.00004   1.96639
    A4        1.87522   0.00003   0.00000   0.00003   0.00003   1.87525
    A5        1.87562   0.00001   0.00000  -0.00015  -0.00015   1.87547
    A6        1.88280  -0.00003   0.00000   0.00010   0.00010   1.88290
    A7        1.96789   0.00088   0.00000   0.00062   0.00062   1.96851
    A8        2.21810  -0.00086   0.00000  -0.00090  -0.00090   2.21721
    A9        2.08558  -0.00000   0.00000   0.00029   0.00029   2.08588
   A10        2.16008  -0.00020   0.00000  -0.00032  -0.00032   2.15976
   A11        2.04413   0.00011   0.00000   0.00023   0.00023   2.04436
   A12        2.07648   0.00009   0.00000   0.00010   0.00010   2.07659
   A13        2.04274   0.00011   0.00000   0.00020   0.00020   2.04294
   A14        2.11892  -0.00005   0.00000  -0.00004  -0.00004   2.11888
   A15        2.11579  -0.00005   0.00000  -0.00011  -0.00011   2.11568
   A16        2.06368  -0.00004   0.00000   0.00015   0.00015   2.06382
   A17        2.15040   0.00002   0.00000  -0.00008  -0.00008   2.15032
   A18        2.06791   0.00002   0.00000  -0.00005  -0.00005   2.06785
   A19        1.97383   0.00032   0.00000  -0.00002  -0.00002   1.97381
   A20        2.21333  -0.00030   0.00000  -0.00023  -0.00023   2.21310
   A21        2.09388  -0.00002   0.00000   0.00026   0.00026   2.09414
   A22        1.92802   0.00049   0.00000   0.00031   0.00031   1.92833
   A23        2.22936  -0.00118   0.00000  -0.00125  -0.00125   2.22811
   A24        2.12581   0.00069   0.00000   0.00094   0.00094   2.12675
   A25        2.18579   0.00045   0.00000   0.00054   0.00054   2.18633
   A26        2.15532  -0.00094   0.00000  -0.00080  -0.00080   2.15452
   A27        1.93333   0.00049   0.00000   0.00020   0.00020   1.93354
   A28        2.20712  -0.00017   0.00000  -0.00002  -0.00002   2.20709
   A29        2.12298  -0.00023   0.00000  -0.00014  -0.00014   2.12284
   A30        1.94955   0.00040   0.00000   0.00021   0.00021   1.94976
   A31        1.94649  -0.00009   0.00000  -0.00007  -0.00007   1.94642
   A32        2.13248  -0.00007   0.00000  -0.00004  -0.00004   2.13244
   A33        2.02201   0.00003   0.00000   0.00007   0.00007   2.02208
   A34        2.12745   0.00003   0.00000  -0.00003  -0.00003   2.12743
   A35        2.06205   0.00010   0.00000   0.00014   0.00014   2.06219
   A36        2.10985  -0.00005   0.00000  -0.00008  -0.00008   2.10977
   A37        2.11001  -0.00005   0.00000  -0.00006  -0.00006   2.10996
   A38        2.07904  -0.00012   0.00000  -0.00013  -0.00013   2.07891
   A39        2.14691   0.00006   0.00000  -0.00000  -0.00000   2.14690
   A40        2.05582   0.00006   0.00000   0.00014   0.00014   2.05596
   A41        2.20395  -0.00016   0.00000  -0.00009  -0.00009   2.20386
   A42        2.09758  -0.00039   0.00000  -0.00014  -0.00014   2.09744
   A43        1.98011   0.00055   0.00000   0.00022   0.00022   1.98033
    D1       -0.53462   0.00002   0.00000  -0.00027  -0.00027  -0.53489
    D2        2.44129   0.00010   0.00000  -0.00009  -0.00009   2.44119
    D3        1.53715   0.00009   0.00000  -0.00020  -0.00020   1.53695
    D4       -1.77013   0.00017   0.00000  -0.00002  -0.00002  -1.77015
    D5       -2.59479  -0.00003   0.00000  -0.00012  -0.00012  -2.59492
    D6        0.38112   0.00005   0.00000   0.00005   0.00005   0.38117
    D7        2.83749   0.00008   0.00000   0.00031   0.00031   2.83781
    D8       -0.22737   0.00003   0.00000   0.00010   0.00010  -0.22727
    D9       -0.15237   0.00011   0.00000   0.00028   0.00028  -0.15208
   D10        3.06596   0.00006   0.00000   0.00007   0.00007   3.06603
   D11       -2.59852  -0.00022   0.00000  -0.00107  -0.00107  -2.59959
   D12        0.54407  -0.00023   0.00000  -0.00208  -0.00208   0.54199
   D13        0.36743  -0.00008   0.00000  -0.00086  -0.00086   0.36657
   D14       -2.77317  -0.00009   0.00000  -0.00188  -0.00188  -2.77504
   D15       -0.12589   0.00004   0.00000   0.00050   0.00050  -0.12538
   D16        3.12921  -0.00004   0.00000   0.00004   0.00004   3.12925
   D17        2.93763   0.00009   0.00000   0.00073   0.00073   2.93836
   D18       -0.09045   0.00001   0.00000   0.00026   0.00026  -0.09020
   D19        0.14462  -0.00009   0.00000  -0.00052  -0.00052   0.14410
   D20       -2.94340  -0.00010   0.00000  -0.00072  -0.00072  -2.94412
   D21       -3.11026  -0.00001   0.00000  -0.00005  -0.00005  -3.11031
   D22        0.08491  -0.00002   0.00000  -0.00025  -0.00025   0.08466
   D23       -2.94870  -0.00008   0.00000  -0.00049  -0.00049  -2.94919
   D24        0.12188  -0.00006   0.00000  -0.00028  -0.00028   0.12160
   D25        0.14189  -0.00007   0.00000  -0.00029  -0.00029   0.14160
   D26       -3.07071  -0.00005   0.00000  -0.00008  -0.00008  -3.07079
   D27       -0.37161   0.00010   0.00000   0.00100   0.00100  -0.37061
   D28        2.76906   0.00011   0.00000   0.00194   0.00194   2.77100
   D29        2.69457   0.00013   0.00000   0.00121   0.00121   2.69578
   D30       -0.44795   0.00014   0.00000   0.00215   0.00215  -0.44580
   D31        2.95766  -0.00005   0.00000   0.00274   0.00274   2.96040
   D32       -0.02899  -0.00007   0.00000   0.00318   0.00318  -0.02581
   D33       -0.18283  -0.00006   0.00000   0.00162   0.00162  -0.18121
   D34        3.11370  -0.00008   0.00000   0.00207   0.00207   3.11577
   D35       -0.21970   0.00017   0.00000   0.00074   0.00074  -0.21896
   D36        3.01989   0.00014   0.00000   0.00016   0.00016   3.02005
   D37        2.78381   0.00007   0.00000   0.00026   0.00026   2.78407
   D38       -0.25979   0.00005   0.00000  -0.00032  -0.00032  -0.26011
   D39       -3.02342  -0.00001   0.00000  -0.00013  -0.00013  -3.02355
   D40        0.18204  -0.00009   0.00000  -0.00005  -0.00005   0.18199
   D41        0.25340  -0.00005   0.00000   0.00022   0.00022   0.25361
   D42       -2.82433  -0.00013   0.00000   0.00030   0.00030  -2.82403
   D43        0.57362   0.00002   0.00000  -0.00397  -0.00397   0.56965
   D44       -2.65775   0.00002   0.00000  -0.00345  -0.00345  -2.66120
   D45        0.12994  -0.00005   0.00000   0.00023   0.00023   0.13017
   D46       -3.06415  -0.00003   0.00000   0.00020   0.00020  -3.06395
   D47       -2.92686  -0.00005   0.00000  -0.00026  -0.00026  -2.92712
   D48        0.16224  -0.00003   0.00000  -0.00030  -0.00030   0.16194
   D49        0.04875  -0.00005   0.00000  -0.00002  -0.00002   0.04873
   D50        3.13665   0.00001   0.00000  -0.00007  -0.00007   3.13658
   D51       -3.03720  -0.00006   0.00000   0.00002   0.00002  -3.03719
   D52        0.05070  -0.00000   0.00000  -0.00004  -0.00004   0.05066
   D53       -0.06650   0.00004   0.00000  -0.00009  -0.00009  -0.06659
   D54        3.01661   0.00008   0.00000  -0.00009  -0.00009   3.01652
   D55        3.12879  -0.00002   0.00000  -0.00004  -0.00004   3.12875
   D56       -0.07128   0.00002   0.00000  -0.00003  -0.00003  -0.07132
   D57       -0.10017   0.00006   0.00000   0.00001   0.00001  -0.10016
   D58        2.98124   0.00011   0.00000  -0.00007  -0.00007   2.98117
   D59        3.09685   0.00002   0.00000   0.00001   0.00001   3.09686
   D60       -0.10492   0.00007   0.00000  -0.00007  -0.00007  -0.10499
         Item               Value     Threshold  Converged?
 Maximum Force            0.001184     0.000450     NO 
 RMS     Force            0.000246     0.000300     YES
 Maximum Displacement     0.009263     0.001800     NO 
 RMS     Displacement     0.003021     0.001200     NO 
 Predicted change in Energy=-3.483766D-06
 GradGradGradGradGradGradGradGradGradGradGradGradGradGradGradGradGradGrad

                          Input orientation:                          
 ---------------------------------------------------------------------
 Center     Atomic      Atomic             Coordinates (Angstroms)
 Number     Number       Type             X           Y           Z
 ---------------------------------------------------------------------
      1          6           0       -1.082425    2.505304   -1.252285
      2          6           0       -1.502450    1.204550   -0.583511
      3          6           0       -2.876833    1.176848   -0.254990
      4          6           0       -3.582831    0.005025    0.034574
      5          6           0       -2.911947   -1.205279   -0.158816
      6          6           0       -1.551021   -1.165045   -0.452063
      7          9           0       -1.047029   -2.388209   -0.859107
      8          6           0       -0.706683   -0.009513   -0.446779
      9          6           0        0.788831   -0.118926   -0.314099
     10          6           0        1.517816   -1.335876    0.033149
     11          8           0        0.985856   -2.480383    0.516914
     12          6           0        2.933103   -1.390402   -0.004058
     13          6           0        3.712461   -0.259345   -0.222402
     14          6           0        3.064288    0.974805   -0.350395
     15          6           0        1.669821    1.013878   -0.335504
     16          9           0        1.167713    2.265521   -0.268368
     17          1           0       -1.958376    2.881310   -1.818750
     18          1           0       -0.782512    3.297902   -0.540558
     19          1           0       -0.257955    2.366447   -1.971685
     20          1           0       -3.424183    2.131940   -0.302415
     21          1           0       -4.650738    0.029331    0.297028
     22          1           0       -3.415283   -2.182587   -0.138819
     23          1           0        0.085802   -2.636094    0.162909
     24          1           0        3.380551   -2.373164    0.201421
     25          1           0        4.810688   -0.325456   -0.242409
     26          1           0        3.603165    1.930730   -0.409690
 ---------------------------------------------------------------------
                    Distance matrix (angstroms):
                    1          2          3          4          5
     1  C    0.000000
     2  C    1.521722   0.000000
     3  C    2.445259   1.413373   0.000000
     4  C    3.762902   2.479693   1.398375   0.000000
     5  C    4.279165   2.823885   2.384326   1.397254   0.000000
     6  C    3.785683   2.373735   2.698347   2.394604   1.392743
     7  F    4.909410   3.631980   4.052502   3.599517   2.316820
     8  C    2.667270   1.458044   2.480683   2.916186   2.525068
     9  C    3.356841   2.659726   3.888396   4.387296   3.860057
    10  C    4.813342   3.994502   5.070478   5.273957   4.435844
    11  O    5.680222   4.580539   5.375085   5.223294   4.156365
    12  C    5.732282   5.171428   6.356815   6.663790   5.850028
    13  C    5.629820   5.428507   6.744072   7.304602   6.691907
    14  C    4.511215   4.578452   5.945321   6.728511   6.364342
    15  C    3.261855   3.187659   4.550286   5.361445   5.093965
    16  F    2.467531   2.890457   4.188524   5.269656   5.357432
    17  H    1.108852   2.131949   2.488795   3.787702   4.512747
    18  H    1.106669   2.214109   2.994428   4.360689   4.995884
    19  H    1.102981   2.196770   3.349732   4.544908   4.804934
    20  H    2.554502   2.152237   1.101835   2.159282   3.379354
    21  H    4.611255   3.473933   2.183635   1.099954   2.180699
    22  H    5.353349   3.915275   3.404295   2.200859   1.099490
    23  H    5.459075   4.222586   4.846687   4.522261   3.337251
    24  H    6.769850   6.104086   7.208728   7.360184   6.410091
    25  H    6.615273   6.504843   7.832947   8.404588   7.773042
    26  H    4.795296   5.159928   6.525538   7.452802   7.234928
                    6          7          8          9         10
     6  C    0.000000
     7  F    1.384133   0.000000
     8  C    1.431149   2.438040   0.000000
     9  C    2.566770   2.969353   1.505370   0.000000
    10  C    3.111652   2.912380   2.634002   1.460468   0.000000
    11  O    3.017412   2.456532   3.146202   2.511151   1.351631
    12  C    4.512079   4.191440   3.918022   2.512106   1.416825
    13  C    5.345772   5.252637   4.431884   2.928436   2.457782
    14  C    5.088258   5.335876   3.898512   2.524929   2.806765
    15  C    3.890388   4.385160   2.589881   1.435217   2.383350
    16  F    4.381100   5.187605   2.953129   2.414794   3.630915
    17  H    4.290310   5.433167   3.435971   4.337343   5.770451
    18  H    4.529496   5.701167   3.309613   3.767641   5.205050
    19  H    4.056194   4.946435   2.858651   3.165508   4.569456
    20  H    3.794896   5.137364   3.462869   4.776612   6.046627
    21  H    3.405278   4.490865   4.013768   5.475799   6.323329
    22  H    2.146855   2.483892   3.486201   4.686576   5.008189
    23  H    2.285031   1.545726   2.810459   2.656674   1.938574
    24  H    5.119277   4.552846   4.765763   3.473379   2.138706
    25  H    6.420296   6.240842   5.530187   4.027794   3.455414
    26  H    6.012591   6.362351   4.726596   3.482916   3.900705
                   11         12         13         14         15
    11  O    0.000000
    12  C    2.291559   0.000000
    13  C    3.593602   1.390814   0.000000
    14  C    4.124370   2.394027   1.399871   0.000000
    15  C    3.661187   2.736110   2.409620   1.395093   0.000000
    16  F    4.813870   4.068443   3.585081   2.295576   1.350270
    17  H    6.547639   6.742937   6.676110   5.569379   4.341790
    18  H    6.134652   6.006148   5.741081   4.497867   3.357491
    19  H    5.588556   5.307384   5.071389   3.950006   2.867552
    20  H    6.433759   7.273994   7.527040   6.591017   5.215365
    21  H    6.173995   7.721460   8.384286   7.799661   6.427978
    22  H    4.459674   6.399040   7.383128   7.211014   6.009522
    23  H    0.979623   3.112354   4.353166   4.708869   4.009966
    24  H    2.417767   1.099206   2.181289   3.407848   3.832355
    25  H    4.455292   2.171692   1.100397   2.179967   3.415776
    26  H    5.212180   3.412248   2.200784   1.098953   2.141014
                   16         17         18         19         20
    16  F    0.000000
    17  H    3.543347   0.000000
    18  H    2.223347   1.786052   0.000000
    19  H    2.223511   1.783228   1.786307   0.000000
    20  H    4.593964   2.238173   2.897344   3.586984   0.000000
    21  H    6.258961   4.456357   5.133058   5.468612   2.506937
    22  H    6.387980   5.530624   6.093327   5.832823   4.317636
    23  H    5.038090   6.208654   6.038306   5.449778   5.938911
    24  H    5.160887   7.758527   7.074081   6.358069   8.176443
    25  H    4.470470   7.654308   6.670945   5.993988   8.593922
    26  H    2.462415   5.815479   4.595699   4.187832   7.031046
                   21         22         23         24         25
    21  H    0.000000
    22  H    2.570777   0.000000
    23  H    5.436662   3.543205   0.000000
    24  H    8.383480   6.807014   3.305448   0.000000
    25  H    9.483431   8.433639   5.275214   2.536807   0.000000
    26  H    8.499512   8.139494   5.792719   4.352760   2.564463
                   26
    26  H    0.000000
 Symmetry turned off by external request.
 Stoichiometry    C13H10F2O
 Framework group  C1[X(C13H10F2O)]
 Deg. of freedom    72
 Full point group                 C1      NOp   1
 Rotational constants (GHZ):           0.8390249           0.4707938           0.3128434
 Standard basis: def2SVP (5D, 7F)
   274 basis functions,   470 primitive gaussians,   290 cartesian basis functions
    57 alpha electrons       57 beta electrons
       nuclear repulsion energy      1069.5626677952 Hartrees.
 NAtoms=   26 NActive=   26 NUniq=   26 SFac= 1.00D+00 NAtFMM=   60 NAOKFM=F Big=F
 Integral buffers will be    131072 words long.
 Raffenetti 2 integral format.
 Two-electron integral symmetry is turned off.
 Nuclear repulsion after empirical dispersion term =     1069.5111167752 Hartrees.
 One-electron integrals computed using PRISM.
   1 Symmetry operations used in ECPInt.
 ECPInt:  NShTT=    8001 NPrTT=   29641 LenC2=    7591 LenP2D=   20284.
 LDataN:  DoStor=T MaxTD1= 4 Len=   56
 NBasis=   274 RedAO= T EigKep=  3.14D-04  NBF=   274
 NBsUse=   274 1.00D-06 EigRej= -1.00D+00 NBFU=   274
 Initial guess from the checkpoint file:  "path/to/scratch/gaussian_tmp/Gau-2280006.chk"
 B after Tr=    -0.000925   -0.000614    0.000911
         Rot=    1.000000   -0.000059   -0.000059   -0.000057 Ang=  -0.01 deg.
 Requested convergence on RMS density matrix=1.00D-08 within 128 cycles.
 Requested convergence on MAX density matrix=1.00D-06.
 Requested convergence on             energy=1.00D-06.
 No special actions if energy rises.
 SCF Done:  E(RB-P86) =  -775.751002162     A.U. after    9 cycles
            NFock=  9  Conv=0.54D-08     -V/T= 2.0104
 DoSCS=F DFT=T ScalE2(SS,OS)=  1.000000  1.000000
 Range of M.O.s used for correlation:     1   274
 NBasis=   274 NAE=    57 NBE=    57 NFC=     0 NFV=     0
 NROrb=    274 NOA=    57 NOB=    57 NVA=   217 NVB=   217

 **** Warning!!: The largest alpha MO coefficient is  0.10032799D+02

 Symmetrizing basis deriv contribution to polar:
 IMax=3 JMax=2 DiffMx= 0.00D+00
   1 Symmetry operations used in ECPInt.
 ECPInt:  NShTT=    8001 NPrTT=   29641 LenC2=    7591 LenP2D=   20284.
 LDataN:  DoStor=T MaxTD1= 5 Len=  102
 Calling FoFJK, ICntrl=      2527 FMM=F ISym2X=0 I1Cent= 0 IOpClX= 0 NMat=1 NMatS=1 NMatT=0.
 -------------------------------------------------------------------
 Center     Atomic                   Forces (Hartrees/Bohr)
 Number     Number              X              Y              Z
 -------------------------------------------------------------------
      1        6           0.000073306   -0.000053084   -0.000039591
      2        6          -0.000027725   -0.000000969    0.000016970
      3        6          -0.000020395   -0.000025291   -0.000054822
      4        6           0.000000387    0.000004209    0.000008877
      5        6           0.000002935   -0.000001257   -0.000002130
      6        6           0.000000063   -0.000001549   -0.000047054
      7        9           0.000034347   -0.000003011    0.000061398
      8        6           0.000009930    0.000034005    0.000147289
      9        6           0.000014788   -0.000017764   -0.000084772
     10        6           0.000017459    0.000026553    0.000020773
     11        8          -0.000044456   -0.000015621   -0.000026336
     12        6          -0.000010213   -0.000003852    0.000002103
     13        6           0.000001793    0.000010032   -0.000011315
     14        6           0.000009065   -0.000002906    0.000005395
     15        6          -0.000012105    0.000003726   -0.000045802
     16        9          -0.000111910    0.000035916    0.000057425
     17        1          -0.000007454    0.000033828    0.000044051
     18        1           0.000085219   -0.000010591    0.000007210
     19        1          -0.000012730   -0.000013852   -0.000040053
     20        1          -0.000001926   -0.000002267    0.000003221
     21        1          -0.000000621    0.000000654   -0.000002210
     22        1           0.000000412   -0.000000358    0.000002069
     23        1          -0.000001837    0.000001864   -0.000022012
     24        1           0.000001213    0.000000642    0.000000038
     25        1          -0.000000019    0.000001226    0.000003219
     26        1           0.000000471   -0.000000282   -0.000003942
 -------------------------------------------------------------------
 Cartesian Forces:  Max     0.000147289 RMS     0.000033989

 GradGradGradGradGradGradGradGradGradGradGradGradGradGradGradGradGradGrad
 Berny optimization.
 FormGI is forming the generalized inverse of G from B-inverse, IUseBI=4.
 Internal  Forces:  Max     0.000276716 RMS     0.000063189
 Search for a saddle point.
 Step number   6 out of a maximum of  140
 All quantities printed in internal units (Hartrees-Bohrs-Radians)
 Swapping is turned off.
 Update second derivatives using D2CorX and points    1    2    3    4    5
                                                      6
 ITU=  0  0  0  0  0  0
     Eigenvalues ---   -0.03958   0.00149   0.00634   0.01160   0.01420
     Eigenvalues ---    0.01567   0.01586   0.01588   0.01754   0.01764
     Eigenvalues ---    0.02100   0.02135   0.02190   0.02266   0.02435
     Eigenvalues ---    0.02657   0.02855   0.02945   0.03553   0.04644
     Eigenvalues ---    0.05217   0.05459   0.05916   0.09897   0.09936
     Eigenvalues ---    0.10650   0.10832   0.11042   0.11159   0.11643
     Eigenvalues ---    0.13230   0.13917   0.14862   0.16173   0.16455
     Eigenvalues ---    0.17004   0.17505   0.17820   0.18165   0.18693
     Eigenvalues ---    0.19465   0.19604   0.22738   0.25191   0.26270
     Eigenvalues ---    0.27328   0.29327   0.31481   0.32481   0.32951
     Eigenvalues ---    0.33165   0.33611   0.34073   0.34390   0.34516
     Eigenvalues ---    0.34583   0.34815   0.34910   0.35108   0.35805
     Eigenvalues ---    0.40277   0.40418   0.43731   0.45238   0.46057
     Eigenvalues ---    0.46577   0.47777   0.49260   0.49528   0.51405
     Eigenvalues ---    0.89400   2.30961
 Eigenvectors required to have negative eigenvalues:
                          D32       D31       D34       D33       D42
   1                   -0.48681  -0.46742  -0.38025  -0.36086  -0.17874
                          D40       D43       D44       D11       D58
   1                   -0.17204   0.17145   0.13551  -0.11854   0.11662
 RFO step:  Lambda0=1.586199163D-06 Lambda=-5.96435867D-06.
 Linear search not attempted -- option 19 set.
 Iteration  1 RMS(Cart)=  0.01025095 RMS(Int)=  0.00003401
 Iteration  2 RMS(Cart)=  0.00005229 RMS(Int)=  0.00000150
 Iteration  3 RMS(Cart)=  0.00000000 RMS(Int)=  0.00000150
 Variable       Old X    -DE/DX   Delta X   Delta X   Delta X     New X
                                 (Linear)    (Quad)   (Total)
    R1        2.87564   0.00001   0.00000  -0.00000  -0.00000   2.87564
    R2        2.09543  -0.00001   0.00000  -0.00020  -0.00020   2.09523
    R3        2.09130   0.00002   0.00000  -0.00028  -0.00028   2.09102
    R4        2.08433   0.00002   0.00000   0.00034   0.00034   2.08467
    R5        2.67089  -0.00001   0.00000   0.00017   0.00017   2.67106
    R6        2.75530  -0.00015   0.00000   0.00049   0.00049   2.75580
    R7        2.64254   0.00003   0.00000  -0.00010  -0.00010   2.64244
    R8        2.08217  -0.00000   0.00000  -0.00010  -0.00010   2.08206
    R9        2.64043   0.00006   0.00000  -0.00042  -0.00042   2.64000
   R10        2.07861   0.00000   0.00000  -0.00001  -0.00001   2.07860
   R11        2.63190   0.00001   0.00000   0.00016   0.00016   2.63206
   R12        2.07773   0.00000   0.00000  -0.00000  -0.00000   2.07773
   R13        2.61563  -0.00000   0.00000  -0.00044  -0.00044   2.61519
   R14        2.70448  -0.00005   0.00000   0.00003   0.00003   2.70450
   R15        2.84474  -0.00015   0.00000   0.00089   0.00089   2.84563
   R16        2.75988  -0.00007   0.00000   0.00027   0.00027   2.76015
   R17        2.71217  -0.00008   0.00000   0.00007   0.00007   2.71224
   R18        2.55421   0.00001   0.00000   0.00006   0.00006   2.55427
   R19        2.67741   0.00000   0.00000   0.00008   0.00008   2.67749
   R20        1.85122   0.00001   0.00000  -0.00038  -0.00038   1.85084
   R21        2.62826   0.00005   0.00000  -0.00010  -0.00010   2.62816
   R22        2.07720   0.00000   0.00000  -0.00001  -0.00001   2.07719
   R23        2.64537   0.00003   0.00000  -0.00003  -0.00003   2.64534
   R24        2.07945  -0.00000   0.00000  -0.00000  -0.00000   2.07944
   R25        2.63634  -0.00000   0.00000   0.00002   0.00002   2.63637
   R26        2.07672  -0.00000   0.00000  -0.00000  -0.00000   2.07672
   R27        2.55164   0.00008   0.00000  -0.00013  -0.00013   2.55151
    A1        1.87164   0.00002   0.00000   0.00070   0.00070   1.87234
    A2        1.98708   0.00000   0.00000   0.00061   0.00061   1.98769
    A3        1.96639  -0.00002   0.00000  -0.00102  -0.00102   1.96537
    A4        1.87525   0.00000   0.00000  -0.00004  -0.00004   1.87521
    A5        1.87547   0.00000   0.00000   0.00019   0.00019   1.87566
    A6        1.88290  -0.00001   0.00000  -0.00041  -0.00041   1.88248
    A7        1.96851   0.00022   0.00000  -0.00084  -0.00085   1.96766
    A8        2.21721  -0.00025   0.00000   0.00096   0.00096   2.21817
    A9        2.08588   0.00002   0.00000   0.00018   0.00018   2.08605
   A10        2.15976  -0.00006   0.00000   0.00062   0.00062   2.16038
   A11        2.04436   0.00003   0.00000  -0.00016  -0.00016   2.04420
   A12        2.07659   0.00002   0.00000  -0.00036  -0.00036   2.07623
   A13        2.04294   0.00002   0.00000  -0.00020  -0.00020   2.04274
   A14        2.11888  -0.00001   0.00000   0.00001   0.00001   2.11889
   A15        2.11568  -0.00001   0.00000   0.00027   0.00027   2.11596
   A16        2.06382  -0.00000   0.00000   0.00008   0.00008   2.06391
   A17        2.15032   0.00000   0.00000   0.00016   0.00016   2.15047
   A18        2.06785  -0.00000   0.00000  -0.00022  -0.00022   2.06763
   A19        1.97381   0.00007   0.00000  -0.00090  -0.00090   1.97291
   A20        2.21310  -0.00008   0.00000   0.00082   0.00082   2.21392
   A21        2.09414   0.00001   0.00000   0.00017   0.00017   2.09431
   A22        1.92833   0.00010   0.00000  -0.00017  -0.00018   1.92816
   A23        2.22811  -0.00028   0.00000   0.00193   0.00193   2.23003
   A24        2.12675   0.00018   0.00000  -0.00176  -0.00177   2.12498
   A25        2.18633   0.00013   0.00000   0.00004   0.00004   2.18637
   A26        2.15452  -0.00023   0.00000   0.00091   0.00091   2.15543
   A27        1.93354   0.00010   0.00000  -0.00083  -0.00083   1.93271
   A28        2.20709  -0.00003   0.00000   0.00066   0.00066   2.20776
   A29        2.12284  -0.00005   0.00000   0.00008   0.00008   2.12292
   A30        1.94976   0.00009   0.00000  -0.00067  -0.00067   1.94908
   A31        1.94642  -0.00002   0.00000   0.00019   0.00019   1.94661
   A32        2.13244  -0.00001   0.00000  -0.00000  -0.00000   2.13244
   A33        2.02208   0.00001   0.00000  -0.00004  -0.00004   2.02204
   A34        2.12743   0.00000   0.00000   0.00003   0.00003   2.12746
   A35        2.06219   0.00002   0.00000  -0.00023  -0.00023   2.06196
   A36        2.10977  -0.00001   0.00000   0.00008   0.00008   2.10984
   A37        2.10996  -0.00001   0.00000   0.00012   0.00012   2.11007
   A38        2.07891  -0.00003   0.00000  -0.00002  -0.00002   2.07889
   A39        2.14690   0.00001   0.00000   0.00005   0.00005   2.14695
   A40        2.05596   0.00002   0.00000  -0.00007  -0.00007   2.05589
   A41        2.20386  -0.00002   0.00000   0.00016   0.00016   2.20402
   A42        2.09744  -0.00011   0.00000   0.00019   0.00019   2.09763
   A43        1.98033   0.00013   0.00000  -0.00036  -0.00036   1.97997
    D1       -0.53489   0.00006   0.00000   0.01830   0.01830  -0.51660
    D2        2.44119   0.00005   0.00000   0.02036   0.02036   2.46156
    D3        1.53695   0.00008   0.00000   0.01909   0.01909   1.55604
    D4       -1.77015   0.00007   0.00000   0.02116   0.02116  -1.74899
    D5       -2.59492   0.00005   0.00000   0.01820   0.01820  -2.57672
    D6        0.38117   0.00004   0.00000   0.02027   0.02027   0.40144
    D7        2.83781  -0.00002   0.00000   0.00377   0.00377   2.84157
    D8       -0.22727  -0.00002   0.00000   0.00228   0.00227  -0.22499
    D9       -0.15208   0.00002   0.00000   0.00178   0.00178  -0.15030
   D10        3.06603   0.00002   0.00000   0.00029   0.00029   3.06632
   D11       -2.59959   0.00000   0.00000  -0.00573  -0.00573  -2.60531
   D12        0.54199  -0.00002   0.00000  -0.01183  -0.01183   0.53016
   D13        0.36657   0.00000   0.00000  -0.00361  -0.00361   0.36296
   D14       -2.77504  -0.00001   0.00000  -0.00971  -0.00972  -2.78476
   D15       -0.12538  -0.00000   0.00000   0.00099   0.00099  -0.12439
   D16        3.12925  -0.00001   0.00000   0.00017   0.00017   3.12941
   D17        2.93836   0.00000   0.00000   0.00252   0.00252   2.94088
   D18       -0.09020  -0.00001   0.00000   0.00169   0.00169  -0.08850
   D19        0.14410  -0.00001   0.00000  -0.00165  -0.00165   0.14245
   D20       -2.94412  -0.00002   0.00000  -0.00203  -0.00203  -2.94615
   D21       -3.11031  -0.00001   0.00000  -0.00085  -0.00085  -3.11116
   D22        0.08466  -0.00001   0.00000  -0.00122  -0.00123   0.08343
   D23       -2.94919  -0.00003   0.00000  -0.00195  -0.00195  -2.95114
   D24        0.12160  -0.00000   0.00000  -0.00039  -0.00040   0.12121
   D25        0.14160  -0.00003   0.00000  -0.00158  -0.00158   0.14002
   D26       -3.07079   0.00000   0.00000  -0.00003  -0.00003  -3.07082
   D27       -0.37061   0.00000   0.00000   0.00298   0.00298  -0.36763
   D28        2.77100   0.00002   0.00000   0.00867   0.00866   2.77965
   D29        2.69578   0.00004   0.00000   0.00459   0.00460   2.70038
   D30       -0.44580   0.00005   0.00000   0.01028   0.01027  -0.43552
   D31        2.96040   0.00010   0.00000  -0.00006  -0.00006   2.96034
   D32       -0.02581   0.00011   0.00000  -0.00103  -0.00103  -0.02683
   D33       -0.18121   0.00008   0.00000  -0.00679  -0.00679  -0.18800
   D34        3.11577   0.00009   0.00000  -0.00775  -0.00775   3.10801
   D35       -0.21896   0.00006   0.00000  -0.00315  -0.00315  -0.22211
   D36        3.02005   0.00003   0.00000  -0.00412  -0.00412   3.01594
   D37        2.78407   0.00002   0.00000  -0.00217  -0.00216   2.78190
   D38       -0.26011  -0.00000   0.00000  -0.00313  -0.00313  -0.26324
   D39       -3.02355  -0.00000   0.00000   0.00438   0.00438  -3.01917
   D40        0.18199   0.00003   0.00000   0.00461   0.00461   0.18660
   D41        0.25361  -0.00000   0.00000   0.00349   0.00349   0.25711
   D42       -2.82403   0.00004   0.00000   0.00373   0.00373  -2.82031
   D43        0.56965   0.00000   0.00000  -0.00557  -0.00557   0.56409
   D44       -2.66120   0.00002   0.00000  -0.00465  -0.00465  -2.66585
   D45        0.13017  -0.00000   0.00000   0.00133   0.00133   0.13150
   D46       -3.06395   0.00000   0.00000   0.00117   0.00117  -3.06278
   D47       -2.92712  -0.00002   0.00000   0.00043   0.00043  -2.92668
   D48        0.16194  -0.00002   0.00000   0.00027   0.00027   0.16221
   D49        0.04873  -0.00000   0.00000   0.00076   0.00076   0.04949
   D50        3.13658  -0.00000   0.00000  -0.00001  -0.00001   3.13656
   D51       -3.03719  -0.00001   0.00000   0.00094   0.00094  -3.03625
   D52        0.05066  -0.00001   0.00000   0.00017   0.00017   0.05083
   D53       -0.06659  -0.00000   0.00000  -0.00058  -0.00058  -0.06718
   D54        3.01652  -0.00000   0.00000  -0.00147  -0.00147   3.01506
   D55        3.12875  -0.00000   0.00000   0.00019   0.00019   3.12894
   D56       -0.07132  -0.00000   0.00000  -0.00069  -0.00069  -0.07201
   D57       -0.10016   0.00002   0.00000  -0.00182  -0.00182  -0.10199
   D58        2.98117  -0.00003   0.00000  -0.00203  -0.00203   2.97914
   D59        3.09686   0.00001   0.00000  -0.00099  -0.00099   3.09587
   D60       -0.10499  -0.00003   0.00000  -0.00119  -0.00119  -0.10618
         Item               Value     Threshold  Converged?
 Maximum Force            0.000277     0.000450     YES
 RMS     Force            0.000063     0.000300     YES
 Maximum Displacement     0.042685     0.001800     NO 
 RMS     Displacement     0.010253     0.001200     NO 
 Predicted change in Energy=-2.198317D-06
 GradGradGradGradGradGradGradGradGradGradGradGradGradGradGradGradGradGrad

                          Input orientation:                          
 ---------------------------------------------------------------------
 Center     Atomic      Atomic             Coordinates (Angstroms)
 Number     Number       Type             X           Y           Z
 ---------------------------------------------------------------------
      1          6           0       -1.083205    2.509625   -1.242401
      2          6           0       -1.504463    1.205236   -0.581533
      3          6           0       -2.881044    1.174193   -0.262254
      4          6           0       -3.586873    0.001140    0.022443
      5          6           0       -2.912012   -1.207577   -0.165331
      6          6           0       -1.549315   -1.164523   -0.450227
      7          9           0       -1.040682   -2.387861   -0.850126
      8          6           0       -0.706873   -0.007610   -0.441859
      9          6           0        0.789207   -0.117677   -0.310770
     10          6           0        1.517927   -1.334092    0.039492
     11          8           0        0.987092   -2.475890    0.530915
     12          6           0        2.932968   -1.391269   -0.004136
     13          6           0        3.713238   -0.262509   -0.230625
     14          6           0        3.066422    0.972240   -0.359518
     15          6           0        1.672096    1.013571   -0.338022
     16          9           0        1.172793    2.266217   -0.270045
     17          1           0       -1.961717    2.896317   -1.797388
     18          1           0       -0.771280    3.294046   -0.527015
     19          1           0       -0.266076    2.371545   -1.970548
     20          1           0       -3.429838    2.128283   -0.311831
     21          1           0       -4.656612    0.023501    0.277486
     22          1           0       -3.412908   -2.186168   -0.146978
     23          1           0        0.083665   -2.630092    0.185497
     24          1           0        3.379623   -2.373975    0.203319
     25          1           0        4.811245   -0.330554   -0.255524
     26          1           0        3.606453    1.927196   -0.423728
 ---------------------------------------------------------------------
                    Distance matrix (angstroms):
                    1          2          3          4          5
     1  C    0.000000
     2  C    1.521721   0.000000
     3  C    2.444645   1.413463   0.000000
     4  C    3.763068   2.480134   1.398321   0.000000
     5  C    4.280445   2.824197   2.383943   1.397030   0.000000
     6  C    3.787368   2.373818   2.697856   2.394541   1.392826
     7  F    4.913355   3.632848   4.052253   3.598859   2.316007
     8  C    2.668139   1.458305   2.481116   2.917199   2.525674
     9  C    3.358062   2.661641   3.891275   4.390355   3.861095
    10  C    4.814904   3.996086   5.072819   5.276563   4.436476
    11  O    5.682089   4.582148   5.377239   5.226411   4.158893
    12  C    5.734102   5.173589   6.360107   6.666921   5.850087
    13  C    5.631544   5.431558   6.749050   7.309253   6.692635
    14  C    4.512476   4.582202   5.951689   6.734632   6.366396
    15  C    3.263091   3.191639   4.556602   5.367653   5.096800
    16  F    2.468653   2.896620   4.198353   5.279256   5.363194
    17  H    1.108749   2.132402   2.483446   3.786155   4.517590
    18  H    1.106522   2.214420   3.002495   4.367230   4.997816
    19  H    1.103162   2.196189   3.345142   4.540763   4.803114
    20  H    2.553050   2.152167   1.101780   2.158967   3.378989
    21  H    4.610868   3.474256   2.183588   1.099950   2.180659
    22  H    5.355179   3.915690   3.404145   2.200746   1.099488
    23  H    5.460510   4.221401   4.843818   4.519161   3.334773
    24  H    6.771741   6.105820   7.211255   7.362469   6.409450
    25  H    6.617030   6.507926   7.838088   8.409261   7.773417
    26  H    4.796075   5.164067   6.533047   7.460073   7.237676
                    6          7          8          9         10
     6  C    0.000000
     7  F    1.383901   0.000000
     8  C    1.431162   2.437972   0.000000
     9  C    2.565934   2.965322   1.505840   0.000000
    10  C    3.110716   2.906601   2.634576   1.460610   0.000000
    11  O    3.019219   2.454972   3.147732   2.511724   1.351660
    12  C    4.510130   4.183156   3.918489   2.512324   1.416868
    13  C    5.343811   5.244107   4.432491   2.928713   2.457772
    14  C    5.087142   5.329098   3.899313   2.525076   2.806460
    15  C    3.890266   4.380771   2.590962   1.435255   2.382815
    16  F    4.383185   5.186175   2.955157   2.414902   3.630035
    17  H    4.298295   5.446847   3.441639   4.343015   5.777405
    18  H    4.526596   5.697460   3.303382   3.757890   5.194330
    19  H    4.057321   4.950486   2.862092   3.172493   4.577628
    20  H    3.794481   5.137449   3.463161   4.779611   6.049120
    21  H    3.405329   4.490115   4.014831   5.479318   6.326503
    22  H    2.146788   2.482449   3.486502   4.686497   5.007389
    23  H    2.284439   1.547690   2.809971   2.656370   1.938567
    24  H    5.117062   4.544121   4.766066   3.473531   2.138716
    25  H    6.417954   6.231462   5.530700   4.028047   3.455440
    26  H    6.011769   6.355895   4.727429   3.482979   3.900322
                   11         12         13         14         15
    11  O    0.000000
    12  C    2.291095   0.000000
    13  C    3.593170   1.390761   0.000000
    14  C    4.123844   2.393801   1.399854   0.000000
    15  C    3.660686   2.735788   2.409602   1.395105   0.000000
    16  F    4.812858   4.067693   3.584672   2.295259   1.350202
    17  H    6.555690   6.749599   6.681171   5.572407   4.345006
    18  H    6.123990   5.995585   5.731304   4.488518   3.347592
    19  H    5.596908   5.315960   5.079421   3.957147   2.875021
    20  H    6.435674   7.277858   7.532996   6.598493   5.222355
    21  H    6.177587   7.725453   8.390136   7.807122   6.435187
    22  H    4.461332   6.397063   7.381696   7.211272   6.010998
    23  H    0.979425   3.112744   4.353437   4.708576   4.009173
    24  H    2.417004   1.099203   2.181259   3.407644   3.831992
    25  H    4.454784   2.171690   1.100395   2.180021   3.415807
    26  H    5.211484   3.412015   2.200796   1.098952   2.140980
                   16         17         18         19         20
    16  F    0.000000
    17  H    3.543297   0.000000
    18  H    2.214020   1.785826   0.000000
    19  H    2.230056   1.783415   1.786065   0.000000
    20  H    4.604887   2.225339   2.910883   3.580490   0.000000
    21  H    6.269891   4.452037   5.141935   5.462946   2.506467
    22  H    6.392773   5.537280   6.095521   5.831013   4.317633
    23  H    5.036622   6.217444   6.027771   5.457767   5.935838
    24  H    5.159995   7.765868   7.063274   6.366849   8.179514
    25  H    4.470096   7.659181   6.661533   6.001819   8.600261
    26  H    2.461961   5.816412   4.587318   4.193635   7.040053
                   21         22         23         24         25
    21  H    0.000000
    22  H    2.570916   0.000000
    23  H    5.433254   3.540287   0.000000
    24  H    8.386565   6.804150   3.305942   0.000000
    25  H    9.489456   8.431595   5.275642   2.536858   0.000000
    26  H    8.508466   8.140503   5.792242   4.352552   2.564615
                   26
    26  H    0.000000
 Symmetry turned off by external request.
 Stoichiometry    C13H10F2O
 Framework group  C1[X(C13H10F2O)]
 Deg. of freedom    72
 Full point group                 C1      NOp   1
 Rotational constants (GHZ):           0.8395032           0.4705068           0.3126073
 Standard basis: def2SVP (5D, 7F)
   274 basis functions,   470 primitive gaussians,   290 cartesian basis functions
    57 alpha electrons       57 beta electrons
       nuclear repulsion energy      1069.4774187229 Hartrees.
 NAtoms=   26 NActive=   26 NUniq=   26 SFac= 1.00D+00 NAtFMM=   60 NAOKFM=F Big=F
 Integral buffers will be    131072 words long.
 Raffenetti 2 integral format.
 Two-electron integral symmetry is turned off.
 Nuclear repulsion after empirical dispersion term =     1069.4258776793 Hartrees.
 One-electron integrals computed using PRISM.
   1 Symmetry operations used in ECPInt.
 ECPInt:  NShTT=    8001 NPrTT=   29641 LenC2=    7591 LenP2D=   20280.
 LDataN:  DoStor=T MaxTD1= 4 Len=   56
 NBasis=   274 RedAO= T EigKep=  3.16D-04  NBF=   274
 NBsUse=   274 1.00D-06 EigRej= -1.00D+00 NBFU=   274
 Initial guess from the checkpoint file:  "path/to/scratch/gaussian_tmp/Gau-2280006.chk"
 B after Tr=     0.001232    0.000961    0.000979
         Rot=    1.000000    0.000613    0.000063   -0.000057 Ang=   0.07 deg.
 ExpMin= 1.22D-01 ExpMax= 2.89D+03 ExpMxC= 4.35D+02 IAcc=3 IRadAn=         5 AccDes= 0.00D+00
 Harris functional with IExCor=  404 and IRadAn=       5 diagonalized for initial guess.
 HarFok:  IExCor=  404 AccDes= 0.00D+00 IRadAn=         5 IDoV= 1 UseB2=F ITyADJ=14
 ICtDFT=  3500011 ScaDFX=  1.000000  1.000000  1.000000  1.000000
 FoFCou: FMM=F IPFlag=           0 FMFlag=      100000 FMFlg1=           0
         NFxFlg=           0 DoJE=T BraDBF=F KetDBF=T FulRan=T
         wScrn=  0.000000 ICntrl=       500 IOpCl=  0 I1Cent=   200000004 NGrid=           0
         NMat0=    1 NMatS0=      1 NMatT0=    0 NMatD0=    1 NMtDS0=    0 NMtDT0=    0
 Symmetry not used in FoFCou.
 Requested convergence on RMS density matrix=1.00D-08 within 128 cycles.
 Requested convergence on MAX density matrix=1.00D-06.
 Requested convergence on             energy=1.00D-06.
 No special actions if energy rises.
 Integral accuracy reduced to 1.0D-05 until final iterations.
 Initial convergence to 1.0D-05 achieved.  Increase integral accuracy.
 SCF Done:  E(RB-P86) =  -775.751003238     A.U. after   11 cycles
            NFock= 11  Conv=0.48D-08     -V/T= 2.0104
 DoSCS=F DFT=T ScalE2(SS,OS)=  1.000000  1.000000
 Range of M.O.s used for correlation:     1   274
 NBasis=   274 NAE=    57 NBE=    57 NFC=     0 NFV=     0
 NROrb=    274 NOA=    57 NOB=    57 NVA=   217 NVB=   217

 **** Warning!!: The largest alpha MO coefficient is  0.10098486D+02

 Symmetrizing basis deriv contribution to polar:
 IMax=3 JMax=2 DiffMx= 0.00D+00
   1 Symmetry operations used in ECPInt.
 ECPInt:  NShTT=    8001 NPrTT=   29641 LenC2=    7591 LenP2D=   20280.
 LDataN:  DoStor=T MaxTD1= 5 Len=  102
 Calling FoFJK, ICntrl=      2527 FMM=F ISym2X=0 I1Cent= 0 IOpClX= 0 NMat=1 NMatS=1 NMatT=0.
 -------------------------------------------------------------------
 Center     Atomic                   Forces (Hartrees/Bohr)
 Number     Number              X              Y              Z
 -------------------------------------------------------------------
      1        6           0.000036539   -0.000024228    0.000042329
      2        6           0.000061567    0.000008447    0.000049259
      3        6           0.000005762   -0.000002308    0.000029019
      4        6           0.000004171    0.000007465    0.000008241
      5        6           0.000005228   -0.000009114    0.000028501
      6        6          -0.000007725   -0.000006189   -0.000024357
      7        9           0.000030265    0.000015571   -0.000023042
      8        6           0.000000164   -0.000073831   -0.000145011
      9        6          -0.000033269    0.000055390    0.000198496
     10        6          -0.000021311   -0.000042458   -0.000044354
     11        8          -0.000056431    0.000062300    0.000135349
     12        6           0.000002093   -0.000004394   -0.000026193
     13        6           0.000003994    0.000003411    0.000004419
     14        6           0.000000587   -0.000001164    0.000008087
     15        6           0.000024925    0.000001445   -0.000052370
     16        9          -0.000183601    0.000041467   -0.000122851
     17        1           0.000016988    0.000005783    0.000006321
     18        1           0.000044655    0.000014818    0.000026597
     19        1           0.000035493   -0.000015937    0.000016760
     20        1          -0.000000294    0.000003361   -0.000014795
     21        1           0.000002072    0.000001163    0.000008575
     22        1          -0.000000204    0.000000153   -0.000007499
     23        1           0.000028033   -0.000040921   -0.000097711
     24        1          -0.000000099   -0.000000734   -0.000000058
     25        1          -0.000000128   -0.000000284   -0.000002617
     26        1           0.000000528    0.000000789   -0.000001095
 -------------------------------------------------------------------
 Cartesian Forces:  Max     0.000198496 RMS     0.000048854

 GradGradGradGradGradGradGradGradGradGradGradGradGradGradGradGradGradGrad
 Berny optimization.
 FormGI is forming the generalized inverse of G from B-inverse, IUseBI=4.
 Internal  Forces:  Max     0.000498533 RMS     0.000094476
 Search for a saddle point.
 Step number   7 out of a maximum of  140
 All quantities printed in internal units (Hartrees-Bohrs-Radians)
 Swapping is turned off.
 Update second derivatives using D2CorX and points    1    2    3    4    5
                                                      6    7
 ITU=  0  0  0  0  0  0  0
     Eigenvalues ---   -0.02954   0.00351   0.00640   0.01133   0.01421
     Eigenvalues ---    0.01577   0.01588   0.01600   0.01752   0.01763
     Eigenvalues ---    0.02063   0.02129   0.02152   0.02261   0.02408
     Eigenvalues ---    0.02643   0.02855   0.02935   0.03423   0.04315
     Eigenvalues ---    0.05212   0.05458   0.05817   0.09897   0.09935
     Eigenvalues ---    0.10649   0.10832   0.11042   0.11159   0.11644
     Eigenvalues ---    0.13230   0.13922   0.14862   0.16174   0.16457
     Eigenvalues ---    0.17006   0.17506   0.17819   0.18168   0.18693
     Eigenvalues ---    0.19471   0.19605   0.22741   0.25185   0.26275
     Eigenvalues ---    0.27327   0.29326   0.31479   0.32481   0.32951
     Eigenvalues ---    0.33165   0.33611   0.34073   0.34390   0.34516
     Eigenvalues ---    0.34584   0.34815   0.34910   0.35108   0.35805
     Eigenvalues ---    0.40278   0.40418   0.43731   0.45239   0.46057
     Eigenvalues ---    0.46577   0.47777   0.49260   0.49528   0.51404
     Eigenvalues ---    0.89017   2.30804
 Eigenvectors required to have negative eigenvalues:
                          D32       D31       D34       D33       D43
   1                   -0.47200  -0.45647  -0.38956  -0.37403   0.19352
                          D44       D4        D42       D2        D40
   1                    0.16319   0.14085  -0.13884   0.13878  -0.13520
 RFO step:  Lambda0=1.906259659D-06 Lambda=-3.44972701D-06.
 Linear search not attempted -- option 19 set.
 Iteration  1 RMS(Cart)=  0.00607815 RMS(Int)=  0.00000798
 Iteration  2 RMS(Cart)=  0.00001530 RMS(Int)=  0.00000051
 Iteration  3 RMS(Cart)=  0.00000000 RMS(Int)=  0.00000051
 Variable       Old X    -DE/DX   Delta X   Delta X   Delta X     New X
                                 (Linear)    (Quad)   (Total)
    R1        2.87564  -0.00002   0.00000   0.00001   0.00001   2.87565
    R2        2.09523  -0.00001   0.00000   0.00008   0.00008   2.09531
    R3        2.09102   0.00004   0.00000   0.00008   0.00008   2.09111
    R4        2.08467   0.00002   0.00000  -0.00006  -0.00006   2.08462
    R5        2.67106  -0.00001   0.00000  -0.00009  -0.00010   2.67096
    R6        2.75580  -0.00019   0.00000  -0.00020  -0.00020   2.75560
    R7        2.64244   0.00004   0.00000   0.00006   0.00006   2.64250
    R8        2.08206   0.00000   0.00000   0.00005   0.00005   2.08211
    R9        2.64000   0.00006   0.00000   0.00021   0.00021   2.64022
   R10        2.07860  -0.00000   0.00000   0.00000   0.00000   2.07861
   R11        2.63206   0.00001   0.00000  -0.00009  -0.00009   2.63197
   R12        2.07773  -0.00000   0.00000  -0.00000  -0.00000   2.07773
   R13        2.61519   0.00000   0.00000   0.00031   0.00031   2.61550
   R14        2.70450  -0.00006   0.00000  -0.00006  -0.00006   2.70444
   R15        2.84563  -0.00024   0.00000  -0.00050  -0.00050   2.84513
   R16        2.76015  -0.00005   0.00000  -0.00015  -0.00015   2.76000
   R17        2.71224  -0.00012   0.00000  -0.00004  -0.00004   2.71220
   R18        2.55427   0.00001   0.00000  -0.00009  -0.00009   2.55418
   R19        2.67749   0.00002   0.00000  -0.00002  -0.00002   2.67748
   R20        1.85084   0.00002   0.00000   0.00027   0.00027   1.85112
   R21        2.62816   0.00006   0.00000   0.00005   0.00005   2.62821
   R22        2.07719   0.00000   0.00000   0.00000   0.00000   2.07720
   R23        2.64534   0.00005   0.00000   0.00002   0.00002   2.64536
   R24        2.07944  -0.00000   0.00000   0.00000   0.00000   2.07945
   R25        2.63637  -0.00001   0.00000  -0.00003  -0.00003   2.63633
   R26        2.07672   0.00000   0.00000  -0.00000  -0.00000   2.07672
   R27        2.55151   0.00010   0.00000   0.00006   0.00006   2.55157
    A1        1.87234   0.00004   0.00000  -0.00027  -0.00027   1.87207
    A2        1.98769  -0.00001   0.00000  -0.00004  -0.00004   1.98765
    A3        1.96537  -0.00004   0.00000   0.00019   0.00019   1.96556
    A4        1.87521   0.00001   0.00000  -0.00000  -0.00000   1.87521
    A5        1.87566   0.00002   0.00000  -0.00002  -0.00002   1.87564
    A6        1.88248  -0.00001   0.00000   0.00014   0.00014   1.88262
    A7        1.96766   0.00023   0.00000   0.00051   0.00051   1.96817
    A8        2.21817  -0.00020   0.00000  -0.00059  -0.00059   2.21758
    A9        2.08605  -0.00002   0.00000  -0.00010  -0.00010   2.08595
   A10        2.16038  -0.00004   0.00000  -0.00031  -0.00031   2.16007
   A11        2.04420   0.00001   0.00000   0.00009   0.00009   2.04429
   A12        2.07623   0.00003   0.00000   0.00018   0.00018   2.07641
   A13        2.04274   0.00003   0.00000   0.00009   0.00009   2.04283
   A14        2.11889  -0.00001   0.00000  -0.00001  -0.00001   2.11888
   A15        2.11596  -0.00001   0.00000  -0.00014  -0.00014   2.11582
   A16        2.06391  -0.00002   0.00000  -0.00005  -0.00005   2.06386
   A17        2.15047   0.00001   0.00000  -0.00007  -0.00007   2.15040
   A18        2.06763   0.00001   0.00000   0.00011   0.00011   2.06774
   A19        1.97291   0.00009   0.00000   0.00038   0.00038   1.97329
   A20        2.21392  -0.00009   0.00000  -0.00042  -0.00042   2.21350
   A21        2.09431  -0.00001   0.00000  -0.00001  -0.00001   2.09430
   A22        1.92816   0.00016   0.00000   0.00009   0.00009   1.92824
   A23        2.23003  -0.00050   0.00000  -0.00136  -0.00136   2.22867
   A24        2.12498   0.00034   0.00000   0.00129   0.00129   2.12627
   A25        2.18637   0.00025   0.00000   0.00021   0.00021   2.18658
   A26        2.15543  -0.00040   0.00000  -0.00080  -0.00080   2.15463
   A27        1.93271   0.00015   0.00000   0.00052   0.00052   1.93323
   A28        2.20776   0.00001   0.00000  -0.00036  -0.00036   2.20740
   A29        2.12292  -0.00009   0.00000  -0.00007  -0.00008   2.12284
   A30        1.94908   0.00009   0.00000   0.00041   0.00041   1.94949
   A31        1.94661  -0.00003   0.00000  -0.00025  -0.00025   1.94636
   A32        2.13244  -0.00001   0.00000   0.00006   0.00006   2.13250
   A33        2.02204   0.00000   0.00000  -0.00001  -0.00001   2.02203
   A34        2.12746   0.00001   0.00000  -0.00004  -0.00004   2.12742
   A35        2.06196   0.00003   0.00000   0.00015   0.00015   2.06210
   A36        2.10984  -0.00002   0.00000  -0.00006  -0.00006   2.10978
   A37        2.11007  -0.00002   0.00000  -0.00007  -0.00007   2.11001
   A38        2.07889  -0.00004   0.00000  -0.00004  -0.00004   2.07885
   A39        2.14695   0.00002   0.00000  -0.00001  -0.00001   2.14693
   A40        2.05589   0.00002   0.00000   0.00008   0.00008   2.05597
   A41        2.20402  -0.00003   0.00000   0.00001   0.00001   2.20403
   A42        2.09763  -0.00018   0.00000  -0.00030  -0.00030   2.09733
   A43        1.97997   0.00021   0.00000   0.00028   0.00028   1.98026
    D1       -0.51660  -0.00002   0.00000  -0.00732  -0.00732  -0.52392
    D2        2.46156   0.00002   0.00000  -0.00860  -0.00860   2.45296
    D3        1.55604   0.00000   0.00000  -0.00753  -0.00753   1.54851
    D4       -1.74899   0.00005   0.00000  -0.00881  -0.00881  -1.75780
    D5       -2.57672  -0.00005   0.00000  -0.00723  -0.00723  -2.58394
    D6        0.40144   0.00000   0.00000  -0.00850  -0.00850   0.39293
    D7        2.84157   0.00006   0.00000  -0.00181  -0.00181   2.83976
    D8       -0.22499   0.00004   0.00000  -0.00121  -0.00121  -0.22620
    D9       -0.15030   0.00003   0.00000  -0.00059  -0.00059  -0.15089
   D10        3.06632   0.00002   0.00000   0.00002   0.00002   3.06633
   D11       -2.60531  -0.00009   0.00000   0.00306   0.00306  -2.60226
   D12        0.53016  -0.00005   0.00000   0.00610   0.00610   0.53626
   D13        0.36296  -0.00002   0.00000   0.00175   0.00175   0.36471
   D14       -2.78476   0.00002   0.00000   0.00480   0.00480  -2.77996
   D15       -0.12439   0.00000   0.00000  -0.00076  -0.00076  -0.12516
   D16        3.12941  -0.00001   0.00000  -0.00026  -0.00026   3.12915
   D17        2.94088   0.00002   0.00000  -0.00138  -0.00138   2.93949
   D18       -0.08850   0.00000   0.00000  -0.00088  -0.00088  -0.08939
   D19        0.14245  -0.00002   0.00000   0.00083   0.00083   0.14327
   D20       -2.94615  -0.00001   0.00000   0.00114   0.00114  -2.94501
   D21       -3.11116  -0.00000   0.00000   0.00034   0.00034  -3.11082
   D22        0.08343   0.00001   0.00000   0.00065   0.00065   0.08408
   D23       -2.95114   0.00001   0.00000   0.00142   0.00142  -2.94972
   D24        0.12121  -0.00002   0.00000   0.00046   0.00046   0.12167
   D25        0.14002   0.00000   0.00000   0.00111   0.00111   0.14113
   D26       -3.07082  -0.00002   0.00000   0.00015   0.00015  -3.07067
   D27       -0.36763   0.00002   0.00000  -0.00172  -0.00172  -0.36935
   D28        2.77965  -0.00001   0.00000  -0.00454  -0.00454   2.77511
   D29        2.70038  -0.00000   0.00000  -0.00272  -0.00272   2.69766
   D30       -0.43552  -0.00004   0.00000  -0.00554  -0.00555  -0.44107
   D31        2.96034  -0.00015   0.00000   0.00096   0.00097   2.96130
   D32       -0.02683  -0.00019   0.00000   0.00155   0.00155  -0.02529
   D33       -0.18800  -0.00011   0.00000   0.00432   0.00432  -0.18369
   D34        3.10801  -0.00014   0.00000   0.00490   0.00490   3.11291
   D35       -0.22211   0.00002   0.00000   0.00262   0.00262  -0.21949
   D36        3.01594   0.00005   0.00000   0.00299   0.00299   3.01893
   D37        2.78190   0.00001   0.00000   0.00200   0.00200   2.78391
   D38       -0.26324   0.00004   0.00000   0.00238   0.00238  -0.26086
   D39       -3.01917   0.00001   0.00000  -0.00308  -0.00308  -3.02225
   D40        0.18660  -0.00006   0.00000  -0.00299  -0.00299   0.18361
   D41        0.25711  -0.00003   0.00000  -0.00256  -0.00256   0.25454
   D42       -2.82031  -0.00010   0.00000  -0.00248  -0.00248  -2.82279
   D43        0.56409   0.00011   0.00000   0.00280   0.00280   0.56689
   D44       -2.66585   0.00007   0.00000   0.00245   0.00245  -2.66341
   D45        0.13150  -0.00002   0.00000  -0.00107  -0.00107   0.13044
   D46       -3.06278  -0.00002   0.00000  -0.00085  -0.00085  -3.06364
   D47       -2.92668   0.00000   0.00000  -0.00071  -0.00071  -2.92739
   D48        0.16221   0.00000   0.00000  -0.00050  -0.00050   0.16172
   D49        0.04949  -0.00002   0.00000  -0.00050  -0.00050   0.04898
   D50        3.13656   0.00001   0.00000  -0.00007  -0.00007   3.13649
   D51       -3.03625  -0.00002   0.00000  -0.00073  -0.00073  -3.03698
   D52        0.05083   0.00001   0.00000  -0.00030  -0.00030   0.05053
   D53       -0.06718   0.00002   0.00000   0.00043   0.00043  -0.06675
   D54        3.01506   0.00004   0.00000   0.00103   0.00103   3.01608
   D55        3.12894  -0.00001   0.00000  -0.00000  -0.00000   3.12894
   D56       -0.07201   0.00001   0.00000   0.00060   0.00060  -0.07142
   D57       -0.10199   0.00002   0.00000   0.00130   0.00130  -0.10068
   D58        2.97914   0.00008   0.00000   0.00121   0.00121   2.98035
   D59        3.09587   0.00000   0.00000   0.00074   0.00074   3.09661
   D60       -0.10618   0.00006   0.00000   0.00064   0.00064  -0.10554
         Item               Value     Threshold  Converged?
 Maximum Force            0.000499     0.000450     NO 
 RMS     Force            0.000094     0.000300     YES
 Maximum Displacement     0.027818     0.001800     NO 
 RMS     Displacement     0.006077     0.001200     NO 
 Predicted change in Energy=-7.716560D-07
 GradGradGradGradGradGradGradGradGradGradGradGradGradGradGradGradGradGrad

                          Input orientation:                          
 ---------------------------------------------------------------------
 Center     Atomic      Atomic             Coordinates (Angstroms)
 Number     Number       Type             X           Y           Z
 ---------------------------------------------------------------------
      1          6           0       -1.082079    2.506680   -1.248244
      2          6           0       -1.503184    1.204629   -0.582673
      3          6           0       -2.878640    1.175857   -0.258596
      4          6           0       -3.584876    0.003797    0.029316
      5          6           0       -2.912480   -1.206034   -0.160943
      6          6           0       -1.550750   -1.164988   -0.450496
      7          9           0       -1.045171   -2.388553   -0.854123
      8          6           0       -0.706929   -0.009107   -0.444194
      9          6           0        0.788867   -0.118774   -0.312565
     10          6           0        1.518162   -1.335406    0.035396
     11          8           0        0.987051   -2.479339    0.521396
     12          6           0        2.933398   -1.390402   -0.004250
     13          6           0        3.712754   -0.259945   -0.225524
     14          6           0        3.064713    0.974243   -0.353748
     15          6           0        1.670292    1.013665   -0.336315
     16          9           0        1.168725    2.265457   -0.268684
     17          1           0       -1.959736    2.889138   -1.807584
     18          1           0       -0.773818    3.294964   -0.535452
     19          1           0       -0.262608    2.366820   -1.973367
     20          1           0       -3.426409    2.130602   -0.307469
     21          1           0       -4.653629    0.027623    0.288338
     22          1           0       -3.414943   -2.183796   -0.141265
     23          1           0        0.085604   -2.634309    0.170776
     24          1           0        3.380872   -2.373043    0.201750
     25          1           0        4.810923   -0.326441   -0.247301
     26          1           0        3.603721    1.929977   -0.414886
 ---------------------------------------------------------------------
                    Distance matrix (angstroms):
                    1          2          3          4          5
     1  C    0.000000
     2  C    1.521726   0.000000
     3  C    2.445020   1.413412   0.000000
     4  C    3.763053   2.479913   1.398351   0.000000
     5  C    4.279817   2.824052   2.384133   1.397142   0.000000
     6  C    3.786449   2.373776   2.698087   2.394566   1.392780
     7  F    4.911211   3.632412   4.052318   3.599153   2.316397
     8  C    2.667661   1.458202   2.480910   2.916668   2.525336
     9  C    3.356924   2.660422   3.889677   4.388795   3.860712
    10  C    4.813586   3.995287   5.071957   5.275840   4.436877
    11  O    5.680960   4.581687   5.377027   5.225956   4.158514
    12  C    5.732261   5.172235   6.358472   6.665794   5.850884
    13  C    5.629440   5.429414   6.746044   7.306839   6.692756
    14  C    4.510473   4.579428   5.947533   6.730938   6.365345
    15  C    3.261327   3.188747   4.552486   5.363796   5.095059
    16  F    2.466545   2.891893   4.191479   5.272630   5.359020
    17  H    1.108791   2.132233   2.485775   3.786881   4.515483
    18  H    1.106567   2.214432   2.999591   4.364951   4.997312
    19  H    1.103131   2.196303   3.347007   4.542255   4.803331
    20  H    2.553894   2.152199   1.101807   2.159129   3.379162
    21  H    4.611157   3.474091   2.183612   1.099952   2.180679
    22  H    5.354271   3.915493   3.404212   2.200804   1.099488
    23  H    5.459566   4.222484   4.846490   4.522392   3.337441
    24  H    6.769942   6.104839   7.210278   7.362116   6.410908
    25  H    6.614827   6.505736   7.834949   8.406843   7.773809
    26  H    4.794142   5.160888   6.527950   7.455428   7.236017
                    6          7          8          9         10
     6  C    0.000000
     7  F    1.384065   0.000000
     8  C    1.431130   2.438076   0.000000
     9  C    2.566592   2.967975   1.505575   0.000000
    10  C    3.111808   2.910504   2.634408   1.460528   0.000000
    11  O    3.018696   2.455650   3.147059   2.511381   1.351613
    12  C    4.511932   4.188986   3.918355   2.512193   1.416859
    13  C    5.345483   5.250139   4.432193   2.928587   2.457831
    14  C    5.088041   5.333846   3.898774   2.525046   2.806730
    15  C    3.890331   4.383714   2.590150   1.435232   2.383159
    16  F    4.381387   5.186895   2.953392   2.414700   3.630535
    17  H    4.294751   5.440546   3.439212   4.340211   5.774004
    18  H    4.527915   5.698908   3.306008   3.761020   5.198016
    19  H    4.056120   4.947594   2.860213   3.168917   4.573046
    20  H    3.794663   5.137304   3.463036   4.777894   6.048103
    21  H    3.405298   4.490445   4.014273   5.477524   6.325569
    22  H    2.146814   2.483125   3.486313   4.686755   5.008642
    23  H    2.285287   1.545789   2.810335   2.656335   1.938478
    24  H    5.119152   4.550271   4.766084   3.473434   2.138704
    25  H    6.419917   6.238139   5.530476   4.027943   3.455461
    26  H    6.012374   6.360411   4.726797   3.482995   3.900646
                   11         12         13         14         15
    11  O    0.000000
    12  C    2.291366   0.000000
    13  C    3.593474   1.390787   0.000000
    14  C    4.124292   2.393937   1.399864   0.000000
    15  C    3.661088   2.735917   2.409566   1.395087   0.000000
    16  F    4.813556   4.068083   3.584913   2.295483   1.350232
    17  H    6.551965   6.746053   6.678082   5.570059   4.342711
    18  H    6.128635   5.998190   5.732605   4.489218   3.349277
    19  H    5.592025   5.311176   5.075269   3.953922   2.871771
    20  H    6.435620   7.275751   7.529215   6.593480   5.217733
    21  H    6.177090   7.723949   8.387080   7.802638   6.430742
    22  H    4.461392   6.399194   7.383249   7.211401   6.010109
    23  H    0.979569   3.112535   4.353260   4.708701   4.009500
    24  H    2.417406   1.099206   2.181259   3.407765   3.832152
    25  H    4.455095   2.171679   1.100396   2.179991   3.415754
    26  H    5.212068   3.412165   2.200796   1.098952   2.141016
                   16         17         18         19         20
    16  F    0.000000
    17  H    3.541816   0.000000
    18  H    2.214616   1.785894   0.000000
    19  H    2.228213   1.783408   1.786166   0.000000
    20  H    4.597276   2.230886   2.905849   3.583386   0.000000
    21  H    6.262426   4.454011   5.138783   5.465182   2.506706
    22  H    6.389218   5.534338   6.094895   5.831116   4.317614
    23  H    5.037259   6.213356   6.032715   5.452512   5.938631
    24  H    5.160484   7.762092   7.066203   6.361791   8.178093
    25  H    4.470347   7.656126   6.662352   5.997806   8.596181
    26  H    2.462342   5.814779   4.587000   4.191443   7.033813
                   21         22         23         24         25
    21  H    0.000000
    22  H    2.570851   0.000000
    23  H    5.436913   3.543185   0.000000
    24  H    8.385935   6.807098   3.305755   0.000000
    25  H    9.486307   8.433617   5.275385   2.536784   0.000000
    26  H    8.502782   8.140003   5.792482   4.352687   2.564535
                   26
    26  H    0.000000
 Symmetry turned off by external request.
 Stoichiometry    C13H10F2O
 Framework group  C1[X(C13H10F2O)]
 Deg. of freedom    72
 Full point group                 C1      NOp   1
 Rotational constants (GHZ):           0.8392626           0.4706823           0.3127272
 Standard basis: def2SVP (5D, 7F)
   274 basis functions,   470 primitive gaussians,   290 cartesian basis functions
    57 alpha electrons       57 beta electrons
       nuclear repulsion energy      1069.5390894946 Hartrees.
 NAtoms=   26 NActive=   26 NUniq=   26 SFac= 1.00D+00 NAtFMM=   60 NAOKFM=F Big=F
 Integral buffers will be    131072 words long.
 Raffenetti 2 integral format.
 Two-electron integral symmetry is turned off.
 Nuclear repulsion after empirical dispersion term =     1069.4875421866 Hartrees.
 One-electron integrals computed using PRISM.
   1 Symmetry operations used in ECPInt.
 ECPInt:  NShTT=    8001 NPrTT=   29641 LenC2=    7591 LenP2D=   20283.
 LDataN:  DoStor=T MaxTD1= 4 Len=   56
 NBasis=   274 RedAO= T EigKep=  3.15D-04  NBF=   274
 NBsUse=   274 1.00D-06 EigRej= -1.00D+00 NBFU=   274
 Initial guess from the checkpoint file:  "path/to/scratch/gaussian_tmp/Gau-2280006.chk"
 B after Tr=    -0.000979   -0.000739   -0.000374
         Rot=    1.000000   -0.000360   -0.000049    0.000019 Ang=  -0.04 deg.
 ExpMin= 1.22D-01 ExpMax= 2.89D+03 ExpMxC= 4.35D+02 IAcc=3 IRadAn=         5 AccDes= 0.00D+00
 Harris functional with IExCor=  404 and IRadAn=       5 diagonalized for initial guess.
 HarFok:  IExCor=  404 AccDes= 0.00D+00 IRadAn=         5 IDoV= 1 UseB2=F ITyADJ=14
 ICtDFT=  3500011 ScaDFX=  1.000000  1.000000  1.000000  1.000000
 FoFCou: FMM=F IPFlag=           0 FMFlag=      100000 FMFlg1=           0
         NFxFlg=           0 DoJE=T BraDBF=F KetDBF=T FulRan=T
         wScrn=  0.000000 ICntrl=       500 IOpCl=  0 I1Cent=   200000004 NGrid=           0
         NMat0=    1 NMatS0=      1 NMatT0=    0 NMatD0=    1 NMtDS0=    0 NMtDT0=    0
 Symmetry not used in FoFCou.
 Requested convergence on RMS density matrix=1.00D-08 within 128 cycles.
 Requested convergence on MAX density matrix=1.00D-06.
 Requested convergence on             energy=1.00D-06.
 No special actions if energy rises.
 Integral accuracy reduced to 1.0D-05 until final iterations.
 Initial convergence to 1.0D-05 achieved.  Increase integral accuracy.
 SCF Done:  E(RB-P86) =  -775.751003838     A.U. after   10 cycles
            NFock= 10  Conv=0.80D-08     -V/T= 2.0104
 DoSCS=F DFT=T ScalE2(SS,OS)=  1.000000  1.000000
 Range of M.O.s used for correlation:     1   274
 NBasis=   274 NAE=    57 NBE=    57 NFC=     0 NFV=     0
 NROrb=    274 NOA=    57 NOB=    57 NVA=   217 NVB=   217

 **** Warning!!: The largest alpha MO coefficient is  0.10049836D+02

 Symmetrizing basis deriv contribution to polar:
 IMax=3 JMax=2 DiffMx= 0.00D+00
   1 Symmetry operations used in ECPInt.
 ECPInt:  NShTT=    8001 NPrTT=   29641 LenC2=    7591 LenP2D=   20283.
 LDataN:  DoStor=T MaxTD1= 5 Len=  102
 Calling FoFJK, ICntrl=      2527 FMM=F ISym2X=0 I1Cent= 0 IOpClX= 0 NMat=1 NMatS=1 NMatT=0.
 -------------------------------------------------------------------
 Center     Atomic                   Forces (Hartrees/Bohr)
 Number     Number              X              Y              Z
 -------------------------------------------------------------------
      1        6           0.000015671   -0.000020419   -0.000020229
      2        6          -0.000007924   -0.000000211    0.000022507
      3        6          -0.000003248   -0.000005514    0.000002023
      4        6           0.000000191    0.000003612    0.000005151
      5        6           0.000002657   -0.000003507    0.000011111
      6        6           0.000005836   -0.000010027   -0.000019484
      7        9           0.000009467    0.000002350    0.000001900
      8        6           0.000006209    0.000013054   -0.000019970
      9        6           0.000004595    0.000003169    0.000041470
     10        6           0.000005448    0.000000963   -0.000013516
     11        8          -0.000031284    0.000023043    0.000042523
     12        6          -0.000005186   -0.000008220   -0.000012936
     13        6           0.000000875    0.000004966    0.000002553
     14        6           0.000004202   -0.000002164   -0.000007796
     15        6          -0.000011513    0.000001585   -0.000024136
     16        9          -0.000033242    0.000009786    0.000013446
     17        1           0.000001459    0.000005147    0.000007197
     18        1           0.000020326    0.000002667    0.000006148
     19        1           0.000005175   -0.000003811   -0.000001813
     20        1          -0.000000872   -0.000000444   -0.000004233
     21        1           0.000000636    0.000000059    0.000002619
     22        1          -0.000000098   -0.000000292   -0.000002958
     23        1           0.000011745   -0.000017020   -0.000028057
     24        1          -0.000000109    0.000000132   -0.000000904
     25        1          -0.000000034    0.000000465   -0.000001895
     26        1          -0.000000980    0.000000630   -0.000000721
 -------------------------------------------------------------------
 Cartesian Forces:  Max     0.000042523 RMS     0.000012754

 GradGradGradGradGradGradGradGradGradGradGradGradGradGradGradGradGradGrad
 Berny optimization.
 FormGI is forming the generalized inverse of G from B-inverse, IUseBI=4.
 Internal  Forces:  Max     0.000082629 RMS     0.000019344
 Search for a saddle point.
 Step number   8 out of a maximum of  140
 All quantities printed in internal units (Hartrees-Bohrs-Radians)
 Swapping is turned off.
 Update second derivatives using D2CorX and points    1    2    3    4    5
                                                      6    7    8
 ITU=  0  0  0  0  0  0  0  0
     Eigenvalues ---   -0.02803   0.00389   0.00632   0.01119   0.01421
     Eigenvalues ---    0.01577   0.01588   0.01603   0.01749   0.01763
     Eigenvalues ---    0.02058   0.02127   0.02148   0.02260   0.02411
     Eigenvalues ---    0.02641   0.02855   0.02934   0.03429   0.04317
     Eigenvalues ---    0.05211   0.05457   0.05805   0.09897   0.09935
     Eigenvalues ---    0.10649   0.10832   0.11042   0.11159   0.11644
     Eigenvalues ---    0.13230   0.13922   0.14862   0.16173   0.16457
     Eigenvalues ---    0.17005   0.17506   0.17818   0.18169   0.18693
     Eigenvalues ---    0.19469   0.19605   0.22740   0.25180   0.26275
     Eigenvalues ---    0.27326   0.29326   0.31477   0.32481   0.32951
     Eigenvalues ---    0.33165   0.33611   0.34073   0.34390   0.34516
     Eigenvalues ---    0.34584   0.34815   0.34910   0.35107   0.35804
     Eigenvalues ---    0.40278   0.40418   0.43731   0.45238   0.46057
     Eigenvalues ---    0.46577   0.47777   0.49259   0.49528   0.51403
     Eigenvalues ---    0.88715   2.30717
 Eigenvectors required to have negative eigenvalues:
                          D32       D31       D34       D33       D43
   1                   -0.46764  -0.45536  -0.38903  -0.37674   0.18548
                          D44       D4        D2        D42       D40
   1                    0.15666   0.14761   0.14618  -0.13752  -0.13658
 RFO step:  Lambda0=2.574716195D-09 Lambda=-1.81134948D-07.
 Linear search not attempted -- option 19 set.
 Iteration  1 RMS(Cart)=  0.00032017 RMS(Int)=  0.00000018
 Iteration  2 RMS(Cart)=  0.00000024 RMS(Int)=  0.00000000
 Variable       Old X    -DE/DX   Delta X   Delta X   Delta X     New X
                                 (Linear)    (Quad)   (Total)
    R1        2.87565   0.00000   0.00000  -0.00003  -0.00003   2.87561
    R2        2.09531  -0.00000   0.00000   0.00000   0.00000   2.09532
    R3        2.09111   0.00001   0.00000   0.00002   0.00002   2.09113
    R4        2.08462   0.00001   0.00000   0.00000   0.00000   2.08462
    R5        2.67096  -0.00000   0.00000  -0.00003  -0.00003   2.67094
    R6        2.75560  -0.00005   0.00000  -0.00007  -0.00007   2.75553
    R7        2.64250   0.00001   0.00000   0.00002   0.00002   2.64252
    R8        2.08211   0.00000   0.00000   0.00001   0.00001   2.08212
    R9        2.64022   0.00002   0.00000   0.00003   0.00003   2.64024
   R10        2.07861  -0.00000   0.00000   0.00000   0.00000   2.07861
   R11        2.63197   0.00000   0.00000  -0.00000  -0.00000   2.63197
   R12        2.07773   0.00000   0.00000   0.00000   0.00000   2.07773
   R13        2.61550   0.00000   0.00000   0.00001   0.00001   2.61551
   R14        2.70444  -0.00001   0.00000  -0.00001  -0.00001   2.70444
   R15        2.84513  -0.00006   0.00000  -0.00013  -0.00013   2.84500
   R16        2.76000  -0.00002   0.00000  -0.00006  -0.00006   2.75994
   R17        2.71220  -0.00003   0.00000  -0.00004  -0.00004   2.71216
   R18        2.55418   0.00001   0.00000   0.00006   0.00006   2.55424
   R19        2.67748  -0.00000   0.00000  -0.00005  -0.00005   2.67743
   R20        1.85112   0.00000   0.00000   0.00002   0.00002   1.85114
   R21        2.62821   0.00002   0.00000   0.00005   0.00005   2.62825
   R22        2.07720  -0.00000   0.00000  -0.00000  -0.00000   2.07720
   R23        2.64536   0.00001   0.00000   0.00000   0.00000   2.64536
   R24        2.07945  -0.00000   0.00000   0.00000   0.00000   2.07945
   R25        2.63633   0.00000   0.00000   0.00002   0.00002   2.63635
   R26        2.07672  -0.00000   0.00000   0.00000   0.00000   2.07672
   R27        2.55157   0.00002   0.00000   0.00001   0.00001   2.55158
    A1        1.87207   0.00001   0.00000   0.00002   0.00002   1.87209
    A2        1.98765  -0.00000   0.00000  -0.00001  -0.00001   1.98764
    A3        1.96556  -0.00001   0.00000  -0.00002  -0.00002   1.96554
    A4        1.87521   0.00000   0.00000   0.00002   0.00002   1.87522
    A5        1.87564   0.00000   0.00000   0.00003   0.00003   1.87566
    A6        1.88262  -0.00000   0.00000  -0.00003  -0.00003   1.88259
    A7        1.96817   0.00008   0.00000   0.00018   0.00018   1.96835
    A8        2.21758  -0.00008   0.00000  -0.00020  -0.00020   2.21738
    A9        2.08595   0.00000   0.00000   0.00000   0.00000   2.08596
   A10        2.16007  -0.00002   0.00000  -0.00006  -0.00006   2.16001
   A11        2.04429   0.00001   0.00000   0.00002   0.00002   2.04431
   A12        2.07641   0.00001   0.00000   0.00004   0.00004   2.07645
   A13        2.04283   0.00001   0.00000   0.00004   0.00004   2.04287
   A14        2.11888  -0.00000   0.00000  -0.00001  -0.00001   2.11887
   A15        2.11582  -0.00000   0.00000  -0.00003  -0.00003   2.11579
   A16        2.06386  -0.00000   0.00000  -0.00000  -0.00000   2.06386
   A17        2.15040   0.00000   0.00000  -0.00002  -0.00002   2.15037
   A18        2.06774   0.00000   0.00000   0.00002   0.00002   2.06776
   A19        1.97329   0.00003   0.00000   0.00009   0.00009   1.97338
   A20        2.21350  -0.00003   0.00000  -0.00009  -0.00009   2.21341
   A21        2.09430   0.00000   0.00000  -0.00000  -0.00000   2.09429
   A22        1.92824   0.00004   0.00000   0.00007   0.00007   1.92832
   A23        2.22867  -0.00008   0.00000  -0.00004  -0.00004   2.22863
   A24        2.12627   0.00005   0.00000  -0.00003  -0.00003   2.12623
   A25        2.18658   0.00003   0.00000  -0.00013  -0.00013   2.18645
   A26        2.15463  -0.00007   0.00000   0.00008   0.00008   2.15471
   A27        1.93323   0.00004   0.00000   0.00007   0.00007   1.93330
   A28        2.20740  -0.00001   0.00000  -0.00018  -0.00018   2.20722
   A29        2.12284  -0.00002   0.00000  -0.00002  -0.00002   2.12283
   A30        1.94949   0.00003   0.00000   0.00019   0.00019   1.94967
   A31        1.94636  -0.00000   0.00000  -0.00006  -0.00006   1.94630
   A32        2.13250  -0.00001   0.00000  -0.00005  -0.00005   2.13245
   A33        2.02203   0.00000   0.00000   0.00004   0.00004   2.02208
   A34        2.12742   0.00000   0.00000   0.00001   0.00001   2.12742
   A35        2.06210   0.00001   0.00000   0.00003   0.00003   2.06213
   A36        2.10978  -0.00000   0.00000  -0.00001  -0.00001   2.10978
   A37        2.11001  -0.00000   0.00000  -0.00002  -0.00002   2.10998
   A38        2.07885  -0.00001   0.00000   0.00000   0.00000   2.07886
   A39        2.14693   0.00001   0.00000  -0.00001  -0.00001   2.14692
   A40        2.05597   0.00000   0.00000   0.00001   0.00001   2.05598
   A41        2.20403  -0.00001   0.00000  -0.00010  -0.00010   2.20393
   A42        2.09733  -0.00003   0.00000   0.00003   0.00003   2.09736
   A43        1.98026   0.00004   0.00000   0.00007   0.00007   1.98032
    D1       -0.52392   0.00001   0.00000  -0.00032  -0.00032  -0.52424
    D2        2.45296   0.00001   0.00000  -0.00037  -0.00037   2.45258
    D3        1.54851   0.00001   0.00000  -0.00029  -0.00029   1.54822
    D4       -1.75780   0.00002   0.00000  -0.00034  -0.00034  -1.75814
    D5       -2.58394   0.00000   0.00000  -0.00035  -0.00035  -2.58430
    D6        0.39293   0.00000   0.00000  -0.00041  -0.00041   0.39252
    D7        2.83976  -0.00000   0.00000  -0.00004  -0.00004   2.83972
    D8       -0.22620  -0.00000   0.00000   0.00001   0.00001  -0.22619
    D9       -0.15089   0.00001   0.00000   0.00003   0.00003  -0.15086
   D10        3.06633   0.00001   0.00000   0.00009   0.00009   3.06642
   D11       -2.60226  -0.00000   0.00000   0.00013   0.00013  -2.60213
   D12        0.53626  -0.00000   0.00000   0.00019   0.00019   0.53645
   D13        0.36471   0.00001   0.00000   0.00008   0.00008   0.36479
   D14       -2.77996   0.00001   0.00000   0.00014   0.00014  -2.77982
   D15       -0.12516  -0.00000   0.00000  -0.00008  -0.00008  -0.12524
   D16        3.12915  -0.00000   0.00000  -0.00006  -0.00006   3.12909
   D17        2.93949  -0.00000   0.00000  -0.00014  -0.00014   2.93936
   D18       -0.08939  -0.00000   0.00000  -0.00011  -0.00011  -0.08949
   D19        0.14327  -0.00000   0.00000   0.00003   0.00003   0.14331
   D20       -2.94501   0.00000   0.00000   0.00011   0.00011  -2.94490
   D21       -3.11082  -0.00000   0.00000   0.00001   0.00001  -3.11082
   D22        0.08408  -0.00000   0.00000   0.00008   0.00008   0.08416
   D23       -2.94972  -0.00000   0.00000   0.00010   0.00010  -2.94962
   D24        0.12167   0.00000   0.00000   0.00006   0.00006   0.12173
   D25        0.14113  -0.00000   0.00000   0.00003   0.00003   0.14116
   D26       -3.07067  -0.00000   0.00000  -0.00001  -0.00001  -3.07068
   D27       -0.36935  -0.00000   0.00000  -0.00011  -0.00011  -0.36946
   D28        2.77511  -0.00001   0.00000  -0.00017  -0.00017   2.77494
   D29        2.69766  -0.00000   0.00000  -0.00015  -0.00015   2.69750
   D30       -0.44107  -0.00000   0.00000  -0.00021  -0.00021  -0.44128
   D31        2.96130  -0.00000   0.00000  -0.00007  -0.00007   2.96123
   D32       -0.02529  -0.00000   0.00000  -0.00024  -0.00024  -0.02553
   D33       -0.18369   0.00000   0.00000   0.00000   0.00000  -0.18368
   D34        3.11291  -0.00000   0.00000  -0.00017  -0.00017   3.11274
   D35       -0.21949   0.00000   0.00000  -0.00063  -0.00063  -0.22011
   D36        3.01893   0.00000   0.00000  -0.00043  -0.00043   3.01850
   D37        2.78391  -0.00000   0.00000  -0.00047  -0.00047   2.78344
   D38       -0.26086  -0.00000   0.00000  -0.00027  -0.00027  -0.26113
   D39       -3.02225   0.00001   0.00000   0.00043   0.00043  -3.02182
   D40        0.18361   0.00001   0.00000   0.00058   0.00058   0.18419
   D41        0.25454   0.00000   0.00000   0.00029   0.00029   0.25483
   D42       -2.82279   0.00001   0.00000   0.00044   0.00044  -2.82235
   D43        0.56689   0.00003   0.00000   0.00192   0.00192   0.56882
   D44       -2.66341   0.00003   0.00000   0.00173   0.00173  -2.66168
   D45        0.13044  -0.00000   0.00000   0.00008   0.00008   0.13052
   D46       -3.06364  -0.00000   0.00000   0.00004   0.00004  -3.06360
   D47       -2.92739   0.00000   0.00000   0.00027   0.00027  -2.92712
   D48        0.16172   0.00000   0.00000   0.00023   0.00023   0.16195
   D49        0.04898  -0.00000   0.00000   0.00009   0.00009   0.04908
   D50        3.13649   0.00000   0.00000   0.00005   0.00005   3.13654
   D51       -3.03698  -0.00000   0.00000   0.00014   0.00014  -3.03684
   D52        0.05053  -0.00000   0.00000   0.00009   0.00009   0.05062
   D53       -0.06675   0.00000   0.00000  -0.00007  -0.00007  -0.06682
   D54        3.01608  -0.00000   0.00000  -0.00016  -0.00016   3.01593
   D55        3.12894  -0.00000   0.00000  -0.00003  -0.00003   3.12891
   D56       -0.07142  -0.00000   0.00000  -0.00012  -0.00012  -0.07153
   D57       -0.10068   0.00000   0.00000  -0.00013  -0.00013  -0.10081
   D58        2.98035  -0.00000   0.00000  -0.00027  -0.00027   2.98008
   D59        3.09661   0.00000   0.00000  -0.00005  -0.00005   3.09656
   D60       -0.10554  -0.00000   0.00000  -0.00019  -0.00019  -0.10573
         Item               Value     Threshold  Converged?
 Maximum Force            0.000083     0.000450     YES
 RMS     Force            0.000019     0.000300     YES
 Maximum Displacement     0.001447     0.001800     YES
 RMS     Displacement     0.000320     0.001200     YES
 Predicted change in Energy=-8.928018D-08
 Optimization completed.
    -- Stationary point found.
                           ----------------------------
                           !   Optimized Parameters   !
                           ! (Angstroms and Degrees)  !
 --------------------------                            --------------------------
 ! Name  Definition              Value          Derivative Info.                !
 --------------------------------------------------------------------------------
 ! R1    R(1,2)                  1.5217         -DE/DX =    0.0                 !
 ! R2    R(1,17)                 1.1088         -DE/DX =    0.0                 !
 ! R3    R(1,18)                 1.1066         -DE/DX =    0.0                 !
 ! R4    R(1,19)                 1.1031         -DE/DX =    0.0                 !
 ! R5    R(2,3)                  1.4134         -DE/DX =    0.0                 !
 ! R6    R(2,8)                  1.4582         -DE/DX =   -0.0001              !
 ! R7    R(3,4)                  1.3984         -DE/DX =    0.0                 !
 ! R8    R(3,20)                 1.1018         -DE/DX =    0.0                 !
 ! R9    R(4,5)                  1.3971         -DE/DX =    0.0                 !
 ! R10   R(4,21)                 1.1            -DE/DX =    0.0                 !
 ! R11   R(5,6)                  1.3928         -DE/DX =    0.0                 !
 ! R12   R(5,22)                 1.0995         -DE/DX =    0.0                 !
 ! R13   R(6,7)                  1.3841         -DE/DX =    0.0                 !
 ! R14   R(6,8)                  1.4311         -DE/DX =    0.0                 !
 ! R15   R(8,9)                  1.5056         -DE/DX =   -0.0001              !
 ! R16   R(9,10)                 1.4605         -DE/DX =    0.0                 !
 ! R17   R(9,15)                 1.4352         -DE/DX =    0.0                 !
 ! R18   R(10,11)                1.3516         -DE/DX =    0.0                 !
 ! R19   R(10,12)                1.4169         -DE/DX =    0.0                 !
 ! R20   R(11,23)                0.9796         -DE/DX =    0.0                 !
 ! R21   R(12,13)                1.3908         -DE/DX =    0.0                 !
 ! R22   R(12,24)                1.0992         -DE/DX =    0.0                 !
 ! R23   R(13,14)                1.3999         -DE/DX =    0.0                 !
 ! R24   R(13,25)                1.1004         -DE/DX =    0.0                 !
 ! R25   R(14,15)                1.3951         -DE/DX =    0.0                 !
 ! R26   R(14,26)                1.099          -DE/DX =    0.0                 !
 ! R27   R(15,16)                1.3502         -DE/DX =    0.0                 !
 ! A1    A(2,1,17)             107.2616         -DE/DX =    0.0                 !
 ! A2    A(2,1,18)             113.884          -DE/DX =    0.0                 !
 ! A3    A(2,1,19)             112.6184         -DE/DX =    0.0                 !
 ! A4    A(17,1,18)            107.4414         -DE/DX =    0.0                 !
 ! A5    A(17,1,19)            107.466          -DE/DX =    0.0                 !
 ! A6    A(18,1,19)            107.8661         -DE/DX =    0.0                 !
 ! A7    A(1,2,3)              112.7679         -DE/DX =    0.0001              !
 ! A8    A(1,2,8)              127.0579         -DE/DX =   -0.0001              !
 ! A9    A(3,2,8)              119.5163         -DE/DX =    0.0                 !
 ! A10   A(2,3,4)              123.7628         -DE/DX =    0.0                 !
 ! A11   A(2,3,20)             117.129          -DE/DX =    0.0                 !
 ! A12   A(4,3,20)             118.9696         -DE/DX =    0.0                 !
 ! A13   A(3,4,5)              117.0457         -DE/DX =    0.0                 !
 ! A14   A(3,4,21)             121.4029         -DE/DX =    0.0                 !
 ! A15   A(5,4,21)             121.2276         -DE/DX =    0.0                 !
 ! A16   A(4,5,6)              118.2505         -DE/DX =    0.0                 !
 ! A17   A(4,5,22)             123.2087         -DE/DX =    0.0                 !
 ! A18   A(6,5,22)             118.4726         -DE/DX =    0.0                 !
 ! A19   A(5,6,7)              113.0613         -DE/DX =    0.0                 !
 ! A20   A(5,6,8)              126.8242         -DE/DX =    0.0                 !
 ! A21   A(7,6,8)              119.9944         -DE/DX =    0.0                 !
 ! A22   A(2,8,6)              110.4802         -DE/DX =    0.0                 !
 ! A23   A(2,8,9)              127.6935         -DE/DX =   -0.0001              !
 ! A24   A(6,8,9)              121.8261         -DE/DX =    0.0                 !
 ! A25   A(8,9,10)             125.2818         -DE/DX =    0.0                 !
 ! A26   A(8,9,15)             123.4511         -DE/DX =   -0.0001              !
 ! A27   A(10,9,15)            110.7659         -DE/DX =    0.0                 !
 ! A28   A(9,10,11)            126.4746         -DE/DX =    0.0                 !
 ! A29   A(9,10,12)            121.63           -DE/DX =    0.0                 !
 ! A30   A(11,10,12)           111.6975         -DE/DX =    0.0                 !
 ! A31   A(10,11,23)           111.5184         -DE/DX =    0.0                 !
 ! A32   A(10,12,13)           122.1834         -DE/DX =    0.0                 !
 ! A33   A(10,12,24)           115.8539         -DE/DX =    0.0                 !
 ! A34   A(13,12,24)           121.892          -DE/DX =    0.0                 !
 ! A35   A(12,13,14)           118.1499         -DE/DX =    0.0                 !
 ! A36   A(12,13,25)           120.8817         -DE/DX =    0.0                 !
 ! A37   A(14,13,25)           120.8945         -DE/DX =    0.0                 !
 ! A38   A(13,14,15)           119.1094         -DE/DX =    0.0                 !
 ! A39   A(13,14,26)           123.0103         -DE/DX =    0.0                 !
 ! A40   A(15,14,26)           117.7983         -DE/DX =    0.0                 !
 ! A41   A(9,15,14)            126.2814         -DE/DX =    0.0                 !
 ! A42   A(9,15,16)            120.1684         -DE/DX =    0.0                 !
 ! A43   A(14,15,16)           113.4603         -DE/DX =    0.0                 !
 ! D1    D(17,1,2,3)           -30.0183         -DE/DX =    0.0                 !
 ! D2    D(17,1,2,8)           140.5442         -DE/DX =    0.0                 !
 ! D3    D(18,1,2,3)            88.723          -DE/DX =    0.0                 !
 ! D4    D(18,1,2,8)          -100.7145         -DE/DX =    0.0                 !
 ! D5    D(19,1,2,3)          -148.0491         -DE/DX =    0.0                 !
 ! D6    D(19,1,2,8)            22.5134         -DE/DX =    0.0                 !
 ! D7    D(1,2,3,4)            162.7062         -DE/DX =    0.0                 !
 ! D8    D(1,2,3,20)           -12.9603         -DE/DX =    0.0                 !
 ! D9    D(8,2,3,4)             -8.6455         -DE/DX =    0.0                 !
 ! D10   D(8,2,3,20)           175.688          -DE/DX =    0.0                 !
 ! D11   D(1,2,8,6)           -149.0982         -DE/DX =    0.0                 !
 ! D12   D(1,2,8,9)             30.7253         -DE/DX =    0.0                 !
 ! D13   D(3,2,8,6)             20.8962         -DE/DX =    0.0                 !
 ! D14   D(3,2,8,9)           -159.2802         -DE/DX =    0.0                 !
 ! D15   D(2,3,4,5)             -7.1709         -DE/DX =    0.0                 !
 ! D16   D(2,3,4,21)           179.2871         -DE/DX =    0.0                 !
 ! D17   D(20,3,4,5)           168.4205         -DE/DX =    0.0                 !
 ! D18   D(20,3,4,21)           -5.1214         -DE/DX =    0.0                 !
 ! D19   D(3,4,5,6)              8.2089         -DE/DX =    0.0                 !
 ! D20   D(3,4,5,22)          -168.7365         -DE/DX =    0.0                 !
 ! D21   D(21,4,5,6)          -178.237          -DE/DX =    0.0                 !
 ! D22   D(21,4,5,22)            4.8176         -DE/DX =    0.0                 !
 ! D23   D(4,5,6,7)           -169.0067         -DE/DX =    0.0                 !
 ! D24   D(4,5,6,8)              6.9709         -DE/DX =    0.0                 !
 ! D25   D(22,5,6,7)             8.086          -DE/DX =    0.0                 !
 ! D26   D(22,5,6,8)          -175.9363         -DE/DX =    0.0                 !
 ! D27   D(5,6,8,2)            -21.1621         -DE/DX =    0.0                 !
 ! D28   D(5,6,8,9)            159.0023         -DE/DX =    0.0                 !
 ! D29   D(7,6,8,2)            154.5642         -DE/DX =    0.0                 !
 ! D30   D(7,6,8,9)            -25.2714         -DE/DX =    0.0                 !
 ! D31   D(2,8,9,10)           169.67           -DE/DX =    0.0                 !
 ! D32   D(2,8,9,15)            -1.4488         -DE/DX =    0.0                 !
 ! D33   D(6,8,9,10)           -10.5245         -DE/DX =    0.0                 !
 ! D34   D(6,8,9,15)           178.3566         -DE/DX =    0.0                 !
 ! D35   D(8,9,10,11)          -12.5756         -DE/DX =    0.0                 !
 ! D36   D(8,9,10,12)          172.972          -DE/DX =    0.0                 !
 ! D37   D(15,9,10,11)         159.5061         -DE/DX =    0.0                 !
 ! D38   D(15,9,10,12)         -14.9463         -DE/DX =    0.0                 !
 ! D39   D(8,9,15,14)         -173.1619         -DE/DX =    0.0                 !
 ! D40   D(8,9,15,16)           10.52           -DE/DX =    0.0                 !
 ! D41   D(10,9,15,14)          14.5842         -DE/DX =    0.0                 !
 ! D42   D(10,9,15,16)        -161.7339         -DE/DX =    0.0                 !
 ! D43   D(9,10,11,23)          32.4805         -DE/DX =    0.0                 !
 ! D44   D(12,10,11,23)       -152.602          -DE/DX =    0.0                 !
 ! D45   D(9,10,12,13)           7.4735         -DE/DX =    0.0                 !
 ! D46   D(9,10,12,24)        -175.5335         -DE/DX =    0.0                 !
 ! D47   D(11,10,12,13)       -167.7272         -DE/DX =    0.0                 !
 ! D48   D(11,10,12,24)          9.2657         -DE/DX =    0.0                 !
 ! D49   D(10,12,13,14)          2.8066         -DE/DX =    0.0                 !
 ! D50   D(10,12,13,25)        179.7076         -DE/DX =    0.0                 !
 ! D51   D(24,12,13,14)       -174.0061         -DE/DX =    0.0                 !
 ! D52   D(24,12,13,25)          2.895          -DE/DX =    0.0                 !
 ! D53   D(12,13,14,15)         -3.8243         -DE/DX =    0.0                 !
 ! D54   D(12,13,14,26)        172.8089         -DE/DX =    0.0                 !
 ! D55   D(25,13,14,15)        179.2751         -DE/DX =    0.0                 !
 ! D56   D(25,13,14,26)         -4.0918         -DE/DX =    0.0                 !
 ! D57   D(13,14,15,9)          -5.7688         -DE/DX =    0.0                 !
 ! D58   D(13,14,15,16)        170.7615         -DE/DX =    0.0                 !
 ! D59   D(26,14,15,9)         177.4227         -DE/DX =    0.0                 !
 ! D60   D(26,14,15,16)         -6.047          -DE/DX =    0.0                 !
 --------------------------------------------------------------------------------
 GradGradGradGradGradGradGradGradGradGradGradGradGradGradGradGradGradGrad

                          Input orientation:                          
 ---------------------------------------------------------------------
 Center     Atomic      Atomic             Coordinates (Angstroms)
 Number     Number       Type             X           Y           Z
 ---------------------------------------------------------------------
      1          6           0       -1.082079    2.506680   -1.248244
      2          6           0       -1.503184    1.204629   -0.582673
      3          6           0       -2.878640    1.175857   -0.258596
      4          6           0       -3.584876    0.003797    0.029316
      5          6           0       -2.912480   -1.206034   -0.160943
      6          6           0       -1.550750   -1.164988   -0.450496
      7          9           0       -1.045171   -2.388553   -0.854123
      8          6           0       -0.706929   -0.009107   -0.444194
      9          6           0        0.788867   -0.118774   -0.312565
     10          6           0        1.518162   -1.335406    0.035396
     11          8           0        0.987051   -2.479339    0.521396
     12          6           0        2.933398   -1.390402   -0.004250
     13          6           0        3.712754   -0.259945   -0.225524
     14          6           0        3.064713    0.974243   -0.353748
     15          6           0        1.670292    1.013665   -0.336315
     16          9           0        1.168725    2.265457   -0.268684
     17          1           0       -1.959736    2.889138   -1.807584
     18          1           0       -0.773818    3.294964   -0.535452
     19          1           0       -0.262608    2.366820   -1.973367
     20          1           0       -3.426409    2.130602   -0.307469
     21          1           0       -4.653629    0.027623    0.288338
     22          1           0       -3.414943   -2.183796   -0.141265
     23          1           0        0.085604   -2.634309    0.170776
     24          1           0        3.380872   -2.373043    0.201750
     25          1           0        4.810923   -0.326441   -0.247301
     26          1           0        3.603721    1.929977   -0.414886
 ---------------------------------------------------------------------
                    Distance matrix (angstroms):
                    1          2          3          4          5
     1  C    0.000000
     2  C    1.521726   0.000000
     3  C    2.445020   1.413412   0.000000
     4  C    3.763053   2.479913   1.398351   0.000000
     5  C    4.279817   2.824052   2.384133   1.397142   0.000000
     6  C    3.786449   2.373776   2.698087   2.394566   1.392780
     7  F    4.911211   3.632412   4.052318   3.599153   2.316397
     8  C    2.667661   1.458202   2.480910   2.916668   2.525336
     9  C    3.356924   2.660422   3.889677   4.388795   3.860712
    10  C    4.813586   3.995287   5.071957   5.275840   4.436877
    11  O    5.680960   4.581687   5.377027   5.225956   4.158514
    12  C    5.732261   5.172235   6.358472   6.665794   5.850884
    13  C    5.629440   5.429414   6.746044   7.306839   6.692756
    14  C    4.510473   4.579428   5.947533   6.730938   6.365345
    15  C    3.261327   3.188747   4.552486   5.363796   5.095059
    16  F    2.466545   2.891893   4.191479   5.272630   5.359020
    17  H    1.108791   2.132233   2.485775   3.786881   4.515483
    18  H    1.106567   2.214432   2.999591   4.364951   4.997312
    19  H    1.103131   2.196303   3.347007   4.542255   4.803331
    20  H    2.553894   2.152199   1.101807   2.159129   3.379162
    21  H    4.611157   3.474091   2.183612   1.099952   2.180679
    22  H    5.354271   3.915493   3.404212   2.200804   1.099488
    23  H    5.459566   4.222484   4.846490   4.522392   3.337441
    24  H    6.769942   6.104839   7.210278   7.362116   6.410908
    25  H    6.614827   6.505736   7.834949   8.406843   7.773809
    26  H    4.794142   5.160888   6.527950   7.455428   7.236017
                    6          7          8          9         10
     6  C    0.000000
     7  F    1.384065   0.000000
     8  C    1.431130   2.438076   0.000000
     9  C    2.566592   2.967975   1.505575   0.000000
    10  C    3.111808   2.910504   2.634408   1.460528   0.000000
    11  O    3.018696   2.455650   3.147059   2.511381   1.351613
    12  C    4.511932   4.188986   3.918355   2.512193   1.416859
    13  C    5.345483   5.250139   4.432193   2.928587   2.457831
    14  C    5.088041   5.333846   3.898774   2.525046   2.806730
    15  C    3.890331   4.383714   2.590150   1.435232   2.383159
    16  F    4.381387   5.186895   2.953392   2.414700   3.630535
    17  H    4.294751   5.440546   3.439212   4.340211   5.774004
    18  H    4.527915   5.698908   3.306008   3.761020   5.198016
    19  H    4.056120   4.947594   2.860213   3.168917   4.573046
    20  H    3.794663   5.137304   3.463036   4.777894   6.048103
    21  H    3.405298   4.490445   4.014273   5.477524   6.325569
    22  H    2.146814   2.483125   3.486313   4.686755   5.008642
    23  H    2.285287   1.545789   2.810335   2.656335   1.938478
    24  H    5.119152   4.550271   4.766084   3.473434   2.138704
    25  H    6.419917   6.238139   5.530476   4.027943   3.455461
    26  H    6.012374   6.360411   4.726797   3.482995   3.900646
                   11         12         13         14         15
    11  O    0.000000
    12  C    2.291366   0.000000
    13  C    3.593474   1.390787   0.000000
    14  C    4.124292   2.393937   1.399864   0.000000
    15  C    3.661088   2.735917   2.409566   1.395087   0.000000
    16  F    4.813556   4.068083   3.584913   2.295483   1.350232
    17  H    6.551965   6.746053   6.678082   5.570059   4.342711
    18  H    6.128635   5.998190   5.732605   4.489218   3.349277
    19  H    5.592025   5.311176   5.075269   3.953922   2.871771
    20  H    6.435620   7.275751   7.529215   6.593480   5.217733
    21  H    6.177090   7.723949   8.387080   7.802638   6.430742
    22  H    4.461392   6.399194   7.383249   7.211401   6.010109
    23  H    0.979569   3.112535   4.353260   4.708701   4.009500
    24  H    2.417406   1.099206   2.181259   3.407765   3.832152
    25  H    4.455095   2.171679   1.100396   2.179991   3.415754
    26  H    5.212068   3.412165   2.200796   1.098952   2.141016
                   16         17         18         19         20
    16  F    0.000000
    17  H    3.541816   0.000000
    18  H    2.214616   1.785894   0.000000
    19  H    2.228213   1.783408   1.786166   0.000000
    20  H    4.597276   2.230886   2.905849   3.583386   0.000000
    21  H    6.262426   4.454011   5.138783   5.465182   2.506706
    22  H    6.389218   5.534338   6.094895   5.831116   4.317614
    23  H    5.037259   6.213356   6.032715   5.452512   5.938631
    24  H    5.160484   7.762092   7.066203   6.361791   8.178093
    25  H    4.470347   7.656126   6.662352   5.997806   8.596181
    26  H    2.462342   5.814779   4.587000   4.191443   7.033813
                   21         22         23         24         25
    21  H    0.000000
    22  H    2.570851   0.000000
    23  H    5.436913   3.543185   0.000000
    24  H    8.385935   6.807098   3.305755   0.000000
    25  H    9.486307   8.433617   5.275385   2.536784   0.000000
    26  H    8.502782   8.140003   5.792482   4.352687   2.564535
                   26
    26  H    0.000000
 Symmetry turned off by external request.
 Stoichiometry    C13H10F2O
 Framework group  C1[X(C13H10F2O)]
 Deg. of freedom    72
 Full point group                 C1      NOp   1
 Rotational constants (GHZ):           0.8392626           0.4706823           0.3127272

 **********************************************************************

            Population analysis using the SCF Density.

 **********************************************************************

 Alpha  occ. eigenvalues --  -24.33320 -24.30362 -18.80099 -10.01160 -10.00335
 Alpha  occ. eigenvalues --   -9.98900  -9.96254  -9.95150  -9.94812  -9.93314
 Alpha  occ. eigenvalues --   -9.93240  -9.92720  -9.92483  -9.91749  -9.91689
 Alpha  occ. eigenvalues --   -9.91213  -1.13490  -1.11373  -0.96083  -0.79512
 Alpha  occ. eigenvalues --   -0.77253  -0.71562  -0.70152  -0.66811  -0.66211
 Alpha  occ. eigenvalues --   -0.62548  -0.58961  -0.56159  -0.55008  -0.53582
 Alpha  occ. eigenvalues --   -0.51758  -0.48582  -0.47910  -0.46178  -0.44243
 Alpha  occ. eigenvalues --   -0.43473  -0.42991  -0.42332  -0.41730  -0.40422
 Alpha  occ. eigenvalues --   -0.38725  -0.38176  -0.38042  -0.36626  -0.35943
 Alpha  occ. eigenvalues --   -0.34298  -0.33945  -0.33124  -0.32906  -0.31023
 Alpha  occ. eigenvalues --   -0.30656  -0.30251  -0.28633  -0.26724  -0.22478
 Alpha  occ. eigenvalues --   -0.20900  -0.19731
 Alpha virt. eigenvalues --   -0.09114  -0.04999  -0.03061  -0.02552   0.02488
 Alpha virt. eigenvalues --    0.03873   0.04614   0.06548   0.07598   0.08106
 Alpha virt. eigenvalues --    0.09555   0.10066   0.11030   0.11137   0.12031
 Alpha virt. eigenvalues --    0.12681   0.13910   0.15801   0.17021   0.19038
 Alpha virt. eigenvalues --    0.19902   0.21877   0.23656   0.25085   0.25686
 Alpha virt. eigenvalues --    0.26493   0.27591   0.28559   0.29593   0.30601
 Alpha virt. eigenvalues --    0.32715   0.34902   0.35993   0.36576   0.37320
 Alpha virt. eigenvalues --    0.38769   0.39668   0.40280   0.41629   0.41684
 Alpha virt. eigenvalues --    0.42374   0.42846   0.43956   0.44245   0.45785
 Alpha virt. eigenvalues --    0.46817   0.47247   0.48754   0.49903   0.51282
 Alpha virt. eigenvalues --    0.51966   0.52096   0.53253   0.53897   0.55301
 Alpha virt. eigenvalues --    0.55997   0.56804   0.58423   0.59088   0.59567
 Alpha virt. eigenvalues --    0.60471   0.61056   0.61470   0.61944   0.62631
 Alpha virt. eigenvalues --    0.63572   0.64672   0.64930   0.65585   0.65951
 Alpha virt. eigenvalues --    0.67398   0.68391   0.70164   0.71415   0.71827
 Alpha virt. eigenvalues --    0.72589   0.73865   0.75084   0.76096   0.77809
 Alpha virt. eigenvalues --    0.80962   0.82084   0.82253   0.88365   0.92105
 Alpha virt. eigenvalues --    0.94141   0.95493   0.96699   0.97972   1.00978
 Alpha virt. eigenvalues --    1.04366   1.05282   1.07622   1.09290   1.10438
 Alpha virt. eigenvalues --    1.11867   1.14036   1.15943   1.17274   1.19319
 Alpha virt. eigenvalues --    1.20997   1.22144   1.23030   1.25454   1.27234
 Alpha virt. eigenvalues --    1.28090   1.31043   1.31347   1.34566   1.35885
 Alpha virt. eigenvalues --    1.37121   1.38461   1.42317   1.44000   1.46699
 Alpha virt. eigenvalues --    1.49383   1.52333   1.55071   1.56823   1.57289
 Alpha virt. eigenvalues --    1.58833   1.59233   1.61597   1.61909   1.62576
 Alpha virt. eigenvalues --    1.63304   1.64007   1.64377   1.65346   1.65976
 Alpha virt. eigenvalues --    1.67154   1.67548   1.70638   1.71869   1.72247
 Alpha virt. eigenvalues --    1.72516   1.73499   1.74561   1.76058   1.77881
 Alpha virt. eigenvalues --    1.78079   1.81288   1.82861   1.84605   1.85784
 Alpha virt. eigenvalues --    1.86232   1.87418   1.90120   1.90717   1.92676
 Alpha virt. eigenvalues --    1.93977   1.95507   1.96848   1.97722   1.99066
 Alpha virt. eigenvalues --    1.99906   2.01770   2.04686   2.05782   2.08902
 Alpha virt. eigenvalues --    2.09185   2.09657   2.13692   2.15169   2.17432
 Alpha virt. eigenvalues --    2.17620   2.18540   2.19534   2.20257   2.23420
 Alpha virt. eigenvalues --    2.23587   2.28335   2.31101   2.33340   2.35498
 Alpha virt. eigenvalues --    2.36550   2.37782   2.43557   2.45119   2.46976
 Alpha virt. eigenvalues --    2.48294   2.48746   2.52163   2.54764   2.55249
 Alpha virt. eigenvalues --    2.59341   2.61625   2.62757   2.65398   2.67589
 Alpha virt. eigenvalues --    2.68853   2.75867   2.77541   2.81018   2.81756
 Alpha virt. eigenvalues --    2.83972   2.86913   2.88456   2.90073   2.93028
 Alpha virt. eigenvalues --    2.93701   2.98039   3.00528   3.02005   3.06676
 Alpha virt. eigenvalues --    3.10037   3.12383   3.15368   3.20182   3.29591
 Alpha virt. eigenvalues --    3.32253   3.38550   3.43456   3.48023   3.67804
 Alpha virt. eigenvalues --    3.74549   3.79153
          Condensed to atoms (all electrons):
               1          2          3          4          5          6
     1  C    4.556475   0.438271  -0.073872   0.013356   0.000084   0.009005
     2  C    0.438271   5.192647   0.362617   0.057221  -0.117537   0.037883
     3  C   -0.073872   0.362617   5.091148   0.293943   0.083896  -0.134507
     4  C    0.013356   0.057221   0.293943   5.069109   0.238145   0.089307
     5  C    0.000084  -0.117537   0.083896   0.238145   5.195319   0.321600
     6  C    0.009005   0.037883  -0.134507   0.089307   0.321600   5.208497
     7  F   -0.000015   0.001789  -0.000002   0.005067  -0.059238   0.299476
     8  C   -0.063149   0.303791   0.032488  -0.088660  -0.003581   0.209714
     9  C   -0.019207  -0.046330   0.013928  -0.000242   0.011288  -0.064507
    10  C   -0.000366   0.007940   0.000263  -0.000239   0.001372  -0.026587
    11  O   -0.000003  -0.000021   0.000001   0.000002  -0.001030   0.007948
    12  C    0.000001   0.000113  -0.000002   0.000001  -0.000043   0.001633
    13  C   -0.000021  -0.000080   0.000001  -0.000000   0.000002  -0.000286
    14  C   -0.000008   0.000295  -0.000017   0.000001  -0.000002   0.000164
    15  C   -0.001295  -0.022092   0.000139  -0.000060  -0.000049   0.011173
    16  F    0.004697  -0.004175  -0.000126   0.000002  -0.000002   0.000287
    17  H    0.376173  -0.023519  -0.018739   0.002014  -0.000056  -0.000020
    18  H    0.358010  -0.000187  -0.000068  -0.000196  -0.000048  -0.000238
    19  H    0.372273  -0.002293   0.007886  -0.000861   0.000209  -0.000829
    20  H   -0.018377  -0.065057   0.424904  -0.066033   0.013759  -0.000523
    21  H   -0.000411   0.014370  -0.064887   0.432252  -0.070550   0.013572
    22  H    0.000017  -0.000894   0.012520  -0.064252   0.414960  -0.057898
    23  H   -0.000001   0.000444  -0.000069   0.000241  -0.002116  -0.017043
    24  H    0.000000   0.000001  -0.000000   0.000000   0.000001   0.000006
    25  H    0.000000  -0.000000   0.000000   0.000000  -0.000000   0.000001
    26  H   -0.000009   0.000027  -0.000000   0.000000  -0.000000   0.000001
               7          8          9         10         11         12
     1  C   -0.000015  -0.063149  -0.019207  -0.000366  -0.000003   0.000001
     2  C    0.001789   0.303791  -0.046330   0.007940  -0.000021   0.000113
     3  C   -0.000002   0.032488   0.013928   0.000263   0.000001  -0.000002
     4  C    0.005067  -0.088660  -0.000242  -0.000239   0.000002   0.000001
     5  C   -0.059238  -0.003581   0.011288   0.001372  -0.001030  -0.000043
     6  C    0.299476   0.209714  -0.064507  -0.026587   0.007948   0.001633
     7  F    8.989418  -0.069288   0.001697   0.001181  -0.026968  -0.000477
     8  C   -0.069288   5.457195   0.229250  -0.067507  -0.004182   0.009167
     9  C    0.001697   0.229250   5.752897   0.135749  -0.074856   0.008787
    10  C    0.001181  -0.067507   0.135749   5.182250   0.456247   0.289435
    11  O   -0.026968  -0.004182  -0.074856   0.456247   7.555632  -0.089606
    12  C   -0.000477   0.009167   0.008787   0.289435  -0.089606   5.252599
    13  C    0.000001  -0.000059  -0.103119   0.114521   0.005905   0.213703
    14  C    0.000000   0.013463   0.002244  -0.139995   0.000105   0.108380
    15  C    0.000152  -0.055980   0.166613   0.092011   0.001452  -0.137614
    16  F   -0.000000  -0.000324  -0.073977   0.001838  -0.000001   0.000032
    17  H    0.000001   0.006993  -0.000636   0.000005   0.000000   0.000000
    18  H    0.000000  -0.000991   0.003866   0.000031   0.000000  -0.000002
    19  H   -0.000004  -0.011406   0.005342   0.000188   0.000001  -0.000011
    20  H    0.000004   0.015036  -0.000230   0.000001   0.000000  -0.000000
    21  H   -0.000074  -0.001321   0.000017   0.000000  -0.000000   0.000000
    22  H    0.000816   0.017096  -0.000278   0.000053   0.000008  -0.000000
    23  H    0.051458   0.005634  -0.011860  -0.024830   0.338535   0.004743
    24  H    0.000017  -0.000194   0.019859  -0.056282   0.003596   0.415564
    25  H   -0.000000   0.000011  -0.001941   0.014438  -0.000111  -0.069390
    26  H   -0.000000  -0.000226   0.019158  -0.001347   0.000006   0.013494
              13         14         15         16         17         18
     1  C   -0.000021  -0.000008  -0.001295   0.004697   0.376173   0.358010
     2  C   -0.000080   0.000295  -0.022092  -0.004175  -0.023519  -0.000187
     3  C    0.000001  -0.000017   0.000139  -0.000126  -0.018739  -0.000068
     4  C   -0.000000   0.000001  -0.000060   0.000002   0.002014  -0.000196
     5  C    0.000002  -0.000002  -0.000049  -0.000002  -0.000056  -0.000048
     6  C   -0.000286   0.000164   0.011173   0.000287  -0.000020  -0.000238
     7  F    0.000001   0.000000   0.000152  -0.000000   0.000001   0.000000
     8  C   -0.000059   0.013463  -0.055980  -0.000324   0.006993  -0.000991
     9  C   -0.103119   0.002244   0.166613  -0.073977  -0.000636   0.003866
    10  C    0.114521  -0.139995   0.092011   0.001838   0.000005   0.000031
    11  O    0.005905   0.000105   0.001452  -0.000001   0.000000   0.000000
    12  C    0.213703   0.108380  -0.137614   0.000032   0.000000  -0.000002
    13  C    5.173954   0.165224   0.114778   0.005224  -0.000001   0.000002
    14  C    0.165224   5.283599   0.317306  -0.061617   0.000036  -0.000179
    15  C    0.114778   0.317306   5.056799   0.359655   0.000192  -0.002157
    16  F    0.005224  -0.061617   0.359655   8.927747   0.001717   0.003305
    17  H   -0.000001   0.000036   0.000192   0.001717   0.671034  -0.023251
    18  H    0.000002  -0.000179  -0.002157   0.003305  -0.023251   0.624936
    19  H    0.000074  -0.001242   0.001243  -0.001487  -0.028668  -0.018019
    20  H    0.000000  -0.000000   0.000024  -0.000011   0.004740   0.002024
    21  H   -0.000000   0.000000   0.000000   0.000000  -0.000017   0.000013
    22  H    0.000000  -0.000000   0.000001  -0.000000  -0.000002  -0.000001
    23  H    0.000012  -0.000159   0.000203   0.000001  -0.000001   0.000000
    24  H   -0.073354   0.014360  -0.001546   0.000004  -0.000000  -0.000000
    25  H    0.436339  -0.070789   0.014059  -0.000084   0.000000   0.000000
    26  H   -0.069547   0.416151  -0.059325   0.001760  -0.000002   0.000025
              19         20         21         22         23         24
     1  C    0.372273  -0.018377  -0.000411   0.000017  -0.000001   0.000000
     2  C   -0.002293  -0.065057   0.014370  -0.000894   0.000444   0.000001
     3  C    0.007886   0.424904  -0.064887   0.012520  -0.000069  -0.000000
     4  C   -0.000861  -0.066033   0.432252  -0.064252   0.000241   0.000000
     5  C    0.000209   0.013759  -0.070550   0.414960  -0.002116   0.000001
     6  C   -0.000829  -0.000523   0.013572  -0.057898  -0.017043   0.000006
     7  F   -0.000004   0.000004  -0.000074   0.000816   0.051458   0.000017
     8  C   -0.011406   0.015036  -0.001321   0.017096   0.005634  -0.000194
     9  C    0.005342  -0.000230   0.000017  -0.000278  -0.011860   0.019859
    10  C    0.000188   0.000001   0.000000   0.000053  -0.024830  -0.056282
    11  O    0.000001   0.000000  -0.000000   0.000008   0.338535   0.003596
    12  C   -0.000011  -0.000000   0.000000  -0.000000   0.004743   0.415564
    13  C    0.000074   0.000000  -0.000000   0.000000   0.000012  -0.073354
    14  C   -0.001242  -0.000000   0.000000  -0.000000  -0.000159   0.014360
    15  C    0.001243   0.000024   0.000000   0.000001   0.000203  -0.001546
    16  F   -0.001487  -0.000011   0.000000  -0.000000   0.000001   0.000004
    17  H   -0.028668   0.004740  -0.000017  -0.000002  -0.000001  -0.000000
    18  H   -0.018019   0.002024   0.000013  -0.000001   0.000000  -0.000000
    19  H    0.641995   0.000531   0.000010  -0.000001   0.000002  -0.000000
    20  H    0.000531   0.700407  -0.012384  -0.000367  -0.000001   0.000000
    21  H    0.000010  -0.012384   0.688870  -0.011752   0.000003  -0.000000
    22  H   -0.000001  -0.000367  -0.011752   0.673876   0.000138  -0.000000
    23  H    0.000002  -0.000001   0.000003   0.000138   0.469833   0.000023
    24  H   -0.000000   0.000000  -0.000000  -0.000000   0.000023   0.686146
    25  H   -0.000001  -0.000000   0.000000  -0.000000   0.000012  -0.013184
    26  H    0.000041  -0.000000  -0.000000   0.000000  -0.000002  -0.000306
              25         26
     1  C    0.000000  -0.000009
     2  C   -0.000000   0.000027
     3  C    0.000000  -0.000000
     4  C    0.000000   0.000000
     5  C   -0.000000  -0.000000
     6  C    0.000001   0.000001
     7  F   -0.000000  -0.000000
     8  C    0.000011  -0.000226
     9  C   -0.001941   0.019158
    10  C    0.014438  -0.001347
    11  O   -0.000111   0.000006
    12  C   -0.069390   0.013494
    13  C    0.436339  -0.069547
    14  C   -0.070789   0.416151
    15  C    0.014059  -0.059325
    16  F   -0.000084   0.001760
    17  H    0.000000  -0.000002
    18  H    0.000000   0.000025
    19  H   -0.000001   0.000041
    20  H   -0.000000  -0.000000
    21  H    0.000000  -0.000000
    22  H   -0.000000   0.000000
    23  H    0.000012  -0.000002
    24  H   -0.013184  -0.000306
    25  H    0.691594  -0.012318
    26  H   -0.012318   0.685427
 Mulliken charges:
               1
     1  C    0.048373
     2  C   -0.135226
     3  C   -0.031444
     4  C    0.019882
     5  C   -0.026382
     6  C    0.092170
     7  F   -0.195012
     8  C    0.067030
     9  C    0.026488
    10  C    0.019628
    11  O   -0.172660
    12  C   -0.020506
    13  C    0.016727
    14  C   -0.047321
    15  C    0.144314
    16  F   -0.164464
    17  H    0.032006
    18  H    0.053124
    19  H    0.035026
    20  H    0.001554
    21  H    0.012290
    22  H    0.015959
    23  H    0.184800
    24  H    0.005289
    25  H    0.011365
    26  H    0.006990
 Sum of Mulliken charges =  -0.00000
 Mulliken charges with hydrogens summed into heavy atoms:
               1
     1  C    0.168529
     2  C   -0.135226
     3  C   -0.029890
     4  C    0.032172
     5  C   -0.010424
     6  C    0.092170
     7  F   -0.195012
     8  C    0.067030
     9  C    0.026488
    10  C    0.019628
    11  O    0.012139
    12  C   -0.015217
    13  C    0.028092
    14  C   -0.040331
    15  C    0.144314
    16  F   -0.164464
 APT charges:
               1
     1  C   -0.612472
     2  C   -0.621385
     3  C   -0.519627
     4  C   -0.424840
     5  C   -0.430346
     6  C   -0.348142
     7  F    0.065861
     8  C   -0.415785
     9  C   -0.391711
    10  C   -0.566855
    11  O    0.156212
    12  C   -0.548798
    13  C   -0.284597
    14  C   -0.458756
    15  C   -0.394847
    16  F    0.097191
    17  H    0.596753
    18  H    0.340021
    19  H    0.164180
    20  H    0.654210
    21  H    0.864631
    22  H    0.681210
    23  H    0.160606
    24  H    0.667502
    25  H    0.905198
    26  H    0.664588
 Sum of APT charges =  -0.00000
 APT charges with hydrogens summed into heavy atoms:
               1
     1  C    0.488482
     2  C   -0.621385
     3  C    0.134583
     4  C    0.439791
     5  C    0.250864
     6  C   -0.348142
     7  F    0.065861
     8  C   -0.415785
     9  C   -0.391711
    10  C   -0.566855
    11  O    0.316817
    12  C    0.118704
    13  C    0.620601
    14  C    0.205832
    15  C   -0.394847
    16  F    0.097191
 Electronic spatial extent (au):  <R**2>=           3427.9540
 Charge=             -0.0000 electrons
 Dipole moment (field-independent basis, Debye):
    X=             -1.3712    Y=              0.6393    Z=             -0.5117  Tot=              1.5971
 Quadrupole moment (field-independent basis, Debye-Ang):
   XX=            -78.7582   YY=            -88.7779   ZZ=            -95.0663
   XY=              1.5449   XZ=             -1.0453   YZ=             -1.0133
 Traceless Quadrupole moment (field-independent basis, Debye-Ang):
   XX=              8.7760   YY=             -1.2438   ZZ=             -7.5322
   XY=              1.5449   XZ=             -1.0453   YZ=             -1.0133
 Octapole moment (field-independent basis, Debye-Ang**2):
  XXX=             -3.5615  YYY=             13.4970  ZZZ=             87.8935  XYY=            -14.0117
  XXY=              3.2514  XXZ=             30.8174  XZZ=             -2.7204  YZZ=              7.2799
  YYZ=             24.7961  XYZ=              2.7588
 Hexadecapole moment (field-independent basis, Debye-Ang**3):
 XXXX=          -2568.0126 YYYY=          -1347.6358 ZZZZ=           -251.0028 XXXY=             73.2929
 XXXZ=            -71.8901 YYYX=             79.5705 YYYZ=             92.6482 ZZZX=            -46.6160
 ZZZY=             92.0312 XXYY=           -658.2866 XXZZ=           -565.6830 YYZZ=           -275.4402
 XXYZ=             20.7458 YYXZ=            -17.7750 ZZXY=             24.5609
 N-N= 1.069487542187D+03 E-N=-3.950040334901D+03  KE= 7.677389099782D+02
  Exact polarizability:       0.000       0.000       0.000       0.000       0.000       0.000
 Approx polarizability:     471.633      -2.870     371.590     -16.263     -31.628     131.473
 -------------------------------------------------------------------
 Center     Atomic                   Forces (Hartrees/Bohr)
 Number     Number              X              Y              Z
 -------------------------------------------------------------------
      1        6           0.000015671   -0.000020419   -0.000020229
      2        6          -0.000007924   -0.000000211    0.000022507
      3        6          -0.000003248   -0.000005514    0.000002023
      4        6           0.000000191    0.000003612    0.000005151
      5        6           0.000002657   -0.000003507    0.000011111
      6        6           0.000005836   -0.000010027   -0.000019484
      7        9           0.000009467    0.000002350    0.000001900
      8        6           0.000006209    0.000013054   -0.000019970
      9        6           0.000004595    0.000003169    0.000041470
     10        6           0.000005448    0.000000963   -0.000013516
     11        8          -0.000031284    0.000023043    0.000042523
     12        6          -0.000005186   -0.000008220   -0.000012936
     13        6           0.000000875    0.000004966    0.000002553
     14        6           0.000004202   -0.000002164   -0.000007796
     15        6          -0.000011513    0.000001585   -0.000024136
     16        9          -0.000033242    0.000009786    0.000013446
     17        1           0.000001459    0.000005147    0.000007197
     18        1           0.000020326    0.000002667    0.000006148
     19        1           0.000005175   -0.000003811   -0.000001813
     20        1          -0.000000872   -0.000000444   -0.000004233
     21        1           0.000000636    0.000000059    0.000002619
     22        1          -0.000000098   -0.000000292   -0.000002958
     23        1           0.000011745   -0.000017020   -0.000028057
     24        1          -0.000000109    0.000000132   -0.000000904
     25        1          -0.000000034    0.000000465   -0.000001895
     26        1          -0.000000980    0.000000630   -0.000000721
 -------------------------------------------------------------------
 Cartesian Forces:  Max     0.000042523 RMS     0.000012754

 Test job not archived.
 1\1\GINC-SEMLSCPN055\FTS\RBP86\def2SVP\C13H10F2O1\KTVF206\23-Jul-2026\
 0\\# opt=(ts,noeigen,recalcfc=15) bp86 empiricaldispersion=GD3BJ def2s
 vp freq IOP(1/8=2) nosymm\\example\\0,1\C,-1.0820791365,2.506679596,-1
 .2482436145\C,-1.5031838712,1.2046286989,-0.5826730374\C,-2.878640487,
 1.1758570548,-0.2585961955\C,-3.5848755554,0.0037968697,0.0293158625\C
 ,-2.9124804581,-1.2060343093,-0.1609427401\C,-1.550749669,-1.164987658
 6,-0.4504963599\F,-1.0451708027,-2.3885532706,-0.8541226731\C,-0.70692
 89971,-0.0091069091,-0.4441938408\C,0.7888665033,-0.1187737825,-0.3125
 648001\C,1.5181616418,-1.3354063031,0.0353960733\O,0.9870507715,-2.479
 339215,0.5213955166\C,2.9333981929,-1.3904016363,-0.0042495441\C,3.712
 7540222,-0.2599453223,-0.2255236635\C,3.0647128921,0.9742429321,-0.353
 747512\C,1.6702918881,1.0136648011,-0.3363147461\F,1.1687249092,2.2654
 569811,-0.2686837135\H,-1.9597362581,2.8891375853,-1.8075843147\H,-0.7
 738175763,3.2949644602,-0.5354522025\H,-0.262607688,2.3668196997,-1.97
 33670395\H,-3.4264089923,2.1306024948,-0.3074685826\H,-4.6536289252,0.
 0276227743,0.2883375808\H,-3.4149431506,-2.1837960373,-0.1412654792\H,
 0.0856038055,-2.634308936,0.1707761067\H,3.3808723944,-2.3730434029,0.
 2017502646\H,4.8109234188,-0.3264408765,-0.2473013987\H,3.6037211279,1
 .9299767114,-0.4148859466\\Version=ES64L-G16RevC.02\HF=-775.7510038\RM
 SD=8.023e-09\RMSF=1.275e-05\Dipole=-0.5394779,0.2515237,-0.2013015\Pol
 ar=0.,0.,0.,0.,0.,0.\Quadrupole=6.5247124,-0.924743,-5.5999694,1.14862
 12,-0.777134,-0.7533575\PG=C01 [X(C13H10F2O1)]\\@


 PERICLES, SOPHOCLES,
 PELOPONESIAN WAR,
 FRENCH VERBS, LATIN VERBS
 H2SO4.
 Job cpu time:       0 days  0 hours 47 minutes 26.8 seconds.
 Elapsed time:       0 days  0 hours  6 minutes  7.5 seconds.
 File lengths (MBytes):  RWF=    233 Int=      0 D2E=      0 Chk=      8 Scr=      1
 Normal termination of Gaussian 16 at Thu Jul 23 14:29:33 2026.
 Link1:  Proceeding to internal job step number  2.
 ----------------------------------------------------------------------
 #N Geom=AllCheck Guess=TCheck SCRF=Check Test GenChk RBP86/def2SVP Fre
 q
 ----------------------------------------------------------------------
 1/5=1,10=4,11=1,29=7,30=1,38=1,40=1,71=15/1,3;
 2/12=2,15=1,40=1/2;
 3/5=43,7=101,11=2,14=-4,25=1,30=1,70=2,71=2,74=404,116=1,124=41,140=1/1,2,3;
 4/5=101/1;
 5/5=2,38=6,98=1/2;
 8/6=4,10=90,11=11/1;
 11/6=1,8=1,9=11,15=111,16=1,31=1/1,2,10;
 10/6=1,31=1/2;
 6/7=2,8=2,9=2,10=2,28=1/1;
 7/8=1,10=1,25=1,30=1/1,2,3,16;
 1/5=1,10=4,11=1,30=1,71=15/3;
 99//99;
 Structure from the checkpoint file:  "path/to/scratch/gaussian_tmp/Gau-2280006.chk"
 -------
 example
 -------
 Charge =  0 Multiplicity = 1
 Redundant internal coordinates found in file.  (old form).
 C,0,-1.0820791365,2.506679596,-1.2482436145
 C,0,-1.5031838712,1.2046286989,-0.5826730374
 C,0,-2.878640487,1.1758570548,-0.2585961955
 C,0,-3.5848755554,0.0037968697,0.0293158625
 C,0,-2.9124804581,-1.2060343093,-0.1609427401
 C,0,-1.550749669,-1.1649876586,-0.4504963599
 F,0,-1.0451708027,-2.3885532706,-0.8541226731
 C,0,-0.7069289971,-0.0091069091,-0.4441938408
 C,0,0.7888665033,-0.1187737825,-0.3125648001
 C,0,1.5181616418,-1.3354063031,0.0353960733
 O,0,0.9870507715,-2.479339215,0.5213955166
 C,0,2.9333981929,-1.3904016363,-0.0042495441
 C,0,3.7127540222,-0.2599453223,-0.2255236635
 C,0,3.0647128921,0.9742429321,-0.353747512
 C,0,1.6702918881,1.0136648011,-0.3363147461
 F,0,1.1687249092,2.2654569811,-0.2686837135
 H,0,-1.9597362581,2.8891375853,-1.8075843147
 H,0,-0.7738175763,3.2949644602,-0.5354522025
 H,0,-0.262607688,2.3668196997,-1.9733670395
 H,0,-3.4264089923,2.1306024948,-0.3074685826
 H,0,-4.6536289252,0.0276227743,0.2883375808
 H,0,-3.4149431506,-2.1837960373,-0.1412654792
 H,0,0.0856038055,-2.634308936,0.1707761067
 H,0,3.3808723944,-2.3730434029,0.2017502646
 H,0,4.8109234188,-0.3264408765,-0.2473013987
 H,0,3.6037211279,1.9299767114,-0.4148859466
 Recover connectivity data from disk.

 GradGradGradGradGradGradGradGradGradGradGradGradGradGradGradGradGradGrad
 Berny optimization.
 Initialization pass.
                           ----------------------------
                           !    Initial Parameters    !
                           ! (Angstroms and Degrees)  !
 --------------------------                            --------------------------
 ! Name  Definition              Value          Derivative Info.                !
 --------------------------------------------------------------------------------
 ! R1    R(1,2)                  1.5217         calculate D2E/DX2 analytically  !
 ! R2    R(1,17)                 1.1088         calculate D2E/DX2 analytically  !
 ! R3    R(1,18)                 1.1066         calculate D2E/DX2 analytically  !
 ! R4    R(1,19)                 1.1031         calculate D2E/DX2 analytically  !
 ! R5    R(2,3)                  1.4134         calculate D2E/DX2 analytically  !
 ! R6    R(2,8)                  1.4582         calculate D2E/DX2 analytically  !
 ! R7    R(3,4)                  1.3984         calculate D2E/DX2 analytically  !
 ! R8    R(3,20)                 1.1018         calculate D2E/DX2 analytically  !
 ! R9    R(4,5)                  1.3971         calculate D2E/DX2 analytically  !
 ! R10   R(4,21)                 1.1            calculate D2E/DX2 analytically  !
 ! R11   R(5,6)                  1.3928         calculate D2E/DX2 analytically  !
 ! R12   R(5,22)                 1.0995         calculate D2E/DX2 analytically  !
 ! R13   R(6,7)                  1.3841         calculate D2E/DX2 analytically  !
 ! R14   R(6,8)                  1.4311         calculate D2E/DX2 analytically  !
 ! R15   R(8,9)                  1.5056         calculate D2E/DX2 analytically  !
 ! R16   R(9,10)                 1.4605         calculate D2E/DX2 analytically  !
 ! R17   R(9,15)                 1.4352         calculate D2E/DX2 analytically  !
 ! R18   R(10,11)                1.3516         calculate D2E/DX2 analytically  !
 ! R19   R(10,12)                1.4169         calculate D2E/DX2 analytically  !
 ! R20   R(11,23)                0.9796         calculate D2E/DX2 analytically  !
 ! R21   R(12,13)                1.3908         calculate D2E/DX2 analytically  !
 ! R22   R(12,24)                1.0992         calculate D2E/DX2 analytically  !
 ! R23   R(13,14)                1.3999         calculate D2E/DX2 analytically  !
 ! R24   R(13,25)                1.1004         calculate D2E/DX2 analytically  !
 ! R25   R(14,15)                1.3951         calculate D2E/DX2 analytically  !
 ! R26   R(14,26)                1.099          calculate D2E/DX2 analytically  !
 ! R27   R(15,16)                1.3502         calculate D2E/DX2 analytically  !
 ! A1    A(2,1,17)             107.2616         calculate D2E/DX2 analytically  !
 ! A2    A(2,1,18)             113.884          calculate D2E/DX2 analytically  !
 ! A3    A(2,1,19)             112.6184         calculate D2E/DX2 analytically  !
 ! A4    A(17,1,18)            107.4414         calculate D2E/DX2 analytically  !
 ! A5    A(17,1,19)            107.466          calculate D2E/DX2 analytically  !
 ! A6    A(18,1,19)            107.8661         calculate D2E/DX2 analytically  !
 ! A7    A(1,2,3)              112.7679         calculate D2E/DX2 analytically  !
 ! A8    A(1,2,8)              127.0579         calculate D2E/DX2 analytically  !
 ! A9    A(3,2,8)              119.5163         calculate D2E/DX2 analytically  !
 ! A10   A(2,3,4)              123.7628         calculate D2E/DX2 analytically  !
 ! A11   A(2,3,20)             117.129          calculate D2E/DX2 analytically  !
 ! A12   A(4,3,20)             118.9696         calculate D2E/DX2 analytically  !
 ! A13   A(3,4,5)              117.0457         calculate D2E/DX2 analytically  !
 ! A14   A(3,4,21)             121.4029         calculate D2E/DX2 analytically  !
 ! A15   A(5,4,21)             121.2276         calculate D2E/DX2 analytically  !
 ! A16   A(4,5,6)              118.2505         calculate D2E/DX2 analytically  !
 ! A17   A(4,5,22)             123.2087         calculate D2E/DX2 analytically  !
 ! A18   A(6,5,22)             118.4726         calculate D2E/DX2 analytically  !
 ! A19   A(5,6,7)              113.0613         calculate D2E/DX2 analytically  !
 ! A20   A(5,6,8)              126.8242         calculate D2E/DX2 analytically  !
 ! A21   A(7,6,8)              119.9944         calculate D2E/DX2 analytically  !
 ! A22   A(2,8,6)              110.4802         calculate D2E/DX2 analytically  !
 ! A23   A(2,8,9)              127.6935         calculate D2E/DX2 analytically  !
 ! A24   A(6,8,9)              121.8261         calculate D2E/DX2 analytically  !
 ! A25   A(8,9,10)             125.2818         calculate D2E/DX2 analytically  !
 ! A26   A(8,9,15)             123.4511         calculate D2E/DX2 analytically  !
 ! A27   A(10,9,15)            110.7659         calculate D2E/DX2 analytically  !
 ! A28   A(9,10,11)            126.4746         calculate D2E/DX2 analytically  !
 ! A29   A(9,10,12)            121.63           calculate D2E/DX2 analytically  !
 ! A30   A(11,10,12)           111.6975         calculate D2E/DX2 analytically  !
 ! A31   A(10,11,23)           111.5184         calculate D2E/DX2 analytically  !
 ! A32   A(10,12,13)           122.1834         calculate D2E/DX2 analytically  !
 ! A33   A(10,12,24)           115.8539         calculate D2E/DX2 analytically  !
 ! A34   A(13,12,24)           121.892          calculate D2E/DX2 analytically  !
 ! A35   A(12,13,14)           118.1499         calculate D2E/DX2 analytically  !
 ! A36   A(12,13,25)           120.8817         calculate D2E/DX2 analytically  !
 ! A37   A(14,13,25)           120.8945         calculate D2E/DX2 analytically  !
 ! A38   A(13,14,15)           119.1094         calculate D2E/DX2 analytically  !
 ! A39   A(13,14,26)           123.0103         calculate D2E/DX2 analytically  !
 ! A40   A(15,14,26)           117.7983         calculate D2E/DX2 analytically  !
 ! A41   A(9,15,14)            126.2814         calculate D2E/DX2 analytically  !
 ! A42   A(9,15,16)            120.1684         calculate D2E/DX2 analytically  !
 ! A43   A(14,15,16)           113.4603         calculate D2E/DX2 analytically  !
 ! D1    D(17,1,2,3)           -30.0183         calculate D2E/DX2 analytically  !
 ! D2    D(17,1,2,8)           140.5442         calculate D2E/DX2 analytically  !
 ! D3    D(18,1,2,3)            88.723          calculate D2E/DX2 analytically  !
 ! D4    D(18,1,2,8)          -100.7145         calculate D2E/DX2 analytically  !
 ! D5    D(19,1,2,3)          -148.0491         calculate D2E/DX2 analytically  !
 ! D6    D(19,1,2,8)            22.5134         calculate D2E/DX2 analytically  !
 ! D7    D(1,2,3,4)            162.7062         calculate D2E/DX2 analytically  !
 ! D8    D(1,2,3,20)           -12.9603         calculate D2E/DX2 analytically  !
 ! D9    D(8,2,3,4)             -8.6455         calculate D2E/DX2 analytically  !
 ! D10   D(8,2,3,20)           175.688          calculate D2E/DX2 analytically  !
 ! D11   D(1,2,8,6)           -149.0982         calculate D2E/DX2 analytically  !
 ! D12   D(1,2,8,9)             30.7253         calculate D2E/DX2 analytically  !
 ! D13   D(3,2,8,6)             20.8962         calculate D2E/DX2 analytically  !
 ! D14   D(3,2,8,9)           -159.2802         calculate D2E/DX2 analytically  !
 ! D15   D(2,3,4,5)             -7.1709         calculate D2E/DX2 analytically  !
 ! D16   D(2,3,4,21)           179.2871         calculate D2E/DX2 analytically  !
 ! D17   D(20,3,4,5)           168.4205         calculate D2E/DX2 analytically  !
 ! D18   D(20,3,4,21)           -5.1214         calculate D2E/DX2 analytically  !
 ! D19   D(3,4,5,6)              8.2089         calculate D2E/DX2 analytically  !
 ! D20   D(3,4,5,22)          -168.7365         calculate D2E/DX2 analytically  !
 ! D21   D(21,4,5,6)          -178.237          calculate D2E/DX2 analytically  !
 ! D22   D(21,4,5,22)            4.8176         calculate D2E/DX2 analytically  !
 ! D23   D(4,5,6,7)           -169.0067         calculate D2E/DX2 analytically  !
 ! D24   D(4,5,6,8)              6.9709         calculate D2E/DX2 analytically  !
 ! D25   D(22,5,6,7)             8.086          calculate D2E/DX2 analytically  !
 ! D26   D(22,5,6,8)          -175.9363         calculate D2E/DX2 analytically  !
 ! D27   D(5,6,8,2)            -21.1621         calculate D2E/DX2 analytically  !
 ! D28   D(5,6,8,9)            159.0023         calculate D2E/DX2 analytically  !
 ! D29   D(7,6,8,2)            154.5642         calculate D2E/DX2 analytically  !
 ! D30   D(7,6,8,9)            -25.2714         calculate D2E/DX2 analytically  !
 ! D31   D(2,8,9,10)           169.67           calculate D2E/DX2 analytically  !
 ! D32   D(2,8,9,15)            -1.4488         calculate D2E/DX2 analytically  !
 ! D33   D(6,8,9,10)           -10.5245         calculate D2E/DX2 analytically  !
 ! D34   D(6,8,9,15)           178.3566         calculate D2E/DX2 analytically  !
 ! D35   D(8,9,10,11)          -12.5756         calculate D2E/DX2 analytically  !
 ! D36   D(8,9,10,12)          172.972          calculate D2E/DX2 analytically  !
 ! D37   D(15,9,10,11)         159.5061         calculate D2E/DX2 analytically  !
 ! D38   D(15,9,10,12)         -14.9463         calculate D2E/DX2 analytically  !
 ! D39   D(8,9,15,14)         -173.1619         calculate D2E/DX2 analytically  !
 ! D40   D(8,9,15,16)           10.52           calculate D2E/DX2 analytically  !
 ! D41   D(10,9,15,14)          14.5842         calculate D2E/DX2 analytically  !
 ! D42   D(10,9,15,16)        -161.7339         calculate D2E/DX2 analytically  !
 ! D43   D(9,10,11,23)          32.4805         calculate D2E/DX2 analytically  !
 ! D44   D(12,10,11,23)       -152.602          calculate D2E/DX2 analytically  !
 ! D45   D(9,10,12,13)           7.4735         calculate D2E/DX2 analytically  !
 ! D46   D(9,10,12,24)        -175.5335         calculate D2E/DX2 analytically  !
 ! D47   D(11,10,12,13)       -167.7272         calculate D2E/DX2 analytically  !
 ! D48   D(11,10,12,24)          9.2657         calculate D2E/DX2 analytically  !
 ! D49   D(10,12,13,14)          2.8066         calculate D2E/DX2 analytically  !
 ! D50   D(10,12,13,25)        179.7076         calculate D2E/DX2 analytically  !
 ! D51   D(24,12,13,14)       -174.0061         calculate D2E/DX2 analytically  !
 ! D52   D(24,12,13,25)          2.895          calculate D2E/DX2 analytically  !
 ! D53   D(12,13,14,15)         -3.8243         calculate D2E/DX2 analytically  !
 ! D54   D(12,13,14,26)        172.8089         calculate D2E/DX2 analytically  !
 ! D55   D(25,13,14,15)        179.2751         calculate D2E/DX2 analytically  !
 ! D56   D(25,13,14,26)         -4.0918         calculate D2E/DX2 analytically  !
 ! D57   D(13,14,15,9)          -5.7688         calculate D2E/DX2 analytically  !
 ! D58   D(13,14,15,16)        170.7615         calculate D2E/DX2 analytically  !
 ! D59   D(26,14,15,9)         177.4227         calculate D2E/DX2 analytically  !
 ! D60   D(26,14,15,16)         -6.047          calculate D2E/DX2 analytically  !
 --------------------------------------------------------------------------------
 Trust Radius=3.00D-01 FncErr=1.00D-07 GrdErr=1.00D-07 EigMax=2.50D+02 EigMin=1.00D-04
 Number of steps in this run=      2 maximum allowed number of steps=      2.
 Search for a saddle point of order  1.
 GradGradGradGradGradGradGradGradGradGradGradGradGradGradGradGradGradGrad

                          Input orientation:                          
 ---------------------------------------------------------------------
 Center     Atomic      Atomic             Coordinates (Angstroms)
 Number     Number       Type             X           Y           Z
 ---------------------------------------------------------------------
      1          6           0       -1.082079    2.506680   -1.248244
      2          6           0       -1.503184    1.204629   -0.582673
      3          6           0       -2.878640    1.175857   -0.258596
      4          6           0       -3.584876    0.003797    0.029316
      5          6           0       -2.912480   -1.206034   -0.160943
      6          6           0       -1.550750   -1.164988   -0.450496
      7          9           0       -1.045171   -2.388553   -0.854123
      8          6           0       -0.706929   -0.009107   -0.444194
      9          6           0        0.788867   -0.118774   -0.312565
     10          6           0        1.518162   -1.335406    0.035396
     11          8           0        0.987051   -2.479339    0.521396
     12          6           0        2.933398   -1.390402   -0.004250
     13          6           0        3.712754   -0.259945   -0.225524
     14          6           0        3.064713    0.974243   -0.353748
     15          6           0        1.670292    1.013665   -0.336315
     16          9           0        1.168725    2.265457   -0.268684
     17          1           0       -1.959736    2.889138   -1.807584
     18          1           0       -0.773818    3.294964   -0.535452
     19          1           0       -0.262608    2.366820   -1.973367
     20          1           0       -3.426409    2.130602   -0.307469
     21          1           0       -4.653629    0.027623    0.288338
     22          1           0       -3.414943   -2.183796   -0.141265
     23          1           0        0.085604   -2.634309    0.170776
     24          1           0        3.380872   -2.373043    0.201750
     25          1           0        4.810923   -0.326441   -0.247301
     26          1           0        3.603721    1.929977   -0.414886
 ---------------------------------------------------------------------
                    Distance matrix (angstroms):
                    1          2          3          4          5
     1  C    0.000000
     2  C    1.521726   0.000000
     3  C    2.445020   1.413412   0.000000
     4  C    3.763053   2.479913   1.398351   0.000000
     5  C    4.279817   2.824052   2.384133   1.397142   0.000000
     6  C    3.786449   2.373776   2.698087   2.394566   1.392780
     7  F    4.911211   3.632412   4.052318   3.599153   2.316397
     8  C    2.667661   1.458202   2.480910   2.916668   2.525336
     9  C    3.356924   2.660422   3.889677   4.388795   3.860712
    10  C    4.813586   3.995287   5.071957   5.275840   4.436877
    11  O    5.680960   4.581687   5.377027   5.225956   4.158514
    12  C    5.732261   5.172235   6.358472   6.665794   5.850884
    13  C    5.629440   5.429414   6.746044   7.306839   6.692756
    14  C    4.510473   4.579428   5.947533   6.730938   6.365345
    15  C    3.261327   3.188747   4.552486   5.363796   5.095059
    16  F    2.466545   2.891893   4.191479   5.272630   5.359020
    17  H    1.108791   2.132233   2.485775   3.786881   4.515483
    18  H    1.106567   2.214432   2.999591   4.364951   4.997312
    19  H    1.103131   2.196303   3.347007   4.542255   4.803331
    20  H    2.553894   2.152199   1.101807   2.159129   3.379162
    21  H    4.611157   3.474091   2.183612   1.099952   2.180679
    22  H    5.354271   3.915493   3.404212   2.200804   1.099488
    23  H    5.459566   4.222484   4.846490   4.522392   3.337441
    24  H    6.769942   6.104839   7.210278   7.362116   6.410908
    25  H    6.614827   6.505736   7.834949   8.406843   7.773809
    26  H    4.794142   5.160888   6.527950   7.455428   7.236017
                    6          7          8          9         10
     6  C    0.000000
     7  F    1.384065   0.000000
     8  C    1.431130   2.438076   0.000000
     9  C    2.566592   2.967975   1.505575   0.000000
    10  C    3.111808   2.910504   2.634408   1.460528   0.000000
    11  O    3.018696   2.455650   3.147059   2.511381   1.351613
    12  C    4.511932   4.188986   3.918355   2.512193   1.416859
    13  C    5.345483   5.250139   4.432193   2.928587   2.457831
    14  C    5.088041   5.333846   3.898774   2.525046   2.806730
    15  C    3.890331   4.383714   2.590150   1.435232   2.383159
    16  F    4.381387   5.186895   2.953392   2.414700   3.630535
    17  H    4.294751   5.440546   3.439212   4.340211   5.774004
    18  H    4.527915   5.698908   3.306008   3.761020   5.198016
    19  H    4.056120   4.947594   2.860213   3.168917   4.573046
    20  H    3.794663   5.137304   3.463036   4.777894   6.048103
    21  H    3.405298   4.490445   4.014273   5.477524   6.325569
    22  H    2.146814   2.483125   3.486313   4.686755   5.008642
    23  H    2.285287   1.545789   2.810335   2.656335   1.938478
    24  H    5.119152   4.550271   4.766084   3.473434   2.138704
    25  H    6.419917   6.238139   5.530476   4.027943   3.455461
    26  H    6.012374   6.360411   4.726797   3.482995   3.900646
                   11         12         13         14         15
    11  O    0.000000
    12  C    2.291366   0.000000
    13  C    3.593474   1.390787   0.000000
    14  C    4.124292   2.393937   1.399864   0.000000
    15  C    3.661088   2.735917   2.409566   1.395087   0.000000
    16  F    4.813556   4.068083   3.584913   2.295483   1.350232
    17  H    6.551965   6.746053   6.678082   5.570059   4.342711
    18  H    6.128635   5.998190   5.732605   4.489218   3.349277
    19  H    5.592025   5.311176   5.075269   3.953922   2.871771
    20  H    6.435620   7.275751   7.529215   6.593480   5.217733
    21  H    6.177090   7.723949   8.387080   7.802638   6.430742
    22  H    4.461392   6.399194   7.383249   7.211401   6.010109
    23  H    0.979569   3.112535   4.353260   4.708701   4.009500
    24  H    2.417406   1.099206   2.181259   3.407765   3.832152
    25  H    4.455095   2.171679   1.100396   2.179991   3.415754
    26  H    5.212068   3.412165   2.200796   1.098952   2.141016
                   16         17         18         19         20
    16  F    0.000000
    17  H    3.541816   0.000000
    18  H    2.214616   1.785894   0.000000
    19  H    2.228213   1.783408   1.786166   0.000000
    20  H    4.597276   2.230886   2.905849   3.583386   0.000000
    21  H    6.262426   4.454011   5.138783   5.465182   2.506706
    22  H    6.389218   5.534338   6.094895   5.831116   4.317614
    23  H    5.037259   6.213356   6.032715   5.452512   5.938631
    24  H    5.160484   7.762092   7.066203   6.361791   8.178093
    25  H    4.470347   7.656126   6.662352   5.997806   8.596181
    26  H    2.462342   5.814779   4.587000   4.191443   7.033813
                   21         22         23         24         25
    21  H    0.000000
    22  H    2.570851   0.000000
    23  H    5.436913   3.543185   0.000000
    24  H    8.385935   6.807098   3.305755   0.000000
    25  H    9.486307   8.433617   5.275385   2.536784   0.000000
    26  H    8.502782   8.140003   5.792482   4.352687   2.564535
                   26
    26  H    0.000000
 Symmetry turned off by external request.
 Stoichiometry    C13H10F2O
 Framework group  C1[X(C13H10F2O)]
 Deg. of freedom    72
 Full point group                 C1      NOp   1
 Rotational constants (GHZ):           0.8392626           0.4706823           0.3127272
 Standard basis: def2SVP (5D, 7F)
   274 basis functions,   470 primitive gaussians,   290 cartesian basis functions
    57 alpha electrons       57 beta electrons
       nuclear repulsion energy      1069.5390894946 Hartrees.
 NAtoms=   26 NActive=   26 NUniq=   26 SFac= 1.00D+00 NAtFMM=   60 NAOKFM=F Big=F
 Integral buffers will be    131072 words long.
 Raffenetti 2 integral format.
 Two-electron integral symmetry is turned off.
 Nuclear repulsion after empirical dispersion term =     1069.4875421866 Hartrees.
 One-electron integrals computed using PRISM.
   1 Symmetry operations used in ECPInt.
 ECPInt:  NShTT=    8001 NPrTT=   29641 LenC2=    7591 LenP2D=   20283.
 LDataN:  DoStor=T MaxTD1= 4 Len=   56
 NBasis=   274 RedAO= T EigKep=  3.15D-04  NBF=   274
 NBsUse=   274 1.00D-06 EigRej= -1.00D+00 NBFU=   274
 Initial guess from the checkpoint file:  "path/to/scratch/gaussian_tmp/Gau-2280006.chk"
 B after Tr=     0.000000    0.000000    0.000000
         Rot=    1.000000    0.000000    0.000000    0.000000 Ang=   0.00 deg.
 Requested convergence on RMS density matrix=1.00D-08 within 128 cycles.
 Requested convergence on MAX density matrix=1.00D-06.
 Requested convergence on             energy=1.00D-06.
 No special actions if energy rises.
 SCF Done:  E(RB-P86) =  -775.751003838     A.U. after    1 cycles
            NFock=  1  Conv=0.80D-08     -V/T= 2.0104
 DoSCS=F DFT=T ScalE2(SS,OS)=  1.000000  1.000000
 Range of M.O.s used for correlation:     1   274
 NBasis=   274 NAE=    57 NBE=    57 NFC=     0 NFV=     0
 NROrb=    274 NOA=    57 NOB=    57 NVA=   217 NVB=   217

 **** Warning!!: The largest alpha MO coefficient is  0.10049831D+02

   1 Symmetry operations used in ECPInt.
 ECPInt:  NShTT=    8001 NPrTT=   29641 LenC2=    7591 LenP2D=   20283.
 LDataN:  DoStor=T MaxTD1= 5 Len=  102
 Symmetrizing basis deriv contribution to polar:
 IMax=3 JMax=2 DiffMx= 0.00D+00
 G2DrvN: will do    27 centers at a time, making    1 passes.
 Calling FoFCou, ICntrl=  3507 FMM=F I1Cent=   0 AccDes= 0.00D+00.
 End of G2Drv F.D. properties file   721 does not exist.
 End of G2Drv F.D. properties file   722 does not exist.
 End of G2Drv F.D. properties file   788 does not exist.
          IDoAtm=11111111111111111111111111
          Differentiating once with respect to electric field.
                with respect to dipole field.
          Differentiating once with respect to nuclear coordinates.
 Keep J ints in memory in canonical form, NReq=722055383.
          There are    81 degrees of freedom in the 1st order CPHF.  IDoFFX=6 NUNeed=     3.
     78 vectors produced by pass  0 Test12= 1.53D-14 1.23D-09 XBig12= 6.84D+02 1.60D+01.
 AX will form    78 AO Fock derivatives at one time.
     78 vectors produced by pass  1 Test12= 1.53D-14 1.23D-09 XBig12= 1.65D+02 2.76D+00.
     78 vectors produced by pass  2 Test12= 1.53D-14 1.23D-09 XBig12= 1.10D+00 9.22D-02.
     78 vectors produced by pass  3 Test12= 1.53D-14 1.23D-09 XBig12= 2.74D-03 4.23D-03.
     75 vectors produced by pass  4 Test12= 1.53D-14 1.23D-09 XBig12= 1.19D-06 7.47D-05.
     27 vectors produced by pass  5 Test12= 1.53D-14 1.23D-09 XBig12= 1.51D-10 7.62D-07.
      3 vectors produced by pass  6 Test12= 1.53D-14 1.23D-09 XBig12= 1.60D-14 8.94D-09.
 InvSVY:  IOpt=1 It=  1 EMax= 4.61D-15
 Solved reduced A of dimension   417 with    81 vectors.
 Isotropic polarizability for W=    0.000000      157.85 Bohr**3.
 End of Minotr F.D. properties file   721 does not exist.
 End of Minotr F.D. properties file   722 does not exist.
 End of Minotr F.D. properties file   788 does not exist.

 **********************************************************************

            Population analysis using the SCF Density.

 **********************************************************************

 Alpha  occ. eigenvalues --  -24.33320 -24.30362 -18.80099 -10.01160 -10.00335
 Alpha  occ. eigenvalues --   -9.98899  -9.96254  -9.95150  -9.94812  -9.93314
 Alpha  occ. eigenvalues --   -9.93240  -9.92720  -9.92483  -9.91750  -9.91689
 Alpha  occ. eigenvalues --   -9.91213  -1.13490  -1.11373  -0.96083  -0.79512
 Alpha  occ. eigenvalues --   -0.77253  -0.71562  -0.70152  -0.66811  -0.66211
 Alpha  occ. eigenvalues --   -0.62548  -0.58961  -0.56159  -0.55008  -0.53582
 Alpha  occ. eigenvalues --   -0.51758  -0.48582  -0.47910  -0.46178  -0.44243
 Alpha  occ. eigenvalues --   -0.43473  -0.42991  -0.42332  -0.41730  -0.40422
 Alpha  occ. eigenvalues --   -0.38725  -0.38176  -0.38042  -0.36626  -0.35943
 Alpha  occ. eigenvalues --   -0.34298  -0.33945  -0.33124  -0.32906  -0.31023
 Alpha  occ. eigenvalues --   -0.30656  -0.30251  -0.28633  -0.26724  -0.22478
 Alpha  occ. eigenvalues --   -0.20900  -0.19731
 Alpha virt. eigenvalues --   -0.09114  -0.04999  -0.03061  -0.02552   0.02488
 Alpha virt. eigenvalues --    0.03873   0.04614   0.06548   0.07598   0.08106
 Alpha virt. eigenvalues --    0.09555   0.10066   0.11030   0.11137   0.12031
 Alpha virt. eigenvalues --    0.12681   0.13910   0.15801   0.17021   0.19038
 Alpha virt. eigenvalues --    0.19902   0.21877   0.23656   0.25085   0.25686
 Alpha virt. eigenvalues --    0.26493   0.27591   0.28559   0.29593   0.30601
 Alpha virt. eigenvalues --    0.32715   0.34902   0.35993   0.36576   0.37320
 Alpha virt. eigenvalues --    0.38769   0.39668   0.40280   0.41629   0.41684
 Alpha virt. eigenvalues --    0.42374   0.42846   0.43956   0.44245   0.45785
 Alpha virt. eigenvalues --    0.46817   0.47247   0.48754   0.49903   0.51282
 Alpha virt. eigenvalues --    0.51966   0.52096   0.53253   0.53897   0.55301
 Alpha virt. eigenvalues --    0.55997   0.56804   0.58423   0.59088   0.59567
 Alpha virt. eigenvalues --    0.60471   0.61056   0.61470   0.61944   0.62631
 Alpha virt. eigenvalues --    0.63572   0.64672   0.64930   0.65585   0.65951
 Alpha virt. eigenvalues --    0.67398   0.68391   0.70164   0.71415   0.71827
 Alpha virt. eigenvalues --    0.72589   0.73865   0.75084   0.76096   0.77809
 Alpha virt. eigenvalues --    0.80962   0.82084   0.82253   0.88365   0.92105
 Alpha virt. eigenvalues --    0.94141   0.95493   0.96699   0.97972   1.00978
 Alpha virt. eigenvalues --    1.04366   1.05282   1.07622   1.09290   1.10438
 Alpha virt. eigenvalues --    1.11867   1.14036   1.15943   1.17274   1.19319
 Alpha virt. eigenvalues --    1.20997   1.22144   1.23030   1.25454   1.27234
 Alpha virt. eigenvalues --    1.28090   1.31043   1.31347   1.34566   1.35885
 Alpha virt. eigenvalues --    1.37121   1.38461   1.42317   1.44000   1.46699
 Alpha virt. eigenvalues --    1.49383   1.52333   1.55071   1.56823   1.57289
 Alpha virt. eigenvalues --    1.58833   1.59233   1.61597   1.61909   1.62576
 Alpha virt. eigenvalues --    1.63304   1.64007   1.64377   1.65346   1.65976
 Alpha virt. eigenvalues --    1.67154   1.67548   1.70638   1.71869   1.72247
 Alpha virt. eigenvalues --    1.72516   1.73499   1.74561   1.76058   1.77881
 Alpha virt. eigenvalues --    1.78079   1.81288   1.82861   1.84605   1.85784
 Alpha virt. eigenvalues --    1.86232   1.87418   1.90120   1.90717   1.92676
 Alpha virt. eigenvalues --    1.93977   1.95507   1.96848   1.97722   1.99066
 Alpha virt. eigenvalues --    1.99906   2.01770   2.04686   2.05782   2.08902
 Alpha virt. eigenvalues --    2.09185   2.09657   2.13692   2.15169   2.17432
 Alpha virt. eigenvalues --    2.17620   2.18540   2.19534   2.20257   2.23420
 Alpha virt. eigenvalues --    2.23587   2.28335   2.31101   2.33340   2.35498
 Alpha virt. eigenvalues --    2.36550   2.37782   2.43557   2.45119   2.46976
 Alpha virt. eigenvalues --    2.48294   2.48746   2.52163   2.54764   2.55249
 Alpha virt. eigenvalues --    2.59341   2.61625   2.62757   2.65398   2.67589
 Alpha virt. eigenvalues --    2.68853   2.75867   2.77541   2.81018   2.81756
 Alpha virt. eigenvalues --    2.83972   2.86913   2.88456   2.90073   2.93028
 Alpha virt. eigenvalues --    2.93701   2.98039   3.00528   3.02005   3.06676
 Alpha virt. eigenvalues --    3.10037   3.12383   3.15368   3.20182   3.29591
 Alpha virt. eigenvalues --    3.32253   3.38550   3.43456   3.48023   3.67804
 Alpha virt. eigenvalues --    3.74549   3.79153
          Condensed to atoms (all electrons):
               1          2          3          4          5          6
     1  C    4.556475   0.438271  -0.073872   0.013356   0.000084   0.009005
     2  C    0.438271   5.192648   0.362617   0.057221  -0.117537   0.037883
     3  C   -0.073872   0.362617   5.091149   0.293943   0.083896  -0.134507
     4  C    0.013356   0.057221   0.293943   5.069112   0.238145   0.089307
     5  C    0.000084  -0.117537   0.083896   0.238145   5.195319   0.321600
     6  C    0.009005   0.037883  -0.134507   0.089307   0.321600   5.208495
     7  F   -0.000015   0.001789  -0.000002   0.005067  -0.059238   0.299476
     8  C   -0.063149   0.303791   0.032488  -0.088660  -0.003581   0.209714
     9  C   -0.019207  -0.046330   0.013928  -0.000242   0.011288  -0.064507
    10  C   -0.000366   0.007940   0.000263  -0.000239   0.001372  -0.026587
    11  O   -0.000003  -0.000021   0.000001   0.000002  -0.001030   0.007948
    12  C    0.000001   0.000113  -0.000002   0.000001  -0.000043   0.001633
    13  C   -0.000021  -0.000080   0.000001  -0.000000   0.000002  -0.000286
    14  C   -0.000008   0.000295  -0.000017   0.000001  -0.000002   0.000164
    15  C   -0.001295  -0.022092   0.000139  -0.000060  -0.000049   0.011173
    16  F    0.004697  -0.004175  -0.000126   0.000002  -0.000002   0.000287
    17  H    0.376173  -0.023519  -0.018739   0.002014  -0.000056  -0.000020
    18  H    0.358010  -0.000187  -0.000068  -0.000196  -0.000048  -0.000238
    19  H    0.372273  -0.002293   0.007886  -0.000861   0.000209  -0.000829
    20  H   -0.018377  -0.065057   0.424904  -0.066033   0.013759  -0.000523
    21  H   -0.000411   0.014370  -0.064887   0.432252  -0.070550   0.013572
    22  H    0.000017  -0.000894   0.012520  -0.064252   0.414960  -0.057898
    23  H   -0.000001   0.000444  -0.000069   0.000241  -0.002116  -0.017043
    24  H    0.000000   0.000001  -0.000000   0.000000   0.000001   0.000006
    25  H    0.000000  -0.000000   0.000000   0.000000  -0.000000   0.000001
    26  H   -0.000009   0.000027  -0.000000   0.000000  -0.000000   0.000001
               7          8          9         10         11         12
     1  C   -0.000015  -0.063149  -0.019207  -0.000366  -0.000003   0.000001
     2  C    0.001789   0.303791  -0.046330   0.007940  -0.000021   0.000113
     3  C   -0.000002   0.032488   0.013928   0.000263   0.000001  -0.000002
     4  C    0.005067  -0.088660  -0.000242  -0.000239   0.000002   0.000001
     5  C   -0.059238  -0.003581   0.011288   0.001372  -0.001030  -0.000043
     6  C    0.299476   0.209714  -0.064507  -0.026587   0.007948   0.001633
     7  F    8.989418  -0.069288   0.001697   0.001181  -0.026968  -0.000477
     8  C   -0.069288   5.457192   0.229250  -0.067507  -0.004182   0.009167
     9  C    0.001697   0.229250   5.752897   0.135749  -0.074856   0.008787
    10  C    0.001181  -0.067507   0.135749   5.182249   0.456248   0.289435
    11  O   -0.026968  -0.004182  -0.074856   0.456248   7.555632  -0.089606
    12  C   -0.000477   0.009167   0.008787   0.289435  -0.089606   5.252599
    13  C    0.000001  -0.000059  -0.103119   0.114521   0.005905   0.213703
    14  C    0.000000   0.013463   0.002244  -0.139995   0.000105   0.108380
    15  C    0.000152  -0.055980   0.166613   0.092011   0.001452  -0.137614
    16  F   -0.000000  -0.000324  -0.073977   0.001838  -0.000001   0.000032
    17  H    0.000001   0.006993  -0.000636   0.000005   0.000000   0.000000
    18  H    0.000000  -0.000991   0.003866   0.000031   0.000000  -0.000002
    19  H   -0.000004  -0.011406   0.005342   0.000188   0.000001  -0.000011
    20  H    0.000004   0.015036  -0.000230   0.000001   0.000000  -0.000000
    21  H   -0.000074  -0.001321   0.000017   0.000000  -0.000000   0.000000
    22  H    0.000816   0.017096  -0.000278   0.000053   0.000008  -0.000000
    23  H    0.051458   0.005634  -0.011860  -0.024830   0.338535   0.004743
    24  H    0.000017  -0.000194   0.019859  -0.056282   0.003596   0.415564
    25  H   -0.000000   0.000011  -0.001941   0.014438  -0.000111  -0.069390
    26  H   -0.000000  -0.000226   0.019158  -0.001347   0.000006   0.013494
              13         14         15         16         17         18
     1  C   -0.000021  -0.000008  -0.001295   0.004697   0.376173   0.358010
     2  C   -0.000080   0.000295  -0.022092  -0.004175  -0.023519  -0.000187
     3  C    0.000001  -0.000017   0.000139  -0.000126  -0.018739  -0.000068
     4  C   -0.000000   0.000001  -0.000060   0.000002   0.002014  -0.000196
     5  C    0.000002  -0.000002  -0.000049  -0.000002  -0.000056  -0.000048
     6  C   -0.000286   0.000164   0.011173   0.000287  -0.000020  -0.000238
     7  F    0.000001   0.000000   0.000152  -0.000000   0.000001   0.000000
     8  C   -0.000059   0.013463  -0.055980  -0.000324   0.006993  -0.000991
     9  C   -0.103119   0.002244   0.166613  -0.073977  -0.000636   0.003866
    10  C    0.114521  -0.139995   0.092011   0.001838   0.000005   0.000031
    11  O    0.005905   0.000105   0.001452  -0.000001   0.000000   0.000000
    12  C    0.213703   0.108380  -0.137614   0.000032   0.000000  -0.000002
    13  C    5.173954   0.165224   0.114777   0.005224  -0.000001   0.000002
    14  C    0.165224   5.283600   0.317306  -0.061617   0.000036  -0.000179
    15  C    0.114777   0.317306   5.056800   0.359655   0.000192  -0.002157
    16  F    0.005224  -0.061617   0.359655   8.927748   0.001717   0.003305
    17  H   -0.000001   0.000036   0.000192   0.001717   0.671034  -0.023251
    18  H    0.000002  -0.000179  -0.002157   0.003305  -0.023251   0.624936
    19  H    0.000074  -0.001242   0.001243  -0.001487  -0.028668  -0.018018
    20  H    0.000000  -0.000000   0.000024  -0.000011   0.004740   0.002024
    21  H   -0.000000   0.000000   0.000000   0.000000  -0.000017   0.000013
    22  H    0.000000  -0.000000   0.000001  -0.000000  -0.000002  -0.000001
    23  H    0.000012  -0.000159   0.000203   0.000001  -0.000001   0.000000
    24  H   -0.073354   0.014360  -0.001546   0.000004  -0.000000  -0.000000
    25  H    0.436339  -0.070789   0.014059  -0.000084   0.000000   0.000000
    26  H   -0.069547   0.416151  -0.059325   0.001760  -0.000002   0.000025
              19         20         21         22         23         24
     1  C    0.372273  -0.018377  -0.000411   0.000017  -0.000001   0.000000
     2  C   -0.002293  -0.065057   0.014370  -0.000894   0.000444   0.000001
     3  C    0.007886   0.424904  -0.064887   0.012520  -0.000069  -0.000000
     4  C   -0.000861  -0.066033   0.432252  -0.064252   0.000241   0.000000
     5  C    0.000209   0.013759  -0.070550   0.414960  -0.002116   0.000001
     6  C   -0.000829  -0.000523   0.013572  -0.057898  -0.017043   0.000006
     7  F   -0.000004   0.000004  -0.000074   0.000816   0.051458   0.000017
     8  C   -0.011406   0.015036  -0.001321   0.017096   0.005634  -0.000194
     9  C    0.005342  -0.000230   0.000017  -0.000278  -0.011860   0.019859
    10  C    0.000188   0.000001   0.000000   0.000053  -0.024830  -0.056282
    11  O    0.000001   0.000000  -0.000000   0.000008   0.338535   0.003596
    12  C   -0.000011  -0.000000   0.000000  -0.000000   0.004743   0.415564
    13  C    0.000074   0.000000  -0.000000   0.000000   0.000012  -0.073354
    14  C   -0.001242  -0.000000   0.000000  -0.000000  -0.000159   0.014360
    15  C    0.001243   0.000024   0.000000   0.000001   0.000203  -0.001546
    16  F   -0.001487  -0.000011   0.000000  -0.000000   0.000001   0.000004
    17  H   -0.028668   0.004740  -0.000017  -0.000002  -0.000001  -0.000000
    18  H   -0.018018   0.002024   0.000013  -0.000001   0.000000  -0.000000
    19  H    0.641995   0.000531   0.000010  -0.000001   0.000002  -0.000000
    20  H    0.000531   0.700407  -0.012384  -0.000367  -0.000001   0.000000
    21  H    0.000010  -0.012384   0.688869  -0.011752   0.000003  -0.000000
    22  H   -0.000001  -0.000367  -0.011752   0.673876   0.000138  -0.000000
    23  H    0.000002  -0.000001   0.000003   0.000138   0.469833   0.000023
    24  H   -0.000000   0.000000  -0.000000  -0.000000   0.000023   0.686146
    25  H   -0.000001  -0.000000   0.000000  -0.000000   0.000012  -0.013184
    26  H    0.000041  -0.000000  -0.000000   0.000000  -0.000002  -0.000306
              25         26
     1  C    0.000000  -0.000009
     2  C   -0.000000   0.000027
     3  C    0.000000  -0.000000
     4  C    0.000000   0.000000
     5  C   -0.000000  -0.000000
     6  C    0.000001   0.000001
     7  F   -0.000000  -0.000000
     8  C    0.000011  -0.000226
     9  C   -0.001941   0.019158
    10  C    0.014438  -0.001347
    11  O   -0.000111   0.000006
    12  C   -0.069390   0.013494
    13  C    0.436339  -0.069547
    14  C   -0.070789   0.416151
    15  C    0.014059  -0.059325
    16  F   -0.000084   0.001760
    17  H    0.000000  -0.000002
    18  H    0.000000   0.000025
    19  H   -0.000001   0.000041
    20  H   -0.000000  -0.000000
    21  H    0.000000  -0.000000
    22  H   -0.000000   0.000000
    23  H    0.000012  -0.000002
    24  H   -0.013184  -0.000306
    25  H    0.691594  -0.012318
    26  H   -0.012318   0.685427
 Mulliken charges:
               1
     1  C    0.048373
     2  C   -0.135227
     3  C   -0.031444
     4  C    0.019880
     5  C   -0.026382
     6  C    0.092171
     7  F   -0.195011
     8  C    0.067032
     9  C    0.026488
    10  C    0.019630
    11  O   -0.172660
    12  C   -0.020506
    13  C    0.016727
    14  C   -0.047322
    15  C    0.144314
    16  F   -0.164464
    17  H    0.032006
    18  H    0.053124
    19  H    0.035026
    20  H    0.001554
    21  H    0.012290
    22  H    0.015959
    23  H    0.184800
    24  H    0.005289
    25  H    0.011365
    26  H    0.006990
 Sum of Mulliken charges =  -0.00000
 Mulliken charges with hydrogens summed into heavy atoms:
               1
     1  C    0.168529
     2  C   -0.135227
     3  C   -0.029890
     4  C    0.032170
     5  C   -0.010423
     6  C    0.092171
     7  F   -0.195011
     8  C    0.067032
     9  C    0.026488
    10  C    0.019630
    11  O    0.012139
    12  C   -0.015217
    13  C    0.028092
    14  C   -0.040332
    15  C    0.144314
    16  F   -0.164464
 APT charges:
               1
     1  C    0.019361
     2  C    0.050217
     3  C   -0.076935
     4  C   -0.010626
     5  C   -0.131572
     6  C    0.397520
     7  F   -0.486106
     8  C    0.145957
     9  C   -0.214064
    10  C    0.484077
    11  O   -0.651682
    12  C   -0.154828
    13  C    0.098970
    14  C   -0.276338
    15  C    0.563561
    16  F   -0.449142
    17  H   -0.014358
    18  H    0.020481
    19  H    0.012481
    20  H    0.028894
    21  H    0.040202
    22  H    0.067342
    23  H    0.390916
    24  H    0.049005
    25  H    0.039161
    26  H    0.057506
 Sum of APT charges =   0.00000
 APT charges with hydrogens summed into heavy atoms:
               1
     1  C    0.037965
     2  C    0.050217
     3  C   -0.048040
     4  C    0.029576
     5  C   -0.064230
     6  C    0.397520
     7  F   -0.486106
     8  C    0.145957
     9  C   -0.214064
    10  C    0.484077
    11  O   -0.260766
    12  C   -0.105824
    13  C    0.138130
    14  C   -0.218832
    15  C    0.563561
    16  F   -0.449142
 Electronic spatial extent (au):  <R**2>=           3427.9541
 Charge=             -0.0000 electrons
 Dipole moment (field-independent basis, Debye):
    X=             -1.3712    Y=              0.6393    Z=             -0.5117  Tot=              1.5971
 Quadrupole moment (field-independent basis, Debye-Ang):
   XX=            -78.7583   YY=            -88.7779   ZZ=            -95.0663
   XY=              1.5449   XZ=             -1.0453   YZ=             -1.0133
 Traceless Quadrupole moment (field-independent basis, Debye-Ang):
   XX=              8.7759   YY=             -1.2438   ZZ=             -7.5321
   XY=              1.5449   XZ=             -1.0453   YZ=             -1.0133
 Octapole moment (field-independent basis, Debye-Ang**2):
  XXX=             -3.5612  YYY=             13.4969  ZZZ=             87.8935  XYY=            -14.0117
  XXY=              3.2513  XXZ=             30.8175  XZZ=             -2.7204  YZZ=              7.2799
  YYZ=             24.7961  XYZ=              2.7588
 Hexadecapole moment (field-independent basis, Debye-Ang**3):
 XXXX=          -2568.0139 YYYY=          -1347.6358 ZZZZ=           -251.0028 XXXY=             73.2929
 XXXZ=            -71.8901 YYYX=             79.5705 YYYZ=             92.6483 ZZZX=            -46.6160
 ZZZY=             92.0312 XXYY=           -658.2867 XXZZ=           -565.6831 YYZZ=           -275.4401
 XXYZ=             20.7458 YYXZ=            -17.7750 ZZXY=             24.5609
 N-N= 1.069487542187D+03 E-N=-3.950040324755D+03  KE= 7.677389096213D+02
  Exact polarizability:     239.243      -5.088     162.417      -3.272     -14.484      71.905
 Approx polarizability:     471.633      -2.870     371.590     -16.263     -31.628     131.473
   1 Symmetry operations used in ECPInt.
 ECPInt:  NShTT=    8001 NPrTT=   29641 LenC2=    7591 LenP2D=   20283.
 LDataN:  DoStor=T MaxTD1= 6 Len=  172
 Calling FoFJK, ICntrl=    100527 FMM=F ISym2X=0 I1Cent= 0 IOpClX= 0 NMat=1 NMatS=1 NMatT=0.
 Full mass-weighted force constant matrix:
 Low frequencies ---  -78.0388   -0.0001    0.0007    0.0010    0.1737    0.8555
 Low frequencies ---    1.9723   46.2251  117.9647
 ******    1 imaginary frequencies (negative Signs) ****** 
 Diagonal vibrational polarizability:
       11.2312720      13.2144824      18.8486568
 Harmonic frequencies (cm**-1), IR intensities (KM/Mole), Raman scattering
 activities (A**4/AMU), depolarization ratios for plane and unpolarized
 incident light, reduced masses (AMU), force constants (mDyne/A),
 and normal coordinates:
                      1                      2                      3
                      A                      A                      A
 Frequencies --    -78.0388                46.2246               117.9647
 Red. masses --      5.5770                 5.2529                 6.5028
 Frc consts  --      0.0200                 0.0066                 0.0533
 IR Inten    --      0.0856                 0.2411                 1.3494
  Atom  AN      X      Y      Z        X      Y      Z        X      Y      Z
     1   6     0.10  -0.12  -0.24    -0.04  -0.05  -0.14    -0.04   0.11   0.20
     2   6     0.05  -0.02  -0.09     0.02  -0.01  -0.02    -0.02   0.01   0.02
     3   6     0.05   0.06  -0.08     0.05   0.02   0.14    -0.06   0.01  -0.10
     4   6     0.01   0.10   0.01     0.07   0.03   0.23    -0.11   0.04  -0.17
     5   6    -0.04   0.07   0.08     0.03   0.02   0.13    -0.09   0.04  -0.04
     6   6    -0.04  -0.01   0.07    -0.00  -0.00  -0.02    -0.06   0.02   0.08
     7   9    -0.09  -0.05   0.13    -0.07   0.01  -0.14    -0.10  -0.06   0.24
     8   6     0.00  -0.04  -0.00     0.01  -0.01  -0.07    -0.02  -0.00   0.03
     9   6    -0.00  -0.03   0.00     0.01  -0.01  -0.08     0.02  -0.03   0.00
    10   6     0.04  -0.02  -0.09     0.00  -0.01  -0.04     0.08  -0.03  -0.06
    11   8     0.10  -0.07  -0.15    -0.03  -0.05  -0.18     0.17  -0.13  -0.22
    12   6     0.05   0.03  -0.12     0.01   0.03   0.15     0.09   0.03   0.02
    13   6     0.00   0.08  -0.05     0.01   0.05   0.26     0.07   0.06   0.13
    14   6    -0.04   0.07   0.06     0.00   0.03   0.15     0.03   0.02   0.08
    15   6    -0.05   0.01   0.10    -0.00  -0.00  -0.03     0.02  -0.03  -0.03
    16   9    -0.10  -0.02   0.26    -0.03  -0.01  -0.17     0.03  -0.02  -0.19
    17   1     0.18  -0.24  -0.43    -0.07  -0.13  -0.15    -0.09   0.25   0.37
    18   1    -0.04   0.01  -0.31    -0.05   0.02  -0.21     0.07  -0.03   0.31
    19   1     0.22  -0.20  -0.09    -0.05  -0.08  -0.14    -0.13   0.21   0.08
    20   1     0.08   0.08  -0.15     0.06   0.02   0.18    -0.03   0.02  -0.13
    21   1     0.01   0.16   0.01     0.10   0.04   0.36    -0.14   0.06  -0.29
    22   1    -0.07   0.09   0.14     0.01   0.03   0.17    -0.07   0.03  -0.03
    23   1     0.05  -0.03  -0.05     0.01  -0.05  -0.30     0.08  -0.03  -0.04
    24   1     0.09   0.03  -0.19     0.01   0.03   0.19     0.10   0.03  -0.01
    25   1     0.00   0.12  -0.07     0.02   0.07   0.41     0.08   0.10   0.22
    26   1    -0.08   0.09   0.15    -0.01   0.04   0.19    -0.02   0.05   0.08
                      4                      5                      6
                      A                      A                      A
 Frequencies --    181.7477               198.5745               205.2985
 Red. masses --      4.6260                 7.1823                 4.2799
 Frc consts  --      0.0900                 0.1669                 0.1063
 IR Inten    --      0.8044                 1.1063                 0.4194
  Atom  AN      X      Y      Z        X      Y      Z        X      Y      Z
     1   6    -0.01   0.03   0.04     0.13  -0.17   0.07    -0.02  -0.13  -0.10
     2   6    -0.07  -0.03  -0.13    -0.00  -0.11   0.07    -0.02  -0.01   0.11
     3   6    -0.10  -0.08  -0.23    -0.01  -0.04   0.05    -0.00   0.01   0.16
     4   6    -0.01  -0.07   0.04    -0.06  -0.03  -0.03    -0.04  -0.02  -0.03
     5   6     0.07  -0.06   0.26    -0.08  -0.03  -0.05    -0.05  -0.00  -0.16
     6   6     0.03  -0.01   0.08    -0.06  -0.10  -0.00    -0.01  -0.00  -0.01
     7   9    -0.01  -0.00  -0.01    -0.22  -0.18  -0.03     0.01  -0.01   0.05
     8   6    -0.01   0.03  -0.04    -0.01  -0.11   0.02    -0.01  -0.01   0.08
     9   6    -0.00   0.07  -0.04     0.01   0.09  -0.02    -0.00   0.05   0.06
    10   6    -0.04   0.03  -0.08     0.01   0.12   0.01    -0.01   0.02  -0.05
    11   8    -0.08   0.07  -0.02    -0.10   0.13  -0.10     0.00   0.05   0.04
    12   6    -0.05  -0.06  -0.14     0.01   0.09   0.17    -0.02  -0.05  -0.23
    13   6     0.00  -0.07   0.02     0.04   0.04   0.00     0.01  -0.03  -0.00
    14   6     0.05  -0.03   0.16     0.05   0.02  -0.18     0.03   0.01   0.23
    15   6     0.05   0.04   0.05     0.05   0.10  -0.06     0.02   0.04   0.09
    16   9     0.13   0.09   0.01     0.23   0.18   0.08     0.08   0.09  -0.13
    17   1     0.02   0.15   0.07     0.21  -0.16  -0.05    -0.02  -0.23  -0.18
    18   1    -0.00  -0.09   0.17     0.09  -0.16   0.07     0.00   0.01  -0.27
    19   1     0.01   0.10   0.06     0.19  -0.25   0.16    -0.03  -0.29  -0.08
    20   1    -0.16  -0.13  -0.38     0.05  -0.01   0.07     0.02   0.02   0.22
    21   1     0.00  -0.10   0.08    -0.07  -0.01  -0.07    -0.06  -0.04  -0.10
    22   1     0.14  -0.09   0.44    -0.11  -0.02  -0.10    -0.06  -0.00  -0.30
    23   1    -0.04   0.00  -0.09    -0.01   0.08  -0.32    -0.04   0.06   0.14
    24   1    -0.11  -0.10  -0.23    -0.03   0.10   0.30    -0.05  -0.10  -0.41
    25   1     0.00  -0.11   0.05     0.04   0.02   0.02     0.00  -0.05  -0.03
    26   1     0.10  -0.04   0.28     0.08   0.00  -0.27     0.05  -0.00   0.33
                      7                      8                      9
                      A                      A                      A
 Frequencies --    214.6060               297.7566               310.4275
 Red. masses --      6.0401                 6.2258                 5.3657
 Frc consts  --      0.1639                 0.3252                 0.3046
 IR Inten    --      2.5505                 4.1061                 2.7730
  Atom  AN      X      Y      Z        X      Y      Z        X      Y      Z
     1   6    -0.01  -0.11  -0.11     0.13   0.05   0.10     0.11  -0.09   0.07
     2   6    -0.06   0.02   0.10     0.15  -0.04  -0.03     0.06  -0.02   0.16
     3   6    -0.11  -0.02  -0.09     0.15   0.01  -0.11     0.01   0.01  -0.04
     4   6    -0.09  -0.03  -0.07     0.12   0.07  -0.00    -0.05   0.03  -0.13
     5   6    -0.00  -0.02   0.08     0.04   0.01   0.05    -0.02   0.01   0.10
     6   6     0.01   0.06   0.17     0.02  -0.09  -0.01    -0.00  -0.01   0.17
     7   9     0.07   0.19  -0.14    -0.11  -0.13  -0.13    -0.05   0.06  -0.12
     8   6    -0.01   0.07   0.26     0.05  -0.09   0.06     0.03  -0.04   0.15
     9   6    -0.01   0.03   0.23    -0.01  -0.00   0.25     0.04  -0.05  -0.16
    10   6     0.00  -0.02   0.10    -0.00  -0.01   0.15     0.05  -0.00  -0.13
    11   8     0.04  -0.15  -0.16    -0.05  -0.04   0.03    -0.08   0.17   0.11
    12   6     0.00  -0.00   0.09    -0.02   0.03  -0.07     0.06   0.01  -0.10
    13   6     0.00  -0.03  -0.05    -0.08   0.07  -0.14     0.04   0.07   0.08
    14   6     0.01  -0.03  -0.12    -0.10   0.08   0.08     0.00   0.05   0.03
    15   6     0.02   0.01   0.06    -0.08   0.04   0.16    -0.00  -0.05  -0.13
    16   9     0.06   0.03  -0.05    -0.10   0.05  -0.18    -0.12  -0.13  -0.01
    17   1     0.01  -0.16  -0.17     0.08   0.10   0.23     0.07  -0.01   0.21
    18   1     0.07   0.00  -0.28     0.14  -0.04   0.19     0.35  -0.09  -0.05
    19   1    -0.04  -0.31  -0.11     0.07   0.18   0.01    -0.05  -0.26  -0.09
    20   1    -0.16  -0.06  -0.29     0.17   0.02  -0.17     0.03   0.01  -0.19
    21   1    -0.12  -0.07  -0.22     0.12   0.14   0.02    -0.11   0.05  -0.38
    22   1     0.03  -0.04   0.00    -0.04   0.06   0.09    -0.05   0.02   0.03
    23   1     0.05  -0.08  -0.21     0.03  -0.09  -0.18     0.07  -0.00  -0.23
    24   1     0.01  -0.01   0.05     0.06   0.02  -0.27     0.08   0.04  -0.03
    25   1    -0.00  -0.05  -0.15    -0.09   0.08  -0.39     0.05   0.13   0.27
    26   1     0.03  -0.05  -0.30    -0.12   0.09  -0.05    -0.05   0.09   0.17
                     10                     11                     12
                      A                      A                      A
 Frequencies --    334.1360               338.7621               355.0602
 Red. masses --      1.1153                 7.2149                 4.0302
 Frc consts  --      0.0734                 0.4878                 0.2994
 IR Inten    --      0.8437                 1.6544                 6.7476
  Atom  AN      X      Y      Z        X      Y      Z        X      Y      Z
     1   6     0.03  -0.02  -0.02     0.20  -0.01   0.04     0.19  -0.09   0.10
     2   6    -0.02   0.00  -0.02     0.11   0.04   0.09    -0.05  -0.05  -0.04
     3   6    -0.01   0.00  -0.00     0.12   0.01   0.05    -0.05   0.03  -0.03
     4   6    -0.00  -0.00   0.03     0.13  -0.04  -0.10    -0.05   0.05   0.08
     5   6    -0.01  -0.00  -0.01     0.12  -0.06   0.00    -0.11   0.00   0.04
     6   6    -0.01   0.00  -0.04     0.11  -0.04   0.11    -0.12  -0.03  -0.07
     7   9     0.01  -0.00   0.00     0.20  -0.02   0.15     0.09   0.09  -0.07
     8   6    -0.02  -0.00  -0.02     0.01   0.02   0.04    -0.11  -0.06  -0.05
     9   6    -0.02   0.00   0.01    -0.09   0.03  -0.09    -0.09  -0.06  -0.04
    10   6    -0.00   0.01   0.01    -0.19  -0.03  -0.12     0.01  -0.02  -0.00
    11   8     0.02  -0.01   0.00    -0.08  -0.09  -0.13     0.15  -0.06   0.10
    12   6    -0.00   0.01   0.00    -0.22  -0.01   0.00     0.01   0.05  -0.04
    13   6    -0.00   0.01  -0.00    -0.22  -0.00   0.11    -0.01   0.07   0.03
    14   6    -0.01   0.00   0.00    -0.15   0.01  -0.07    -0.08   0.01   0.02
    15   6    -0.01  -0.00   0.01    -0.13   0.07  -0.12    -0.08  -0.04  -0.03
    16   9     0.02   0.00   0.02     0.00   0.13  -0.02     0.10   0.03  -0.05
    17   1    -0.09   0.31   0.40     0.21   0.02   0.04     0.37  -0.05  -0.16
    18   1     0.60  -0.18  -0.11     0.26   0.01  -0.02    -0.02  -0.12   0.22
    19   1    -0.32  -0.22  -0.40     0.15  -0.12   0.02     0.39  -0.09   0.33
    20   1    -0.02  -0.00   0.01     0.08  -0.02   0.07    -0.01   0.06  -0.02
    21   1     0.01  -0.01   0.08     0.09  -0.05  -0.25    -0.02   0.09   0.20
    22   1    -0.01  -0.00   0.01     0.10  -0.05  -0.04    -0.17   0.03   0.12
    23   1    -0.00   0.01   0.06    -0.12  -0.15   0.03     0.06  -0.02   0.32
    24   1    -0.00   0.01  -0.00    -0.22   0.01   0.09     0.04   0.06  -0.03
    25   1    -0.00   0.01  -0.01    -0.22  -0.01   0.30    -0.00   0.12   0.08
    26   1    -0.02   0.01   0.00    -0.10  -0.02  -0.02    -0.17   0.06   0.06
                     13                     14                     15
                      A                      A                      A
 Frequencies --    446.7212               471.0562               479.3942
 Red. masses --      4.1177                 4.6085                 3.6498
 Frc consts  --      0.4841                 0.6025                 0.4942
 IR Inten    --      3.0519                 1.9311                 6.6834
  Atom  AN      X      Y      Z        X      Y      Z        X      Y      Z
     1   6     0.19  -0.10   0.07     0.00  -0.00  -0.00    -0.02   0.00   0.01
     2   6    -0.06  -0.00   0.03    -0.08   0.14   0.24     0.01  -0.03  -0.05
     3   6    -0.08  -0.02  -0.03    -0.14   0.10  -0.03    -0.00  -0.03  -0.12
     4   6    -0.01  -0.06   0.08     0.00  -0.00  -0.06     0.05   0.01   0.15
     5   6     0.04   0.00  -0.04     0.17   0.08   0.09    -0.01   0.03  -0.12
     6   6     0.02   0.07  -0.13     0.10   0.02  -0.21     0.00   0.01  -0.06
     7   9     0.03   0.02   0.09    -0.09  -0.16  -0.05    -0.02  -0.02   0.00
     8   6     0.00   0.05  -0.02    -0.00   0.07  -0.02     0.03   0.00   0.17
     9   6     0.01   0.05   0.04    -0.00   0.01  -0.00     0.02   0.03   0.17
    10   6    -0.04   0.09   0.04    -0.03  -0.04   0.00     0.01  -0.03  -0.07
    11   8    -0.09   0.09  -0.14     0.09  -0.11   0.09    -0.01   0.02   0.01
    12   6    -0.03   0.05   0.04    -0.03   0.01  -0.04     0.00  -0.06  -0.16
    13   6     0.03  -0.02  -0.05    -0.02   0.02   0.04    -0.01   0.02   0.21
    14   6     0.08   0.02   0.03     0.01   0.03  -0.03     0.01   0.00  -0.16
    15   6     0.07  -0.03   0.05     0.01   0.00  -0.04     0.01   0.02  -0.08
    16   9    -0.13  -0.15  -0.07     0.01   0.00   0.01    -0.02   0.01   0.03
    17   1     0.36  -0.01  -0.13     0.06  -0.12  -0.18    -0.04   0.01   0.03
    18   1     0.14  -0.09   0.09     0.04   0.21  -0.25    -0.06  -0.04   0.07
    19   1     0.30  -0.25   0.24     0.01  -0.29   0.06    -0.01   0.10   0.00
    20   1    -0.11  -0.04  -0.05    -0.24   0.03  -0.24    -0.01  -0.04  -0.21
    21   1     0.02  -0.13   0.23    -0.02  -0.20  -0.11     0.10   0.02   0.37
    22   1     0.14  -0.05   0.07     0.24   0.04   0.37    -0.02   0.03  -0.18
    23   1    -0.24   0.34   0.17     0.05  -0.15   0.21    -0.13   0.14   0.27
    24   1    -0.09   0.00  -0.03    -0.00   0.03  -0.03     0.02  -0.05  -0.14
    25   1     0.03  -0.11  -0.16    -0.02   0.00   0.13     0.00   0.08   0.59
    26   1     0.08   0.02  -0.02     0.01   0.03   0.01     0.04  -0.01  -0.16
                     16                     17                     18
                      A                      A                      A
 Frequencies --    500.6307               511.2468               526.3701
 Red. masses --      2.7602                 4.9996                 2.4552
 Frc consts  --      0.4076                 0.7699                 0.4008
 IR Inten    --     24.5347                11.5378                18.9965
  Atom  AN      X      Y      Z        X      Y      Z        X      Y      Z
     1   6    -0.08  -0.13   0.07    -0.05   0.07  -0.02     0.02   0.09  -0.05
     2   6     0.06  -0.11   0.06     0.02   0.06   0.09     0.08   0.05   0.01
     3   6     0.04  -0.04  -0.05     0.02   0.10  -0.03     0.08  -0.08   0.03
     4   6    -0.05   0.05  -0.02     0.05   0.09  -0.04     0.02  -0.07  -0.05
     5   6     0.01   0.08   0.05    -0.04  -0.01   0.09    -0.05  -0.12   0.06
     6   6    -0.01   0.05  -0.09    -0.05  -0.14  -0.05    -0.06  -0.02   0.02
     7   9    -0.00   0.07   0.00     0.13  -0.12  -0.05    -0.08   0.02  -0.04
     8   6     0.09  -0.06  -0.04    -0.10  -0.06   0.05    -0.02   0.01   0.01
     9   6     0.09  -0.01  -0.07    -0.10   0.04   0.04    -0.02   0.01   0.01
    10   6     0.03  -0.04   0.01     0.07   0.15  -0.06    -0.06   0.05   0.08
    11   8    -0.01  -0.04  -0.02     0.09   0.20  -0.12     0.05  -0.03  -0.02
    12   6     0.02  -0.07   0.05     0.07  -0.08   0.05    -0.06   0.07  -0.03
    13   6    -0.06  -0.04  -0.03     0.07  -0.12   0.04     0.01   0.02   0.01
    14   6    -0.01   0.02   0.02    -0.08  -0.19  -0.01     0.06   0.05   0.00
    15   6     0.00   0.09  -0.01    -0.09  -0.02   0.08     0.06  -0.02  -0.07
    16   9    -0.05   0.10   0.00    -0.04   0.00  -0.01     0.03  -0.05   0.02
    17   1    -0.16  -0.18   0.17    -0.11  -0.05   0.01    -0.02   0.01  -0.05
    18   1    -0.07  -0.11   0.04    -0.04   0.15  -0.12     0.00   0.14  -0.10
    19   1    -0.15  -0.06  -0.03    -0.10   0.06  -0.08     0.02   0.10  -0.07
    20   1     0.14   0.01  -0.15    -0.01   0.08  -0.12     0.03  -0.10   0.06
    21   1    -0.05   0.08  -0.04     0.03   0.12  -0.11    -0.00   0.03  -0.15
    22   1     0.06   0.05   0.15    -0.20   0.07   0.22    -0.05  -0.12  -0.01
    23   1    -0.31   0.35   0.62    -0.13   0.42   0.38    -0.30   0.35   0.72
    24   1     0.06  -0.04   0.10    -0.11  -0.14   0.12    -0.08   0.05  -0.12
    25   1    -0.06  -0.03  -0.06     0.07  -0.02   0.01     0.00  -0.07   0.04
    26   1     0.10  -0.04   0.05    -0.08  -0.19  -0.15     0.04   0.07   0.12
                     19                     20                     21
                      A                      A                      A
 Frequencies --    529.5317               559.9132               566.3192
 Red. masses --      5.2415                 5.5401                 3.8350
 Frc consts  --      0.8659                 1.0233                 0.7247
 IR Inten    --      1.6767                12.4442                 0.4039
  Atom  AN      X      Y      Z        X      Y      Z        X      Y      Z
     1   6     0.11   0.11  -0.05    -0.15  -0.03  -0.01    -0.02   0.04  -0.01
     2   6     0.06   0.12   0.07     0.05  -0.02   0.10     0.02   0.04   0.08
     3   6     0.03  -0.14  -0.00     0.04   0.02  -0.05    -0.03  -0.01  -0.16
     4   6     0.01  -0.17   0.01     0.02   0.06  -0.02     0.09   0.00   0.17
     5   6     0.00  -0.13   0.00    -0.01   0.03   0.04    -0.00   0.01  -0.15
     6   6    -0.05   0.13  -0.11    -0.03  -0.00  -0.13     0.03  -0.01   0.03
     7   9    -0.13   0.11   0.07     0.13  -0.01   0.06    -0.02  -0.03   0.00
     8   6     0.02   0.05  -0.02    -0.00  -0.06   0.00    -0.00   0.02   0.20
     9   6     0.01  -0.07   0.00    -0.03  -0.11   0.05    -0.01  -0.04  -0.16
    10   6     0.15  -0.10  -0.09    -0.03  -0.09  -0.01    -0.01   0.01   0.00
    11   8    -0.06   0.06   0.02    -0.23   0.02  -0.05     0.02  -0.00  -0.02
    12   6     0.17  -0.11   0.03     0.01   0.14  -0.04    -0.00   0.04   0.12
    13   6    -0.00   0.03  -0.00     0.02   0.19  -0.02    -0.03  -0.02  -0.15
    14   6    -0.17  -0.08  -0.02    -0.03   0.11  -0.02    -0.05  -0.00   0.15
    15   6    -0.14  -0.02   0.11    -0.01  -0.16   0.08    -0.03  -0.03  -0.11
    16   9     0.03   0.08  -0.03     0.22  -0.12   0.01     0.05  -0.00   0.01
    17   1     0.14   0.04  -0.16    -0.25  -0.20   0.04    -0.05  -0.04  -0.02
    18   1     0.12   0.22  -0.18    -0.16   0.07  -0.10    -0.04   0.10  -0.07
    19   1     0.13  -0.04  -0.00    -0.18   0.03  -0.06    -0.03   0.03  -0.01
    20   1    -0.10  -0.21  -0.02     0.07   0.03  -0.18    -0.13  -0.08  -0.42
    21   1     0.02  -0.14   0.05     0.03   0.10   0.01     0.12  -0.01   0.30
    22   1     0.20  -0.22   0.10    -0.02   0.05   0.29    -0.06   0.04  -0.34
    23   1    -0.06   0.19  -0.04    -0.25   0.19  -0.07    -0.02   0.03   0.08
    24   1     0.26  -0.04   0.19     0.16   0.20  -0.06    -0.00   0.05   0.20
    25   1     0.01   0.27  -0.01     0.02   0.20  -0.02    -0.03  -0.02  -0.30
    26   1    -0.22  -0.06  -0.18    -0.27   0.23  -0.08    -0.07   0.02   0.39
                     22                     23                     24
                      A                      A                      A
 Frequencies --    590.8293               601.0169               605.6108
 Red. masses --      2.8199                 3.3680                 6.0384
 Frc consts  --      0.5800                 0.7168                 1.3048
 IR Inten    --     14.3097                 8.2801                 1.6278
  Atom  AN      X      Y      Z        X      Y      Z        X      Y      Z
     1   6     0.00  -0.01  -0.00    -0.03  -0.02   0.02     0.09   0.15  -0.05
     2   6    -0.06  -0.02  -0.09     0.11  -0.01   0.10    -0.02   0.11   0.05
     3   6    -0.05   0.04   0.04     0.10  -0.09  -0.09    -0.07   0.04  -0.02
     4   6     0.01   0.00   0.00     0.02  -0.01   0.03    -0.07   0.02   0.06
     5   6     0.08   0.04  -0.03    -0.07  -0.04  -0.01    -0.19  -0.10   0.03
     6   6     0.09  -0.02   0.13    -0.07   0.03  -0.09    -0.12  -0.12  -0.00
     7   9    -0.05  -0.03  -0.05    -0.03   0.06   0.03     0.15  -0.10  -0.01
     8   6     0.01   0.03   0.03    -0.00  -0.02  -0.00    -0.06  -0.03   0.04
     9   6    -0.00  -0.01  -0.05    -0.03   0.05  -0.03     0.12  -0.01  -0.05
    10   6    -0.02  -0.06  -0.18    -0.09   0.04  -0.17     0.02  -0.19  -0.10
    11   8     0.02   0.00   0.03     0.11   0.02   0.06    -0.15  -0.10   0.04
    12   6    -0.02   0.04   0.04    -0.13   0.08   0.02     0.06  -0.06   0.04
    13   6    -0.02   0.04  -0.02     0.00  -0.04   0.01     0.02   0.01  -0.04
    14   6    -0.01   0.02  -0.03     0.08  -0.01  -0.03     0.19   0.15  -0.01
    15   6     0.00  -0.03   0.22     0.05   0.01   0.18     0.13   0.13   0.06
    16   9     0.03  -0.03  -0.04    -0.02  -0.03  -0.02    -0.10   0.10  -0.02
    17   1     0.05   0.10  -0.00    -0.12  -0.18   0.06     0.12   0.14  -0.12
    18   1    -0.00  -0.11   0.10    -0.05   0.09  -0.09     0.12   0.22  -0.14
    19   1     0.04   0.02   0.04    -0.08  -0.01  -0.05     0.09   0.02  -0.03
    20   1    -0.05   0.04   0.08     0.09  -0.10  -0.20    -0.13   0.01  -0.04
    21   1    -0.01  -0.09  -0.09     0.05   0.13   0.11    -0.06   0.10   0.11
    22   1     0.04   0.06  -0.28    -0.03  -0.05   0.13    -0.33  -0.03   0.10
    23   1    -0.23   0.20   0.61     0.31  -0.42  -0.28    -0.17  -0.00   0.05
    24   1     0.03   0.12   0.34    -0.24   0.08   0.23     0.22   0.06   0.23
    25   1    -0.02   0.03  -0.01    -0.01  -0.19   0.01     0.02  -0.07  -0.01
    26   1    -0.05   0.03  -0.30     0.11  -0.04  -0.30     0.35   0.06  -0.08
                     25                     26                     27
                      A                      A                      A
 Frequencies --    687.5981               723.3849               736.4199
 Red. masses --      2.8947                 2.6142                 6.8366
 Frc consts  --      0.8064                 0.8060                 2.1845
 IR Inten    --     32.3608                 3.0343                 4.7469
  Atom  AN      X      Y      Z        X      Y      Z        X      Y      Z
     1   6    -0.00   0.00   0.02     0.01   0.02  -0.03    -0.07  -0.16   0.07
     2   6     0.02   0.04   0.11    -0.01  -0.03  -0.08    -0.08   0.02  -0.03
     3   6    -0.02  -0.01  -0.07     0.00   0.01   0.03     0.03   0.17  -0.02
     4   6     0.02   0.01   0.10    -0.03  -0.01  -0.08     0.40  -0.00  -0.11
     5   6    -0.02   0.01  -0.05     0.00  -0.00   0.00     0.06  -0.15  -0.02
     6   6     0.02  -0.03   0.13    -0.01   0.02  -0.09    -0.05  -0.03  -0.03
     7   9     0.01   0.00  -0.00     0.00  -0.02  -0.00    -0.08   0.11   0.05
     8   6     0.00  -0.01  -0.16     0.01   0.01   0.24    -0.19   0.02   0.05
     9   6     0.02  -0.03  -0.15     0.03  -0.04  -0.20    -0.11   0.00  -0.05
    10   6     0.01   0.04   0.16     0.00   0.03   0.08    -0.03  -0.05   0.00
    11   8    -0.02  -0.02  -0.01     0.02  -0.00  -0.01    -0.11  -0.11   0.04
    12   6     0.01  -0.02  -0.07    -0.02  -0.01  -0.00     0.08   0.06  -0.01
    13   6     0.01   0.02   0.13    -0.04   0.01   0.09     0.28  -0.00   0.00
    14   6    -0.01  -0.01  -0.07    -0.01   0.01  -0.00     0.09  -0.05   0.01
    15   6    -0.01  -0.00   0.12     0.00   0.00   0.07    -0.01   0.02  -0.01
    16   9    -0.00   0.02  -0.00     0.01   0.00  -0.00    -0.08   0.11   0.00
    17   1    -0.02  -0.08  -0.01     0.02   0.10   0.00    -0.06  -0.06   0.11
    18   1     0.02   0.11  -0.11    -0.01  -0.07   0.08    -0.08  -0.25   0.17
    19   1    -0.04  -0.11   0.00     0.04   0.11  -0.01    -0.06  -0.13   0.08
    20   1    -0.10  -0.06  -0.31     0.07   0.06   0.28    -0.17   0.05  -0.02
    21   1    -0.03  -0.00  -0.10     0.06  -0.01   0.28     0.40  -0.03  -0.10
    22   1    -0.11   0.05  -0.39     0.11  -0.05   0.43    -0.13  -0.04   0.07
    23   1    -0.04   0.07  -0.00     0.03  -0.00  -0.06    -0.13  -0.01   0.09
    24   1    -0.00  -0.12  -0.50    -0.02  -0.09  -0.38     0.03   0.01  -0.08
    25   1     0.01  -0.01  -0.17    -0.05  -0.06  -0.31     0.29  -0.02  -0.08
    26   1    -0.02  -0.02  -0.44     0.01  -0.02  -0.43     0.01  -0.00  -0.11
                     28                     29                     30
                      A                      A                      A
 Frequencies --    754.9651               765.5948               787.2467
 Red. masses --      1.5041                 1.8591                 6.1487
 Frc consts  --      0.5051                 0.6420                 2.2452
 IR Inten    --     48.5711                27.9979                 0.5309
  Atom  AN      X      Y      Z        X      Y      Z        X      Y      Z
     1   6    -0.01   0.00   0.02     0.00   0.00  -0.01     0.06   0.07  -0.03
     2   6     0.01   0.01   0.06    -0.01  -0.00  -0.01     0.07  -0.04  -0.01
     3   6    -0.03   0.00  -0.08     0.00   0.01   0.01     0.03  -0.14   0.01
     4   6    -0.00   0.00  -0.06     0.01  -0.00   0.00    -0.24   0.00   0.05
     5   6    -0.02  -0.00  -0.09     0.00  -0.00   0.01     0.05   0.15   0.01
     6   6     0.02  -0.02   0.12    -0.01   0.01  -0.02     0.07   0.04  -0.00
     7   9    -0.01   0.01  -0.02     0.00  -0.00   0.00     0.04  -0.06  -0.02
     8   6     0.00   0.00  -0.06    -0.00   0.00   0.05     0.06  -0.00   0.05
     9   6    -0.00   0.00   0.01     0.01  -0.02  -0.10    -0.11  -0.01  -0.03
    10   6     0.00   0.00   0.01     0.00   0.04   0.13    -0.11  -0.01  -0.02
    11   8    -0.00  -0.00  -0.00    -0.00  -0.01  -0.02    -0.09  -0.11   0.03
    12   6     0.00   0.00  -0.01    -0.01  -0.01  -0.08    -0.01   0.19  -0.03
    13   6     0.01  -0.00  -0.01     0.01  -0.01  -0.05     0.40  -0.02  -0.01
    14   6    -0.00  -0.01  -0.01    -0.01  -0.02  -0.12    -0.02  -0.17   0.02
    15   6    -0.00  -0.00   0.01     0.00   0.00   0.14    -0.08  -0.02  -0.01
    16   9     0.00  -0.00  -0.00    -0.01   0.01  -0.02    -0.08   0.12   0.00
    17   1    -0.02  -0.09  -0.02     0.00   0.03   0.01     0.00   0.00   0.01
    18   1     0.02   0.10  -0.11    -0.01  -0.03   0.03     0.03   0.10  -0.06
    19   1    -0.04  -0.10  -0.00     0.01   0.03   0.00     0.03   0.13  -0.08
    20   1     0.11   0.11   0.44    -0.02  -0.01  -0.05     0.21  -0.04   0.07
    21   1     0.17   0.02   0.64    -0.01  -0.00  -0.05    -0.24  -0.01   0.09
    22   1     0.11  -0.06   0.46    -0.01  -0.00  -0.00     0.24   0.04  -0.04
    23   1    -0.04   0.04   0.07     0.02   0.02  -0.11    -0.15  -0.06   0.16
    24   1     0.01   0.02   0.07     0.00   0.10   0.39    -0.22   0.09  -0.05
    25   1     0.01   0.02   0.09     0.02   0.07   0.56     0.40  -0.03  -0.01
    26   1    -0.01   0.01   0.10     0.01   0.02   0.65    -0.26  -0.03  -0.03
                     31                     32                     33
                      A                      A                      A
 Frequencies --    841.7032               846.6229               907.9292
 Red. masses --      1.4588                 1.3837                 4.2851
 Frc consts  --      0.6089                 0.5844                 2.0812
 IR Inten    --      6.7934                 3.5246                32.2043
  Atom  AN      X      Y      Z        X      Y      Z        X      Y      Z
     1   6    -0.00  -0.00   0.00     0.00   0.01  -0.03    -0.09  -0.14   0.08
     2   6     0.00   0.00   0.00    -0.01  -0.00  -0.01    -0.00   0.12  -0.06
     3   6    -0.00  -0.00  -0.01     0.03   0.02   0.10     0.15  -0.12  -0.01
     4   6    -0.00   0.00  -0.00    -0.00  -0.01   0.02    -0.01   0.05   0.00
     5   6     0.00  -0.00   0.01    -0.04   0.01  -0.12    -0.11  -0.05   0.00
     6   6    -0.00   0.00  -0.00     0.02  -0.01   0.05    -0.02   0.14   0.04
     7   9     0.00  -0.00   0.00    -0.00   0.01  -0.01     0.05  -0.15  -0.05
     8   6    -0.00   0.01   0.00     0.01  -0.03  -0.02    -0.00   0.30   0.00
     9   6     0.00   0.01  -0.01     0.00  -0.00   0.01    -0.02   0.13  -0.03
    10   6     0.01   0.02   0.08    -0.00   0.00   0.00    -0.00  -0.01  -0.00
    11   8    -0.00  -0.01  -0.02     0.00  -0.00  -0.00    -0.01  -0.05   0.02
    12   6    -0.01  -0.02  -0.12    -0.01   0.01  -0.01     0.06  -0.04   0.01
    13   6    -0.00   0.00  -0.03     0.01  -0.00  -0.00     0.00   0.02  -0.00
    14   6     0.01   0.00   0.12     0.00  -0.00   0.01    -0.04  -0.02  -0.00
    15   6    -0.01  -0.00  -0.05    -0.00   0.00  -0.01    -0.00   0.01   0.00
    16   9     0.00  -0.00   0.01    -0.00   0.00   0.00     0.01  -0.04  -0.00
    17   1    -0.00  -0.01  -0.00     0.02   0.10   0.01     0.08   0.02  -0.07
    18   1     0.00   0.01  -0.01    -0.02  -0.10   0.10     0.04  -0.22   0.10
    19   1    -0.00  -0.01   0.00     0.04   0.10   0.00    -0.01  -0.42   0.24
    20   1     0.02   0.01   0.06    -0.16  -0.13  -0.62     0.13  -0.14  -0.05
    21   1     0.00   0.01   0.01    -0.04  -0.04  -0.13    -0.01   0.53  -0.08
    22   1    -0.02   0.00  -0.06     0.13  -0.05   0.67    -0.05  -0.08   0.14
    23   1     0.00   0.04  -0.05    -0.01   0.02   0.03    -0.04   0.02   0.02
    24   1     0.01   0.15   0.68    -0.01   0.02   0.06     0.10  -0.03  -0.01
    25   1     0.01   0.04   0.17     0.01  -0.01   0.02     0.01   0.20  -0.05
    26   1     0.01  -0.05  -0.65    -0.00  -0.01  -0.06    -0.08  -0.00   0.03
                     34                     35                     36
                      A                      A                      A
 Frequencies --    938.3574               943.0707               972.8414
 Red. masses --      1.3184                 1.2872                 3.5644
 Frc consts  --      0.6839                 0.6745                 1.9876
 IR Inten    --      0.4063                 0.3406                 4.0492
  Atom  AN      X      Y      Z        X      Y      Z        X      Y      Z
     1   6     0.00  -0.01  -0.01    -0.00  -0.00   0.00    -0.10   0.01   0.00
     2   6     0.00   0.01   0.01    -0.00   0.00  -0.00    -0.04   0.02   0.01
     3   6     0.02   0.03   0.08    -0.00   0.00  -0.01    -0.05   0.09  -0.03
     4   6    -0.04  -0.01  -0.12     0.00   0.00   0.01     0.06   0.00   0.01
     5   6    -0.00  -0.02   0.06    -0.00  -0.00  -0.00    -0.10  -0.11   0.02
     6   6     0.00   0.01   0.00    -0.00   0.00  -0.00    -0.02   0.06   0.00
     7   9     0.00  -0.01   0.00     0.00  -0.00  -0.00     0.01  -0.02  -0.01
     8   6     0.02   0.01  -0.02     0.01   0.00   0.00     0.21  -0.03  -0.01
     9   6     0.01   0.00   0.00     0.01  -0.00  -0.01     0.20  -0.13   0.04
    10   6    -0.00  -0.00  -0.00    -0.00   0.00  -0.00     0.01  -0.04  -0.01
    11   8     0.00  -0.00   0.00     0.00   0.00   0.00     0.02   0.04  -0.01
    12   6    -0.01   0.01   0.00    -0.00   0.02   0.07    -0.13   0.17  -0.03
    13   6     0.00  -0.00  -0.01    -0.01  -0.02  -0.13     0.03  -0.02   0.02
    14   6    -0.01  -0.01   0.00    -0.00  -0.00   0.05    -0.08  -0.11   0.01
    15   6    -0.00   0.00  -0.00     0.00   0.00   0.01    -0.02  -0.02  -0.01
    16   9     0.00  -0.00   0.00     0.00   0.00   0.00    -0.02   0.05   0.00
    17   1    -0.01   0.04   0.03     0.01   0.01  -0.01     0.22   0.36  -0.26
    18   1    -0.03  -0.07   0.07     0.00  -0.00   0.00     0.18  -0.15   0.06
    19   1     0.02   0.06  -0.00     0.00  -0.01   0.01     0.08  -0.35   0.27
    20   1    -0.13  -0.08  -0.49     0.00   0.01   0.03    -0.07   0.08   0.13
    21   1     0.17   0.04   0.71    -0.01   0.00  -0.04     0.03   0.10  -0.12
    22   1    -0.08   0.01  -0.37    -0.01  -0.00   0.02    -0.19  -0.07   0.02
    23   1    -0.00  -0.00   0.00    -0.00   0.00   0.01     0.01   0.11  -0.02
    24   1    -0.01   0.00  -0.03    -0.01  -0.10  -0.48    -0.21   0.15   0.00
    25   1     0.00   0.01   0.04     0.02   0.12   0.78     0.01  -0.22  -0.06
    26   1    -0.02  -0.01  -0.02     0.01  -0.03  -0.32    -0.16  -0.07   0.03
                     37                     38                     39
                      A                      A                      A
 Frequencies --    978.5847              1002.6845              1012.9064
 Red. masses --      1.8726                 2.2963                 2.0927
 Frc consts  --      1.0566                 1.3602                 1.2650
 IR Inten    --     17.3335                 6.1779                 3.2527
  Atom  AN      X      Y      Z        X      Y      Z        X      Y      Z
     1   6     0.09  -0.08  -0.07     0.03   0.06   0.11    -0.07   0.03  -0.11
     2   6     0.05   0.01   0.05    -0.03  -0.08  -0.10    -0.00  -0.01   0.11
     3   6    -0.09   0.09  -0.03    -0.03   0.04   0.04     0.02  -0.04  -0.03
     4   6    -0.01  -0.01   0.03     0.02   0.00  -0.01     0.01  -0.00  -0.00
     5   6    -0.04  -0.09  -0.00    -0.03  -0.03   0.00     0.00   0.03   0.01
     6   6    -0.02   0.04   0.00     0.00  -0.04  -0.02     0.02  -0.08  -0.02
     7   9     0.01  -0.03  -0.01    -0.01   0.03   0.01    -0.01   0.04   0.02
     8   6     0.05   0.06  -0.02     0.06  -0.02   0.02     0.02  -0.07  -0.00
     9   6     0.05   0.06  -0.00     0.08   0.14  -0.02     0.01   0.14  -0.02
    10   6    -0.01   0.01  -0.01    -0.02   0.04  -0.02    -0.02   0.05  -0.01
    11   8    -0.01  -0.03   0.01    -0.03  -0.06   0.02    -0.03  -0.06   0.01
    12   6    -0.00   0.02  -0.00     0.01   0.01  -0.00     0.04  -0.04   0.00
    13   6     0.01   0.01   0.00     0.02   0.03   0.00     0.01   0.03  -0.00
    14   6    -0.05  -0.05   0.00    -0.08  -0.08   0.01    -0.04  -0.03   0.00
    15   6     0.00   0.02  -0.00     0.01   0.08   0.00     0.01   0.07   0.00
    16   9     0.01  -0.03   0.00     0.02  -0.07  -0.00     0.02  -0.06  -0.00
    17   1    -0.22  -0.17   0.36    -0.04  -0.36  -0.07     0.20   0.56  -0.17
    18   1    -0.28  -0.20   0.23     0.07   0.52  -0.41     0.10  -0.37   0.27
    19   1     0.02   0.61  -0.28    -0.19  -0.25  -0.10     0.20   0.02   0.21
    20   1    -0.08   0.11   0.14    -0.05   0.02  -0.15     0.08   0.01   0.11
    21   1    -0.05  -0.06  -0.09     0.01  -0.05  -0.02     0.01  -0.02   0.01
    22   1     0.03  -0.13   0.02    -0.15   0.03   0.07    -0.15   0.11  -0.01
    23   1    -0.02  -0.01   0.02    -0.03  -0.12   0.07    -0.03  -0.17   0.08
    24   1    -0.02   0.01  -0.00    -0.02  -0.01  -0.00    -0.00  -0.05   0.01
    25   1     0.01   0.12  -0.04     0.03   0.33  -0.07     0.03   0.34  -0.06
    26   1    -0.07  -0.04   0.01    -0.07  -0.09   0.02    -0.01  -0.05   0.01
                     40                     41                     42
                      A                      A                      A
 Frequencies --   1072.5594              1084.6309              1122.6173
 Red. masses --      1.6251                 1.3418                 1.1720
 Frc consts  --      1.1014                 0.9300                 0.8702
 IR Inten    --      3.3092                10.6110                 5.6191
  Atom  AN      X      Y      Z        X      Y      Z        X      Y      Z
     1   6     0.02  -0.01  -0.01    -0.03   0.02   0.01     0.00  -0.01   0.00
     2   6    -0.01   0.02   0.00     0.01  -0.02   0.00     0.00   0.02  -0.01
     3   6     0.01  -0.06   0.00     0.02   0.09  -0.01    -0.00  -0.01   0.00
     4   6     0.02  -0.01  -0.02    -0.05   0.02   0.03     0.01  -0.00  -0.00
     5   6     0.02   0.06  -0.00     0.02  -0.09  -0.01    -0.00   0.01   0.00
     6   6    -0.01  -0.01   0.00    -0.00   0.01   0.00    -0.01   0.02   0.01
     7   9     0.00   0.00   0.00    -0.00  -0.00   0.00     0.00  -0.01  -0.00
     8   6    -0.05   0.02  -0.00    -0.02  -0.04   0.00     0.00  -0.00  -0.00
     9   6     0.01  -0.01   0.00    -0.04   0.01  -0.00     0.00  -0.09   0.01
    10   6     0.03  -0.03   0.00    -0.00   0.00  -0.00    -0.02   0.01  -0.00
    11   8    -0.01   0.00   0.00    -0.01  -0.01   0.00     0.01   0.01  -0.01
    12   6    -0.01   0.13  -0.02     0.02   0.02  -0.00    -0.02  -0.02   0.00
    13   6    -0.07   0.02   0.01    -0.02   0.01   0.00     0.01   0.04  -0.01
    14   6     0.00  -0.13   0.01     0.02  -0.03   0.00     0.02   0.01  -0.00
    15   6     0.00   0.02  -0.00    -0.00   0.01   0.00     0.01  -0.02   0.00
    16   9    -0.01  -0.01   0.00     0.00  -0.01  -0.00    -0.00   0.02   0.00
    17   1    -0.03  -0.03   0.05     0.05   0.08  -0.08    -0.01  -0.03   0.02
    18   1    -0.04  -0.02   0.02     0.06  -0.00  -0.02    -0.01  -0.00   0.00
    19   1     0.00   0.06  -0.03     0.00  -0.09   0.06    -0.00  -0.01  -0.00
    20   1    -0.08  -0.11   0.05     0.23   0.21  -0.12    -0.08  -0.05   0.03
    21   1     0.03  -0.06   0.01    -0.07   0.22  -0.01     0.01  -0.02  -0.00
    22   1    -0.18   0.17   0.05     0.65  -0.42  -0.17    -0.02   0.02   0.01
    23   1    -0.01   0.13  -0.05    -0.01   0.01  -0.00     0.00  -0.02   0.02
    24   1     0.41   0.32  -0.10     0.14   0.08  -0.02    -0.53  -0.25   0.07
    25   1    -0.08   0.05  -0.02    -0.02   0.11  -0.02     0.05   0.66  -0.10
    26   1     0.57  -0.46   0.04     0.28  -0.18   0.01     0.38  -0.19   0.02
                     43                     44                     45
                      A                      A                      A
 Frequencies --   1130.3094              1176.6504              1192.0412
 Red. masses --      1.2197                 1.8487                 5.2333
 Frc consts  --      0.9181                 1.5081                 4.3814
 IR Inten    --      1.6832               155.3451                32.6177
  Atom  AN      X      Y      Z        X      Y      Z        X      Y      Z
     1   6     0.03   0.01  -0.01    -0.00   0.01  -0.01     0.01   0.08  -0.03
     2   6    -0.06  -0.00   0.02    -0.01  -0.01   0.01    -0.04  -0.22   0.07
     3   6    -0.03  -0.06   0.01     0.03  -0.02  -0.00    -0.06   0.00   0.01
     4   6     0.03   0.04  -0.02     0.02  -0.00  -0.01     0.16  -0.01  -0.05
     5   6     0.02   0.02  -0.00     0.02   0.05   0.00    -0.08   0.05   0.02
     6   6     0.03  -0.03  -0.01    -0.07   0.03   0.02    -0.12   0.33   0.07
     7   9    -0.00   0.01   0.00     0.01  -0.02  -0.01     0.05  -0.10  -0.04
     8   6    -0.01  -0.04   0.00    -0.09  -0.02  -0.00     0.19  -0.11  -0.01
     9   6     0.04  -0.00   0.00     0.05   0.07  -0.01    -0.23   0.05  -0.02
    10   6     0.01   0.00  -0.00     0.15  -0.03  -0.02    -0.07   0.01  -0.00
    11   8    -0.00  -0.00  -0.00    -0.01  -0.07   0.04     0.02  -0.01   0.02
    12   6    -0.01   0.01  -0.00    -0.06   0.04  -0.00     0.06  -0.05   0.01
    13   6     0.00  -0.00  -0.00     0.00   0.01  -0.00     0.03  -0.01  -0.00
    14   6    -0.01  -0.00   0.00    -0.01   0.00  -0.00     0.04   0.07  -0.01
    15   6     0.00   0.01  -0.00    -0.05   0.07  -0.00    -0.07   0.04   0.01
    16   9     0.00  -0.00   0.00     0.02  -0.04  -0.00     0.02  -0.03  -0.00
    17   1    -0.03  -0.02   0.06     0.01   0.02  -0.01     0.09   0.14  -0.12
    18   1    -0.05   0.04  -0.01    -0.01  -0.00   0.01     0.10   0.12  -0.11
    19   1     0.00   0.09  -0.07    -0.00   0.00  -0.01     0.03   0.11  -0.03
    20   1    -0.41  -0.28   0.15     0.06  -0.00  -0.02    -0.43  -0.21   0.15
    21   1     0.05   0.78  -0.04     0.03  -0.18   0.01     0.17  -0.09  -0.04
    22   1     0.22  -0.09  -0.04     0.23  -0.05  -0.06     0.01   0.02  -0.03
    23   1    -0.00  -0.02   0.01    -0.00   0.60  -0.29    -0.01   0.16  -0.09
    24   1    -0.05  -0.01   0.00    -0.55  -0.17   0.01     0.29   0.04  -0.01
    25   1     0.00  -0.03   0.00    -0.01  -0.23   0.03     0.03  -0.10   0.02
    26   1    -0.07   0.03  -0.00    -0.02   0.01   0.02     0.31  -0.08  -0.00
                     46                     47                     48
                      A                      A                      A
 Frequencies --   1205.7772              1222.8159              1255.2174
 Red. masses --      1.8782                 2.5910                 2.3534
 Frc consts  --      1.6089                 2.2827                 2.1846
 IR Inten    --      3.7788                 5.9254                10.9332
  Atom  AN      X      Y      Z        X      Y      Z        X      Y      Z
     1   6    -0.03  -0.03   0.02     0.05   0.06  -0.04    -0.02   0.01   0.00
     2   6     0.09   0.08  -0.04    -0.14  -0.15   0.08     0.09  -0.01  -0.02
     3   6     0.02   0.01  -0.01     0.02  -0.06   0.01    -0.04   0.03   0.01
     4   6     0.02   0.00  -0.01     0.07   0.00  -0.02    -0.03   0.02   0.01
     5   6     0.00   0.09   0.01     0.02   0.02  -0.00     0.01  -0.02  -0.01
     6   6    -0.13   0.03   0.03    -0.04   0.09   0.03     0.01  -0.06  -0.02
     7   9     0.02  -0.02  -0.01     0.01  -0.03  -0.01    -0.01   0.02   0.01
     8   6    -0.07  -0.08   0.01    -0.12   0.04  -0.02     0.08   0.00   0.01
     9   6     0.08  -0.01   0.01     0.10  -0.01   0.01    -0.10   0.11  -0.02
    10   6    -0.07   0.02  -0.00    -0.05  -0.04   0.01     0.05  -0.02  -0.01
    11   8     0.01   0.02  -0.01     0.03   0.03  -0.01     0.02  -0.04   0.03
    12   6     0.00  -0.00  -0.00    -0.04   0.00   0.00    -0.06  -0.01   0.01
    13   6    -0.00  -0.02   0.00    -0.03  -0.01   0.00    -0.06   0.02   0.00
    14   6    -0.03  -0.04   0.00     0.00  -0.07   0.01     0.10  -0.06   0.00
    15   6     0.08   0.03  -0.00     0.12  -0.06  -0.00     0.09  -0.17  -0.00
    16   9    -0.01   0.00   0.00    -0.03   0.05   0.00    -0.04   0.07   0.00
    17   1    -0.02  -0.04   0.01     0.01   0.06  -0.00    -0.01  -0.01  -0.03
    18   1     0.02  -0.06   0.04    -0.01   0.09  -0.04     0.10  -0.03  -0.01
    19   1     0.00  -0.12   0.08     0.01   0.16  -0.10     0.04  -0.06   0.09
    20   1    -0.43  -0.24   0.14     0.56   0.22  -0.18    -0.30  -0.11   0.07
    21   1     0.02  -0.42   0.02     0.09   0.08  -0.02    -0.03   0.03   0.00
    22   1     0.46  -0.14  -0.10     0.05   0.01  -0.03    -0.05   0.00   0.03
    23   1    -0.00  -0.18   0.08     0.02   0.04  -0.02     0.04   0.58  -0.30
    24   1     0.21   0.09  -0.01     0.12   0.08  -0.01     0.10   0.06  -0.04
    25   1     0.01   0.18  -0.03    -0.01   0.43  -0.06    -0.05   0.43  -0.07
    26   1    -0.29   0.11  -0.02    -0.40   0.15  -0.02    -0.29   0.15   0.01
                     49                     50                     51
                      A                      A                      A
 Frequencies --   1302.9092              1327.5234              1339.4491
 Red. masses --      4.3155                 2.7901                 1.2839
 Frc consts  --      4.3163                 2.8971                 1.3571
 IR Inten    --     30.4666                17.4635                 1.5951
  Atom  AN      X      Y      Z        X      Y      Z        X      Y      Z
     1   6    -0.05   0.05  -0.02    -0.03  -0.04   0.02    -0.04  -0.13   0.05
     2   6     0.20  -0.25   0.03     0.06  -0.00  -0.01    -0.01   0.03  -0.01
     3   6    -0.15  -0.05   0.06    -0.04  -0.01   0.02     0.01  -0.00  -0.00
     4   6     0.03   0.15  -0.01    -0.02   0.02   0.01     0.00  -0.01  -0.00
     5   6     0.10  -0.04  -0.03     0.07  -0.03  -0.02    -0.01   0.01   0.00
     6   6    -0.15  -0.11  -0.00    -0.01  -0.06  -0.01     0.00   0.01   0.00
     7   9    -0.00   0.00   0.00    -0.01   0.02   0.01     0.00  -0.00  -0.00
     8   6    -0.05   0.27  -0.02    -0.00   0.05  -0.00    -0.00  -0.02   0.00
     9   6     0.06  -0.01   0.01    -0.03  -0.09   0.00     0.00   0.01  -0.00
    10   6     0.03  -0.01   0.02    -0.14  -0.12   0.02     0.02   0.02  -0.01
    11   8    -0.02   0.02  -0.02     0.07   0.05   0.00    -0.01  -0.01   0.00
    12   6     0.03   0.01  -0.00    -0.06  -0.03   0.01     0.01   0.01  -0.00
    13   6     0.00   0.04  -0.01     0.09  -0.09   0.01    -0.02   0.01  -0.00
    14   6    -0.02   0.01  -0.00    -0.04   0.04  -0.00     0.01  -0.01   0.00
    15   6    -0.04  -0.06  -0.00    -0.00   0.22   0.00     0.01  -0.03   0.00
    16   9    -0.00   0.02   0.00     0.03  -0.07  -0.00    -0.01   0.01   0.00
    17   1     0.09   0.15  -0.16     0.11   0.19  -0.04     0.21   0.42   0.01
    18   1     0.34  -0.01  -0.13     0.04   0.10  -0.16     0.13   0.35  -0.52
    19   1     0.14   0.08   0.17     0.02   0.16   0.02     0.11   0.56   0.07
    20   1    -0.28  -0.13  -0.07     0.01   0.02  -0.04     0.02  -0.00   0.01
    21   1     0.03  -0.12  -0.01    -0.03   0.12   0.00     0.00  -0.03  -0.00
    22   1     0.15  -0.06   0.04    -0.10   0.06   0.05     0.02  -0.01  -0.01
    23   1    -0.01  -0.36   0.18     0.09   0.60  -0.33    -0.01  -0.08   0.05
    24   1    -0.17  -0.08   0.02     0.29   0.11  -0.03    -0.05  -0.01   0.00
    25   1    -0.01  -0.25   0.04     0.12   0.30  -0.05    -0.02  -0.03   0.00
    26   1     0.20  -0.11   0.01    -0.09   0.09  -0.03    -0.02  -0.00   0.00
                     52                     53                     54
                      A                      A                      A
 Frequencies --   1344.5824              1392.9560              1424.1294
 Red. masses --      6.2664                 1.8941                 1.6062
 Frc consts  --      6.6749                 2.1653                 1.9193
 IR Inten    --     76.6454                 8.4235                24.1656
  Atom  AN      X      Y      Z        X      Y      Z        X      Y      Z
     1   6    -0.01   0.01  -0.00    -0.06   0.02   0.01    -0.02   0.01  -0.00
     2   6     0.05  -0.02  -0.01     0.09  -0.03  -0.02    -0.09   0.04   0.01
     3   6    -0.06  -0.00   0.02    -0.01   0.07  -0.01     0.02  -0.04   0.00
     4   6    -0.01  -0.00   0.00    -0.05  -0.08   0.02     0.04   0.02  -0.01
     5   6     0.06  -0.03  -0.02     0.05  -0.04  -0.01    -0.06   0.04   0.02
     6   6     0.00   0.03   0.01     0.07   0.13   0.01    -0.00  -0.08  -0.01
     7   9     0.01  -0.01   0.00    -0.00  -0.02  -0.01    -0.00   0.01   0.00
     8   6    -0.01   0.03  -0.01    -0.13  -0.06  -0.00     0.05   0.02  -0.00
     9   6    -0.04  -0.23   0.04     0.03   0.02  -0.00     0.05   0.01   0.00
    10   6    -0.07   0.37  -0.15     0.02  -0.02   0.01    -0.07   0.04  -0.02
    11   8    -0.07  -0.18   0.09    -0.00   0.01  -0.01     0.01  -0.02   0.01
    12   6     0.25   0.09  -0.03    -0.02   0.00  -0.00    -0.02  -0.04   0.01
    13   6    -0.12  -0.12   0.03    -0.00   0.01  -0.00     0.05  -0.01  -0.00
    14   6    -0.14   0.03   0.00     0.01  -0.02   0.00    -0.04   0.05  -0.00
    15   6     0.23   0.04   0.01    -0.01   0.03   0.00    -0.04  -0.06   0.00
    16   9    -0.01   0.02  -0.00     0.00  -0.01  -0.00     0.00   0.01  -0.00
    17   1    -0.03  -0.05  -0.02    -0.09  -0.37  -0.17    -0.15  -0.45  -0.08
    18   1     0.08  -0.04   0.02     0.58  -0.20  -0.04     0.53  -0.19  -0.03
    19   1     0.03  -0.03   0.05     0.16   0.25   0.20     0.18   0.34   0.15
    20   1     0.06   0.06  -0.05    -0.12   0.02   0.02     0.10   0.00  -0.01
    21   1    -0.01   0.19  -0.01    -0.06   0.28   0.01     0.04  -0.13  -0.01
    22   1    -0.18   0.09   0.05    -0.32   0.16   0.07     0.21  -0.10  -0.06
    23   1    -0.04   0.51  -0.30    -0.02  -0.10   0.06     0.03   0.21  -0.12
    24   1    -0.11  -0.04   0.07    -0.02   0.00  -0.00     0.16   0.03  -0.01
    25   1    -0.14  -0.19   0.03    -0.00   0.02  -0.00     0.06  -0.03  -0.00
    26   1    -0.09  -0.03  -0.06    -0.06   0.02   0.00     0.20  -0.08   0.00
                     55                     56                     57
                      A                      A                      A
 Frequencies --   1427.4300              1434.4980              1439.0053
 Red. masses --      1.1937                 2.7581                 2.7601
 Frc consts  --      1.4330                 3.3440                 3.3674
 IR Inten    --     15.4011               103.1035                 6.4911
  Atom  AN      X      Y      Z        X      Y      Z        X      Y      Z
     1   6     0.00  -0.00  -0.06     0.00  -0.02   0.04     0.01   0.02  -0.03
     2   6     0.02   0.02  -0.02     0.07   0.03  -0.01    -0.03  -0.14   0.04
     3   6    -0.05  -0.01   0.02    -0.06  -0.01   0.02     0.17   0.08  -0.06
     4   6     0.01  -0.02  -0.00     0.00  -0.04   0.00    -0.07   0.06   0.02
     5   6     0.04   0.00  -0.01     0.06   0.00  -0.01    -0.09  -0.06   0.02
     6   6    -0.04   0.02   0.01    -0.05   0.04   0.02     0.18   0.03  -0.03
     7   9     0.00  -0.00  -0.00     0.01  -0.01  -0.00    -0.01   0.00   0.00
     8   6     0.00  -0.03   0.00    -0.05  -0.03  -0.00    -0.12   0.05  -0.01
     9   6     0.03   0.02   0.00     0.14   0.00   0.02     0.09  -0.01   0.01
    10   6    -0.01   0.02  -0.01     0.00   0.17  -0.06    -0.06   0.04  -0.02
    11   8     0.00  -0.01   0.00    -0.01  -0.06   0.02     0.01  -0.01   0.01
    12   6    -0.02  -0.02   0.00    -0.12  -0.09   0.02    -0.02  -0.03   0.01
    13   6     0.02   0.00  -0.00     0.06  -0.02  -0.00     0.04  -0.01  -0.00
    14   6    -0.00   0.01  -0.00     0.06   0.06  -0.01    -0.03   0.05  -0.00
    15   6    -0.03  -0.02  -0.00    -0.17  -0.10   0.00    -0.03  -0.05   0.00
    16   9     0.00   0.00  -0.00     0.01   0.01   0.00     0.00   0.01   0.00
    17   1    -0.34   0.09   0.57     0.27   0.19  -0.27    -0.05   0.25   0.23
    18   1    -0.08   0.16  -0.17    -0.23  -0.00   0.11    -0.20   0.18  -0.11
    19   1     0.38  -0.24   0.46    -0.31  -0.04  -0.32     0.09  -0.16   0.11
    20   1     0.14   0.09  -0.06     0.11   0.09  -0.06    -0.49  -0.28   0.20
    21   1     0.01   0.12  -0.01     0.01   0.19  -0.00    -0.09  -0.33   0.04
    22   1    -0.04   0.05   0.02    -0.09   0.09   0.03    -0.06  -0.10  -0.02
    23   1    -0.00   0.02  -0.01    -0.00   0.09  -0.04     0.02   0.22  -0.11
    24   1     0.07   0.02  -0.01     0.45   0.16  -0.06     0.14   0.03  -0.01
    25   1     0.02  -0.00  -0.00     0.09   0.18  -0.04     0.05  -0.01  -0.00
    26   1     0.06  -0.02   0.00     0.17   0.02   0.02     0.14  -0.05   0.00
                     58                     59                     60
                      A                      A                      A
 Frequencies --   1457.8716              1556.0188              1572.6401
 Red. masses --      3.1442                 6.3574                 6.4900
 Frc consts  --      3.9373                 9.0691                 9.4570
 IR Inten    --     52.9229                19.3011                56.8814
  Atom  AN      X      Y      Z        X      Y      Z        X      Y      Z
     1   6    -0.00   0.02  -0.02     0.01  -0.01   0.01    -0.00   0.00  -0.01
     2   6    -0.05  -0.03   0.01    -0.10   0.13  -0.01     0.03  -0.03  -0.00
     3   6     0.02  -0.02  -0.00    -0.01  -0.19   0.03    -0.02   0.02   0.00
     4   6     0.01   0.06  -0.01    -0.06   0.46   0.00     0.03  -0.08  -0.01
     5   6    -0.06  -0.01   0.01     0.20  -0.29  -0.06    -0.08   0.07   0.02
     6   6     0.04  -0.02  -0.01    -0.00   0.14   0.02     0.04  -0.04  -0.01
     7   9     0.00  -0.00   0.00    -0.01  -0.01  -0.00     0.00   0.00   0.00
     8   6     0.03   0.07  -0.01    -0.00  -0.18   0.01    -0.00   0.06  -0.00
     9   6    -0.07  -0.13   0.01     0.02   0.00   0.00     0.01  -0.17   0.03
    10   6     0.20   0.11  -0.03    -0.04   0.03  -0.01    -0.14   0.12  -0.04
    11   8    -0.05  -0.04   0.00     0.01  -0.00   0.00     0.02  -0.02   0.01
    12   6    -0.11   0.04  -0.00    -0.00  -0.05   0.01    -0.02  -0.20   0.04
    13   6    -0.04  -0.13   0.02    -0.00   0.11  -0.02    -0.03   0.45  -0.07
    14   6     0.16  -0.02  -0.00     0.04  -0.06   0.01     0.22  -0.29   0.02
    15   6    -0.11   0.14  -0.00    -0.00   0.01   0.00    -0.05   0.15  -0.00
    16   9     0.02  -0.04  -0.00    -0.00  -0.00  -0.00    -0.00  -0.02  -0.00
    17   1    -0.15  -0.15   0.12    -0.00  -0.13  -0.06    -0.02  -0.01   0.03
    18   1     0.18  -0.03  -0.04     0.10  -0.06   0.02     0.03  -0.01  -0.00
    19   1     0.18   0.06   0.17    -0.01   0.13  -0.05     0.04  -0.02   0.05
    20   1    -0.04  -0.06   0.03     0.04  -0.19  -0.00     0.02   0.04  -0.01
    21   1     0.01  -0.20  -0.00    -0.09  -0.52   0.05     0.04   0.06  -0.02
    22   1     0.09  -0.09  -0.03    -0.32  -0.04   0.10     0.11  -0.03  -0.04
    23   1    -0.05  -0.30   0.18    -0.01   0.01   0.00     0.05   0.24  -0.12
    24   1     0.17   0.19  -0.06     0.01  -0.05   0.01     0.07  -0.20   0.03
    25   1    -0.01   0.47  -0.07    -0.02  -0.14   0.02    -0.10  -0.48   0.07
    26   1    -0.31   0.27  -0.00    -0.05  -0.02   0.01    -0.32   0.00   0.03
                     61                     62                     63
                      A                      A                      A
 Frequencies --   1607.6705              1620.8633              2981.2925
 Red. masses --      6.8861                 7.1814                 1.0398
 Frc consts  --     10.4862                11.1160                 5.4452
 IR Inten    --      3.1891                75.6370                18.1359
  Atom  AN      X      Y      Z        X      Y      Z        X      Y      Z
     1   6    -0.01  -0.01   0.01     0.00  -0.00  -0.00    -0.01   0.05  -0.02
     2   6     0.23   0.05  -0.06    -0.04   0.01   0.01    -0.00  -0.00   0.00
     3   6    -0.31  -0.18   0.10     0.06   0.03  -0.02    -0.00  -0.00   0.00
     4   6     0.17   0.13  -0.05    -0.03  -0.02   0.01     0.00   0.00  -0.00
     5   6    -0.32   0.05   0.07     0.06  -0.01  -0.01     0.00  -0.00  -0.00
     6   6     0.35   0.07  -0.05    -0.07  -0.03   0.01    -0.00  -0.00   0.00
     7   9    -0.01   0.00   0.00    -0.00   0.01  -0.00     0.00   0.00   0.00
     8   6    -0.15  -0.08   0.01     0.02   0.00   0.00     0.00  -0.00   0.00
     9   6     0.02   0.04  -0.00     0.16   0.07   0.00    -0.00   0.00   0.00
    10   6    -0.05  -0.05   0.01    -0.27  -0.06   0.02    -0.00  -0.00   0.00
    11   8     0.01   0.01  -0.00     0.03   0.01   0.01     0.00   0.00  -0.00
    12   6     0.07   0.05  -0.01     0.35   0.19  -0.05    -0.00   0.00  -0.00
    13   6    -0.03  -0.06   0.01    -0.18  -0.15   0.03    -0.00  -0.00  -0.00
    14   6     0.02   0.01  -0.00     0.31  -0.05  -0.00    -0.00   0.00  -0.00
    15   6    -0.03  -0.00   0.00    -0.34  -0.04   0.00     0.00   0.00   0.00
    16   9     0.00  -0.00   0.00     0.02  -0.01  -0.00     0.00  -0.00   0.00
    17   1     0.06   0.09  -0.04    -0.02  -0.02   0.02     0.59  -0.24   0.36
    18   1    -0.07   0.00   0.03     0.02  -0.01  -0.01    -0.16  -0.38  -0.36
    19   1    -0.05  -0.11  -0.01     0.02   0.02   0.01    -0.30   0.06   0.25
    20   1     0.36   0.17  -0.16    -0.04  -0.03   0.02    -0.01   0.01  -0.00
    21   1     0.19  -0.19  -0.06    -0.03   0.03   0.01     0.00   0.00  -0.00
    22   1     0.24  -0.27  -0.11    -0.03   0.04   0.02    -0.00  -0.00  -0.00
    23   1     0.02   0.10  -0.04     0.01   0.19  -0.12    -0.00  -0.00   0.00
    24   1    -0.10  -0.02   0.01    -0.38  -0.12   0.06     0.00  -0.00   0.00
    25   1    -0.03   0.06  -0.01    -0.19   0.20  -0.01     0.00  -0.00   0.00
    26   1    -0.02   0.04  -0.00    -0.23   0.28   0.00    -0.00  -0.00   0.00
                     64                     65                     66
                      A                      A                      A
 Frequencies --   3054.8402              3097.4540              3100.4000
 Red. masses --      1.1009                 1.0913                 1.0992
 Frc consts  --      6.0530                 6.1688                 6.2254
 IR Inten    --      8.0177                 4.8437                 7.8543
  Atom  AN      X      Y      Z        X      Y      Z        X      Y      Z
     1   6    -0.07  -0.02  -0.05    -0.02   0.02   0.03    -0.05   0.03   0.06
     2   6    -0.00  -0.00   0.00    -0.00  -0.00   0.00     0.00   0.00  -0.00
     3   6     0.00  -0.00   0.00     0.04  -0.07   0.00    -0.02   0.03  -0.00
     4   6    -0.00   0.00   0.00    -0.02   0.00   0.00     0.01  -0.00  -0.00
     5   6     0.00  -0.00  -0.00     0.00   0.00  -0.00    -0.00  -0.00  -0.00
     6   6    -0.00  -0.00   0.00    -0.00   0.00   0.00    -0.00  -0.00   0.00
     7   9     0.00  -0.00  -0.00    -0.00  -0.00  -0.00     0.00  -0.00  -0.00
     8   6    -0.00   0.00  -0.00    -0.00   0.00  -0.00     0.00  -0.00  -0.00
     9   6     0.00   0.00   0.00     0.00  -0.00  -0.00     0.00   0.00   0.00
    10   6    -0.00   0.00   0.00     0.00   0.00  -0.00    -0.00  -0.00   0.00
    11   8    -0.00   0.00  -0.00     0.00  -0.00   0.00    -0.00   0.00  -0.00
    12   6     0.00   0.00  -0.00     0.00  -0.00   0.00     0.00  -0.00  -0.00
    13   6    -0.00  -0.00   0.00    -0.00   0.00   0.00    -0.00  -0.00   0.00
    14   6    -0.00   0.00   0.00     0.00   0.00  -0.00     0.00   0.00  -0.00
    15   6     0.00  -0.00  -0.00     0.00  -0.00   0.00     0.00  -0.00   0.00
    16   9    -0.00   0.00  -0.00    -0.00   0.00  -0.00    -0.00  -0.00  -0.00
    17   1     0.51  -0.22   0.31     0.04  -0.01   0.03     0.14  -0.05   0.10
    18   1     0.20   0.52   0.48    -0.06  -0.12  -0.12    -0.11  -0.24  -0.22
    19   1     0.13  -0.03  -0.14     0.29  -0.05  -0.24     0.62  -0.11  -0.52
    20   1    -0.01   0.03  -0.00    -0.43   0.76  -0.04     0.20  -0.35   0.02
    21   1     0.00  -0.00  -0.00     0.22  -0.01  -0.06    -0.11   0.00   0.03
    22   1     0.00   0.00  -0.00    -0.02  -0.04   0.00     0.01   0.02  -0.00
    23   1     0.00   0.00   0.00    -0.00  -0.00  -0.00     0.00   0.00   0.00
    24   1    -0.00   0.00  -0.00    -0.00   0.00  -0.00    -0.00   0.00  -0.00
    25   1     0.00  -0.00  -0.00     0.00  -0.00  -0.00     0.00  -0.00   0.00
    26   1    -0.00  -0.00  -0.00    -0.00  -0.00   0.00    -0.00  -0.00   0.00
                     67                     68                     69
                      A                      A                      A
 Frequencies --   3118.4559              3125.6010              3137.2718
 Red. masses --      1.0873                 1.0904                 1.0926
 Frc consts  --      6.2301                 6.2765                 6.3358
 IR Inten    --      4.3912                 5.3751                 3.5299
  Atom  AN      X      Y      Z        X      Y      Z        X      Y      Z
     1   6     0.00  -0.00  -0.00    -0.00   0.00  -0.00    -0.00   0.00   0.00
     2   6     0.00   0.00  -0.00     0.00   0.00  -0.00     0.00   0.00  -0.00
     3   6    -0.00   0.00  -0.00    -0.01   0.02  -0.00     0.00  -0.00   0.00
     4   6    -0.00  -0.00   0.00    -0.07  -0.00   0.02     0.00  -0.00  -0.00
     5   6     0.00   0.00  -0.00     0.02   0.04  -0.00     0.00   0.00  -0.00
     6   6     0.00  -0.00  -0.00    -0.00   0.00   0.00     0.00  -0.00  -0.00
     7   9    -0.00   0.00  -0.00     0.00  -0.00  -0.00    -0.00   0.00  -0.00
     8   6     0.00  -0.00  -0.00    -0.00  -0.00  -0.00    -0.00  -0.00   0.00
     9   6    -0.00  -0.00  -0.00     0.00   0.00  -0.00     0.00   0.00  -0.00
    10   6    -0.00  -0.00   0.00     0.00   0.00  -0.00    -0.00  -0.00   0.00
    11   8     0.00   0.00   0.00     0.00   0.00   0.00     0.00   0.00  -0.00
    12   6     0.01  -0.03   0.01    -0.00   0.00  -0.00     0.03  -0.06   0.01
    13   6    -0.08   0.00   0.00     0.00  -0.00  -0.00     0.02   0.00  -0.00
    14   6     0.01   0.02  -0.00    -0.00  -0.00   0.00    -0.02  -0.04   0.00
    15   6    -0.00   0.00   0.00    -0.00  -0.00  -0.00     0.00  -0.00  -0.00
    16   9    -0.00  -0.00  -0.00    -0.00   0.00  -0.00    -0.00   0.00  -0.00
    17   1    -0.00   0.00  -0.00     0.00  -0.00   0.00     0.00  -0.00   0.00
    18   1     0.00   0.00   0.00    -0.00  -0.00   0.00    -0.00  -0.00  -0.00
    19   1    -0.00   0.00   0.00     0.00  -0.00  -0.00     0.00  -0.00  -0.00
    20   1     0.00  -0.00   0.00     0.11  -0.21   0.01    -0.00   0.00  -0.00
    21   1     0.00  -0.00  -0.00     0.77  -0.02  -0.19    -0.00   0.00   0.00
    22   1    -0.00  -0.00   0.00    -0.26  -0.49   0.01    -0.00  -0.00   0.00
    23   1    -0.00  -0.00  -0.00    -0.00  -0.00  -0.00     0.00   0.00  -0.00
    24   1    -0.16   0.33  -0.07     0.00  -0.00   0.00    -0.34   0.73  -0.15
    25   1     0.87  -0.05  -0.02    -0.01   0.00   0.00    -0.16   0.01   0.00
    26   1    -0.15  -0.25   0.02     0.00   0.00  -0.00     0.27   0.47  -0.03
                     70                     71                     72
                      A                      A                      A
 Frequencies --   3140.2280              3143.2564              3590.4707
 Red. masses --      1.0985                 1.0984                 1.0633
 Frc consts  --      6.3823                 6.3939                 8.0761
 IR Inten    --      1.8572                 2.2829               364.3777
  Atom  AN      X      Y      Z        X      Y      Z        X      Y      Z
     1   6    -0.00   0.00   0.00    -0.00   0.00   0.00     0.00  -0.00  -0.00
     2   6     0.00   0.00  -0.00    -0.00  -0.00   0.00    -0.00   0.00  -0.00
     3   6    -0.00   0.01  -0.00     0.00  -0.00   0.00     0.00  -0.00  -0.00
     4   6    -0.05   0.00   0.01     0.00  -0.00  -0.00    -0.00   0.00   0.00
     5   6    -0.03  -0.07   0.00     0.00   0.00  -0.00     0.00  -0.00  -0.00
     6   6     0.00  -0.00  -0.00    -0.00   0.00   0.00    -0.00   0.01   0.00
     7   9    -0.00   0.00   0.00     0.00  -0.00  -0.00    -0.00  -0.00  -0.00
     8   6     0.00   0.00   0.00     0.00  -0.00   0.00     0.00  -0.00  -0.00
     9   6     0.00  -0.00   0.00    -0.00   0.00   0.00    -0.00   0.00  -0.00
    10   6    -0.00  -0.00   0.00     0.00   0.00  -0.00    -0.00  -0.00   0.00
    11   8    -0.00   0.00  -0.00    -0.00  -0.00  -0.00    -0.06  -0.01  -0.02
    12   6     0.00  -0.00   0.00    -0.01   0.04  -0.01     0.00   0.00  -0.00
    13   6    -0.00   0.00   0.00    -0.04   0.00   0.00    -0.00  -0.00   0.00
    14   6    -0.00  -0.00   0.00    -0.03  -0.06   0.00    -0.00   0.00  -0.00
    15   6     0.00   0.00  -0.00     0.00  -0.00  -0.00     0.00  -0.00  -0.00
    16   9    -0.00  -0.00   0.00    -0.00   0.00   0.00    -0.00   0.00   0.00
    17   1     0.00  -0.00   0.00     0.00  -0.00   0.00    -0.00  -0.00  -0.00
    18   1    -0.00  -0.00  -0.00    -0.00  -0.00  -0.00     0.00  -0.00  -0.00
    19   1     0.00  -0.00  -0.00     0.00  -0.00  -0.00    -0.00  -0.00   0.00
    20   1     0.05  -0.09   0.01    -0.00   0.00  -0.00    -0.00   0.00   0.00
    21   1     0.53  -0.01  -0.13    -0.00   0.00   0.00     0.00  -0.00  -0.00
    22   1     0.38   0.73  -0.02    -0.00  -0.01   0.00    -0.00  -0.00   0.00
    23   1     0.00   0.00   0.00     0.00  -0.00   0.00     0.93   0.16   0.34
    24   1    -0.00   0.00  -0.00     0.18  -0.39   0.08    -0.00   0.00  -0.00
    25   1     0.00  -0.00  -0.00     0.44  -0.03  -0.01     0.00   0.00   0.00
    26   1     0.00   0.01  -0.00     0.39   0.68  -0.04    -0.00  -0.00   0.00

 -------------------
 - Thermochemistry -
 -------------------
 Temperature   298.150 Kelvin.  Pressure   1.00000 Atm.
 Atom     1 has atomic number  6 and mass  12.00000
 Atom     2 has atomic number  6 and mass  12.00000
 Atom     3 has atomic number  6 and mass  12.00000
 Atom     4 has atomic number  6 and mass  12.00000
 Atom     5 has atomic number  6 and mass  12.00000
 Atom     6 has atomic number  6 and mass  12.00000
 Atom     7 has atomic number  9 and mass  18.99840
 Atom     8 has atomic number  6 and mass  12.00000
 Atom     9 has atomic number  6 and mass  12.00000
 Atom    10 has atomic number  6 and mass  12.00000
 Atom    11 has atomic number  8 and mass  15.99491
 Atom    12 has atomic number  6 and mass  12.00000
 Atom    13 has atomic number  6 and mass  12.00000
 Atom    14 has atomic number  6 and mass  12.00000
 Atom    15 has atomic number  6 and mass  12.00000
 Atom    16 has atomic number  9 and mass  18.99840
 Atom    17 has atomic number  1 and mass   1.00783
 Atom    18 has atomic number  1 and mass   1.00783
 Atom    19 has atomic number  1 and mass   1.00783
 Atom    20 has atomic number  1 and mass   1.00783
 Atom    21 has atomic number  1 and mass   1.00783
 Atom    22 has atomic number  1 and mass   1.00783
 Atom    23 has atomic number  1 and mass   1.00783
 Atom    24 has atomic number  1 and mass   1.00783
 Atom    25 has atomic number  1 and mass   1.00783
 Atom    26 has atomic number  1 and mass   1.00783
 Molecular mass:   220.06997 amu.
 Principal axes and moments of inertia in atomic units:
                           1         2         3
     Eigenvalues --  2150.389233834.308435770.97635
           X            0.99834   0.03892  -0.04239
           Y           -0.03386   0.99290   0.11399
           Z            0.04652  -0.11236   0.99258
 This molecule is an asymmetric top.
 Rotational symmetry number  1.
 Warning -- assumption of classical behavior for rotation
           may cause significant error
 Rotational temperatures (Kelvin)      0.04028     0.02259     0.01501
 Rotational constants (GHZ):           0.83926     0.47068     0.31273
    1 imaginary frequencies ignored.
 Zero-point vibrational energy     502961.2 (Joules/Mol)
                                  120.21061 (Kcal/Mol)
 Warning -- explicit consideration of  23 degrees of freedom as
           vibrations may cause significant error
 Vibrational temperatures:     66.51   169.72   261.49   285.70   295.38
          (Kelvin)            308.77   428.41   446.64   480.75   487.40
                              510.85   642.73   677.74   689.74   720.30
                              735.57   757.33   761.88   805.59   814.81
                              850.07   864.73   871.34   989.30  1040.79
                             1059.54  1086.23  1101.52  1132.67  1211.02
                             1218.10  1306.31  1350.09  1356.87  1399.70
                             1407.97  1442.64  1457.35  1543.17  1560.54
                             1615.20  1626.26  1692.94  1715.08  1734.84
                             1759.36  1805.98  1874.60  1910.01  1927.17
                             1934.55  2004.15  2049.00  2053.75  2063.92
                             2070.41  2097.55  2238.76  2262.68  2313.08
                             2332.06  4289.41  4395.23  4456.55  4460.78
                             4486.76  4497.04  4513.83  4518.09  4522.44
                             5165.89
 
 Zero-point correction=                           0.191568 (Hartree/Particle)
 Thermal correction to Energy=                    0.203859
 Thermal correction to Enthalpy=                  0.204803
 Thermal correction to Gibbs Free Energy=         0.153581
 Sum of electronic and zero-point Energies=           -775.559436
 Sum of electronic and thermal Energies=              -775.547145
 Sum of electronic and thermal Enthalpies=            -775.546201
 Sum of electronic and thermal Free Energies=         -775.597422
 
                     E (Thermal)             CV                S
                      KCal/Mol        Cal/Mol-Kelvin    Cal/Mol-Kelvin
 Total                  127.924             51.528            107.806
 Electronic               0.000              0.000              0.000
 Translational            0.889              2.981             42.069
 Rotational               0.889              2.981             32.231
 Vibrational            126.146             45.566             33.505
 Vibration     1          0.595              1.979              4.973
 Vibration     2          0.608              1.934              3.133
 Vibration     3          0.630              1.865              2.310
 Vibration     4          0.637              1.842              2.146
 Vibration     5          0.640              1.832              2.085
 Vibration     6          0.645              1.819              2.004
 Vibration     7          0.691              1.678              1.429
 Vibration     8          0.699              1.654              1.360
 Vibration     9          0.716              1.607              1.240
 Vibration    10          0.719              1.598              1.218
 Vibration    11          0.731              1.565              1.144
 Vibration    12          0.806              1.368              0.806
 Vibration    13          0.828              1.314              0.735
 Vibration    14          0.836              1.296              0.712
 Vibration    15          0.856              1.249              0.657
 Vibration    16          0.866              1.225              0.631
 Vibration    17          0.881              1.192              0.595
 Vibration    18          0.884              1.185              0.588
 Vibration    19          0.916              1.118              0.524
 Vibration    20          0.922              1.104              0.511
 Vibration    21          0.948              1.051              0.466
 Vibration    22          0.959              1.030              0.448
 Vibration    23          0.964              1.020              0.440
                       Q            Log10(Q)             Ln(Q)
 Total Bot       0.227792D-70        -70.642461       -162.660278
 Total V=0       0.296847D+18         17.472533         40.231993
 Vib (Bot)       0.718905D-85        -85.143328       -196.049759
 Vib (Bot)    1  0.447371D+01          0.650668          1.498219
 Vib (Bot)    2  0.173317D+01          0.238841          0.549952
 Vib (Bot)    3  0.110444D+01          0.043141          0.099336
 Vib (Bot)    4  0.100468D+01          0.002027          0.004667
 Vib (Bot)    5  0.969254D+00         -0.013562         -0.031228
 Vib (Bot)    6  0.923767D+00         -0.034438         -0.079296
 Vib (Bot)    7  0.639502D+00         -0.194158         -0.447066
 Vib (Bot)    8  0.608985D+00         -0.215393         -0.495961
 Vib (Bot)    9  0.557763D+00         -0.253550         -0.583821
 Vib (Bot)   10  0.548556D+00         -0.260779         -0.600467
 Vib (Bot)   11  0.517913D+00         -0.285743         -0.657947
 Vib (Bot)   12  0.384899D+00         -0.414653         -0.954775
 Vib (Bot)   13  0.357757D+00         -0.446411         -1.027900
 Vib (Bot)   14  0.349051D+00         -0.457111         -1.052536
 Vib (Bot)   15  0.328108D+00         -0.483984         -1.114413
 Vib (Bot)   16  0.318252D+00         -0.497229         -1.144912
 Vib (Bot)   17  0.304859D+00         -0.515901         -1.187905
 Vib (Bot)   18  0.302151D+00         -0.519776         -1.196829
 Vib (Bot)   19  0.277606D+00         -0.556571         -1.281552
 Vib (Bot)   20  0.272751D+00         -0.564233         -1.299195
 Vib (Bot)   21  0.255109D+00         -0.593274         -1.366063
 Vib (Bot)   22  0.248185D+00         -0.605225         -1.393582
 Vib (Bot)   23  0.245136D+00         -0.610593         -1.405941
 Vib (V=0)       0.936840D+03          2.971665          6.842512
 Vib (V=0)    1  0.500157D+01          0.699106          1.609752
 Vib (V=0)    2  0.230385D+01          0.362454          0.834582
 Vib (V=0)    3  0.171235D+01          0.233591          0.537864
 Vib (V=0)    4  0.162222D+01          0.210110          0.483795
 Vib (V=0)    5  0.159062D+01          0.201567          0.464124
 Vib (V=0)    6  0.155040D+01          0.190444          0.438514
 Vib (V=0)    7  0.131177D+01          0.117856          0.271374
 Vib (V=0)    8  0.128795D+01          0.109899          0.253051
 Vib (V=0)    9  0.124907D+01          0.096585          0.222396
 Vib (V=0)   10  0.124224D+01          0.094204          0.216912
 Vib (V=0)   11  0.121988D+01          0.086319          0.198757
 Vib (V=0)   12  0.113099D+01          0.053458          0.123092
 Vib (V=0)   13  0.111481D+01          0.047201          0.108683
 Vib (V=0)   14  0.110978D+01          0.045239          0.104166
 Vib (V=0)   15  0.109804D+01          0.040619          0.093529
 Vib (V=0)   16  0.109269D+01          0.038498          0.088645
 Vib (V=0)   17  0.108561D+01          0.035674          0.082142
 Vib (V=0)   18  0.108420D+01          0.035111          0.080847
 Vib (V=0)   19  0.107190D+01          0.030153          0.069429
 Vib (V=0)   20  0.106956D+01          0.029203          0.067243
 Vib (V=0)   21  0.106132D+01          0.025847          0.059514
 Vib (V=0)   22  0.105821D+01          0.024571          0.056577
 Vib (V=0)   23  0.105686D+01          0.024017          0.055301
 Electronic      0.100000D+01          0.000000          0.000000
 Translational   0.128320D+09          8.108295         18.670039
 Rotational      0.246929D+07          6.392572         14.719442
 -------------------------------------------------------------------
 Center     Atomic                   Forces (Hartrees/Bohr)
 Number     Number              X              Y              Z
 -------------------------------------------------------------------
      1        6           0.000015676   -0.000020376   -0.000020287
      2        6          -0.000007655   -0.000000494    0.000022559
      3        6          -0.000003224   -0.000005416    0.000001993
      4        6           0.000000229    0.000003530    0.000005177
      5        6           0.000002802   -0.000003671    0.000011047
      6        6           0.000006015   -0.000010029   -0.000019528
      7        9           0.000009386    0.000002577    0.000001996
      8        6           0.000006113    0.000012925   -0.000019933
      9        6           0.000004490    0.000003123    0.000041435
     10        6           0.000005528    0.000000859   -0.000013451
     11        8          -0.000031349    0.000023239    0.000042368
     12        6          -0.000005285   -0.000008210   -0.000012942
     13        6           0.000000857    0.000004882    0.000002585
     14        6           0.000004213   -0.000002196   -0.000007806
     15        6          -0.000011558    0.000001464   -0.000024135
     16        9          -0.000033261    0.000009859    0.000013446
     17        1           0.000001387    0.000005182    0.000007144
     18        1           0.000020359    0.000002739    0.000006218
     19        1           0.000005191   -0.000003815   -0.000001831
     20        1          -0.000000959   -0.000000321   -0.000004237
     21        1           0.000000436    0.000000075    0.000002668
     22        1          -0.000000089   -0.000000261   -0.000002946
     23        1           0.000011867   -0.000017022   -0.000028004
     24        1          -0.000000139    0.000000202   -0.000000921
     25        1          -0.000000074    0.000000477   -0.000001895
     26        1          -0.000000953    0.000000678   -0.000000721
 -------------------------------------------------------------------
 Cartesian Forces:  Max     0.000042368 RMS     0.000012752
 FormGI is forming the generalized inverse of G from B-inverse, IUseBI=4.

 GradGradGradGradGradGradGradGradGradGradGradGradGradGradGradGradGradGrad
 Berny optimization.
 Internal  Forces:  Max     0.000082640 RMS     0.000019350
 Search for a saddle point.
 Step number   1 out of a maximum of    2
 All quantities printed in internal units (Hartrees-Bohrs-Radians)
 Swapping is turned off.
 Second derivative matrix not updated -- analytic derivatives used.
 ITU=  0
     Eigenvalues ---   -0.02540   0.00352   0.00710   0.01100   0.01446
     Eigenvalues ---    0.01565   0.01579   0.01628   0.01711   0.01753
     Eigenvalues ---    0.01852   0.02125   0.02156   0.02254   0.02320
     Eigenvalues ---    0.02595   0.02849   0.02911   0.03050   0.03890
     Eigenvalues ---    0.05148   0.05462   0.05505   0.09864   0.09902
     Eigenvalues ---    0.10611   0.10810   0.10981   0.11144   0.11582
     Eigenvalues ---    0.13191   0.14083   0.14689   0.16282   0.16443
     Eigenvalues ---    0.17035   0.17617   0.17867   0.18141   0.18672
     Eigenvalues ---    0.19484   0.19727   0.22801   0.25357   0.26638
     Eigenvalues ---    0.27380   0.29363   0.31521   0.32297   0.32774
     Eigenvalues ---    0.33045   0.33634   0.34026   0.34354   0.34498
     Eigenvalues ---    0.34523   0.34802   0.34902   0.35007   0.35762
     Eigenvalues ---    0.39917   0.40442   0.43565   0.44625   0.45856
     Eigenvalues ---    0.46319   0.47527   0.49108   0.49424   0.51385
     Eigenvalues ---    0.87670   2.26802
 Eigenvectors required to have negative eigenvalues:
                          D31       D32       D33       D34       D43
   1                    0.46025   0.44664   0.39417   0.38056  -0.17478
                          D40       D2        D4        D44       D6
   1                    0.15511  -0.15202  -0.14989  -0.14869  -0.14144
 Angle between quadratic step and forces=  72.45 degrees.
 Linear search not attempted -- option 19 set.
 Iteration  1 RMS(Cart)=  0.00080736 RMS(Int)=  0.00000070
 Iteration  2 RMS(Cart)=  0.00000103 RMS(Int)=  0.00000002
 Iteration  3 RMS(Cart)=  0.00000000 RMS(Int)=  0.00000002
 Variable       Old X    -DE/DX   Delta X   Delta X   Delta X     New X
                                 (Linear)    (Quad)   (Total)
    R1        2.87565   0.00000   0.00000  -0.00005  -0.00005   2.87560
    R2        2.09531  -0.00000   0.00000  -0.00001  -0.00001   2.09531
    R3        2.09111   0.00001   0.00000   0.00000   0.00000   2.09111
    R4        2.08462   0.00001   0.00000   0.00006   0.00006   2.08468
    R5        2.67096  -0.00000   0.00000  -0.00005  -0.00005   2.67091
    R6        2.75560  -0.00005   0.00000  -0.00009  -0.00009   2.75551
    R7        2.64250   0.00001   0.00000   0.00004   0.00004   2.64254
    R8        2.08211   0.00000   0.00000   0.00000   0.00000   2.08212
    R9        2.64022   0.00002   0.00000   0.00004   0.00004   2.64026
   R10        2.07861   0.00000   0.00000   0.00000   0.00000   2.07861
   R11        2.63197   0.00000   0.00000   0.00000   0.00000   2.63198
   R12        2.07773   0.00000   0.00000   0.00000   0.00000   2.07773
   R13        2.61550   0.00000   0.00000   0.00001   0.00001   2.61551
   R14        2.70444  -0.00001   0.00000  -0.00003  -0.00003   2.70441
   R15        2.84513  -0.00006   0.00000  -0.00030  -0.00030   2.84483
   R16        2.76000  -0.00003   0.00000  -0.00010  -0.00010   2.75990
   R17        2.71220  -0.00003   0.00000  -0.00007  -0.00007   2.71212
   R18        2.55418   0.00001   0.00000   0.00010   0.00010   2.55427
   R19        2.67748  -0.00000   0.00000  -0.00008  -0.00008   2.67739
   R20        1.85112   0.00000   0.00000   0.00006   0.00006   1.85118
   R21        2.62821   0.00002   0.00000   0.00010   0.00010   2.62831
   R22        2.07720  -0.00000   0.00000   0.00000   0.00000   2.07720
   R23        2.64536   0.00001   0.00000   0.00002   0.00002   2.64538
   R24        2.07945  -0.00000   0.00000   0.00000   0.00000   2.07945
   R25        2.63633   0.00000   0.00000   0.00003   0.00003   2.63636
   R26        2.07672  -0.00000   0.00000   0.00001   0.00001   2.07672
   R27        2.55157   0.00002   0.00000   0.00002   0.00002   2.55159
    A1        1.87207   0.00001   0.00000   0.00009   0.00009   1.87215
    A2        1.98765  -0.00000   0.00000   0.00012   0.00012   1.98777
    A3        1.96556  -0.00001   0.00000  -0.00018  -0.00018   1.96538
    A4        1.87521   0.00000   0.00000   0.00001   0.00001   1.87522
    A5        1.87564   0.00000   0.00000   0.00007   0.00007   1.87571
    A6        1.88262  -0.00000   0.00000  -0.00009  -0.00009   1.88253
    A7        1.96817   0.00008   0.00000   0.00038   0.00038   1.96855
    A8        2.21758  -0.00008   0.00000  -0.00041  -0.00041   2.21716
    A9        2.08595   0.00000   0.00000  -0.00001  -0.00001   2.08594
   A10        2.16007  -0.00002   0.00000  -0.00010  -0.00010   2.15997
   A11        2.04429   0.00001   0.00000   0.00005   0.00005   2.04434
   A12        2.07641   0.00001   0.00000   0.00004   0.00004   2.07645
   A13        2.04283   0.00001   0.00000   0.00007   0.00007   2.04291
   A14        2.11888  -0.00000   0.00000  -0.00003  -0.00003   2.11885
   A15        2.11582  -0.00000   0.00000  -0.00005  -0.00005   2.11577
   A16        2.06386  -0.00000   0.00000  -0.00001  -0.00001   2.06385
   A17        2.15040   0.00000   0.00000  -0.00004  -0.00004   2.15036
   A18        2.06774   0.00000   0.00000   0.00004   0.00004   2.06778
   A19        1.97329   0.00002   0.00000   0.00015   0.00015   1.97344
   A20        2.21350  -0.00003   0.00000  -0.00016  -0.00016   2.21334
   A21        2.09430   0.00000   0.00000   0.00000   0.00000   2.09430
   A22        1.92824   0.00004   0.00000   0.00014   0.00014   1.92838
   A23        2.22867  -0.00008   0.00000  -0.00012  -0.00012   2.22855
   A24        2.12627   0.00005   0.00000  -0.00002  -0.00002   2.12625
   A25        2.18658   0.00003   0.00000  -0.00015  -0.00015   2.18643
   A26        2.15463  -0.00007   0.00000   0.00008   0.00008   2.15471
   A27        1.93323   0.00004   0.00000   0.00013   0.00013   1.93336
   A28        2.20740  -0.00001   0.00000  -0.00035  -0.00035   2.20705
   A29        2.12284  -0.00002   0.00000  -0.00008  -0.00008   2.12276
   A30        1.94949   0.00003   0.00000   0.00040   0.00040   1.94988
   A31        1.94636  -0.00000   0.00000  -0.00016  -0.00016   1.94620
   A32        2.13250  -0.00001   0.00000  -0.00009  -0.00009   2.13241
   A33        2.02203   0.00000   0.00000   0.00009   0.00009   2.02212
   A34        2.12742   0.00000   0.00000  -0.00000  -0.00000   2.12742
   A35        2.06210   0.00001   0.00000   0.00006   0.00006   2.06217
   A36        2.10978  -0.00000   0.00000  -0.00002  -0.00002   2.10976
   A37        2.11001  -0.00000   0.00000  -0.00005  -0.00005   2.10996
   A38        2.07885  -0.00001   0.00000  -0.00003  -0.00003   2.07882
   A39        2.14693   0.00001   0.00000  -0.00002  -0.00002   2.14691
   A40        2.05597   0.00000   0.00000   0.00004   0.00004   2.05601
   A41        2.20403  -0.00001   0.00000  -0.00018  -0.00018   2.20385
   A42        2.09733  -0.00003   0.00000  -0.00006  -0.00006   2.09727
   A43        1.98026   0.00004   0.00000   0.00022   0.00022   1.98047
    D1       -0.52392   0.00001   0.00000   0.00067   0.00067  -0.52325
    D2        2.45296   0.00001   0.00000   0.00039   0.00039   2.45335
    D3        1.54851   0.00001   0.00000   0.00081   0.00081   1.54931
    D4       -1.75780   0.00002   0.00000   0.00053   0.00053  -1.75727
    D5       -2.58394   0.00000   0.00000   0.00063   0.00063  -2.58332
    D6        0.39293   0.00000   0.00000   0.00035   0.00035   0.39329
    D7        2.83976  -0.00000   0.00000  -0.00009  -0.00009   2.83967
    D8       -0.22620  -0.00000   0.00000  -0.00007  -0.00007  -0.22626
    D9       -0.15089   0.00001   0.00000   0.00021   0.00021  -0.15069
   D10        3.06633   0.00001   0.00000   0.00023   0.00023   3.06657
   D11       -2.60226  -0.00000   0.00000   0.00033   0.00033  -2.60193
   D12        0.53626  -0.00000   0.00000   0.00012   0.00012   0.53637
   D13        0.36471   0.00001   0.00000   0.00007   0.00007   0.36477
   D14       -2.77996   0.00001   0.00000  -0.00014  -0.00014  -2.78011
   D15       -0.12516  -0.00000   0.00000  -0.00024  -0.00024  -0.12539
   D16        3.12915  -0.00000   0.00000  -0.00016  -0.00016   3.12899
   D17        2.93949  -0.00000   0.00000  -0.00026  -0.00026   2.93923
   D18       -0.08939  -0.00000   0.00000  -0.00018  -0.00018  -0.08957
   D19        0.14327  -0.00000   0.00000   0.00003   0.00003   0.14331
   D20       -2.94501   0.00000   0.00000   0.00021   0.00021  -2.94480
   D21       -3.11082  -0.00000   0.00000  -0.00004  -0.00004  -3.11087
   D22        0.08408  -0.00000   0.00000   0.00013   0.00013   0.08421
   D23       -2.94972  -0.00000   0.00000   0.00023   0.00023  -2.94949
   D24        0.12167   0.00000   0.00000   0.00021   0.00021   0.12187
   D25        0.14113  -0.00000   0.00000   0.00006   0.00006   0.14119
   D26       -3.07067  -0.00000   0.00000   0.00004   0.00004  -3.07063
   D27       -0.36935  -0.00000   0.00000  -0.00025  -0.00025  -0.36960
   D28        2.77511  -0.00001   0.00000  -0.00006  -0.00006   2.77506
   D29        2.69766  -0.00000   0.00000  -0.00027  -0.00027   2.69738
   D30       -0.44107  -0.00000   0.00000  -0.00008  -0.00008  -0.44115
   D31        2.96130  -0.00000   0.00000   0.00034   0.00034   2.96164
   D32       -0.02529  -0.00000   0.00000  -0.00019  -0.00019  -0.02547
   D33       -0.18369   0.00000   0.00000   0.00011   0.00011  -0.18357
   D34        3.11291  -0.00000   0.00000  -0.00042  -0.00042   3.11249
   D35       -0.21949   0.00000   0.00000  -0.00163  -0.00163  -0.22111
   D36        3.01893   0.00000   0.00000  -0.00117  -0.00117   3.01776
   D37        2.78391  -0.00000   0.00000  -0.00116  -0.00116   2.78275
   D38       -0.26086  -0.00000   0.00000  -0.00070  -0.00070  -0.26156
   D39       -3.02225   0.00001   0.00000   0.00119   0.00119  -3.02105
   D40        0.18361   0.00001   0.00000   0.00164   0.00164   0.18524
   D41        0.25454   0.00000   0.00000   0.00075   0.00075   0.25530
   D42       -2.82279   0.00001   0.00000   0.00120   0.00120  -2.82159
   D43        0.56689   0.00003   0.00000   0.00398   0.00398   0.57087
   D44       -2.66341   0.00003   0.00000   0.00354   0.00354  -2.65987
   D45        0.13044  -0.00000   0.00000   0.00023   0.00023   0.13066
   D46       -3.06364  -0.00000   0.00000   0.00012   0.00012  -3.06352
   D47       -2.92739   0.00000   0.00000   0.00066   0.00066  -2.92673
   D48        0.16172   0.00000   0.00000   0.00055   0.00055   0.16227
   D49        0.04898  -0.00000   0.00000   0.00025   0.00025   0.04923
   D50        3.13649   0.00000   0.00000   0.00009   0.00009   3.13658
   D51       -3.03698  -0.00000   0.00000   0.00036   0.00036  -3.03662
   D52        0.05053  -0.00000   0.00000   0.00020   0.00020   0.05073
   D53       -0.06675   0.00000   0.00000  -0.00021  -0.00021  -0.06695
   D54        3.01608  -0.00000   0.00000  -0.00044  -0.00044   3.01564
   D55        3.12894  -0.00000   0.00000  -0.00005  -0.00005   3.12889
   D56       -0.07142  -0.00000   0.00000  -0.00029  -0.00029  -0.07171
   D57       -0.10068   0.00000   0.00000  -0.00032  -0.00032  -0.10101
   D58        2.98035  -0.00000   0.00000  -0.00075  -0.00075   2.97960
   D59        3.09661   0.00000   0.00000  -0.00009  -0.00009   3.09652
   D60       -0.10554  -0.00000   0.00000  -0.00052  -0.00052  -0.10606
         Item               Value     Threshold  Converged?
 Maximum Force            0.000083     0.000450     YES
 RMS     Force            0.000019     0.000300     YES
 Maximum Displacement     0.004214     0.001800     NO 
 RMS     Displacement     0.000807     0.001200     YES
 Predicted change in Energy=-2.276402D-07
                           ----------------------------
                           ! Non-Optimized Parameters !
                           ! (Angstroms and Degrees)  !
 --------------------------                            --------------------------
 ! Name  Definition              Value          Derivative Info.                !
 --------------------------------------------------------------------------------
 ! R1    R(1,2)                  1.5217         -DE/DX =    0.0                 !
 ! R2    R(1,17)                 1.1088         -DE/DX =    0.0                 !
 ! R3    R(1,18)                 1.1066         -DE/DX =    0.0                 !
 ! R4    R(1,19)                 1.1032         -DE/DX =    0.0                 !
 ! R5    R(2,3)                  1.4134         -DE/DX =    0.0                 !
 ! R6    R(2,8)                  1.4582         -DE/DX =   -0.0001              !
 ! R7    R(3,4)                  1.3984         -DE/DX =    0.0                 !
 ! R8    R(3,20)                 1.1018         -DE/DX =    0.0                 !
 ! R9    R(4,5)                  1.3972         -DE/DX =    0.0                 !
 ! R10   R(4,21)                 1.1            -DE/DX =    0.0                 !
 ! R11   R(5,6)                  1.3928         -DE/DX =    0.0                 !
 ! R12   R(5,22)                 1.0995         -DE/DX =    0.0                 !
 ! R13   R(6,7)                  1.3841         -DE/DX =    0.0                 !
 ! R14   R(6,8)                  1.4311         -DE/DX =    0.0                 !
 ! R15   R(8,9)                  1.5054         -DE/DX =   -0.0001              !
 ! R16   R(9,10)                 1.4605         -DE/DX =    0.0                 !
 ! R17   R(9,15)                 1.4352         -DE/DX =    0.0                 !
 ! R18   R(10,11)                1.3517         -DE/DX =    0.0                 !
 ! R19   R(10,12)                1.4168         -DE/DX =    0.0                 !
 ! R20   R(11,23)                0.9796         -DE/DX =    0.0                 !
 ! R21   R(12,13)                1.3908         -DE/DX =    0.0                 !
 ! R22   R(12,24)                1.0992         -DE/DX =    0.0                 !
 ! R23   R(13,14)                1.3999         -DE/DX =    0.0                 !
 ! R24   R(13,25)                1.1004         -DE/DX =    0.0                 !
 ! R25   R(14,15)                1.3951         -DE/DX =    0.0                 !
 ! R26   R(14,26)                1.099          -DE/DX =    0.0                 !
 ! R27   R(15,16)                1.3502         -DE/DX =    0.0                 !
 ! A1    A(2,1,17)             107.2665         -DE/DX =    0.0                 !
 ! A2    A(2,1,18)             113.8906         -DE/DX =    0.0                 !
 ! A3    A(2,1,19)             112.6079         -DE/DX =    0.0                 !
 ! A4    A(17,1,18)            107.442          -DE/DX =    0.0                 !
 ! A5    A(17,1,19)            107.4703         -DE/DX =    0.0                 !
 ! A6    A(18,1,19)            107.8608         -DE/DX =    0.0                 !
 ! A7    A(1,2,3)              112.7899         -DE/DX =    0.0001              !
 ! A8    A(1,2,8)              127.0341         -DE/DX =   -0.0001              !
 ! A9    A(3,2,8)              119.5158         -DE/DX =    0.0                 !
 ! A10   A(2,3,4)              123.7573         -DE/DX =    0.0                 !
 ! A11   A(2,3,20)             117.132          -DE/DX =    0.0                 !
 ! A12   A(4,3,20)             118.972          -DE/DX =    0.0                 !
 ! A13   A(3,4,5)              117.05           -DE/DX =    0.0                 !
 ! A14   A(3,4,21)             121.4011         -DE/DX =    0.0                 !
 ! A15   A(5,4,21)             121.2247         -DE/DX =    0.0                 !
 ! A16   A(4,5,6)              118.2498         -DE/DX =    0.0                 !
 ! A17   A(4,5,22)             123.2065         -DE/DX =    0.0                 !
 ! A18   A(6,5,22)             118.4749         -DE/DX =    0.0                 !
 ! A19   A(5,6,7)              113.0701         -DE/DX =    0.0                 !
 ! A20   A(5,6,8)              126.8152         -DE/DX =    0.0                 !
 ! A21   A(7,6,8)              119.9946         -DE/DX =    0.0                 !
 ! A22   A(2,8,6)              110.4881         -DE/DX =    0.0                 !
 ! A23   A(2,8,9)              127.6867         -DE/DX =   -0.0001              !
 ! A24   A(6,8,9)              121.8249         -DE/DX =    0.0                 !
 ! A25   A(8,9,10)             125.2732         -DE/DX =    0.0                 !
 ! A26   A(8,9,15)             123.4556         -DE/DX =   -0.0001              !
 ! A27   A(10,9,15)            110.7733         -DE/DX =    0.0                 !
 ! A28   A(9,10,11)            126.4545         -DE/DX =    0.0                 !
 ! A29   A(9,10,12)            121.6254         -DE/DX =    0.0                 !
 ! A30   A(11,10,12)           111.7202         -DE/DX =    0.0                 !
 ! A31   A(10,11,23)           111.5093         -DE/DX =    0.0                 !
 ! A32   A(10,12,13)           122.1783         -DE/DX =    0.0                 !
 ! A33   A(10,12,24)           115.8587         -DE/DX =    0.0                 !
 ! A34   A(13,12,24)           121.8919         -DE/DX =    0.0                 !
 ! A35   A(12,13,14)           118.1534         -DE/DX =    0.0                 !
 ! A36   A(12,13,25)           120.8804         -DE/DX =    0.0                 !
 ! A37   A(14,13,25)           120.8918         -DE/DX =    0.0                 !
 ! A38   A(13,14,15)           119.1076         -DE/DX =    0.0                 !
 ! A39   A(13,14,26)           123.0089         -DE/DX =    0.0                 !
 ! A40   A(15,14,26)           117.8008         -DE/DX =    0.0                 !
 ! A41   A(9,15,14)            126.2712         -DE/DX =    0.0                 !
 ! A42   A(9,15,16)            120.1649         -DE/DX =    0.0                 !
 ! A43   A(14,15,16)           113.4727         -DE/DX =    0.0                 !
 ! D1    D(17,1,2,3)           -29.9802         -DE/DX =    0.0                 !
 ! D2    D(17,1,2,8)           140.5668         -DE/DX =    0.0                 !
 ! D3    D(18,1,2,3)            88.7691         -DE/DX =    0.0                 !
 ! D4    D(18,1,2,8)          -100.684          -DE/DX =    0.0                 !
 ! D5    D(19,1,2,3)          -148.0132         -DE/DX =    0.0                 !
 ! D6    D(19,1,2,8)            22.5337         -DE/DX =    0.0                 !
 ! D7    D(1,2,3,4)            162.701          -DE/DX =    0.0                 !
 ! D8    D(1,2,3,20)           -12.964          -DE/DX =    0.0                 !
 ! D9    D(8,2,3,4)             -8.6337         -DE/DX =    0.0                 !
 ! D10   D(8,2,3,20)           175.7013         -DE/DX =    0.0                 !
 ! D11   D(1,2,8,6)           -149.0796         -DE/DX =    0.0                 !
 ! D12   D(1,2,8,9)             30.732          -DE/DX =    0.0                 !
 ! D13   D(3,2,8,6)             20.9            -DE/DX =    0.0                 !
 ! D14   D(3,2,8,9)           -159.2885         -DE/DX =    0.0                 !
 ! D15   D(2,3,4,5)             -7.1846         -DE/DX =    0.0                 !
 ! D16   D(2,3,4,21)           179.2779         -DE/DX =    0.0                 !
 ! D17   D(20,3,4,5)           168.4055         -DE/DX =    0.0                 !
 ! D18   D(20,3,4,21)           -5.132          -DE/DX =    0.0                 !
 ! D19   D(3,4,5,6)              8.2108         -DE/DX =    0.0                 !
 ! D20   D(3,4,5,22)          -168.7246         -DE/DX =    0.0                 !
 ! D21   D(21,4,5,6)          -178.2396         -DE/DX =    0.0                 !
 ! D22   D(21,4,5,22)            4.825          -DE/DX =    0.0                 !
 ! D23   D(4,5,6,7)           -168.9934         -DE/DX =    0.0                 !
 ! D24   D(4,5,6,8)              6.9828         -DE/DX =    0.0                 !
 ! D25   D(22,5,6,7)             8.0897         -DE/DX =    0.0                 !
 ! D26   D(22,5,6,8)          -175.9341         -DE/DX =    0.0                 !
 ! D27   D(5,6,8,2)            -21.1765         -DE/DX =    0.0                 !
 ! D28   D(5,6,8,9)            158.999          -DE/DX =    0.0                 !
 ! D29   D(7,6,8,2)            154.5486         -DE/DX =    0.0                 !
 ! D30   D(7,6,8,9)            -25.2759         -DE/DX =    0.0                 !
 ! D31   D(2,8,9,10)           169.6897         -DE/DX =    0.0                 !
 ! D32   D(2,8,9,15)            -1.4595         -DE/DX =    0.0                 !
 ! D33   D(6,8,9,10)           -10.518          -DE/DX =    0.0                 !
 ! D34   D(6,8,9,15)           178.3328         -DE/DX =    0.0                 !
 ! D35   D(8,9,10,11)          -12.6688         -DE/DX =    0.0                 !
 ! D36   D(8,9,10,12)          172.9052         -DE/DX =    0.0                 !
 ! D37   D(15,9,10,11)         159.4398         -DE/DX =    0.0                 !
 ! D38   D(15,9,10,12)         -14.9862         -DE/DX =    0.0                 !
 ! D39   D(8,9,15,14)         -173.0936         -DE/DX =    0.0                 !
 ! D40   D(8,9,15,16)           10.6137         -DE/DX =    0.0                 !
 ! D41   D(10,9,15,14)          14.6274         -DE/DX =    0.0                 !
 ! D42   D(10,9,15,16)        -161.6654         -DE/DX =    0.0                 !
 ! D43   D(9,10,11,23)          32.7083         -DE/DX =    0.0                 !
 ! D44   D(12,10,11,23)       -152.3993         -DE/DX =    0.0                 !
 ! D45   D(9,10,12,13)           7.4865         -DE/DX =    0.0                 !
 ! D46   D(9,10,12,24)        -175.5266         -DE/DX =    0.0                 !
 ! D47   D(11,10,12,13)       -167.6894         -DE/DX =    0.0                 !
 ! D48   D(11,10,12,24)          9.2974         -DE/DX =    0.0                 !
 ! D49   D(10,12,13,14)          2.8206         -DE/DX =    0.0                 !
 ! D50   D(10,12,13,25)        179.7129         -DE/DX =    0.0                 !
 ! D51   D(24,12,13,14)       -173.9857         -DE/DX =    0.0                 !
 ! D52   D(24,12,13,25)          2.9066         -DE/DX =    0.0                 !
 ! D53   D(12,13,14,15)         -3.836          -DE/DX =    0.0                 !
 ! D54   D(12,13,14,26)        172.7834         -DE/DX =    0.0                 !
 ! D55   D(25,13,14,15)        179.2721         -DE/DX =    0.0                 !
 ! D56   D(25,13,14,26)         -4.1085         -DE/DX =    0.0                 !
 ! D57   D(13,14,15,9)          -5.7873         -DE/DX =    0.0                 !
 ! D58   D(13,14,15,16)        170.7186         -DE/DX =    0.0                 !
 ! D59   D(26,14,15,9)         177.4174         -DE/DX =    0.0                 !
 ! D60   D(26,14,15,16)         -6.0767         -DE/DX =    0.0                 !
 --------------------------------------------------------------------------------
 GradGradGradGradGradGradGradGradGradGradGradGradGradGradGradGradGradGrad


 ----------------------------------------------------------------------

 Electric dipole moment (input orientation):
 (Debye = 10**-18 statcoulomb cm , SI units = C m)
                  (au)            (Debye)         (10**-30 SI)
   Tot        0.628338D+00      0.159708D+01      0.532727D+01
   x         -0.539469D+00     -0.137119D+01     -0.457381D+01
   y          0.251513D+00      0.639281D+00      0.213241D+01
   z         -0.201303D+00     -0.511661D+00     -0.170672D+01

 Dipole polarizability, Alpha (input orientation).
 (esu units = cm**3 , SI units = C**2 m**2 J**-1)
 Alpha(0;0):
               (au)            (10**-24 esu)      (10**-40 SI)
   iso        0.157855D+03      0.233917D+02      0.260267D+02
   aniso      0.147606D+03      0.218730D+02      0.243369D+02
   xx         0.239243D+03      0.354521D+02      0.394458D+02
   yx        -0.508814D+01     -0.753984D+00     -0.838921D+00
   yy         0.162417D+03      0.240677D+02      0.267789D+02
   zx        -0.327156D+01     -0.484795D+00     -0.539407D+00
   zy        -0.144839D+02     -0.214629D+01     -0.238807D+01
   zz         0.719045D+02      0.106551D+02      0.118555D+02

 ----------------------------------------------------------------------

 Dipole orientation:
     6          2.35490494         -2.68568126          4.40744620
     6          0.28310924         -0.82007225          3.70281746
     6         -1.40498370         -0.34090624          5.71646628
     6         -3.03811692          1.73477936          5.80141785
     6         -2.76322776          3.55678635          3.91052843
     6         -1.13656697          3.03787579          1.90753323
     9         -0.66150137          5.12613442          0.40608310
     6          0.12610623          0.69883070          1.40899396
     6          1.10719616          0.04563241         -1.18051014
     6          0.55300035          1.44382326         -3.49470996
     8         -1.24150348          3.23683127         -3.79253889
     6          1.77162086          0.86902789         -5.80846318
     6          3.33721026         -1.22395002         -6.08386380
     6          3.61135349         -2.85747064         -4.02124811
     6          2.43848779         -2.25025295         -1.73959923
     9          2.52579132         -4.13319754         -0.01988918
     1          2.71791421         -2.46593439          6.45933984
     1          1.84347690         -4.68535151          4.07204684
     1          4.14663390         -2.30802127          3.41110153
     1         -1.31333038         -1.61978083          7.35697612
     1         -4.33877437          2.02496593          7.39662653
     1         -3.69549880          5.41252863          3.97423514
     1         -1.50133252          4.20274775         -2.23493442
     1          1.32759533          2.12469762         -7.40247947
     1          4.25651743         -1.63721318         -7.90270687
     1          4.63056452         -4.66325057         -4.13580939

 Electric dipole moment (dipole orientation):
 (Debye = 10**-18 statcoulomb cm , SI units = C m)
                  (au)            (Debye)         (10**-30 SI)
   Tot        0.628338D+00      0.159708D+01      0.532727D+01
   x          0.000000D+00      0.000000D+00      0.000000D+00
   y          0.000000D+00      0.000000D+00      0.000000D+00
   z          0.628338D+00      0.159708D+01      0.532727D+01

 Dipole polarizability, Alpha (dipole orientation).
 (esu units = cm**3 , SI units = C**2 m**2 J**-1)
 Alpha(0;0):
               (au)            (10**-24 esu)      (10**-40 SI)
   iso        0.157855D+03      0.233917D+02      0.260267D+02
   aniso      0.147606D+03      0.218730D+02      0.243369D+02
   xx         0.118472D+03      0.175558D+02      0.195334D+02
   yx        -0.471896D+02     -0.699277D+01     -0.778051D+01
   yy         0.139922D+03      0.207343D+02      0.230700D+02
   zx        -0.495583D+02     -0.734379D+01     -0.817107D+01
   zy        -0.901017D+00     -0.133517D+00     -0.148558D+00
   zz         0.215170D+03      0.318849D+02      0.354768D+02

 ----------------------------------------------------------------------

 Test job not archived.
 1\1\GINC-SEMLSCPN055\Freq\RBP86\def2SVP\C13H10F2O1\KTVF206\23-Jul-2026
 \0\\#N Geom=AllCheck Guess=TCheck SCRF=Check Test GenChk RBP86/def2SVP
  Freq\\example\\0,1\C,-1.0820791365,2.506679596,-1.2482436145\C,-1.503
 1838712,1.2046286989,-0.5826730374\C,-2.878640487,1.1758570548,-0.2585
 961955\C,-3.5848755554,0.0037968697,0.0293158625\C,-2.9124804581,-1.20
 60343093,-0.1609427401\C,-1.550749669,-1.1649876586,-0.4504963599\F,-1
 .0451708027,-2.3885532706,-0.8541226731\C,-0.7069289971,-0.0091069091,
 -0.4441938408\C,0.7888665033,-0.1187737825,-0.3125648001\C,1.518161641
 8,-1.3354063031,0.0353960733\O,0.9870507715,-2.479339215,0.5213955166\
 C,2.9333981929,-1.3904016363,-0.0042495441\C,3.7127540222,-0.259945322
 3,-0.2255236635\C,3.0647128921,0.9742429321,-0.353747512\C,1.670291888
 1,1.0136648011,-0.3363147461\F,1.1687249092,2.2654569811,-0.2686837135
 \H,-1.9597362581,2.8891375853,-1.8075843147\H,-0.7738175763,3.29496446
 02,-0.5354522025\H,-0.262607688,2.3668196997,-1.9733670395\H,-3.426408
 9923,2.1306024948,-0.3074685826\H,-4.6536289252,0.0276227743,0.2883375
 808\H,-3.4149431506,-2.1837960373,-0.1412654792\H,0.0856038055,-2.6343
 08936,0.1707761067\H,3.3808723944,-2.3730434029,0.2017502646\H,4.81092
 34188,-0.3264408765,-0.2473013987\H,3.6037211279,1.9299767114,-0.41488
 59466\\Version=ES64L-G16RevC.02\HF=-775.7510038\RMSD=8.017e-09\RMSF=1.
 275e-05\ZeroPoint=0.1915678\Thermal=0.2038591\ETot=-775.5471447\HTot=-
 775.5462006\GTot=-775.5974225\Dipole=-0.5394693,0.2515127,-0.2013029\D
 ipoleDeriv=0.0558426,-0.0017375,0.0437449,-0.0318615,-0.0827955,0.0456
 898,-0.0099793,-0.0040548,0.0850346,-0.0924784,0.1190908,-0.114914,-0.
 0324859,0.234782,-0.1414144,-0.1331206,-0.1905647,0.0083464,-0.0568546
 ,-0.1941846,0.056265,-0.0932206,-0.019105,0.0061502,0.0325687,0.057512
 5,-0.1548443,-0.0560153,-0.000218,-0.0742585,-0.0046076,0.1061874,-0.0
 178358,-0.0663201,-0.0129604,-0.0820501,-0.164236,0.1164093,0.0284167,
 0.0313137,-0.0972124,0.0372047,0.0481648,-0.0212683,-0.1332682,0.25264
 58,-0.187724,-0.1588226,-0.1556523,0.8235442,0.2388835,-0.2105307,0.29
 16574,0.1163686,-0.4281088,0.2563847,0.0381415,0.2101319,-0.83885,-0.1
 765052,-0.16027,-0.2215019,-0.1913601,0.6052953,-0.1439772,0.0996067,0
 .0420373,-0.1478186,0.0090491,0.3014331,0.0241567,-0.0196046,-0.344127
 4,0.0708504,-0.0249249,-0.0719908,-0.2418111,0.0349804,0.121753,0.0790
 973,-0.0562521,0.3744608,0.4779866,-0.206158,-0.0409509,0.8727126,-0.3
 116704,-0.1299074,-0.3844995,0.2050579,-0.5287094,-0.4873602,0.1542102
 ,-0.1936089,-1.0112388,0.2175481,-0.0005798,0.3723473,-0.4150971,-0.20
 15414,-0.375017,0.1022765,-0.0136066,-0.1139546,-0.0185575,0.0653204,-
 0.0453007,-0.1489895,0.0459782,0.0150881,-0.031996,-0.1495326,0.340660
 1,-0.081857,-0.0572439,-0.067904,-0.0897298,-0.4826389,0.2959237,-0.02
 8882,0.1082333,-0.1833814,0.0353541,0.0198258,0.0049987,-0.1629936,0.7
 266588,-0.357716,0.0076773,0.146031,0.9041371,0.0308948,-0.1011349,0.0
 7473,0.0598883,-0.3488924,0.3190917,-0.0387551,0.1827119,-0.9034288,0.
 0152909,-0.0611778,-0.0183975,-0.0951044,-0.0672773,0.0557543,-0.08024
 92,0.0224484,0.0091455,0.0411566,-0.055707,0.0764352,0.0150572,0.09952
 64,-0.0848774,0.00206,-0.0509488,-0.0405233,-0.0204119,-0.010672,-0.04
 48938,0.0024398,0.0153005,-0.0187784,0.0883937,0.0294839,0.0177928,-0.
 019037,0.0736361,0.0187861,0.0043509,0.0374209,0.057105,0.0026923,0.08
 45804,-0.0470694,0.0088924,0.0201336,0.0582688,0.0963314,-0.0624621,-0
 .0028591,0.0506294,0.0026051,0.0749228,0.0035971,0.0385009,0.0022329,0
 .1081464,0.0762676,-0.0271963,0.0085682,-0.0461071,-0.0083074,0.000205
 4,0.0359787,-0.0363359,0.1340672,0.5258446,0.0904448,0.0696746,0.00978
 92,0.3069315,0.0189191,0.2045033,-0.066298,0.3399718,0.0497541,0.01984
 42,-0.0019082,0.057176,-0.0201322,0.0260878,0.0087101,0.060955,0.11739
 18,-0.0819458,0.0114341,0.0063853,0.0064055,0.0866682,0.0027904,0.0038
 636,0.00991,0.1127599,0.0502923,-0.0237621,0.0021261,-0.0483741,-0.021
 8557,0.0145948,0.0222515,-0.0171082,0.1440817\Polar=239.2427833,-5.088
 1375,162.4169199,-3.2715576,-14.4838738,71.9045088\Quadrupole=6.524662
 2,-0.9247208,-5.5999415,1.1486302,-0.7771312,-0.7533514\PG=C01 [X(C13H
 10F2O1)]\NImag=1\\0.56724490,-0.00916679,0.46667448,-0.00786636,0.0377
 8658,0.51008042,-0.08504889,-0.03322779,0.02129819,0.56782639,-0.02352
 729,-0.15879809,0.05655743,-0.01499528,0.52312409,0.01630747,0.0407584
 0,-0.08918017,-0.07875566,-0.09945290,0.20610951,-0.01576953,-0.012222
 34,0.01187257,-0.28954297,-0.02613920,0.05465764,0.61381322,-0.0295524
 1,-0.00836587,0.01410938,0.03061344,-0.10438666,-0.00139052,-0.0140783
 1,0.69710677,0.01265167,0.01300514,-0.00140686,0.05319974,0.00595492,-
 0.07343040,-0.11349131,-0.08854314,0.16128080,-0.00429248,0.00299620,0
 .00131802,-0.02327094,-0.02480717,0.01104375,-0.17185751,-0.12689680,0
 .03904170,0.68494940,-0.00014632,0.00491045,-0.00096522,-0.06446379,0.
 01945906,0.01316926,-0.07029695,-0.27618517,0.04885734,-0.01166297,0.6
 5652335,0.00101875,0.00205581,0.00382569,0.01334395,0.00386548,0.00217
 654,0.03133091,0.05146089,-0.06853677,-0.14985053,-0.01586267,0.161614
 29,-0.00165039,0.00022764,-0.00255536,-0.04175720,0.01620475,0.0084320
 3,0.05236950,0.01960548,-0.00697315,-0.16697347,0.07366959,0.02785489,
 0.64670652,0.00023301,-0.00258324,-0.00006397,0.02310859,-0.00868075,-
 0.00660170,-0.01835946,-0.05763048,0.00642205,0.12975087,-0.29405257,-
 0.03826354,0.01557129,0.72919823,-0.00010407,-0.00062975,-0.00035765,0
 .00744121,-0.00287486,-0.00266200,-0.00491406,-0.00013566,0.00918002,0
 .02913952,-0.03442328,-0.06084524,-0.11670268,0.04105845,0.13795218,-0
 .00148405,0.00187550,0.00139300,0.05620305,-0.01581783,-0.01850126,-0.
 04508022,-0.02538585,0.01067603,-0.02584486,0.07526167,0.00522105,-0.3
 2723798,-0.06223711,0.05737869,0.65721063,0.00216057,-0.00037013,0.001
 29419,0.02329934,-0.05074343,-0.00396994,-0.01750880,-0.01670945,0.003
 53913,0.02494595,0.02150292,-0.00501202,0.00756194,-0.10013107,-0.0015
 2919,0.03838686,0.53798467,0.00090310,0.00246244,0.00345096,-0.0167692
 2,0.00991319,0.00528147,0.00976960,0.00581504,-0.00472180,0.00739271,-
 0.01607241,0.00098802,0.05243055,0.01260279,-0.06702058,-0.08298531,0.
 05946431,0.15111694,0.00051468,-0.00019213,0.00025268,-0.00346615,-0.0
 0149187,0.00281214,0.00080619,0.00237515,-0.00057409,-0.00491370,-0.00
 633982,0.00239635,-0.02624521,0.05473132,0.01598264,-0.08953010,0.0493
 4595,0.02249023,0.14136138,0.00222159,0.00025385,-0.00013960,-0.009778
 25,-0.00161029,-0.00072341,0.00290591,-0.00077363,-0.00065599,0.001137
 17,0.00127778,-0.00111832,0.01508660,-0.01881250,-0.01016285,0.0614488
 7,-0.20024028,-0.05218915,-0.09190893,0.25727763,0.00106890,0.00005232
 ,0.00022849,0.00140330,-0.00093546,0.00464128,-0.00304474,-0.00101530,
 -0.00058164,0.00266539,0.00378782,0.00607175,0.01233850,-0.01687327,0.
 00061624,0.02465459,-0.06467462,-0.05254810,-0.01225868,0.07740640,0.0
 6830182,0.01171958,-0.00227635,0.00259147,-0.13934555,0.06675958,0.001
 38817,-0.02578381,0.02442122,-0.00237118,0.00506768,-0.00294817,-0.002
 40721,-0.02307477,-0.01848927,0.00090748,-0.17206096,-0.10760435,0.001
 88142,0.00936688,0.02206923,0.00590199,0.54919079,0.00986310,-0.020641
 32,-0.00248962,0.03434509,-0.19044839,0.03741252,0.05414625,0.02379784
 ,-0.00793430,-0.00062522,-0.04604691,0.00213263,-0.05180499,0.02346186
 ,0.00886798,-0.05845646,-0.19103280,-0.02315750,-0.01001913,-0.0420923
 6,0.00176997,0.01830011,0.53706801,-0.00292998,0.00973909,0.00131605,-
 0.00181678,0.01718190,-0.06080091,0.00318147,-0.00353959,0.00296590,0.
 00101349,0.00279318,-0.00084282,0.00852521,0.00079851,0.00336402,0.002
 37437,-0.00247413,-0.05463608,-0.00286157,-0.01099995,0.00180725,0.001
 78631,-0.02229396,0.14698003,-0.00009150,-0.00243448,-0.00072566,-0.02
 350532,0.01587851,-0.00374442,0.00729536,0.00176788,-0.00117853,-0.003
 78690,-0.00041142,0.00187203,0.00592130,-0.00179010,-0.00109397,-0.032
 90896,-0.01492507,0.00095711,0.00280488,0.00186433,-0.00117548,-0.1652
 1165,0.00227910,-0.00640641,0.54935680,-0.00067317,0.00138778,-0.00027
 169,0.02603028,0.00460109,-0.00183371,0.00047295,-0.00498175,0.0011955
 4,0.00036225,0.00011782,-0.00018159,-0.00069747,-0.00476397,-0.0003356
 0,-0.02636166,0.00415779,0.00061508,-0.00112127,0.00390917,-0.00010377
 ,0.00377307,-0.09832666,0.00626565,0.03035454,0.53748747,-0.00069681,-
 0.00167449,-0.00158365,-0.00190692,-0.00171181,-0.00018394,0.00046351,
 0.00204589,0.00557177,0.00076368,0.00036934,-0.00158791,0.00105460,-0.
 00068195,0.00418921,0.00107966,0.00004604,0.00172551,-0.00006795,0.000
 43833,-0.00236567,-0.01206236,0.00704163,-0.04921649,0.03023420,-0.060
 88743,0.14070216,0.00022360,0.00024685,0.00016894,-0.00223223,-0.00509
 125,0.00096132,-0.00134042,0.00032251,-0.00023490,0.00008284,0.0003180
 4,0.00002008,-0.00067335,-0.00000397,-0.00027217,-0.00280775,0.0113549
 2,0.00086130,0.00696382,-0.00687697,0.00110899,-0.02120936,0.02528533,
 -0.00575032,-0.15006612,0.02310186,-0.01527246,0.63885111,-0.00013451,
 -0.00080642,-0.00049765,-0.00647945,0.00133129,-0.00048672,0.00160592,
 0.00032814,0.00013348,-0.00197872,0.00008660,0.00074811,0.00158404,-0.
 00155837,-0.00061972,-0.01101930,0.01312749,0.00299527,0.01565570,-0.0
 1255309,0.00609700,0.02033714,0.00195958,-0.00049817,0.05834537,-0.171
 63206,0.03309033,0.04220542,0.57435374,0.00007271,0.00009072,0.0000654
 8,0.00237721,-0.00076796,0.00223536,-0.00072703,0.00026835,0.00040376,
 0.00059801,0.00020751,-0.00020854,-0.00019637,0.00064986,-0.00052046,0
 .00325467,-0.00490429,-0.00018489,-0.00767038,0.00498799,-0.00296568,-
 0.00483694,0.00016594,-0.00183121,-0.01939361,0.04477269,-0.06598876,-
 0.00840250,-0.13708932,0.19937281,-0.00022605,0.00006497,0.00008624,0.
 00140079,0.00049305,0.00062296,-0.00000700,0.00122901,0.00005960,0.001
 15648,-0.00099686,-0.00043346,-0.00186720,0.00204130,0.00125410,0.0106
 0371,-0.02035313,-0.00399496,-0.03434073,0.01718227,-0.02159008,-0.002
 74159,0.00135484,-0.00063545,0.01759156,0.00944436,-0.00064056,-0.1305
 8592,-0.09317366,0.02843847,0.56221408,0.00002907,0.00013553,0.0002100
 7,0.00213614,-0.00063628,0.00014373,-0.00116116,0.00028951,0.00026996,
 0.00101001,0.00049640,-0.00040091,-0.00032809,0.00098992,0.00018773,0.
 00483821,-0.01047541,-0.00345981,-0.00912015,0.01447327,-0.00258206,-0
 .00871513,0.00360574,-0.00145638,-0.00989200,-0.03788618,0.01824657,-0
 .07305979,-0.25265578,0.09240321,0.17675323,0.33575870,-0.00005736,-0.
 00007982,-0.00015425,-0.00011546,-0.00005886,-0.00008191,0.00004263,-0
 .00028583,0.00001511,-0.00055523,-0.00002806,0.00036512,-0.00059480,0.
 00075517,0.00078414,-0.00082445,-0.00225247,-0.00171402,-0.01702876,0.
 00227796,-0.00818483,0.00115141,-0.00093801,-0.00103980,0.00609444,0.0
 0900309,0.00123570,0.01044005,0.08446591,-0.08162643,0.12817663,-0.104
 15323,0.14952544,0.00006545,-0.00038945,-0.00004053,-0.00070110,0.0006
 4994,-0.00032025,0.00029412,0.00048489,0.00007644,0.00008421,-0.000034
 21,-0.00005551,0.00017091,0.00007234,0.00003029,0.00095656,-0.00353396
 ,-0.00046150,-0.00379476,0.00301178,-0.00198390,0.00350468,0.00145548,
 0.00005887,-0.01318593,0.04789516,-0.00560323,-0.29160862,-0.00401883,
 0.00363360,-0.04860477,-0.02611360,0.01518287,0.64618132,-0.00009442,-
 0.00000855,0.00002981,0.00064704,0.00071699,0.00003757,0.00035493,-0.0
 0041064,-0.00022357,-0.00025421,-0.00016410,0.00012569,0.00001531,0.00
 051712,0.00002109,0.00020081,-0.00251235,-0.00073091,-0.00219258,0.002
 09358,-0.00139398,0.00157163,-0.00377651,0.00294086,0.02191152,0.01791
 947,-0.00155270,0.05519624,-0.10388814,0.00563472,-0.05721103,-0.01191
 660,0.00888217,0.02324418,0.72007829,0.00006555,0.00005053,0.00014219,
 -0.00093572,0.00020390,0.00017707,0.00012545,0.00016140,-0.00053490,0.
 00006076,-0.00020460,0.00008399,-0.00014067,-0.00012959,-0.00001706,-0
 .00009078,0.00022874,-0.00088723,0.00132115,-0.00018152,0.00167928,-0.
 00008999,0.00219543,0.00451755,-0.00682701,-0.00117602,0.00277814,-0.0
 0176619,0.00452387,-0.06361797,0.02261435,0.01130786,0.00595235,-0.024
 87715,-0.12857480,0.13713157,-0.00008021,0.00019320,0.00010449,0.00030
 961,-0.00090284,0.00023179,-0.00019964,-0.00037248,-0.00013176,-0.0001
 8346,-0.00005107,0.00003613,-0.00031522,0.00038761,-0.00005032,0.00023
 042,0.00157463,-0.00000682,0.00070952,-0.00091757,-0.00001231,-0.00206
 703,0.00036289,0.00106856,0.00274513,-0.00124686,0.00018578,-0.0265548
 7,-0.02511296,0.00632726,-0.00274197,0.00139984,-0.00271169,-0.1976050
 0,-0.14374112,0.02969959,0.72248531,-0.00023696,0.00026380,-0.00010124
 ,-0.00019602,0.00038362,-0.00009765,0.00026920,-0.00020416,-0.00007303
 ,-0.00037511,-0.00001098,0.00016085,0.00024495,-0.00019289,0.00002953,
 -0.00149514,0.00135317,0.00044706,0.00243892,-0.00192699,0.00073210,0.
 00276724,-0.00155185,0.00024062,-0.00769234,-0.04075580,0.00565995,-0.
 06671582,0.02356101,-0.00124194,0.01244354,0.00350894,-0.00447450,-0.0
 9224640,-0.28185254,0.05094663,0.00040341,0.66068087,0.00002699,-0.000
 17482,-0.00011389,0.00006805,0.00000421,0.00006553,0.00003337,0.000049
 99,0.00007825,0.00001573,-0.00001333,-0.00000883,-0.00001519,0.0000153
 5,0.00008347,0.00030770,-0.00025786,0.00007215,-0.00027914,0.00019517,
 -0.00007295,0.00026523,-0.00001275,-0.00138805,0.00052792,0.00574181,0
 .00066312,0.01228382,-0.00282374,0.00049001,-0.00245020,-0.00067242,0.
 00566653,0.01928075,0.04467091,-0.06182676,-0.02345808,-0.07945649,0.1
 3602240,-0.00049343,0.00016008,-0.00015126,-0.00090996,0.00134529,-0.0
 0045523,0.00068306,0.00005345,-0.00004004,-0.00062876,-0.00000631,0.00
 023545,0.00065039,-0.00035422,0.00006642,-0.00220802,-0.00028481,0.000
 27706,0.00141862,-0.00105230,0.00009976,0.00824718,-0.00206872,0.00057
 987,-0.02856210,-0.04628254,0.00694279,-0.04445221,0.01982432,-0.00058
 190,0.00593400,-0.00136564,-0.00281180,0.05194382,0.01201070,0.0006243
 8,-0.16485279,0.07168837,-0.00860506,0.67171178,0.00025069,-0.00040939
 ,0.00020293,0.00055566,-0.00084714,0.00031163,-0.00026102,0.00046164,0
 .00002969,0.00049564,-0.00006614,-0.00019540,-0.00037927,-0.00047230,-
 0.00000097,0.00009309,-0.00037098,-0.00019314,-0.00170844,0.00164028,-
 0.00031965,-0.00385861,-0.00450965,-0.00049783,-0.01529509,0.02340464,
 -0.00277185,0.02532668,-0.00922499,-0.00119373,-0.00683094,-0.00388571
 ,0.00354880,-0.02106258,-0.05461381,0.00783034,0.12571705,-0.29869507,
 0.02642809,0.00374329,0.72898727,0.00056912,-0.00045926,0.00035491,-0.
 00074685,0.00017588,-0.00068194,0.00001337,-0.00012033,-0.00019358,-0.
 00021108,0.00004891,0.00013370,0.00011056,0.00014966,-0.00047239,-0.00
 055621,-0.00011514,0.00026385,0.00035879,-0.00034767,0.00013959,0.0004
 3259,0.00066536,0.00477239,-0.00158447,-0.00310100,0.00487342,-0.00332
 819,0.00169378,-0.00013190,0.00115053,0.00018922,-0.00188850,0.0044388
 3,0.00940247,0.00702909,-0.01355536,0.02078710,-0.05411454,-0.00705494
 ,-0.04830740,0.10734963,-0.00132833,0.00167638,0.00033713,0.00225371,-
 0.00453652,0.00120333,-0.00129893,-0.00039755,-0.00004221,0.00083319,0
 .00001650,-0.00028570,-0.00134030,-0.00046018,-0.00047267,-0.00114152,
 0.00470883,0.00004479,-0.00098169,0.00116016,0.00010742,-0.03330816,-0
 .02514400,0.00091995,-0.17553165,-0.05548182,-0.00442790,0.06842626,-0
 .02239592,-0.00371029,-0.01208485,0.00414064,0.00196978,-0.04826047,-0
 .02319881,0.00275932,-0.02132166,0.07688218,-0.00837411,-0.33573815,-0
 .04635469,0.00943497,0.67384277,0.00089225,0.00084304,-0.00088912,0.00
 571327,0.00277987,-0.00109095,-0.00160203,-0.00129664,0.00038923,0.001
 99406,0.00017999,-0.00057933,-0.00126598,0.00004914,0.00007318,0.00663
 801,0.00067608,0.00048833,-0.00050589,0.00024839,0.00050775,-0.0177070
 4,0.00825894,-0.00148863,-0.09663682,-0.19075109,0.00265402,0.01417880
 ,-0.05028711,0.00690215,-0.00032316,0.00204608,0.00115189,-0.01463143,
 -0.01096879,0.00050502,0.02801127,0.01588089,-0.00111538,0.01943568,-0
 .10068948,0.00503017,-0.00246756,0.60217529,-0.00152871,-0.00014203,0.
 00001835,0.00062349,0.00057591,0.00046524,-0.00013203,-0.00023428,-0.0
 0045669,0.00017733,0.00002168,-0.00009763,-0.00017398,-0.00047662,0.00
 063427,0.00030968,0.00122024,0.00204139,0.00036212,-0.00017183,0.00004
 036,-0.00116290,-0.00144331,-0.00047708,-0.00080864,-0.00580377,-0.051
 59745,-0.00625146,0.00839012,-0.00471170,0.00010972,0.00316195,0.00439
 084,0.00338998,0.00259786,-0.00004610,-0.00217162,-0.00246584,0.000506
 71,0.00036873,0.00448545,-0.05911003,0.00136007,-0.00081762,0.13627724
 ,-0.01434157,0.00468449,-0.00921254,-0.00014547,0.00292561,-0.00119414
 ,0.00002233,-0.00025579,0.00011372,0.00042607,0.00015098,-0.00007424,-
 0.00002017,-0.00050266,0.00001277,0.00044159,0.00013708,0.00034738,0.0
 0038971,-0.00055730,0.00019429,0.00014826,0.00066101,-0.00041412,0.014
 86096,-0.01490251,0.00112095,-0.00839451,-0.00044954,0.00074869,0.0023
 0987,-0.00026071,-0.00010823,0.00336686,0.00287856,-0.00033220,-0.0056
 8967,-0.00768338,0.00117979,-0.03030782,0.06029756,0.00054656,-0.10342
 873,0.08258594,0.00467286,0.15235141,0.00355267,-0.00119758,0.00136151
 ,-0.00353440,-0.00307811,0.00144213,0.00052146,0.00078398,-0.00064400,
 -0.00098714,-0.00028138,0.00028895,0.00020340,0.00090144,-0.00006136,-
 0.00015104,-0.00077711,-0.00048949,-0.00092555,0.00073342,-0.00052770,
 0.00640567,0.00261982,0.00075292,0.01495988,-0.04556020,-0.00135728,-0
 .00662631,-0.00023257,-0.00201317,0.00044045,-0.00316517,0.00119948,0.
 00156230,-0.00213876,0.00056026,0.00123961,0.00260385,-0.00013141,0.02
 177326,-0.02341657,-0.00246037,0.08870492,-0.27322882,-0.01014776,-0.1
 3234746,0.34011136,-0.00661760,0.00220010,-0.00625643,-0.00031449,-0.0
 0052062,0.00014745,0.00041127,0.00014508,0.00031423,-0.00000955,-0.000
 49559,-0.00001202,-0.00049895,0.00021354,0.00014436,0.00061925,0.00052
 488,-0.00017183,-0.00004776,-0.00007431,-0.00018705,-0.00183618,-0.000
 48909,-0.00265475,0.00441290,0.00336629,0.00425966,0.00019627,0.000636
 91,0.00543447,0.00015754,-0.00050607,0.00021834,-0.00130484,-0.0002493
 4,-0.00125363,0.00030367,0.00151493,0.00665145,0.00194146,-0.00267042,
 0.00964595,0.00426097,-0.01567603,-0.03550832,0.00732460,0.01121920,0.
 02400761,-0.20686789,0.07081416,-0.10269341,0.00551325,-0.00470799,0.0
 0539612,-0.00138611,-0.00464507,0.00365943,0.00079403,0.00131163,0.000
 44965,0.00083528,-0.00081991,-0.00016342,-0.00086941,-0.00055372,0.000
 17966,0.00008598,-0.00011495,-0.00020612,-0.00074215,0.00003729,0.0003
 1505,0.00008210,0.00030759,0.00020798,-0.00007089,-0.00007412,0.000034
 13,0.00013650,0.00016963,-0.00003898,0.00005935,0.00016929,-0.00003011
 ,0.00002469,-0.00014633,0.00004119,-0.00027570,0.00039524,0.00007026,0
 .00097074,-0.00273404,-0.00012676,-0.00309659,0.00240097,-0.00163689,0
 .22533511,0.06903285,-0.06664440,0.04068879,0.01804989,-0.01619797,0.0
 1482433,0.00158319,-0.00017310,-0.00014587,-0.00008813,-0.00002106,-0.
 00040065,0.00013921,0.00007093,0.00012952,0.00064701,-0.00010900,-0.00
 025406,-0.00016162,-0.00069100,-0.00044361,-0.00293266,-0.00115636,0.0
 0166540,0.00027908,0.00022853,0.00029579,-0.00008038,0.00017722,-0.000
 07824,0.00005770,-0.00006732,0.00004672,0.00003579,0.00004754,-0.00001
 287,-0.00001280,0.00000542,0.00001531,0.00002606,0.00017095,-0.0000273
 7,-0.00028647,-0.00095767,-0.00010370,-0.00093267,0.00156915,0.0000166
 2,-0.07094198,0.07775951,-0.10070422,0.04190304,-0.10791498,-0.0095733
 1,0.00497515,-0.00599480,-0.00060561,0.00152305,0.00055188,0.00007960,
 -0.00033393,0.00002816,0.00002430,0.00017689,-0.00017408,-0.00032998,-
 0.00017515,0.00045057,0.00012807,0.00017633,0.00004735,0.00156466,0.00
 053534,-0.00104828,0.00002081,-0.00006168,-0.00003911,-0.00006540,-0.0
 0008831,0.00006758,0.00003742,0.00005865,-0.00005820,0.00003130,-0.000
 00631,0.00001491,-0.00006119,-0.00005509,0.00001001,-0.00012890,0.0001
 4554,0.00008795,-0.00025323,0.00006717,-0.00013047,-0.00049446,0.00045
 174,0.00091886,0.10956476,-0.04931807,0.11204973,-0.05585410,-0.054320
 43,-0.05087217,-0.00370913,-0.00545110,-0.00265627,0.00018827,-0.00163
 911,0.00167607,0.00011013,0.00128065,0.00049988,0.00083228,-0.00054561
 ,-0.00013892,-0.00113138,-0.00069315,0.00038828,0.00001153,0.00004895,
 -0.00002074,-0.00031168,0.00151636,-0.00107087,0.00055724,-0.00035963,
 -0.00022843,-0.00005807,0.00024121,-0.00013029,-0.00014948,-0.00024035
 ,0.00012561,-0.00000283,-0.00003843,0.00001706,0.00002223,0.00011875,0
 .00005230,0.00029211,-0.00031428,0.00015594,-0.00111141,0.00207797,0.0
 0031476,-0.00547157,0.00174434,-0.00125312,-0.00558236,-0.01651783,-0.
 01503244,0.06607105,-0.05168302,-0.16847727,-0.12423004,-0.00718687,-0
 .01742983,-0.01230266,0.00238859,0.00024923,0.00018028,-0.00007742,-0.
 00130997,0.00084003,-0.00109889,0.00023593,0.00001362,0.00069237,0.000
 55143,0.00101703,0.00013388,-0.00032600,-0.00000795,-0.00174636,-0.001
 75696,0.00050333,-0.00000390,0.00033010,-0.00036847,0.00000597,0.00002
 559,0.00005135,0.00010358,0.00012957,-0.00000189,0.00004998,0.00013452
 ,-0.00000212,0.00002597,-0.00012944,0.00000559,-0.00025853,0.00048280,
 0.00014283,0.00070983,-0.00270301,-0.00026438,-0.00036251,0.00247230,0
 .00023558,0.00303985,0.00740160,0.00697170,0.05729070,0.18260900,-0.04
 668063,-0.12147160,-0.15446660,0.00496994,0.01004534,0.01237739,0.0003
 2174,0.00035386,-0.00050469,-0.00020438,-0.00029841,-0.00021435,0.0003
 0063,0.00040009,0.00003573,-0.00010787,-0.00023777,-0.00054086,-0.0000
 4679,0.00003627,0.00002691,-0.00031685,0.00123628,-0.00037037,-0.00022
 120,-0.00002226,0.00006853,0.00004130,0.00001803,-0.00001131,0.0000136
 0,0.00002217,0.00001685,-0.00002583,-0.00001795,-0.00001323,-0.0000777
 2,0.00005563,0.00006198,0.00005418,0.00008423,0.00017640,-0.00056872,0
 .00012843,-0.00019124,-0.00329569,0.00185550,-0.00043213,-0.00236380,-
 0.00916593,-0.00912999,0.05490054,0.12932862,0.16457936,-0.19157229,0.
 03013299,0.13652485,-0.00513805,0.00040484,0.00242614,-0.00041979,-0.0
 0131656,0.00097206,-0.00021839,-0.00004285,0.00019325,0.00022348,0.000
 11886,-0.00006042,-0.00036536,-0.00027744,-0.00003262,0.00004789,-0.00
 015933,-0.00008209,0.00050463,0.00112116,-0.00095823,0.00037067,-0.000
 34859,0.00028870,0.00008309,0.00017025,0.00001300,-0.00009511,-0.00014
 949,0.00003644,-0.00001465,-0.00010363,-0.00001276,-0.00003181,0.00006
 937,0.00003049,0.00014277,-0.00009008,-0.00002298,-0.00075457,0.001109
 67,-0.00040051,-0.00491439,-0.00041562,-0.00614339,-0.01491337,0.00252
 348,0.01489945,0.00584528,-0.00151117,-0.00679698,0.21077398,0.0307116
 6,-0.04688593,-0.02392317,-0.02055318,0.00295686,0.01727363,-0.0006798
 0,-0.00435445,0.00129424,-0.00131721,0.00018422,-0.00038324,0.00018749
 ,0.00000822,0.00008934,-0.00052454,0.00025304,-0.00027566,0.00013777,-
 0.00008273,0.00005041,-0.00057489,0.00155844,0.00012972,0.00013398,-0.
 00014353,-0.00013779,0.00015944,-0.00012434,-0.00010400,0.00000655,0.0
 0007754,0.00001999,-0.00009887,-0.00002034,-0.00000703,0.00002111,0.00
 013085,-0.00000319,0.00022243,-0.00015099,-0.00004222,0.00037092,0.000
 41991,0.00058873,0.00110501,-0.00009712,0.00113312,0.00617518,-0.00226
 348,-0.00664806,0.01577637,-0.00253361,-0.01209353,-0.03075759,0.05129
 341,0.13267232,-0.02215297,-0.15573669,0.00730712,-0.00294879,-0.00705
 978,0.00056556,0.00265338,-0.00062754,0.00024126,-0.00093977,0.0005456
 6,-0.00038932,0.00045595,-0.00007653,0.00061983,0.00000847,-0.00000552
 ,-0.00018633,0.00012572,-0.00006980,0.00102929,-0.00082340,0.00059322,
 -0.00035574,-0.00024876,-0.00011105,0.00003060,-0.00005423,-0.00011356
 ,-0.00013719,-0.00021449,0.00005659,-0.00009461,-0.00022105,0.00003798
 ,-0.00008179,0.00021600,0.00000508,0.00038247,-0.00039299,-0.00013382,
 -0.00204482,0.00384806,-0.00059610,-0.00052581,-0.00242338,-0.00029866
 ,-0.01197811,0.00191072,0.01054475,0.01376489,-0.00153824,-0.01135712,
 -0.14099651,0.02272538,0.16456371,-0.00035377,0.00111138,-0.00182125,-
 0.01382212,0.02436755,-0.00085671,-0.11340843,0.11758321,-0.00058020,0
 .00924556,-0.01525268,0.00093766,-0.00090470,-0.00222352,0.00154998,0.
 00000500,-0.00076840,-0.00005437,0.00013834,0.00015739,-0.00011926,-0.
 00411166,-0.00194114,0.00219923,0.00002858,0.00116769,-0.00025563,-0.0
 0035218,-0.00029094,-0.00002231,0.00001954,0.00007071,-0.00000209,-0.0
 0001585,0.00011764,-0.00003381,-0.00000815,0.00001868,-0.00000242,0.00
 000818,-0.00009714,-0.00000654,-0.00003264,0.00057413,0.00004695,0.000
 24638,-0.00041941,0.00005878,0.00006333,-0.00036063,0.00088575,-0.0005
 3561,-0.00032553,0.00006807,0.00042772,-0.00020082,-0.00001252,0.12273
 413,-0.00241854,0.00022981,0.00094698,-0.00323446,0.00098296,0.0013499
 3,0.11862682,-0.25078259,0.01336375,0.01422153,-0.01775347,0.00019027,
 -0.00375673,-0.00255224,0.00228822,-0.00018322,0.00088348,0.00025742,0
 .00016664,-0.00009180,-0.00020114,-0.00029889,0.00017019,0.00070943,-0
 .00010316,0.00005613,-0.00016645,0.00001262,0.00006926,-0.00005777,0.0
 0000965,-0.00002191,0.00003800,0.00000327,0.00000406,0.00000291,0.0000
 2938,0.00000544,0.00000596,0.00002353,0.00000374,0.00001427,0.00000441
 ,-0.00016259,0.00002122,-0.00005559,0.00011365,-0.00004063,-0.00027754
 ,0.00072806,-0.00017986,0.00002401,0.00005433,-0.00026175,-0.00033651,
 0.00007448,-0.00008933,-0.12282360,0.26792181,0.00155114,-0.00271382,-
 0.00264809,-0.00313718,-0.00214632,0.00313796,0.00328992,0.01789239,-0
 .03661201,-0.00500375,0.00204331,0.00324798,0.00033935,0.00280430,0.00
 536671,0.00368004,0.00126980,-0.00134001,-0.00047281,0.00014547,-0.000
 45571,0.00246099,-0.00186619,0.00501531,-0.00012033,-0.00057148,0.0005
 7733,0.00028702,0.00016700,-0.00018237,-0.00018419,-0.00002989,0.00000
 736,-0.00000177,-0.00011617,-0.00001661,-0.00001138,-0.00000453,-0.000
 00264,-0.00001571,0.00000360,-0.00002401,-0.00006725,0.00008001,0.0000
 3367,-0.00000339,-0.00002366,-0.00000966,-0.00028418,0.00031315,-0.000
 24238,-0.00026726,-0.00050526,0.00001073,0.00011638,0.00039545,-0.0002
 0893,-0.00091349,-0.01699475,0.02663730,-0.00065116,0.00016908,0.00005
 268,0.00127607,-0.00209103,0.00184632,-0.00918406,0.00420939,0.0023052
 6,-0.31084358,0.00622907,0.06791359,-0.00873769,-0.00331216,0.00247841
 ,0.00160540,0.00191408,0.00141932,-0.00088335,0.00036925,0.00023447,0.
 00037818,-0.00020426,-0.00020674,0.00004737,-0.00000379,-0.00021040,0.
 00002823,0.00004512,-0.00000433,-0.00014204,-0.00002719,-0.00006942,-0
 .00001876,0.00001952,0.00000560,0.00000469,-0.00000109,-0.00000895,-0.
 00002136,-0.00001796,0.00002075,0.00005904,-0.00004949,-0.00000208,-0.
 00004986,0.00005933,-0.00002568,0.00003543,0.00000902,-0.00002435,-0.0
 0005716,-0.00008176,0.00006138,-0.00006342,-0.00021242,0.00008090,0.00
 044983,-0.00022837,-0.00111109,0.32615532,-0.00105505,0.00031593,0.000
 14061,-0.00145697,-0.00354004,0.00172776,-0.02434930,0.00546958,0.0052
 2605,0.00593565,-0.05373206,-0.00071855,0.02551522,0.00359930,-0.00570
 503,0.00047030,-0.00307773,-0.00062092,0.00205420,-0.00110503,-0.00048
 036,0.00015891,-0.00096661,0.00003425,-0.00003536,0.00017327,-0.000034
 63,-0.00010276,-0.00016268,0.00004383,0.00018927,0.00013420,0.00004764
 ,0.00003198,0.00003413,-0.00001284,-0.00000039,-0.00002711,0.00000310,
 -0.00001933,0.00003103,-0.00000130,0.00009792,-0.00012245,0.00001217,-
 0.00006074,0.00007972,-0.00001820,0.00012892,0.00001365,-0.00002053,-0
 .00002477,-0.00009205,0.00002422,-0.00009362,-0.00028181,0.00013508,0.
 00019576,0.00075934,-0.00061422,-0.00674893,0.05144027,0.00009495,-0.0
 0051017,0.00016721,0.00065724,0.00270150,0.00546196,0.00517067,0.00052
 800,0.00176977,0.06632591,-0.00089501,-0.04921101,0.00327666,-0.000734
 37,0.00221946,0.00037286,-0.00090845,0.00627674,0.00027464,-0.00008535
 ,0.00030412,-0.00039844,-0.00050402,-0.00046057,-0.00002312,-0.0000349
 7,-0.00074901,0.00002429,-0.00004154,0.00006765,-0.00000372,0.00006387
 ,-0.00007511,-0.00000343,0.00002406,0.00001215,0.00002104,-0.00001062,
 -0.00001228,-0.00001357,-0.00001259,0.00004884,0.00000169,0.00007289,0
 .00003427,0.00004548,0.00002710,-0.00005556,-0.00003969,0.00005731,-0.
 00006272,-0.00007710,0.00003013,0.00005478,-0.00002277,-0.00002577,-0.
 00005687,-0.00084301,-0.00088020,-0.00323567,-0.07386142,0.00065674,0.
 04097679,0.00011076,0.00000278,-0.00000609,-0.00015055,0.00084066,-0.0
 0037324,-0.00083320,0.00269345,0.00143789,0.01097117,0.01402842,-0.000
 73610,-0.10911550,-0.11426412,0.00887530,-0.01022351,-0.02664813,0.000
 27711,0.00243279,-0.00007679,-0.00139478,-0.00411805,0.00230935,0.0016
 5905,-0.00017955,-0.00116681,0.00005212,-0.00021917,-0.00060533,0.0002
 8961,0.00057170,0.00048049,-0.00007566,0.00012676,0.00011530,-0.000038
 88,-0.00000581,-0.00008046,0.00001161,-0.00006227,-0.00008717,0.000008
 18,-0.00026588,0.00029566,-0.00014721,0.00002809,-0.00002562,0.0000198
 8,-0.00002888,-0.00002682,0.00004348,-0.00002511,0.00000760,-0.0000342
 2,0.00002882,0.00000369,-0.00001700,0.00026661,0.00063409,-0.00031098,
 0.00043773,-0.00057414,-0.00090722,0.11111014,-0.00010843,0.00010422,0
 .00016859,0.00047087,0.00028548,-0.00010932,0.00376114,-0.00250821,-0.
 00174079,-0.01382867,-0.01503051,0.00148931,-0.11650152,-0.26731318,0.
 00351278,0.00326173,-0.00009875,-0.00128529,0.00070539,0.00118629,0.00
 021799,0.00046952,0.00065192,-0.00019605,0.00008449,0.00010314,0.00008
 504,-0.00003688,-0.00011508,0.00003724,0.00009394,0.00006461,-0.000039
 79,0.00001746,0.00001018,-0.00000385,-0.00001638,-0.00002611,0.0000029
 2,-0.00002758,0.00002260,-0.00001030,0.00005234,0.00004231,0.00001154,
 -0.00001170,-0.00000474,-0.00000775,0.00002879,0.00002879,-0.00007311,
 0.00003344,0.00002077,-0.00001150,-0.00006148,-0.00000669,-0.00000440,
 -0.00061196,-0.00071735,0.00043154,0.00000649,0.00104245,0.00053554,0.
 12224471,0.28223836,0.00014059,-0.00028149,0.00012624,0.00232402,-0.00
 070275,-0.00183497,0.00119267,-0.00142544,0.00550173,-0.00410274,-0.00
 087169,0.00279868,0.01175038,-0.00017555,-0.03144993,-0.00207328,0.002
 51432,0.00472126,-0.00094563,0.00143643,-0.00409194,0.00172734,0.00187
 571,0.00366331,-0.00000946,0.00054167,0.00046233,-0.00010421,-0.000080
 71,0.00003822,0.00001885,-0.00001857,-0.00023105,0.00001774,0.00000650
 ,-0.00001725,0.00000361,-0.00000539,0.00000680,0.00001875,0.00008486,-
 0.00004535,0.00018404,-0.00024624,-0.00006467,-0.00008557,0.00008782,0
 .00005255,-0.00027359,0.00004531,0.00003513,-0.00010389,0.00003963,-0.
 00009451,0.00001630,-0.00002251,0.00002523,-0.00023024,-0.00027112,0.0
 0082606,-0.00105781,0.00039226,-0.00344405,-0.00838502,-0.00303439,0.0
 2267021,0.00025675,-0.00011335,-0.00010075,-0.00168013,0.00010606,-0.0
 0049925,0.00065701,-0.00103205,-0.00024717,-0.00088531,0.00035793,0.00
 052560,0.00218372,-0.00240806,-0.00111740,-0.01384976,0.02691241,0.004
 59780,-0.00327367,-0.01682258,-0.00803894,0.00609741,-0.00272008,-0.00
 020277,-0.00021834,0.00509269,-0.00187629,-0.02499963,-0.02002372,0.00
 592746,-0.36930316,-0.06059256,-0.13784756,0.00730317,-0.00019452,-0.0
 0257505,-0.00194530,-0.00414112,0.00104199,-0.00207133,0.00330340,-0.0
 0070574,0.00190111,0.00035853,-0.00014096,-0.00066905,0.00157174,0.000
 15604,-0.00013642,-0.00007474,0.00000478,0.00012137,-0.00016670,0.0000
 1652,0.00005273,-0.00005139,0.00017181,-0.00001380,-0.00005597,0.00014
 826,0.00018836,-0.00025629,-0.00006606,-0.00078926,-0.00002062,-0.0000
 4556,0.40126729,-0.00013123,0.00006488,0.00003333,0.00017673,-0.000176
 48,-0.00037629,0.00003035,0.00025432,0.00009414,0.00004745,-0.00007713
 ,-0.00023604,0.00001460,-0.00034704,0.00020096,0.00765592,-0.00361544,
 0.00269743,-0.00179381,-0.00297778,-0.00089599,0.00013934,-0.00122883,
 -0.00030455,0.00074810,0.00072542,0.00043507,-0.03531556,-0.00845602,-
 0.01197819,-0.03999550,-0.04129340,0.00198969,-0.00118995,-0.00343461,
 0.00136723,-0.00028425,0.00148137,0.00068068,0.00046466,-0.00056697,0.
 00007619,-0.00152343,-0.00028225,0.00020332,0.00016813,0.00082480,0.00
 017954,-0.00000481,0.00006212,-0.00002420,0.00001631,0.00002499,-0.000
 00565,0.00001606,-0.00001070,0.00001433,-0.00004345,0.00002374,0.00003
 752,-0.00005323,0.00001113,-0.00005308,-0.00011445,0.00001614,0.000113
 43,0.07129296,0.05902403,0.00015881,-0.00003780,-0.00001976,-0.0010879
 8,0.00001863,-0.00037457,0.00050842,-0.00031215,-0.00002793,0.00004221
 ,0.00005772,-0.00030059,0.00176084,-0.00250196,-0.00089586,-0.00638037
 ,0.01633493,0.00740411,-0.00379077,-0.01030254,-0.01212021,0.00242482,
 -0.00189793,-0.00058132,-0.00055659,0.00198898,-0.00079673,0.01621484,
 -0.00431665,0.00493178,-0.15401124,-0.01126806,-0.06980315,0.00325562,
 0.00572684,0.00010208,0.00148116,-0.00048977,0.00084231,-0.00040806,0.
 00011711,0.00006090,0.00000418,0.00012685,-0.00061906,-0.00023356,0.00
 067209,0.00008468,-0.00005259,-0.00004783,0.00002165,0.00003039,-0.000
 10240,-0.00000051,0.00002422,-0.00002062,0.00007516,0.00000087,-0.0000
 3877,0.00010091,0.00015674,-0.00021817,-0.00003807,-0.00025573,0.00002
 344,0.00033739,0.14078572,0.00605305,0.07214795,0.00000702,-0.00003350
 ,0.00000763,-0.00035567,-0.00024103,-0.00000099,-0.00004379,0.00013006
 ,0.00000815,-0.00000042,0.00003438,-0.00000517,0.00003233,-0.00009748,
 -0.00002000,-0.00014011,0.00058653,0.00008094,0.00041799,-0.00039758,0
 .00021300,-0.00008649,0.00124194,-0.00040076,-0.00444677,-0.00142002,0
 .00084516,-0.00950042,0.02702782,-0.00636343,0.00172574,0.00036661,-0.
 00025820,-0.09806774,0.10155870,-0.01902242,0.01045727,-0.01599147,0.0
 0310481,-0.00124095,-0.00279099,0.00070217,-0.00114923,-0.00105096,0.0
 0000496,0.00028983,0.00002417,-0.00001319,0.00000085,0.00000860,-0.000
 00270,-0.00000647,0.00001203,0.00000067,0.00000363,-0.00000249,-0.0000
 0780,-0.00004313,0.00000430,0.00002912,-0.00000424,-0.00000490,-0.0000
 0327,-0.00002671,-0.00000351,-0.00000253,-0.00021181,-0.00031234,-0.00
 034360,0.10118518,0.00000537,0.00000691,0.00000492,0.00003711,0.000029
 90,-0.00002611,-0.00000815,0.00000109,0.00000913,0.00002925,-0.0000051
 2,-0.00001029,-0.00000385,0.00000857,0.00001023,0.00004693,-0.00010686
 ,-0.00004481,-0.00011168,0.00009944,-0.00003252,-0.00029769,0.00005861
 ,-0.00002670,0.00023689,0.00026856,0.00062228,-0.00323670,-0.00050356,
 0.00144730,-0.00149103,0.00051640,-0.00080038,0.10502421,-0.26945364,0
 .04962367,0.01178631,-0.01494067,0.00359956,-0.00383884,-0.00166510,0.
 00178395,-0.00036626,0.00064749,-0.00008044,0.00013834,0.00001765,-0.0
 0012079,0.00000631,-0.00000390,0.00000463,-0.00001139,0.00000083,0.000
 00274,-0.00000489,0.00000014,-0.00000350,0.00000451,-0.00000159,0.0000
 0155,0.00000237,0.00000086,-0.00000206,0.00000482,0.00000197,-0.000001
 37,-0.00024302,0.00007242,-0.00000654,-0.10833846,0.28492637,-0.000004
 09,0.00003408,0.00000962,0.00003430,0.00001256,-0.00009666,0.00000321,
 -0.00002947,-0.00000976,-0.00000309,-0.00000096,-0.00000004,-0.0000038
 9,-0.00001990,-0.00001295,-0.00011996,0.00021171,0.00004898,0.00005652
 ,-0.00011695,-0.00010072,-0.00002622,-0.00008287,0.00026846,-0.0001291
 4,-0.00064004,0.00405999,-0.00296829,0.00203901,0.00347199,0.00155610,
 -0.00123389,-0.00342967,-0.01827496,0.05206307,-0.04043961,-0.00316891
 ,0.00168376,0.00123661,0.00042535,0.00171135,0.00580131,0.00192117,0.0
 0006859,-0.00085765,-0.00024698,0.00003128,-0.00032281,-0.00001444,-0.
 00000477,-0.00000039,0.00000165,-0.00001623,-0.00000377,0.00000845,0.0
 0000927,0.00002499,0.00000681,-0.00000032,0.00000806,0.00000233,-0.000
 00243,0.00000070,-0.00000756,-0.00000016,0.00000390,-0.00027545,-0.000
 22949,-0.00031154,0.02172602,-0.05494936,0.03364146,-0.00001371,0.0000
 1475,-0.00001115,-0.00001812,0.00000838,-0.00001500,0.00000668,0.00001
 854,0.00000569,-0.00001160,-0.00000376,-0.00000258,-0.00000719,-0.0000
 1087,0.00000945,0.00003862,-0.00006015,-0.00000565,-0.00012718,0.00006
 952,-0.00009910,0.00007224,0.00000823,-0.00004014,0.00025925,-0.000136
 14,-0.00000836,0.00124691,-0.00228197,0.00060562,-0.00114310,-0.000376
 29,-0.00009758,-0.01132890,0.00427731,-0.00024873,-0.32471729,0.016520
 74,0.00594650,-0.00873844,-0.00250645,0.00056136,0.00160074,0.00203827
 ,0.00011358,-0.00089715,0.00043297,0.00000666,-0.00002829,-0.00000327,
 -0.00000901,0.00001781,-0.00002309,-0.00000795,0.00001286,0.00000050,0
 .00002947,-0.00000529,0.00000524,0.00000224,-0.00000624,0.00000052,0.,
 -0.00000089,-0.00000193,0.00000451,0.00011642,-0.00006287,0.00032144,0
 .00078594,0.00004250,-0.00020188,0.34221975,-0.00000222,-0.00000015,0.
 00001028,-0.00004574,-0.00006012,0.00001342,0.00000344,0.00002049,0.00
 000756,-0.00000771,-0.00000366,-0.00000241,0.00000357,0.00002072,0.000
 00769,0.00006187,-0.00008915,0.00001582,-0.00009546,0.00006968,-0.0001
 0304,0.00005014,0.00012570,-0.00012230,-0.00017378,-0.00079926,-0.0000
 6954,-0.00155559,-0.00282397,0.00202731,-0.00130279,-0.00031446,-0.000
 27777,-0.02408310,0.00629642,0.00026955,0.01657694,-0.05472865,0.00234
 286,0.02610759,0.00311578,-0.00030157,0.00071130,-0.00341824,0.0009393
 1,0.00185381,-0.00099453,-0.00008175,0.00002920,0.00001527,0.00000471,
 -0.00002548,0.00003150,0.00000265,-0.00000397,-0.00000188,-0.00002867,
 -0.00000495,0.00000016,0.00000056,-0.00000004,0.00000183,-0.00000071,0
 .00000345,0.00000040,0.00000128,-0.00009885,-0.00014795,0.00037308,0.0
 0046401,0.00064106,-0.00090576,-0.01784660,0.05201274,-0.00005706,0.00
 011521,-0.00003023,0.00011132,-0.00003729,0.00005420,-0.00001915,0.000
 01393,0.00006215,0.00001625,0.00002954,-0.00002371,0.00002168,-0.00003
 348,0.00001039,-0.00001357,0.00006120,0.00015255,-0.00006081,-0.000055
 76,-0.00018082,-0.00002080,-0.00015305,-0.00066506,0.00002833,-0.00019
 117,-0.00085223,-0.00013852,0.00250705,0.00681442,0.00003142,-0.000177
 70,-0.00012750,0.00499062,0.00069366,0.00358179,0.00541504,0.00200333,
 -0.03560487,-0.00316711,-0.00068884,0.00356687,-0.00013463,0.00090975,
 0.00633459,-0.00034842,0.00010079,-0.00006208,-0.00001712,-0.00000067,
 -0.00001654,-0.00004431,-0.00002474,-0.00004500,0.00000807,-0.00000294
 ,0.00001417,0.00000013,-0.00000414,0.00000634,-0.00000074,0.00000042,0
 .00000073,-0.00000249,0.00000116,0.00000131,0.00017416,-0.00000661,-0.
 00014354,-0.00018720,-0.00111800,-0.00382292,-0.00665381,-0.00373456,0
 .02444288,-0.00002339,0.00000616,0.00004865,0.00001668,-0.00018382,0.0
 0004325,0.00001969,0.00006430,-0.00001890,-0.00000939,-0.00000169,0.00
 000128,-0.00000535,-0.00013649,-0.00001615,-0.00041102,0.00032202,0.00
 001209,0.00008637,-0.00007045,0.00003562,-0.00012460,-0.00130353,0.000
 01270,-0.00422640,0.00219985,0.00001818,-0.00078012,0.00099664,-0.0002
 8105,0.00036901,0.00000756,-0.00002261,-0.00084781,0.00274006,-0.00027
 175,0.01133103,0.01313628,-0.00102512,-0.12046861,-0.11852358,0.009198
 38,-0.01080938,-0.02692912,0.00119262,0.00254520,-0.00016458,-0.000167
 62,0.00006144,0.00002812,0.00000042,-0.00006291,0.00006541,0.00000009,
 -0.00001634,-0.00003892,-0.00006795,-0.00002586,0.00000711,0.00000031,
 -0.00000272,0.00000390,-0.00000258,-0.00004021,0.00000036,0.00002073,-
 0.00009836,0.00005425,-0.00004978,0.00041817,0.00058703,-0.00029704,0.
 00066615,-0.00061903,0.00006873,0.12243874,-0.00002249,-0.00000232,0.0
 0002592,-0.00003127,-0.00001763,-0.00000245,-0.00000363,0.00000023,-0.
 00001093,-0.00001954,0.00000163,0.00000694,0.00000171,0.00002922,-0.00
 001205,0.00005301,-0.00003011,-0.00001807,-0.00005658,0.00002069,-0.00
 003133,0.00022662,0.00019857,0.00014338,0.00054986,0.00073012,0.000384
 11,0.00098730,0.00000425,-0.00026155,-0.00022960,0.00009183,-0.0000359
 0,0.00386360,-0.00269290,0.00052790,-0.01507048,-0.01481699,0.00089986
 ,-0.12131988,-0.25873644,0.01513413,0.00337688,0.00062070,-0.00007790,
 0.00079604,0.00134151,-0.00043518,0.00000641,0.00000651,-0.00000961,0.
 00001250,0.00000365,-0.00000772,0.00000615,0.00000050,-0.00000912,-0.0
 0000449,0.00000291,0.00000064,-0.00000101,0.00000090,0.00000178,0.0000
 0536,0.00000098,-0.00000198,0.00001988,0.00002923,0.00006847,-0.000774
 44,-0.00061783,0.00036792,-0.00012406,0.00103027,-0.00020707,0.1277521
 6,0.27280052,-0.00005519,0.00007455,0.00008362,0.00000050,-0.00002837,
 0.00005109,-0.00002001,0.00001111,-0.00005080,0.00000501,0.00001934,0.
 00000986,0.00002420,0.00005329,-0.00007548,0.00004161,-0.00020693,-0.0
 0022359,-0.00014383,0.00009914,0.00002069,0.00001590,0.00018719,0.0007
 4931,0.00020601,0.00197416,0.00390513,0.00191581,-0.00090910,-0.001298
 75,-0.00024648,-0.00009153,0.00018005,-0.00133940,0.00022951,0.0054301
 8,0.00062084,0.00399858,0.00068241,0.01141690,0.01226117,-0.02750877,-
 0.00412728,-0.00110022,0.00368726,0.00026229,0.00022881,-0.00465469,0.
 00000098,-0.00000534,-0.00001659,-0.00003160,0.00000465,-0.00003294,-0
 .00002854,-0.00001951,-0.00003457,-0.00000036,-0.00000213,0.00000237,0
 .00000527,0.00000306,0.00000574,0.00001794,-0.00000039,0.00000338,0.00
 018883,-0.00006580,-0.00007608,-0.00009135,0.00011291,0.00083241,-0.00
 020556,-0.00038798,-0.00346789,-0.00843250,-0.01644016,0.02179665\\-0.
 00001568,0.00002038,0.00002029,0.00000765,0.00000049,-0.00002256,0.000
 00322,0.00000542,-0.00000199,-0.00000023,-0.00000353,-0.00000518,-0.00
 000280,0.00000367,-0.00001105,-0.00000601,0.00001003,0.00001953,-0.000
 00939,-0.00000258,-0.00000200,-0.00000611,-0.00001292,0.00001993,-0.00
 000449,-0.00000312,-0.00004143,-0.00000553,-0.00000086,0.00001345,0.00
 003135,-0.00002324,-0.00004237,0.00000529,0.00000821,0.00001294,-0.000
 00086,-0.00000488,-0.00000259,-0.00000421,0.00000220,0.00000781,0.0000
 1156,-0.00000146,0.00002413,0.00003326,-0.00000986,-0.00001345,-0.0000
 0139,-0.00000518,-0.00000714,-0.00002036,-0.00000274,-0.00000622,-0.00
 000519,0.00000382,0.00000183,0.00000096,0.00000032,0.00000424,-0.00000
 044,-0.00000008,-0.00000267,0.00000009,0.00000026,0.00000295,-0.000011
 87,0.00001702,0.00002800,0.00000014,-0.00000020,0.00000092,0.00000007,
 -0.00000048,0.00000190,0.00000095,-0.00000068,0.00000072\\\@


 ADAM SMITH SAID, "THE REAL PRICE OF ANYTHING IS THE TOIL AND TROUBLE
 OF ACQUIRING IT."  BUT IN ALL UNDERTAKINGS WITH NATURE WE SHOULD FIRST
 READ CAREFULLY THE SMALL PRINT IN THE CONTRACT. THIS MIGHT DISCLOSE
 THAT THE REAL PRICE IS TO BE PAID BY THOSE WHO INHERIT THE DEPLETION
 AND DESPOILATION THAT FOLLOWS.
                               -- E. R. HARRISON IN "COSMOLOGY" (1980)
 Job cpu time:       0 days  0 hours 23 minutes 42.8 seconds.
 Elapsed time:       0 days  0 hours  3 minutes  1.3 seconds.
 File lengths (MBytes):  RWF=    233 Int=      0 D2E=      0 Chk=      8 Scr=      1
 Normal termination of Gaussian 16 at Thu Jul 23 14:32:34 2026.
