%mem=8000MB
%nprocshared=8
# PW6B95D3 def2tzvp  nosymm integral=NoXCTest

example

0 1
C -1.0820790000 2.5066800000 -1.2482440000
C -1.5031840000 1.2046290000 -0.5826730000
C -2.8786400000 1.1758570000 -0.2585960000
C -3.5848760000 0.0037970000 0.0293160000
C -2.9124800000 -1.2060340000 -0.1609430000
C -1.5507500000 -1.1649880000 -0.4504960000
F -1.0451710000 -2.3885530000 -0.8541230000
C -0.7069290000 -0.0091070000 -0.4441940000
C 0.7888670000 -0.1187740000 -0.3125650000
C 1.5181620000 -1.3354060000 0.0353960000
O 0.9870510000 -2.4793390000 0.5213960000
C 2.9333980000 -1.3904020000 -0.0042500000
C 3.7127540000 -0.2599450000 -0.2255240000
C 3.0647130000 0.9742430000 -0.3537480000
C 1.6702920000 1.0136650000 -0.3363150000
F 1.1687250000 2.2654570000 -0.2686840000
H -1.9597360000 2.8891380000 -1.8075840000
H -0.7738180000 3.2949640000 -0.5354520000
H -0.2626080000 2.3668200000 -1.9733670000
H -3.4264090000 2.1306020000 -0.3074690000
H -4.6536290000 0.0276230000 0.2883380000
H -3.4149430000 -2.1837960000 -0.1412650000
H 0.0856040000 -2.6343090000 0.1707760000
H 3.3808720000 -2.3730430000 0.2017500000
H 4.8109230000 -0.3264410000 -0.2473010000
H 3.6037210000 1.9299770000 -0.4148860000

