%mem=12000MB
%nprocshared=8
# opt=modredundant bp86 def2svp empiricaldispersion=GD3BJ

example

0 1
C -1.039188 2.458811 -1.297323
C -1.491501 1.189840 -0.590739
C -2.867737 1.194900 -0.270084
C -3.591829 0.041100 0.044807
C -2.938306 -1.184600 -0.114782
C -1.575626 -1.174854 -0.401682
F -1.089484 -2.413853 -0.780215
C -0.715516 -0.031381 -0.419245
C 0.778219 -0.133877 -0.286715
C 1.533589 -1.347122 0.009077
O 1.032042 -2.513198 0.470138
C 2.948621 -1.373095 -0.060491
C 3.701580 -0.218224 -0.246449
C 3.029254 1.008809 -0.302076
C 1.634914 1.018454 -0.261113
F 1.104736 2.251320 -0.109693
H -0.792741 3.289411 -0.608926
H -0.170512 2.294989 -1.957667
H -1.881249 2.795324 -1.936245
H -3.399722 2.156907 -0.346387
H -4.660758 0.087068 0.300179
H -3.457823 -2.152754 -0.074051
H 0.109947 -2.653085 0.169678
H 3.419364 -2.353686 0.098251
H 4.800212 -0.262384 -0.290657
H 3.549839 1.976463 -0.319478

7 8 9 11 F
1 8 9 16 F

