26

C      1.587891   -0.487566   -1.390496
C      1.628728    0.097642   -0.023244
C      2.808843    0.544401    0.540722
C      2.834310    1.089191    1.818804
C      1.675764    1.193428    2.549221
C      0.505912    0.746150    1.979741
F     -0.662174    0.827624    2.660282
C      0.466473    0.203974    0.713682
C     -0.791570   -0.250839    0.163274
C     -1.565969    0.631731   -0.553088
O     -1.128395    1.947684   -0.737655
C     -2.763339    0.191658   -1.074606
C     -3.179316   -1.106579   -0.883806
C     -2.415415   -2.005126   -0.168081
C     -1.199246   -1.550041    0.358993
F     -0.419514   -2.389554    1.064327
H      0.632928   -0.254868   -1.893707
H      1.709329   -1.578057   -1.396025
H      2.389805   -0.055910   -2.012162
H      3.716604    0.449062   -0.063924
H      3.754468    1.430617    2.242160
H      1.663583    1.612675    3.546056
H     -0.952814    2.334438   -1.652638
H     -3.399333    0.847989   -1.640690
H     -4.137901   -1.451393   -1.303751
H     -2.759652   -3.018329   -0.030030
