26

C      1.019439    1.954179    0.387488
C      1.531167    0.622541   -0.039073
C      2.859783    0.449460   -0.366569
C      3.339879   -0.771724   -0.760089
C      2.479000   -1.832857   -0.826543
C      1.135666   -1.656295   -0.495045
F      0.293806   -2.702147   -0.561970
C      0.632926   -0.436189   -0.096900
C     -0.750538   -0.223753    0.251780
C     -1.644549    0.147806   -0.731163
O     -1.188117    0.307700   -2.032269
C     -2.965265    0.362364   -0.458956
C     -3.455597    0.209638    0.840568
C     -2.576633   -0.161482    1.836960
C     -1.247740   -0.374269    1.547086
F     -0.378656   -0.739593    2.523953
H      0.075046    2.230288   -0.091404
H      0.828145    1.911550    1.498247
H      1.770566    2.734282    0.144389
H      3.530069    1.279397   -0.313939
H      4.401560   -0.890802   -1.017230
H      2.876432   -2.791413   -1.139868
H     -1.543588   -0.371244   -2.719938
H     -3.624654    0.651356   -1.260918
H     -4.492979    0.383574    1.026461
H     -2.905168   -0.292369    2.854939
