26

C     -0.941787   -1.500525    1.280987
C     -1.475593   -0.384104    0.466796
C     -2.827853   -0.118572    0.507522
C     -3.334727    0.934568   -0.259882
C     -2.458744    1.675811   -1.035810
C     -1.096446    1.379695   -1.053355
F     -0.223607    2.093889   -1.806499
C     -0.593855    0.343071   -0.298686
C      0.802089   -0.004021   -0.280818
C      1.644880    0.570632    0.630915
O      1.131520    1.483592    1.526510
C      2.985527    0.247364    0.659690
C      3.505048   -0.679677   -0.250260
C      2.663638   -1.254439   -1.161707
C      1.319842   -0.913229   -1.170808
F      0.503253   -1.484729   -2.071109
H     -0.750894   -1.081546    2.306788
H     -0.051473   -1.895018    0.797194
H     -1.726923   -2.286704    1.445605
H     -3.501440   -0.703783    1.116670
H     -4.389038    1.165654   -0.247866
H     -2.805371    2.486046   -1.634503
H      0.409712    2.147774    1.285267
H      3.653716    0.700389    1.379563
H      4.561453   -0.936885   -0.230447
H      2.997072   -1.985253   -1.901758
