26

C      0.914442    1.946434   -0.769404
C      1.473494    0.665811   -0.273785
C      2.849385    0.512612   -0.116763
C      3.397770   -0.667334    0.342370
C      2.567047   -1.737691    0.659696
C      1.206566   -1.599645    0.509197
F      0.416879   -2.655226    0.824345
C      0.689592   -0.408648    0.048493
C     -0.774829   -0.309614   -0.095927
C     -1.485352    0.141921    0.997547
O     -0.850425    0.491361    2.191677
C     -2.853255    0.228581    0.845800
C     -3.504636   -0.110446   -0.323128
C     -2.786267   -0.561651   -1.413363
C     -1.415910   -0.652379   -1.272617
F     -0.692487   -1.089753   -2.321475
H      1.755360    2.551400   -1.217289
H      0.497343    2.570843    0.031181
H      0.126262    1.796977   -1.540658
H      3.478306    1.374407   -0.375239
H      4.480883   -0.736011    0.447565
H      2.974896   -2.667616    1.019723
H     -1.225889    1.190450    2.821316
H     -3.405059    0.590142    1.726418
H     -4.595990   -0.023540   -0.392961
H     -3.238127   -0.841385   -2.352720
