26

C      1.161361    1.180568   -1.535115
C      1.611768    0.303678   -0.414184
C      2.918671    0.140477   -0.078786
C      3.323613   -0.678879    0.966952
C      2.317112   -1.322682    1.651333
C      0.987720   -1.191732    1.353111
F      0.027433   -1.860084    2.072364
C      0.642769   -0.362775    0.301824
C     -0.772594   -0.200853   -0.043290
C     -1.516272    0.797895    0.547510
O     -0.917844    1.643473    1.465877
C     -2.864299    0.976648    0.239553
C     -3.491032    0.137999   -0.682598
C     -2.750833   -0.862772   -1.276297
C     -1.413593   -1.015954   -0.950396
F     -0.705984   -1.993523   -1.535555
H      0.976368    2.194375   -1.072735
H      1.986427    1.341194   -2.259895
H      0.234303    0.836020   -1.999282
H      3.683836    0.664263   -0.641159
H      4.373878   -0.789003    1.210713
H      2.600031   -1.970884    2.474730
H     -1.128203    1.518873    2.445209
H     -3.470845    1.739690    0.677861
H     -4.547975    0.269933   -0.931001
H     -3.265815   -1.495945   -1.986744
