26

C      0.890967    1.983967    0.410314
C      1.493173    0.671873    0.129869
C      2.849424    0.480690    0.016538
C      3.425258   -0.742151   -0.245691
C      2.604719   -1.838952   -0.404513
C      1.239907   -1.672666   -0.295365
F      0.457642   -2.774049   -0.457220
C      0.666902   -0.423383   -0.028339
C     -0.777996   -0.286709    0.079851
C     -1.557519   -0.005674   -1.003016
O     -1.011361    0.169090   -2.290043
C     -2.923643    0.116968   -0.864872
C     -3.554800   -0.039891    0.374257
C     -2.762391   -0.323889    1.465767
C     -1.376769   -0.444658    1.305695
F     -0.671760   -0.724635    2.427088
H      0.262749    2.362350   -0.422249
H      0.243422    1.993289    1.310684
H      1.687238    2.750726    0.573328
H      3.490935    1.339442    0.140943
H      4.497428   -0.857794   -0.328643
H      3.000396   -2.824159   -0.611887
H     -0.707906    1.135553   -2.473301
H     -3.580839    0.340972   -1.706683
H     -4.638079    0.059384    0.472686
H     -3.247097   -0.445694    2.424801
