26

C     -1.025692   -1.913225   -0.602666
C     -1.536830   -0.578382   -0.195240
C     -2.881244   -0.368051   -0.031830
C     -3.401923    0.855597    0.345762
C     -2.507804    1.874979    0.556085
C     -1.147700    1.677311    0.394927
F     -0.286870    2.694008    0.607158
C     -0.642653    0.440416    0.014917
C      0.783535    0.212860   -0.159650
C      1.511947   -0.209784    0.929058
O      0.859472   -0.398804    2.135695
C      2.874555   -0.441746    0.818211
C      3.544785   -0.260407   -0.371932
C      2.815451    0.163057   -1.463093
C      1.439558    0.399085   -1.358114
F      0.721214    0.815195   -2.429038
H     -1.394090   -2.642416    0.152636
H     -1.548665   -2.186207   -1.555658
H      0.060189   -1.907275   -0.724309
H     -3.546962   -1.204025   -0.209606
H     -4.457124    1.043117    0.480197
H     -2.881367    2.860271    0.856564
H      1.226837   -0.018237    3.019876
H      3.474229   -0.775351    1.659309
H      4.623930   -0.444471   -0.458298
H      3.323221    0.312484   -2.410960
