26

C     -0.929022    2.008185   -0.343706
C     -1.529972    0.687200   -0.105756
C     -2.898974    0.595014   -0.013089
C     -3.429017   -0.650172    0.209105
C     -2.617009   -1.772979    0.335529
C     -1.241684   -1.649649    0.237701
F     -0.454689   -2.759402    0.363539
C     -0.696502   -0.406350    0.014927
C      0.744117   -0.280498   -0.086977
C      1.578961   -0.040049    0.984147
O      1.033256    0.094492    2.252617
C      2.953966    0.070665    0.822850
C      3.517675   -0.059592   -0.428622
C      2.699804   -0.300403   -1.513397
C      1.316540   -0.409485   -1.335649
F      0.596136   -0.646675   -2.460345
H     -0.193225    2.260269    0.423987
H     -1.682821    2.817031   -0.358316
H     -0.475399    1.986215   -1.360587
H     -3.542457    1.447814   -0.107584
H     -4.512544   -0.749944    0.286565
H     -3.044485   -2.742897    0.509426
H      1.460969    0.608908    3.004046
H      3.575224    0.261054    1.697234
H      4.608191    0.030426   -0.541572
H      3.162961   -0.399178   -2.486073
