26

C     -1.136217    1.905249   -0.490027
C     -1.546381    0.529874   -0.121716
C     -2.886663    0.202093   -0.093924
C     -3.308946   -1.066641    0.243692
C     -2.340389   -1.998293    0.553334
C     -1.006263   -1.671107    0.525415
F     -0.118077   -2.637015    0.840842
C     -0.583400   -0.407045    0.189145
C      0.846772   -0.082391    0.166595
C      1.581428   -0.250886   -0.987652
O      0.960593   -0.725956   -2.116607
C      2.942147    0.046158   -1.049565
C      3.584272    0.524984    0.075372
C      2.874070    0.703948    1.245987
C      1.517013    0.397646    1.273455
F      0.810975    0.570655    2.420479
H     -1.494238    2.190062   -1.503660
H     -1.660360    2.618601    0.211123
H     -0.065661    2.065560   -0.336510
H     -3.633599    0.961686   -0.344319
H     -4.353832   -1.344961    0.271785
H     -2.669230   -3.009990    0.822930
H      0.139675   -1.283772   -2.031778
H      3.522885   -0.085225   -1.955798
H      4.653862    0.770683    0.068320
H      3.369563    1.076082    2.123079
