  26
        -46.41909976
 C         -1.2523887918        2.6374282049       -0.5587065964
 C         -1.5729722966        1.2390209991       -0.0597842906
 C         -2.9165802151        1.1135193758        0.2927131108
 C         -3.5564462335       -0.0955333001        0.4610898919
 C         -2.8609634292       -1.2268399387        0.0877057487
 C         -1.5175217142       -1.1167929921       -0.2051525213
 F         -0.9979704245       -2.2644065815       -0.7394914077
 C         -0.7499324612        0.0659176294       -0.0676983673
 C          0.7489544927        0.0072865361        0.0283365292
 C          1.5019569322       -1.1989227278        0.1810553866
 O          1.0655996219       -2.4205623695        0.5832108725
 C          2.8871549533       -1.1953468041       -0.0092208447
 C          3.6017468154       -0.0377278018       -0.1981003774
 C          2.9294056187        1.1650600961       -0.0845193678
 C          1.5582257724        1.1630065185        0.0593087536
 F          1.0386746991        2.3853474942        0.3220902602
 H         -0.9900729099        3.3179269098        0.2464672561
 H         -0.4574719906        2.6299163043       -1.2970257344
 H         -2.1497193006        3.0209936553       -1.0406965776
 H         -3.4907843780        2.0222578913        0.3987466449
 H         -4.5889335745       -0.1482094283        0.7659992656
 H         -3.3331128004       -2.1912715386       -0.0102124648
 H          0.1309057330       -2.4317674168        0.8097323338
 H          3.3764422862       -2.1547441388        0.0434929305
 H          4.6675744317       -0.0637454621       -0.3563888711
 H          3.4452022356        2.1115823655       -0.0805950252
  26
        -46.41697617
 C         -1.2468511084        2.6424337960       -0.5711211313
 C         -1.5769641590        1.2440355878       -0.0723492095
 C         -2.9216445204        1.1228729233        0.2766930780
 C         -3.5550340356       -0.0866818846        0.4663492396
 C         -2.8605044864       -1.2243832169        0.1104098996
 C         -1.5181260981       -1.1266847890       -0.1960776572
 F         -1.0171517778       -2.2606424400       -0.7467949214
 C         -0.7623268714        0.0682350282       -0.0748027531
 C          0.7362101195        0.0018388889        0.0339059780
 C          1.5086401693       -1.2096318384        0.1789673322
 O          1.0305366015       -2.4274761099        0.5953167972
 C          2.8896615667       -1.1770949129       -0.0266754444
 C          3.5994797442       -0.0113822734       -0.2106240642
 C          2.9177451598        1.1780133591       -0.0758322864
 C          1.5444540908        1.1564332283        0.0762337664
 F          1.0295054958        2.3785082510        0.3438642820
 H         -2.1378200715        3.0260904429       -1.0649346653
 H         -0.9946782424        3.3236863040        0.2365452422
 H         -0.4431260296        2.6331032965       -1.2998805439
 H         -3.4982803247        2.0317168352        0.3701704660
 H         -4.5867452840       -0.1357226769        0.7762809116
 H         -3.3353914382       -2.1896962311        0.0375972697
 H          1.7367396853       -3.0800171897        0.5559021263
 H          3.4239766991       -2.1187813791       -0.0034464122
 H          4.6634181164       -0.0317494088       -0.3816656265
 H          3.4199025584        2.1317010407       -0.0695699794
