  26
  -46.4190997600000       0.226199502954301      !mtd3
 C         -1.2523887918        2.6374282049       -0.5587065964
 C         -1.5729722966        1.2390209991       -0.0597842906
 C         -2.9165802151        1.1135193758        0.2927131108
 C         -3.5564462335       -0.0955333001        0.4610898919
 C         -2.8609634292       -1.2268399387        0.0877057487
 C         -1.5175217142       -1.1167929921       -0.2051525213
 F         -0.9979704245       -2.2644065815       -0.7394914077
 C         -0.7499324612        0.0659176294       -0.0676983673
 C          0.7489544927        0.0072865361        0.0283365292
 C          1.5019569322       -1.1989227278        0.1810553866
 O          1.0655996219       -2.4205623695        0.5832108725
 C          2.8871549533       -1.1953468041       -0.0092208447
 C          3.6017468154       -0.0377278018       -0.1981003774
 C          2.9294056187        1.1650600961       -0.0845193678
 C          1.5582257724        1.1630065185        0.0593087536
 F          1.0386746991        2.3853474942        0.3220902602
 H         -0.9900729099        3.3179269098        0.2464672561
 H         -0.4574719906        2.6299163043       -1.2970257344
 H         -2.1497193006        3.0209936553       -1.0406965776
 H         -3.4907843780        2.0222578913        0.3987466449
 H         -4.5889335745       -0.1482094283        0.7659992656
 H         -3.3331128004       -2.1912715386       -0.0102124648
 H          0.1309057330       -2.4317674168        0.8097323338
 H          3.3764422862       -2.1547441388        0.0434929305
 H          4.6675744317       -0.0637454621       -0.3563888711
 H          3.4452022356        2.1115823655       -0.0805950252
  26
  -46.4190997400000       0.226194715741619      !mtd2
 C         -1.2521324260        2.6374049756       -0.5578764497
 C         -1.5729687495        1.2389806578       -0.0593416023
 C         -2.9169371783        1.1134573981        0.2917854117
 C         -3.5571225782       -0.0955520800        0.4591142798
 C         -2.8611823943       -1.2267928544        0.0864523483
 C         -1.5173913816       -1.1166480082       -0.2047852322
 F         -0.9975570938       -2.2644062592       -0.7385943547
 C         -0.7497394275        0.0659192321       -0.0667265389
 C          0.7491365892        0.0073197265        0.0295000430
 C          1.5020347158       -1.1989864631        0.1817145464
 O          1.0658169028       -2.4205278740        0.5844174598
 C          2.8870002783       -1.1954785184       -0.0101038553
 C          3.6012624260       -0.0378686728       -0.2003563458
 C          2.9293129470        1.1650996281       -0.0859793015
 C          1.5583308299        1.1631542817        0.0596712319
 F          1.0387945837        2.3853752390        0.3232613260
 H         -2.1492381566        3.0212527499       -1.0400555873
 H         -0.9899041905        3.3177578205        0.2474650241
 H         -0.4570194160        2.6299012910       -1.2959949276
 H         -3.4912060341        2.0222049507        0.3974484731
 H         -4.5900432680       -0.1481706682        0.7626152934
 H         -3.3332234081       -2.1911867133       -0.0122227770
 H          0.1309424530       -2.4318211369        0.8106239813
 H          3.3763700255       -2.1548612295        0.0420893478
 H          4.6668359537       -0.0639368364       -0.3603693766
 H          3.4453592114        2.1115146610       -0.0830429208
  26
  -46.4190995700000       0.226154028527606      !mtd3
 C         -1.2525587211        2.6373740819       -0.5589422071
 C         -1.5730186818        1.2390056487       -0.0598416728
 C         -2.9164763860        1.1135595243        0.2932538896
 C         -3.5563251144       -0.0955107180        0.4617414183
 C         -2.8610052799       -1.2268179744        0.0879494548
 C         -1.5176603627       -1.1167644613       -0.2052561836
 F         -0.9981645080       -2.2644547079       -0.7396226772
 C         -0.7499905008        0.0658998455       -0.0680003681
 C          0.7489150792        0.0072665756        0.0278164061
 C          1.5019573508       -1.1988689695        0.1807256740
 O          1.0656774718       -2.4205870674        0.5826924271
 C          2.8872451434       -1.1953104636       -0.0088840545
 C          3.6020019729       -0.0376983742       -0.1970100443
 C          2.9295434066        1.1650401306       -0.0839852851
 C          1.5582715468        1.1630046832        0.0590441363
 F          1.0386412312        2.3853733638        0.3215161636
 H         -0.4577394025        2.6299287578       -1.2973383730
 H         -2.1499622622        3.0208281890       -1.0408766744
 H         -0.9902265588        3.3179244574        0.2462102977
 H         -3.4905851831        2.0222690645        0.3996492861
 H         -4.5886798047       -0.1482063508        0.7670585559
 H         -3.3332775148       -2.1911678542       -0.0099047687
 H          0.1306887827       -2.4322335242        0.8079152504
 H          3.3763857158       -2.1548015068        0.0438225295
 H          4.6679711459       -0.0635833107       -0.3544166898
 H          3.4454097502        2.1115566265       -0.0799516541
  26
  -46.4190983000000       0.225850302579971      !hor
 C         -1.2447139391        2.6490481927        0.5198600142
 C         -1.5720152557        1.2403610451        0.0552310008
 C         -2.9203286844        1.1074410428       -0.2760420413
 C         -3.5620923958       -0.1049009078       -0.4096636640
 C         -2.8614674606       -1.2282003959       -0.0215798384
 C         -1.5141674289       -1.1121457624        0.2501912087
 F         -0.9871763369       -2.2477930775        0.8023454489
 C         -0.7490476845        0.0674867495        0.0770453400
 C          0.7483427604        0.0064972090       -0.0389989370
 C          1.4993826031       -1.2026780297       -0.1766131098
 O          1.0571509595       -2.4327452565       -0.5461940188
 C          2.8873170653       -1.1952479569       -0.0054441841
 C          3.6040224238       -0.0339727821        0.1490661497
 C          2.9299775095        1.1661701182        0.0189390990
 C          1.5569728461        1.1612792207       -0.1059166150
 F          1.0335849083        2.3776541318       -0.3879085661
 H         -2.1350823783        3.0423135843        1.0070677098
 H         -0.4389377192        2.6573433844        1.2462497804
 H         -0.9949623877        3.3124794955       -0.3033797611
 H         -3.4960488905        2.0137807341       -0.3939636668
 H         -4.5986594605       -0.1640880136       -0.6992253397
 H         -3.3323132833       -2.1901001730        0.1034078744
 H          0.1212748856       -2.4460006570       -0.7681384163
 H          3.3754465800       -2.1558780005       -0.0443535888
 H          4.6719843608       -0.0566710529        0.2932306281
 H          3.4455322623        2.1123557425       -0.0124310688
  26
  -46.4169761700000       2.390877109119752E-002 !hor
 C         -1.2468511084        2.6424337960       -0.5711211313
 C         -1.5769641590        1.2440355878       -0.0723492095
 C         -2.9216445204        1.1228729233        0.2766930780
 C         -3.5550340356       -0.0866818846        0.4663492396
 C         -2.8605044864       -1.2243832169        0.1104098996
 C         -1.5181260981       -1.1266847890       -0.1960776572
 F         -1.0171517778       -2.2606424400       -0.7467949214
 C         -0.7623268714        0.0682350282       -0.0748027531
 C          0.7362101195        0.0018388889        0.0339059780
 C          1.5086401693       -1.2096318384        0.1789673322
 O          1.0305366015       -2.4274761099        0.5953167972
 C          2.8896615667       -1.1770949129       -0.0266754444
 C          3.5994797442       -0.0113822734       -0.2106240642
 C          2.9177451598        1.1780133591       -0.0758322864
 C          1.5444540908        1.1564332283        0.0762337664
 F          1.0295054958        2.3785082510        0.3438642820
 H         -2.1378200715        3.0260904429       -1.0649346653
 H         -0.9946782424        3.3236863040        0.2365452422
 H         -0.4431260296        2.6331032965       -1.2998805439
 H         -3.4982803247        2.0317168352        0.3701704660
 H         -4.5867452840       -0.1357226769        0.7762809116
 H         -3.3353914382       -2.1896962311        0.0375972697
 H          1.7367396853       -3.0800171897        0.5559021263
 H          3.4239766991       -2.1187813791       -0.0034464122
 H          4.6634181164       -0.0317494088       -0.3816656265
 H          3.4199025584        2.1317010407       -0.0695699794
  26
  -46.4169761100000       2.390725313114702E-002 !hor
 C         -1.2468348081        2.6424381277       -0.5710448596
 C         -1.5769489221        1.2440524230       -0.0722879750
 C         -2.9216545243        1.1228520107        0.2766553572
 C         -3.5550450244       -0.0866745162        0.4663331099
 C         -2.8604989167       -1.2244132537        0.1104427462
 C         -1.5181232415       -1.1266660642       -0.1960058187
 F         -1.0172493318       -2.2606353386       -0.7468197946
 C         -0.7623366829        0.0682676155       -0.0748115729
 C          0.7361856699        0.0018198482        0.0338413499
 C          1.5087026727       -1.2096830914        0.1789353313
 O          1.0304545781       -2.4275161090        0.5952495579
 C          2.8897549715       -1.1770110977       -0.0265479511
 C          3.5995368386       -0.0113346707       -0.2105427045
 C          2.9177420655        1.1780669446       -0.0758597318
 C          1.5444617371        1.1564208142        0.0761599486
 F          1.0295483046        2.3784426489        0.3437850910
 H         -0.9945497403        3.3236725939        0.2366111848
 H         -0.4432087693        2.6330918408       -1.2999144970
 H         -2.1378605355        3.0261877836       -1.0647361172
 H         -3.4983017105        2.0317019763        0.3700963766
 H         -4.5867891380       -0.1356948129        0.7762046512
 H         -3.3353249417       -2.1897453361        0.0377335802
 H          1.7365456124       -3.0800825940        0.5563228481
 H          3.4241475775       -2.1186596648       -0.0033179369
 H          4.6635074651       -0.0318092554       -0.3815886259
 H          3.4197534516        2.1318427407       -0.0696537107
  26
  -46.4169759300000       2.390269982904006E-002 !mtd3
 C         -1.2393194539        2.6546834284        0.5309042562
 C         -1.5760430886        1.2457033687        0.0674432368
 C         -2.9251504720        1.1169589306       -0.2610793644
 C         -3.5606020184       -0.0964983217       -0.4159983178
 C         -2.8613841895       -1.2261909882       -0.0440476625
 C         -1.5151762124       -1.1218961325        0.2428095563
 F         -1.0065778472       -2.2433405124        0.8119972866
 C         -0.7614121281        0.0700416560        0.0850679774
 C          0.7354690120        0.0009640475       -0.0430990369
 C          1.5061099235       -1.2134618292       -0.1727274347
 O          1.0221835915       -2.4402817254       -0.5545555111
 C          2.8901565377       -1.1765675376        0.0107779359
 C          3.6026225387       -0.0071801110        0.1572385630
 C          2.9184891427        1.1788985333        0.0067615626
 C          1.5429642964        1.1540724322       -0.1233045322
 F          1.0240775696        2.3701237888       -0.4096890429
 H         -2.1236311103        3.0492525547        1.0280992254
 H         -0.4258416963        2.6610241173        1.2488207160
 H         -0.9980977741        3.3180489681       -0.2947589216
 H         -3.5032148452        2.0235281692       -0.3669512985
 H         -4.5961482472       -0.1522603294       -0.7117118234
 H         -3.3351058599       -2.1896381437        0.0559990060
 H          1.7283442014       -3.0923412853       -0.5087563439
 H          3.4243219458       -2.1185504928        0.0003498005
 H          4.6691948591       -0.0239199317        0.3116978541
 H          3.4201234614        2.1322177367       -0.0286544553
  26
  -46.4169751400000       2.388272614511821E-002 !hor
 C         -1.2463158952        2.6424202621       -0.5704491430
 C         -1.5768231352        1.2438428027       -0.0724277851
 C         -2.9220743374        1.1229530441        0.2747242005
 C         -3.5557125175       -0.0864342632        0.4642618972
 C         -2.8605051757       -1.2242706925        0.1100009256
 C         -1.5179977996       -1.1267964382       -0.1954450507
 F         -1.0167013338       -2.2606737554       -0.7459593915
 C         -0.7620784033        0.0682164315       -0.0738009192
 C          0.7364455067        0.0018270509        0.0352334254
 C          1.5088219511       -1.2097474876        0.1794677443
 O          1.0307694509       -2.4275293139        0.5964641638
 C          2.8894035558       -1.1773135114       -0.0280520917
 C          3.5987356012       -0.0112019918       -0.2134353449
 C          2.9175069305        1.1780764735       -0.0772093283
 C          1.5442531731        1.1564908889        0.0770421688
 F          1.0295053638        2.3784364038        0.3458411720
 H         -0.4411747729        2.6339242608       -1.2975765839
 H         -2.1363716460        3.0257257468       -1.0660645655
 H         -0.9961928966        3.3234261632        0.2380352856
 H         -3.4988329465        2.0318414250        0.3667056293
 H         -4.5878953952       -0.1354902718        0.7726458792
 H         -3.3354248496       -2.1895990545        0.0372503652
 H          1.7382157224       -3.0789555178        0.5606247645
 H          3.4246429628       -2.1183615968       -0.0058143555
 H          4.6623566326       -0.0320277145       -0.3866763450
 H          3.4193600506        2.1319375268       -0.0717941923
