      -----------------------------------------------------------      
     |                   =====================                   |     
     |                           x T B                           |     
     |                   =====================                   |     
     |                         S. Grimme                         |     
     |          Mulliken Center for Theoretical Chemistry        |     
     |                    University of Bonn                     |     
      -----------------------------------------------------------      

   * xtb version 6.6.1 (8d0f1dd) compiled by 'stahn@M-Bot' on 2023-08-01

   xtb is free software: you can redistribute it and/or modify it under
   the terms of the GNU Lesser General Public License as published by
   the Free Software Foundation, either version 3 of the License, or
   (at your option) any later version.
   
   xtb is distributed in the hope that it will be useful,
   but WITHOUT ANY WARRANTY; without even the implied warranty of
   MERCHANTABILITY or FITNESS FOR A PARTICULAR PURPOSE.  See the
   GNU Lesser General Public License for more details.
   
   Cite this work as:
   * C. Bannwarth, E. Caldeweyher, S. Ehlert, A. Hansen, P. Pracht,
     J. Seibert, S. Spicher, S. Grimme, WIREs Comput. Mol. Sci., 2020, 11,
     e01493. DOI: 10.1002/wcms.1493
   
   for GFN2-xTB:
   * C. Bannwarth, S. Ehlert and S. Grimme., J. Chem. Theory Comput., 2019,
     15, 1652-1671. DOI: 10.1021/acs.jctc.8b01176
   for GFN1-xTB:
   * S. Grimme, C. Bannwarth, P. Shushkov, J. Chem. Theory Comput., 2017,
     13, 1989-2009. DOI: 10.1021/acs.jctc.7b00118
   for GFN0-xTB:
   * P. Pracht, E. Caldeweyher, S. Ehlert, S. Grimme, ChemRxiv, 2019, preprint.
     DOI: 10.26434/chemrxiv.8326202.v1
   for GFN-FF:
   * S. Spicher and S. Grimme, Angew. Chem. Int. Ed., 2020, 59, 15665-15673.
     DOI: 10.1002/anie.202004239
   
   for ALPB and GBSA implicit solvation:
   * S. Ehlert, M. Stahn, S. Spicher, S. Grimme, J. Chem. Theory Comput.,
     2021, 17, 4250-4261. DOI: 10.1021/acs.jctc.1c00471
   
   for DFT-D4:
   * E. Caldeweyher, C. Bannwarth and S. Grimme, J. Chem. Phys., 2017,
     147, 034112. DOI: 10.1063/1.4993215
   * E. Caldeweyher, S. Ehlert, A. Hansen, H. Neugebauer, S. Spicher,
     C. Bannwarth and S. Grimme, J. Chem. Phys., 2019, 150, 154122.
     DOI: 10.1063/1.5090222
   * E. Caldeweyher, J.-M. Mewes, S. Ehlert and S. Grimme, Phys. Chem. Chem. Phys.
     2020, 22, 8499-8512. DOI: 10.1039/D0CP00502A
   
   for sTDA-xTB:
   * S. Grimme and C. Bannwarth, J. Chem. Phys., 2016, 145, 054103.
     DOI: 10.1063/1.4959605
   
   in the mass-spec context:
   * V. Asgeirsson, C. Bauer and S. Grimme, Chem. Sci., 2017, 8, 4879.
     DOI: 10.1039/c7sc00601b
   * J. Koopman and S. Grimme, ACS Omega 2019, 4, 12, 15120-15133.
     DOI: 10.1021/acsomega.9b02011
   
   for metadynamics refer to:
   * S. Grimme, J. Chem. Theory Comput., 2019, 155, 2847-2862
     DOI: 10.1021/acs.jctc.9b00143
   
   for SPH calculations refer to:
   * S. Spicher and S. Grimme, J. Chem. Theory Comput., 2021, 17, 1701-1714
     DOI: 10.1021/acs.jctc.0c01306
   
   with help from (in alphabetical order)
   P. Atkinson, C. Bannwarth, F. Bohle, G. Brandenburg, E. Caldeweyher
   M. Checinski, S. Dohm, S. Ehlert, S. Ehrlich, I. Gerasimov, C. Hölzer
   A. Katbashev, J. Koopman, C. Lavigne, S. Lehtola, F. März, M. Müller,
   F. Musil, H. Neugebauer, J. Pisarek, C. Plett, P. Pracht, F. Pultar,
   J. Seibert, P. Shushkov, S. Spicher, M. Stahn, M. Steiner, T. Strunk,
   J. Stückrath, T. Rose, and J. Unsleber
   
 * started run on 2026/07/23 at 12:55:32.507     

           -------------------------------------------------
          |                Calculation Setup                |
           -------------------------------------------------

          program call               : /path/to/xtb /path/to/atropisomers_workflow/example/reactant_censo/confs/14.xyz --opt --etemp 298.15 --chrg 0 --uhf 0 -P 4
          hostname                   : node
          coordinate file            : /path/to/atropisomers_workflow/example/reactant_censo/confs/14.xyz
          omp threads                :                     4

   ID    Z sym.   atoms
    1    6 C      1-6, 8-10, 12-15
    2    9 F      7, 16
    3    8 O      11
    4    1 H      17-26

           -------------------------------------------------
          |                 G F N 2 - x T B                 |
           -------------------------------------------------

        Reference                      10.1021/acs.jctc.8b01176
      * Hamiltonian:
        H0-scaling (s, p, d)           1.850000    2.230000    2.230000
        zeta-weighting                 0.500000
      * Dispersion:
        s8                             2.700000
        a1                             0.520000
        a2                             5.000000
        s9                             5.000000
      * Repulsion:
        kExp                           1.500000    1.000000
        rExp                           1.000000
      * Coulomb:
        alpha                          2.000000
        third order                    shell-resolved
        anisotropic                    true
        a3                             3.000000
        a5                             4.000000
        cn-shift                       1.200000
        cn-exp                         4.000000
        max-rad                        5.000000


          ...................................................
          :                      SETUP                      :
          :.................................................:
          :  # basis functions                  74          :
          :  # atomic orbitals                  74          :
          :  # shells                           42          :
          :  # electrons                        82          :
          :  max. iterations                   250          :
          :  Hamiltonian                  GFN2-xTB          :
          :  restarted?                      false          :
          :  GBSA solvation                  false          :
          :  PC potential                    false          :
          :  electronic temp.          298.1500000     K    :
          :  accuracy                    1.0000000          :
          :  -> integral cutoff          0.2500000E+02      :
          :  -> integral neglect         0.1000000E-07      :
          :  -> SCF convergence          0.1000000E-05 Eh   :
          :  -> wf. convergence          0.1000000E-03 e    :
          :  Broyden damping             0.4000000          :
          ...................................................

 iter      E             dE          RMSdq      gap      omega  full diag
   1    -47.0496633 -0.470497E+02  0.456E+00    4.56       0.0  T
   2    -47.0881129 -0.384496E-01  0.277E+00    4.46       1.0  T
   3    -47.0796193  0.849357E-02  0.142E+00    4.36       1.0  T
   4    -47.0997704 -0.201511E-01  0.243E-01    4.35       1.0  T
   5    -47.1000828 -0.312429E-03  0.981E-02    4.33       1.0  T
   6    -47.1002415 -0.158691E-03  0.461E-02    4.33       1.0  T
   7    -47.1002564 -0.149270E-04  0.175E-02    4.33       1.1  T
   8    -47.1002591 -0.262216E-05  0.773E-03    4.33       2.5  T
   9    -47.1002596 -0.499521E-06  0.189E-03    4.33      10.4  T
  10    -47.1002596 -0.156067E-07  0.813E-04    4.33      24.1  T
  11    -47.1002596 -0.308764E-08  0.432E-04    4.33      45.4  T

   *** convergence criteria satisfied after 11 iterations ***

         #    Occupation            Energy/Eh            Energy/eV
      -------------------------------------------------------------
         1        2.0000           -0.8094910             -22.0274
       ...           ...                  ...                  ...
        35        2.0000           -0.4520666             -12.3014
        36        2.0000           -0.4438293             -12.0772
        37        2.0000           -0.4261097             -11.5950
        38        2.0000           -0.4121839             -11.2161
        39        2.0000           -0.4092415             -11.1360
        40        2.0000           -0.4060346             -11.0488
        41        2.0000           -0.3998416             -10.8802 (HOMO)
        42                         -0.2406390              -6.5481 (LUMO)
        43                         -0.2355104              -6.4086
        44                         -0.2299634              -6.2576
        45                         -0.2280934              -6.2067
        46                         -0.1074149              -2.9229
       ...                                ...                  ...
        74                          0.6924111              18.8415
      -------------------------------------------------------------
                  HL-Gap            0.1592026 Eh            4.3321 eV
             Fermi-level           -0.3202403 Eh           -8.7142 eV

 SCC (total)                   0 d,  0 h,  0 min,  0.039 sec
 SCC setup                      ...        0 min,  0.000 sec (  0.513%)
 Dispersion                     ...        0 min,  0.000 sec (  0.631%)
 classical contributions        ...        0 min,  0.000 sec (  0.054%)
 integral evaluation            ...        0 min,  0.002 sec (  4.349%)
 iterations                     ...        0 min,  0.032 sec ( 82.560%)
 molecular gradient             ...        0 min,  0.004 sec ( 11.344%)
 printout                       ...        0 min,  0.000 sec (  0.495%)

         :::::::::::::::::::::::::::::::::::::::::::::::::::::
         ::                     SUMMARY                     ::
         :::::::::::::::::::::::::::::::::::::::::::::::::::::
         :: total energy             -46.446899063295 Eh    ::
         :: gradient norm              0.094513603083 Eh/a0 ::
         :: HOMO-LUMO gap              4.332123602976 eV    ::
         ::.................................................::
         :: SCC energy               -47.100259590000 Eh    ::
         :: -> isotropic ES            0.049492283304 Eh    ::
         :: -> anisotropic ES          0.002402172549 Eh    ::
         :: -> anisotropic XC          0.009162412570 Eh    ::
         :: -> dispersion             -0.027650008447 Eh    ::
         :: repulsion energy           0.653107927663 Eh    ::
         :: add. restraining           0.000000000000 Eh    ::
         :: total charge               0.000000000000 e     ::
         :::::::::::::::::::::::::::::::::::::::::::::::::::::

      ----------------------------------------------------------- 
     |                   =====================                   |
     |                        A N C O P T                        |
     |                   =====================                   |
     |               Approximate Normal Coordinate               |
     |                Rational Function Optimizer                |
      ----------------------------------------------------------- 

          ...................................................
          :                      SETUP                      :
          :.................................................:
          :   optimization level            normal          :
          :   max. optcycles                   200          :
          :   ANC micro-cycles                  20          :
          :   degrees of freedom                72          :
          :.................................................:
          :   RF solver                   davidson          :
          :   write xtbopt.log                true          :
          :   linear?                        false          :
          :   energy convergence         0.5000000E-05 Eh   :
          :   grad. convergence          0.1000000E-02 Eh/α :
          :   maxmium RF displ.          1.0000000          :
          :   Hlow (freq-cutoff)         0.1000000E-01      :
          :   Hmax (freq-cutoff)         5.0000000          :
          :   S6 in model hess.         20.0000000          :
          ...................................................

generating ANC from model Hessian ...
Using Lindh-Hessian (1995)
 Shifting diagonal of input Hessian by   8.672217774936365E-003
 Lowest  eigenvalues of input Hessian
    0.000000    0.000000    0.000000    0.000000    0.000000    0.000000
    0.010000    0.010580    0.010833    0.013901    0.015494    0.016420
    0.020789    0.021942    0.024758    0.029147    0.030297    0.030543
 Highest eigenvalues
    1.924361    1.955196    2.038980    2.100615    2.152646    2.192109
 

........................................................................
.............................. CYCLE    1 ..............................
........................................................................

 iter      E             dE          RMSdq      gap      omega  full diag
   1    -47.1002596 -0.471003E+02  0.117E-04    4.33       0.0  T
   2    -47.1002596 -0.348024E-10  0.695E-05    4.33     282.0  T
   3    -47.1002596 -0.304823E-11  0.447E-05    4.33     438.5  T
     SCC iter.                  ...        0 min,  0.004 sec
     gradient                   ...        0 min,  0.004 sec
 * total energy  :   -46.4468991 Eh     change       -0.1323222E-08 Eh
   gradient norm :     0.0945162 Eh/α   predicted     0.0000000E+00 (-100.00%)
   displ. norm   :     0.3343308 α      lambda       -0.1873737E-01
   maximum displ.:     0.1923738 α      in ANC's #17, #29, #41, ...

........................................................................
.............................. CYCLE    2 ..............................
........................................................................

 iter      E             dE          RMSdq      gap      omega  full diag
   1    -47.1130472 -0.471130E+02  0.345E-01    4.29       0.0  T
   2    -47.1132099 -0.162640E-03  0.215E-01    4.34       1.0  T
   3    -47.1131174  0.924735E-04  0.928E-02    4.33       1.0  T
   4    -47.1132512 -0.133758E-03  0.173E-02    4.33       1.1  T
   5    -47.1132552 -0.408852E-05  0.558E-03    4.34       3.5  T
   6    -47.1132555 -0.286582E-06  0.357E-03    4.34       5.5  T
   7    -47.1132557 -0.139842E-06  0.109E-03    4.34      17.9  T
   8    -47.1132557 -0.828299E-08  0.384E-04    4.34      51.1  T
   9    -47.1132557 -0.172000E-08  0.182E-04    4.34     107.7  T
     SCC iter.                  ...        0 min,  0.012 sec
     gradient                   ...        0 min,  0.004 sec
 * total energy  :   -46.4596211 Eh     change       -0.1272204E-01 Eh
   gradient norm :     0.0376189 Eh/α   predicted    -0.1041704E-01 ( -18.12%)
   displ. norm   :     0.2532012 α      lambda       -0.5036201E-02
   maximum displ.:     0.1015209 α      in ANC's #14, #29, #11, ...

........................................................................
.............................. CYCLE    3 ..............................
........................................................................

 iter      E             dE          RMSdq      gap      omega  full diag
   1    -47.1170982 -0.471171E+02  0.222E-01    4.30       0.0  T
   2    -47.1171944 -0.962469E-04  0.138E-01    4.33       1.0  T
   3    -47.1171757  0.187638E-04  0.716E-02    4.33       1.0  T
   4    -47.1172243 -0.486819E-04  0.111E-02    4.33       1.8  T
   5    -47.1172256 -0.124295E-05  0.333E-03    4.33       5.9  T
   6    -47.1172257 -0.712165E-07  0.215E-03    4.33       9.1  T
   7    -47.1172257 -0.579752E-07  0.709E-04    4.33      27.7  T
   8    -47.1172257 -0.295498E-08  0.281E-04    4.33      69.7  T
     SCC iter.                  ...        0 min,  0.010 sec
     gradient                   ...        0 min,  0.004 sec
 * total energy  :   -46.4627431 Eh     change       -0.3121960E-02 Eh
   gradient norm :     0.0128146 Eh/α   predicted    -0.2679539E-02 ( -14.17%)
   displ. norm   :     0.2462893 α      lambda       -0.1494760E-02
   maximum displ.:     0.1077441 α      in ANC's #14, #7, #11, ...

........................................................................
.............................. CYCLE    4 ..............................
........................................................................

 iter      E             dE          RMSdq      gap      omega  full diag
   1    -47.1143678 -0.471144E+02  0.130E-01    4.31       0.0  T
   2    -47.1144171 -0.493559E-04  0.755E-02    4.32       1.0  T
   3    -47.1144173 -0.171385E-06  0.444E-02    4.32       1.0  T
   4    -47.1144327 -0.153543E-04  0.914E-03    4.32       2.1  T
   5    -47.1144332 -0.588277E-06  0.317E-03    4.32       6.2  T
   6    -47.1144333 -0.661456E-07  0.187E-03    4.32      10.5  T
   7    -47.1144333 -0.406935E-07  0.726E-04    4.32      27.0  T
   8    -47.1144333 -0.221332E-08  0.250E-04    4.32      78.3  T
     SCC iter.                  ...        0 min,  0.010 sec
     gradient                   ...        0 min,  0.004 sec
 * total energy  :   -46.4637200 Eh     change       -0.9769608E-03 Eh
   gradient norm :     0.0239790 Eh/α   predicted    -0.7927266E-03 ( -18.86%)
   displ. norm   :     0.2468614 α      lambda       -0.1098979E-02
   maximum displ.:     0.1333478 α      in ANC's #2, #3, #5, ...

........................................................................
.............................. CYCLE    5 ..............................
........................................................................

 iter      E             dE          RMSdq      gap      omega  full diag
   1    -47.1144015 -0.471144E+02  0.959E-02    4.30       0.0  T
   2    -47.1144152 -0.137011E-04  0.568E-02    4.31       1.0  T
   3    -47.1144111  0.411176E-05  0.316E-02    4.31       1.0  T
   4    -47.1144213 -0.101299E-04  0.366E-03    4.31       5.4  T
   5    -47.1144214 -0.106348E-06  0.152E-03    4.31      12.9  T
   6    -47.1144214 -0.101958E-07  0.847E-04    4.31      23.2  T
   7    -47.1144214 -0.577793E-08  0.319E-04    4.31      61.4  T
     SCC iter.                  ...        0 min,  0.009 sec
     gradient                   ...        0 min,  0.004 sec
 * total energy  :   -46.4645549 Eh     change       -0.8348654E-03 Eh
   gradient norm :     0.0204025 Eh/α   predicted    -0.5830591E-03 ( -30.16%)
   displ. norm   :     0.3255317 α      lambda       -0.1236789E-02
   maximum displ.:     0.1958798 α      in ANC's #2, #3, #5, ...

........................................................................
.............................. CYCLE    6 ..............................
........................................................................

 iter      E             dE          RMSdq      gap      omega  full diag
   1    -47.1167861 -0.471168E+02  0.114E-01    4.30       0.0  T
   2    -47.1167935 -0.740034E-05  0.681E-02    4.30       1.0  T
   3    -47.1167815  0.120053E-04  0.280E-02    4.30       1.0  T
   4    -47.1167975 -0.160135E-04  0.347E-03    4.30       5.7  T
   5    -47.1167976 -0.649772E-07  0.197E-03    4.30       9.9  T
   6    -47.1167976 -0.267486E-07  0.930E-04    4.30      21.1  T
   7    -47.1167976 -0.408006E-08  0.372E-04    4.30      52.7  T
     SCC iter.                  ...        0 min,  0.009 sec
     gradient                   ...        0 min,  0.004 sec
 * total energy  :   -46.4654447 Eh     change       -0.8897963E-03 Eh
   gradient norm :     0.0116306 Eh/α   predicted    -0.6839256E-03 ( -23.14%)
   displ. norm   :     0.3970370 α      lambda       -0.9319091E-03
   maximum displ.:     0.2116546 α      in ANC's #2, #3, #5, ...

........................................................................
.............................. CYCLE    7 ..............................
........................................................................

 iter      E             dE          RMSdq      gap      omega  full diag
   1    -47.1148727 -0.471149E+02  0.142E-01    4.27       0.0  T
   2    -47.1148884 -0.156789E-04  0.834E-02    4.28       1.0  T
   3    -47.1148690  0.193784E-04  0.329E-02    4.28       1.0  T
   4    -47.1148944 -0.253352E-04  0.617E-03    4.28       3.2  T
   5    -47.1148947 -0.338923E-06  0.323E-03    4.28       6.1  T
   6    -47.1148949 -0.156777E-06  0.157E-03    4.28      12.5  T
   7    -47.1148949 -0.675033E-08  0.587E-04    4.28      33.4  T
   8    -47.1148949 -0.416843E-08  0.151E-04    4.28     130.2  T
     SCC iter.                  ...        0 min,  0.010 sec
     gradient                   ...        0 min,  0.004 sec
 * total energy  :   -46.4656740 Eh     change       -0.2293283E-03 Eh
   gradient norm :     0.0265222 Eh/α   predicted    -0.5394112E-03 ( 135.21%)
   displ. norm   :     0.1538197 α      lambda       -0.1150933E-02
   maximum displ.:     0.0846157 α      in ANC's #2, #3, #1, ...

........................................................................
.............................. CYCLE    8 ..............................
........................................................................

 iter      E             dE          RMSdq      gap      omega  full diag
   1    -47.1212167 -0.471212E+02  0.792E-02    4.29       0.0  T
   2    -47.1212239 -0.715857E-05  0.456E-02    4.29       1.0  T
   3    -47.1212208  0.306343E-05  0.181E-02    4.29       1.1  T
   4    -47.1212262 -0.542777E-05  0.525E-03    4.29       3.7  T
   5    -47.1212264 -0.198516E-06  0.264E-03    4.29       7.4  T
   6    -47.1212265 -0.404483E-07  0.151E-03    4.29      13.0  T
   7    -47.1212265 -0.241612E-07  0.476E-04    4.29      41.2  T
   8    -47.1212265 -0.759925E-09  0.147E-04    4.29     133.0  T
     SCC iter.                  ...        0 min,  0.010 sec
     gradient                   ...        0 min,  0.004 sec
 * total energy  :   -46.4661670 Eh     change       -0.4930060E-03 Eh
   gradient norm :     0.0081825 Eh/α   predicted    -0.5891007E-03 (  19.49%)
   displ. norm   :     0.1065901 α      lambda       -0.1522781E-03
   maximum displ.:     0.0510276 α      in ANC's #3, #2, #6, ...

........................................................................
.............................. CYCLE    9 ..............................
........................................................................

 iter      E             dE          RMSdq      gap      omega  full diag
   1    -47.1203068 -0.471203E+02  0.377E-02    4.27       0.0  T
   2    -47.1203083 -0.149640E-05  0.224E-02    4.28       1.0  T
   3    -47.1203072  0.103716E-05  0.938E-03    4.28       2.1  T
   4    -47.1203088 -0.151832E-05  0.170E-03    4.28      11.5  T
   5    -47.1203088 -0.234543E-07  0.721E-04    4.28      27.2  T
   6    -47.1203088 -0.165139E-08  0.390E-04    4.28      50.3  T
     SCC iter.                  ...        0 min,  0.008 sec
     gradient                   ...        0 min,  0.004 sec
 * total energy  :   -46.4662740 Eh     change       -0.1070036E-03 Eh
   gradient norm :     0.0031447 Eh/α   predicted    -0.7700451E-04 ( -28.04%)
   displ. norm   :     0.1231192 α      lambda       -0.8340622E-04
   maximum displ.:     0.0626454 α      in ANC's #3, #1, #6, ...

........................................................................
.............................. CYCLE   10 ..............................
........................................................................

 iter      E             dE          RMSdq      gap      omega  full diag
   1    -47.1201205 -0.471201E+02  0.397E-02    4.27       0.0  T
   2    -47.1201216 -0.115196E-05  0.239E-02    4.27       1.0  T
   3    -47.1201204  0.128670E-05  0.947E-03    4.27       2.1  T
   4    -47.1201221 -0.173010E-05  0.147E-03    4.27      13.3  T
   5    -47.1201221 -0.146272E-07  0.705E-04    4.27      27.8  T
   6    -47.1201221 -0.378899E-08  0.394E-04    4.27      49.8  T
     SCC iter.                  ...        0 min,  0.008 sec
     gradient                   ...        0 min,  0.004 sec
 * total energy  :   -46.4663274 Eh     change       -0.5342062E-04 Eh
   gradient norm :     0.0030775 Eh/α   predicted    -0.4233609E-04 ( -20.75%)
   displ. norm   :     0.0871423 α      lambda       -0.4257037E-04
   maximum displ.:     0.0541884 α      in ANC's #1, #3, #6, ...

........................................................................
.............................. CYCLE   11 ..............................
........................................................................

 iter      E             dE          RMSdq      gap      omega  full diag
   1    -47.1204575 -0.471205E+02  0.250E-02    4.26       0.0  T
   2    -47.1204578 -0.236149E-06  0.150E-02    4.26       1.3  T
   3    -47.1204573  0.430319E-06  0.524E-03    4.26       3.7  T
   4    -47.1204579 -0.540232E-06  0.774E-04    4.26      25.4  T
   5    -47.1204579 -0.369872E-08  0.414E-04    4.26      47.4  T
     SCC iter.                  ...        0 min,  0.007 sec
     gradient                   ...        0 min,  0.004 sec
 * total energy  :   -46.4663620 Eh     change       -0.3452554E-04 Eh
   gradient norm :     0.0024820 Eh/α   predicted    -0.2145337E-04 ( -37.86%)
   displ. norm   :     0.1717152 α      lambda       -0.7285759E-04
   maximum displ.:     0.1032111 α      in ANC's #1, #6, #3, ...

........................................................................
.............................. CYCLE   12 ..............................
........................................................................

 iter      E             dE          RMSdq      gap      omega  full diag
   1    -47.1206084 -0.471206E+02  0.456E-02    4.25       0.0  T
   2    -47.1206087 -0.293040E-06  0.271E-02    4.25       1.0  T
   3    -47.1206083  0.393178E-06  0.530E-03    4.25       3.7  T
   4    -47.1206089 -0.536097E-06  0.108E-03    4.25      18.1  T
   5    -47.1206089 -0.287552E-08  0.568E-04    4.25      34.6  T
   6    -47.1206089 -0.139608E-08  0.237E-04    4.25      82.8  T
     SCC iter.                  ...        0 min,  0.008 sec
     gradient                   ...        0 min,  0.004 sec
 * total energy  :   -46.4664200 Eh     change       -0.5804362E-04 Eh
   gradient norm :     0.0031012 Eh/α   predicted    -0.3750543E-04 ( -35.38%)
   displ. norm   :     0.2401272 α      lambda       -0.8948919E-04
   maximum displ.:     0.1457640 α      in ANC's #1, #2, #3, ...

........................................................................
.............................. CYCLE   13 ..............................
........................................................................

 iter      E             dE          RMSdq      gap      omega  full diag
   1    -47.1205208 -0.471205E+02  0.633E-02    4.23       0.0  T
   2    -47.1205211 -0.361168E-06  0.375E-02    4.23       1.0  T
   3    -47.1205207  0.419084E-06  0.488E-03    4.23       4.0  T
   4    -47.1205213 -0.612079E-06  0.126E-03    4.23      15.6  T
   5    -47.1205213 -0.240237E-08  0.577E-04    4.23      34.0  T
   6    -47.1205213 -0.113602E-08  0.227E-04    4.23      86.2  T
     SCC iter.                  ...        0 min,  0.008 sec
     gradient                   ...        0 min,  0.004 sec
 * total energy  :   -46.4664927 Eh     change       -0.7267624E-04 Eh
   gradient norm :     0.0048203 Eh/α   predicted    -0.4732623E-04 ( -34.88%)
   displ. norm   :     0.2998174 α      lambda       -0.1109558E-03
   maximum displ.:     0.1884769 α      in ANC's #1, #2, #3, ...

........................................................................
.............................. CYCLE   14 ..............................
........................................................................

 iter      E             dE          RMSdq      gap      omega  full diag
   1    -47.1201735 -0.471202E+02  0.809E-02    4.21       0.0  T
   2    -47.1201740 -0.500020E-06  0.478E-02    4.21       1.0  T
   3    -47.1201734  0.641687E-06  0.553E-03    4.21       3.5  T
   4    -47.1201743 -0.920931E-06  0.140E-03    4.21      14.0  T
   5    -47.1201743 -0.138140E-08  0.542E-04    4.21      36.2  T
   6    -47.1201743 -0.185649E-08  0.208E-04    4.21      94.4  T
     SCC iter.                  ...        0 min,  0.008 sec
     gradient                   ...        0 min,  0.004 sec
 * total energy  :   -46.4665826 Eh     change       -0.8994681E-04 Eh
   gradient norm :     0.0060859 Eh/α   predicted    -0.6047369E-04 ( -32.77%)
   displ. norm   :     0.3683301 α      lambda       -0.1453685E-03
   maximum displ.:     0.2369234 α      in ANC's #1, #2, #3, ...

........................................................................
.............................. CYCLE   15 ..............................
........................................................................

 iter      E             dE          RMSdq      gap      omega  full diag
   1    -47.1201318 -0.471201E+02  0.104E-01    4.18       0.0  T
   2    -47.1201325 -0.774070E-06  0.614E-02    4.18       1.0  T
   3    -47.1201315  0.102348E-05  0.696E-03    4.18       2.8  T
   4    -47.1201329 -0.142976E-05  0.161E-03    4.18      12.2  T
   5    -47.1201329 -0.164889E-08  0.678E-04    4.18      28.9  T
   6    -47.1201329 -0.409922E-08  0.276E-04    4.18      71.1  T
     SCC iter.                  ...        0 min,  0.008 sec
     gradient                   ...        0 min,  0.004 sec
 * total energy  :   -46.4666900 Eh     change       -0.1074134E-03 Eh
   gradient norm :     0.0066021 Eh/α   predicted    -0.8254639E-04 ( -23.15%)
   displ. norm   :     0.3228619 α      lambda       -0.1161701E-03
   maximum displ.:     0.2124575 α      in ANC's #1, #2, #3, ...

........................................................................
.............................. CYCLE   16 ..............................
........................................................................

 iter      E             dE          RMSdq      gap      omega  full diag
   1    -47.1192506 -0.471193E+02  0.954E-02    4.14       0.0  T
   2    -47.1192516 -0.937841E-06  0.560E-02    4.14       1.0  T
   3    -47.1192498  0.179449E-05  0.842E-03    4.14       2.3  T
   4    -47.1192520 -0.224940E-05  0.145E-03    4.14      13.5  T
   5    -47.1192520 -0.468714E-08  0.779E-04    4.14      25.2  T
   6    -47.1192520 -0.241167E-08  0.392E-04    4.14      50.1  T
     SCC iter.                  ...        0 min,  0.008 sec
     gradient                   ...        0 min,  0.004 sec
 * total energy  :   -46.4667684 Eh     change       -0.7839197E-04 Eh
   gradient norm :     0.0056953 Eh/α   predicted    -0.6414095E-04 ( -18.18%)
   displ. norm   :     0.2736978 α      lambda       -0.2005018E-03
   maximum displ.:     0.1735387 α      in ANC's #1, #2, #4, ...

........................................................................
.............................. CYCLE   17 ..............................
........................................................................

 iter      E             dE          RMSdq      gap      omega  full diag
   1    -47.1244171 -0.471244E+02  0.101E-01    4.12       0.0  T
   2    -47.1244238 -0.670557E-05  0.586E-02    4.13       1.0  T
   3    -47.1244185  0.529448E-05  0.177E-02    4.13       1.1  T
   4    -47.1244252 -0.671854E-05  0.347E-03    4.13       5.7  T
   5    -47.1244254 -0.203572E-06  0.147E-03    4.13      13.4  T
   6    -47.1244254  0.754028E-10  0.773E-04    4.13      25.4  T
   7    -47.1244254 -0.876547E-08  0.253E-04    4.13      77.4  T
     SCC iter.                  ...        0 min,  0.009 sec
     gradient                   ...        0 min,  0.004 sec
 * total energy  :   -46.4667133 Eh     change        0.5514958E-04 Eh
   gradient norm :     0.0099447 Eh/α   predicted    -0.1077694E-03 (-295.41%)
   displ. norm   :     0.1179580 α      lambda       -0.2741432E-03
   maximum displ.:     0.0698813 α      in ANC's #6, #3, #1, ...

........................................................................
.............................. CYCLE   18 ..............................
........................................................................

 iter      E             dE          RMSdq      gap      omega  full diag
   1    -47.1207166 -0.471207E+02  0.461E-02    4.11       0.0  T
   2    -47.1207198 -0.316675E-05  0.263E-02    4.11       1.0  T
   3    -47.1207193  0.532693E-06  0.954E-03    4.11       2.1  T
   4    -47.1207201 -0.884306E-06  0.286E-03    4.11       6.9  T
   5    -47.1207203 -0.119951E-06  0.109E-03    4.11      18.0  T
   6    -47.1207203 -0.200643E-09  0.552E-04    4.11      35.5  T
   7    -47.1207203 -0.525669E-08  0.165E-04    4.11     118.8  T
     SCC iter.                  ...        0 min,  0.009 sec
     gradient                   ...        0 min,  0.004 sec
 * total energy  :   -46.4668596 Eh     change       -0.1462607E-03 Eh
   gradient norm :     0.0029878 Eh/α   predicted    -0.1389787E-03 (  -4.98%)
   displ. norm   :     0.0513540 α      lambda       -0.3022627E-04
   maximum displ.:     0.0469919 α      in ANC's #2, #3, #4, ...

........................................................................
.............................. CYCLE   19 ..............................
........................................................................

 iter      E             dE          RMSdq      gap      omega  full diag
   1    -47.1208536 -0.471209E+02  0.166E-02    4.11       0.0  T
   2    -47.1208539 -0.266685E-06  0.101E-02    4.11       1.9  T
   3    -47.1208536  0.325924E-06  0.444E-03    4.11       4.4  T
   4    -47.1208540 -0.448297E-06  0.653E-04    4.11      30.0  T
   5    -47.1208540 -0.406935E-08  0.307E-04    4.11      63.9  T
     SCC iter.                  ...        0 min,  0.007 sec
     gradient                   ...        0 min,  0.004 sec
 * total energy  :   -46.4668852 Eh     change       -0.2561524E-04 Eh
   gradient norm :     0.0024057 Eh/α   predicted    -0.1515636E-04 ( -40.83%)
   displ. norm   :     0.1878886 α      lambda       -0.7919713E-04
   maximum displ.:     0.1297010 α      in ANC's #1, #3, #4, ...

........................................................................
.............................. CYCLE   20 ..............................
........................................................................

 iter      E             dE          RMSdq      gap      omega  full diag
   1    -47.1203944 -0.471204E+02  0.562E-02    4.09       0.0  T
   2    -47.1203960 -0.156837E-05  0.334E-02    4.09       1.0  T
   3    -47.1203929  0.307752E-05  0.120E-02    4.09       1.6  T
   4    -47.1203967 -0.381162E-05  0.152E-03    4.09      12.9  T
   5    -47.1203967 -0.233023E-07  0.746E-04    4.09      26.3  T
   6    -47.1203967 -0.954233E-08  0.302E-04    4.09      65.0  T
     SCC iter.                  ...        0 min,  0.008 sec
     gradient                   ...        0 min,  0.004 sec
 * total energy  :   -46.4669417 Eh     change       -0.5651234E-04 Eh
   gradient norm :     0.0033773 Eh/α   predicted    -0.4099713E-04 ( -27.45%)
   displ. norm   :     0.1939620 α      lambda       -0.5861599E-04
   maximum displ.:     0.1373934 α      in ANC's #1, #3, #4, ...
 * RMSD in coord.:     0.5847822 α      energy gain  -0.2004262E-01 Eh

generating ANC from model Hessian ...
Using Lindh-Hessian (1995)
 Shifting diagonal of input Hessian by   8.714478550945853E-003
 Lowest  eigenvalues of input Hessian
    0.000000    0.000000    0.000000    0.000000    0.000000    0.000000
    0.010000    0.010556    0.010869    0.013959    0.015707    0.017779
    0.021322    0.022280    0.025144    0.029991    0.031346    0.033339
 Highest eigenvalues
    1.890629    1.912125    2.028796    2.073878    2.113890    2.135218
 

........................................................................
.............................. CYCLE   21 ..............................
........................................................................

 iter      E             dE          RMSdq      gap      omega  full diag
   1    -47.1204571 -0.471205E+02  0.552E-02    4.07       0.0  T
   2    -47.1204584 -0.123765E-05  0.327E-02    4.08       1.0  T
   3    -47.1204554  0.300615E-05  0.111E-02    4.07       1.8  T
   4    -47.1204590 -0.366536E-05  0.121E-03    4.07      16.2  T
   5    -47.1204590 -0.944831E-08  0.624E-04    4.07      31.4  T
   6    -47.1204590 -0.556026E-08  0.280E-04    4.07      70.1  T
     SCC iter.                  ...        0 min,  0.008 sec
     gradient                   ...        0 min,  0.004 sec
 * total energy  :   -46.4669855 Eh     change       -0.4384326E-04 Eh
   gradient norm :     0.0043590 Eh/α   predicted     0.0000000E+00 (-100.00%)
   displ. norm   :     0.0393053 α      lambda       -0.3805763E-04
   maximum displ.:     0.0274729 α      in ANC's #2, #1, #7, ...

........................................................................
.............................. CYCLE   22 ..............................
........................................................................

 iter      E             dE          RMSdq      gap      omega  full diag
   1    -47.1211740 -0.471212E+02  0.144E-02    4.08       0.0  T
   2    -47.1211745 -0.419239E-06  0.893E-03    4.08       2.2  T
   3    -47.1211743  0.139940E-06  0.462E-03    4.08       4.2  T
   4    -47.1211746 -0.324024E-06  0.863E-04    4.08      22.7  T
   5    -47.1211746 -0.496876E-08  0.404E-04    4.08      48.6  T
     SCC iter.                  ...        0 min,  0.007 sec
     gradient                   ...        0 min,  0.004 sec
 * total energy  :   -46.4670221 Eh     change       -0.3655991E-04 Eh
   gradient norm :     0.0022226 Eh/α   predicted    -0.2322784E-04 ( -36.47%)
   displ. norm   :     0.0789694 α      lambda       -0.4833951E-04
   maximum displ.:     0.0610387 α      in ANC's #2, #1, #7, ...

........................................................................
.............................. CYCLE   23 ..............................
........................................................................

 iter      E             dE          RMSdq      gap      omega  full diag
   1    -47.1216478 -0.471216E+02  0.279E-02    4.08       0.0  T
   2    -47.1216486 -0.877641E-06  0.167E-02    4.07       1.2  T
   3    -47.1216479  0.691571E-06  0.739E-03    4.07       2.7  T
   4    -47.1216490 -0.103220E-05  0.128E-03    4.07      15.3  T
   5    -47.1216490 -0.115336E-07  0.589E-04    4.07      33.3  T
   6    -47.1216490 -0.445628E-08  0.262E-04    4.07      74.7  T
     SCC iter.                  ...        0 min,  0.008 sec
     gradient                   ...        0 min,  0.004 sec
 * total energy  :   -46.4670530 Eh     change       -0.3088656E-04 Eh
   gradient norm :     0.0012981 Eh/α   predicted    -0.2432076E-04 ( -21.26%)
   displ. norm   :     0.0711739 α      lambda       -0.1298911E-04
   maximum displ.:     0.0581846 α      in ANC's #2, #1, #7, ...

........................................................................
.............................. CYCLE   24 ..............................
........................................................................

 iter      E             dE          RMSdq      gap      omega  full diag
   1    -47.1215404 -0.471215E+02  0.228E-02    4.07       0.0  T
   2    -47.1215405 -0.134004E-06  0.135E-02    4.07       1.5  T
   3    -47.1215404  0.144242E-06  0.289E-03    4.07       6.8  T
   4    -47.1215405 -0.191754E-06  0.651E-04    4.07      30.1  T
   5    -47.1215405 -0.234387E-08  0.344E-04    4.07      57.1  T
     SCC iter.                  ...        0 min,  0.007 sec
     gradient                   ...        0 min,  0.004 sec
 * total energy  :   -46.4670681 Eh     change       -0.1508466E-04 Eh
   gradient norm :     0.0017979 Eh/α   predicted    -0.6510802E-05 ( -56.84%)
   displ. norm   :     0.0589682 α      lambda       -0.1162595E-04
   maximum displ.:     0.0452812 α      in ANC's #2, #1, #4, ...

........................................................................
.............................. CYCLE   25 ..............................
........................................................................

 iter      E             dE          RMSdq      gap      omega  full diag
   1    -47.1213534 -0.471214E+02  0.170E-02    4.06       0.0  T
   2    -47.1213535 -0.105897E-06  0.102E-02    4.07       1.9  T
   3    -47.1213532  0.367295E-06  0.364E-03    4.07       5.4  T
   4    -47.1213536 -0.439133E-06  0.441E-04    4.07      44.5  T
   5    -47.1213536 -0.150364E-08  0.249E-04    4.07      78.6  T
     SCC iter.                  ...        0 min,  0.007 sec
     gradient                   ...        0 min,  0.004 sec
 * total energy  :   -46.4670825 Eh     change       -0.1445480E-04 Eh
   gradient norm :     0.0009415 Eh/α   predicted    -0.5822638E-05 ( -59.72%)
   displ. norm   :     0.0821828 α      lambda       -0.1169752E-04
   maximum displ.:     0.0595819 α      in ANC's #2, #1, #4, ...

........................................................................
.............................. CYCLE   26 ..............................
........................................................................

 iter      E             dE          RMSdq      gap      omega  full diag
   1    -47.1212636 -0.471213E+02  0.232E-02    4.06       0.0  T
   2    -47.1212638 -0.218144E-06  0.139E-02    4.06       1.4  T
   3    -47.1212632  0.570620E-06  0.477E-03    4.06       4.1  T
   4    -47.1212639 -0.693437E-06  0.545E-04    4.06      36.0  T
   5    -47.1212639 -0.182990E-08  0.284E-04    4.06      69.1  T
     SCC iter.                  ...        0 min,  0.007 sec
     gradient                   ...        0 min,  0.004 sec
 * total energy  :   -46.4670971 Eh     change       -0.1457657E-04 Eh
   gradient norm :     0.0006239 Eh/α   predicted    -0.5866910E-05 ( -59.75%)
   displ. norm   :     0.0992202 α      lambda       -0.1044281E-04
   maximum displ.:     0.0694504 α      in ANC's #2, #1, #4, ...

........................................................................
.............................. CYCLE   27 ..............................
........................................................................

 iter      E             dE          RMSdq      gap      omega  full diag
   1    -47.1212316 -0.471212E+02  0.283E-02    4.05       0.0  T
   2    -47.1212318 -0.201424E-06  0.168E-02    4.05       1.2  T
   3    -47.1212312  0.601212E-06  0.476E-03    4.05       4.1  T
   4    -47.1212319 -0.718998E-06  0.540E-04    4.05      36.3  T
   5    -47.1212319 -0.125343E-08  0.291E-04    4.05      67.4  T
     SCC iter.                  ...        0 min,  0.007 sec
     gradient                   ...        0 min,  0.004 sec
 * total energy  :   -46.4671099 Eh     change       -0.1281777E-04 Eh
   gradient norm :     0.0007854 Eh/α   predicted    -0.5247714E-05 ( -59.06%)
   displ. norm   :     0.1187102 α      lambda       -0.9287362E-05
   maximum displ.:     0.0808809 α      in ANC's #2, #1, #3, ...

........................................................................
.............................. CYCLE   28 ..............................
........................................................................

 iter      E             dE          RMSdq      gap      omega  full diag
   1    -47.1211824 -0.471212E+02  0.348E-02    4.04       0.0  T
   2    -47.1211826 -0.183826E-06  0.205E-02    4.04       1.0  T
   3    -47.1211820  0.585608E-06  0.475E-03    4.04       4.1  T
   4    -47.1211827 -0.700843E-06  0.576E-04    4.04      34.0  T
   5    -47.1211827 -0.625199E-09  0.327E-04    4.04      60.0  T
     SCC iter.                  ...        0 min,  0.007 sec
     gradient                   ...        0 min,  0.004 sec
 * total energy  :   -46.4671205 Eh     change       -0.1062104E-04 Eh
   gradient norm :     0.0007641 Eh/α   predicted    -0.4673149E-05 ( -56.00%)
   displ. norm   :     0.0984506 α      lambda       -0.5375152E-05
   maximum displ.:     0.0677801 α      in ANC's #1, #2, #3, ...

........................................................................
.............................. CYCLE   29 ..............................
........................................................................

 iter      E             dE          RMSdq      gap      omega  full diag
   1    -47.1212164 -0.471212E+02  0.297E-02    4.03       0.0  T
   2    -47.1212165 -0.100113E-06  0.175E-02    4.03       1.1  T
   3    -47.1212162  0.275566E-06  0.353E-03    4.03       5.6  T
   4    -47.1212165 -0.337267E-06  0.478E-04    4.03      41.0  T
   5    -47.1212165 -0.197979E-09  0.272E-04    4.03      72.2  T
     SCC iter.                  ...        0 min,  0.007 sec
     gradient                   ...        0 min,  0.004 sec
 * total energy  :   -46.4671264 Eh     change       -0.5893770E-05 Eh
   gradient norm :     0.0005105 Eh/α   predicted    -0.2702079E-05 ( -54.15%)
   displ. norm   :     0.0547394 α      lambda       -0.2553755E-05
   maximum displ.:     0.0380610 α      in ANC's #1, #2, #3, ...

........................................................................
.............................. CYCLE   30 ..............................
........................................................................

 iter      E             dE          RMSdq      gap      omega  full diag
   1    -47.1212764 -0.471213E+02  0.174E-02    4.02       0.0  T
   2    -47.1212764 -0.326265E-07  0.102E-02    4.02       1.9  T
   3    -47.1212764  0.594426E-07  0.194E-03    4.02      10.1  T
   4    -47.1212765 -0.758031E-07  0.282E-04    4.02      69.5  T
   5    -47.1212765 -0.158870E-09  0.153E-04    4.02     128.2  T
     SCC iter.                  ...        0 min,  0.007 sec
     gradient                   ...        0 min,  0.004 sec
 * total energy  :   -46.4671295 Eh     change       -0.3033983E-05 Eh
   gradient norm :     0.0002179 Eh/α   predicted    -0.1280199E-05 ( -57.80%)
   displ. norm   :     0.0395453 α      lambda       -0.2098848E-05
   maximum displ.:     0.0261384 α      in ANC's #1, #3, #6, ...

   *** GEOMETRY OPTIMIZATION CONVERGED AFTER 30 ITERATIONS ***

------------------------------------------------------------------------
 total energy gain   :        -0.0202304 Eh      -12.6948 kcal/mol
 total RMSD          :         0.6715335 a0        0.3554 Å
 total power (kW/mol):        -1.7704959 (step) -118.5759 (real)
------------------------------------------------------------------------

 ANCopt (total)                0 d,  0 h,  0 min,  0.448 sec
 optimizer setup                ...        0 min,  0.000 sec (  0.041%)
 model hessian                  ...        0 min,  0.014 sec (  3.128%)
 ANC generation                 ...        0 min,  0.002 sec (  0.375%)
 coordinate transformation      ...        0 min,  0.000 sec (  0.074%)
 single point calculation       ...        0 min,  0.423 sec ( 94.394%)
 optimization log               ...        0 min,  0.004 sec (  0.947%)
 hessian update                 ...        0 min,  0.000 sec (  0.081%)
 rational function              ...        0 min,  0.003 sec (  0.635%)

================
 final structure:
================
26
 xtb: 6.6.1 (8d0f1dd)
C           -1.40090392320919        1.95610063148079        0.11869389841073
C           -1.67702788021835        0.49811058905068       -0.08294121584453
C           -2.96777259651777        0.04783143112905       -0.32760213360118
C           -3.23705242658619       -1.29485847409801       -0.52215628249609
C           -2.21196476816667       -2.22256781176758       -0.47826396904892
C           -0.92948674481366       -1.77305562848879       -0.23556660483656
F            0.07347241174218       -2.67752819034303       -0.17777789323996
C           -0.63577285195403       -0.43033284405757       -0.03059678626868
C            0.76642996936746       -0.03289229297663        0.22225210346781
C            1.72654907901820       -0.16552158660274       -0.78842450947016
O            1.30598942429766       -0.59495177928037       -2.00343147871734
C            3.05364957351525        0.16087453967149       -0.53691507661222
C            3.44001526764310        0.61728822952403        0.71012471099466
C            2.50871661462301        0.75954008450443        1.72212128548735
C            1.19233316232364        0.42974093007974        1.45839726750938
F            0.28560655058226        0.55452973508715        2.45190557847984
H           -2.24481853027273        2.55559552864228       -0.21260037282906
H           -0.51132763646763        2.25968374040827       -0.43068833136138
H           -1.22963250024626        2.16227670961652        1.17476701370205
H           -3.77460457426023        0.76471558876123       -0.36870958743113
H           -4.24808384481779       -1.62199592108373       -0.71136791282470
H           -2.38955247321592       -3.27568297914624       -0.62661341744521
H            2.06011888248825       -0.69910838157712       -2.59576512265474
H            3.78560114212048        0.05060579360588       -1.32542859751237
H            4.47447318246166        0.86244408158302        0.89328029662294
H            2.78504649056234        1.10915527627712        2.70330713751981
 
 Bond Distances (Angstroems)
 ---------------------------
C1-C2=1.4975         C1-H17=1.0869        C1-H18=1.0887        C1-H19=1.0896        C2-C1=1.4975         C2-C3=1.3888         
C2-C8=1.3961         C3-C2=1.3888         C3-C4=1.3832         C3-H20=1.0801        C4-C3=1.3832         C4-C5=1.3832         
C4-H21=1.0794        C5-C4=1.3832         C5-C6=1.3805         C5-H22=1.0782        C6-C5=1.3805         C6-F7=1.3518         
C6-C8=1.3897         F7-C6=1.3518         C8-C2=1.3961         C8-C6=1.3897         C8-C9=1.4792         C9-C8=1.4792         
C9-C10=1.4003        C9-C15=1.3869        C10-C9=1.4003        C10-O11=1.3556       C10-C12=1.3896       O11-C10=1.3556       
O11-H23=0.9646       C12-C10=1.3896       C12-C13=1.3830       C12-H24=1.0815       C13-C12=1.3830       C13-C14=1.3826       
C13-H25=1.0788       C14-C13=1.3826       C14-C15=1.3825       C14-H26=1.0776       C15-C9=1.3869        C15-C14=1.3825       
C15-F16=1.3508       F16-C15=1.3508       H17-C1=1.0869        H18-C1=1.0887        H19-C1=1.0896        H20-C3=1.0801        
H21-C4=1.0794        H22-C5=1.0782        H23-O11=0.9646       H24-C12=1.0815       H25-C13=1.0788       H26-C14=1.0776       
 C  H  Rav=1.0823 sigma=0.0045  Rmin=1.0776  Rmax=1.0896     9
 C  C  Rav=1.4016 sigma=0.0360  Rmin=1.3805  Rmax=1.4975    14
 O  H  Rav=0.9646 sigma=0.0000  Rmin=0.9646  Rmax=0.9646     1
 O  C  Rav=1.3556 sigma=0.0000  Rmin=1.3556  Rmax=1.3556     1
 F  C  Rav=1.3513 sigma=0.0005  Rmin=1.3508  Rmax=1.3518     2
 
 selected bond angles (degree)
 --------------------
H17-C1-C2=110.66               H18-C1-C2=110.74               H18-C1-H17=109.08              H19-C1-C2=110.10               
H19-C1-H17=108.25              H19-C1-H18=107.93              C3-C2-C1=120.71                C8-C2-C1=120.33                
C8-C2-C3=118.96                C4-C3-C2=121.36                H20-C3-C2=119.06               H20-C3-C4=119.57               
C5-C4-C3=120.15                H21-C4-C3=120.08               H21-C4-C5=119.77               C6-C5-C4=118.40                
H22-C5-C4=121.91               H22-C5-C6=119.69               F7-C6-C5=118.62                C8-C6-C5=122.47                
C8-C6-F7=118.91                C6-C8-C2=118.65                C9-C8-C2=122.33                C9-C8-C6=119.02                
C10-C9-C8=120.07               C15-C9-C8=122.21               C15-C9-C10=117.67              O11-C10-C9=117.66              
C12-C10-C9=120.13              C12-C10-O11=122.20             
 
 selected dihedral angles (degree)
 ---------------------------------
C3-C2-C1-H17=344.91           C3-C2-C1-H18=223.83           C3-C2-C1-H19=104.54           C8-C2-C1-H17=164.75           
C8-C2-C1-H18= 43.67           C8-C2-C1-H19=284.38           C4-C3-C2-C1=179.69            C4-C3-C2-C8=359.84            
H20-C3-C2-C1=359.86           H20-C3-C2-C8=180.02           C5-C4-C3-C2=359.87            C5-C4-C3-H20=179.70           
H21-C4-C3-C2=180.03           H21-C4-C3-H20=359.86          C6-C5-C4-C3=  0.09            C6-C5-C4-H21=179.94           
H22-C5-C4-C3=180.04           H22-C5-C4-H21=359.89          F7-C6-C5-C4=179.31            F7-C6-C5-H22=359.36           
C8-C6-C5-C4=  0.23            C8-C6-C5-H22=180.28           C6-C8-C2-C1=180.62            C6-C8-C2-C3=  0.46            
C9-C8-C2-C1=  0.04            C9-C8-C2-C3=179.88            C2-C8-C6-C5=359.49            C2-C8-C6-F7=180.41            
C9-C8-C6-C5=180.05            C9-C8-C6-F7=  0.97            C10-C9-C8-C2=247.54           C10-C9-C8-C6= 66.96           
C15-C9-C8-C2= 70.01           C15-C9-C8-C6=249.42           O11-C10-C9-C8=  3.51          O11-C10-C9-C15=181.15         
C12-C10-C9-C8=182.38          C12-C10-C9-C15=  0.03         
           -------------------------------------------------
          |                Final Singlepoint                |
           -------------------------------------------------

          ...................................................
          :                      SETUP                      :
          :.................................................:
          :  # basis functions                  74          :
          :  # atomic orbitals                  74          :
          :  # shells                           42          :
          :  # electrons                        82          :
          :  max. iterations                   250          :
          :  Hamiltonian                  GFN2-xTB          :
          :  restarted?                      false          :
          :  GBSA solvation                  false          :
          :  PC potential                    false          :
          :  electronic temp.          298.1500000     K    :
          :  accuracy                    1.0000000          :
          :  -> integral cutoff          0.2500000E+02      :
          :  -> integral neglect         0.1000000E-07      :
          :  -> SCF convergence          0.1000000E-05 Eh   :
          :  -> wf. convergence          0.1000000E-03 e    :
          :  Broyden damping             0.4000000          :
          ...................................................

 iter      E             dE          RMSdq      gap      omega  full diag
   1    -47.1212765 -0.471213E+02  0.741E-05    4.02       0.0  T
   2    -47.1212765 -0.301839E-10  0.499E-05    4.02     393.3  T
   3    -47.1212765 -0.425757E-10  0.290E-05    4.02     676.2  T

   *** convergence criteria satisfied after 3 iterations ***

         #    Occupation            Energy/Eh            Energy/eV
      -------------------------------------------------------------
         1        2.0000           -0.8146192             -22.1669
       ...           ...                  ...                  ...
        35        2.0000           -0.4504745             -12.2580
        36        2.0000           -0.4431344             -12.0583
        37        2.0000           -0.4253634             -11.5747
        38        2.0000           -0.4127507             -11.2315
        39        2.0000           -0.4018140             -10.9339
        40        2.0000           -0.3982409             -10.8367
        41        2.0000           -0.3931528             -10.6982 (HOMO)
        42                         -0.2454404              -6.6788 (LUMO)
        43                         -0.2292241              -6.2375
        44                         -0.2246797              -6.1138
        45                         -0.2211828              -6.0187
        46                         -0.1090427              -2.9672
       ...                                ...                  ...
        74                          0.6742468              18.3472
      -------------------------------------------------------------
                  HL-Gap            0.1477124 Eh            4.0195 eV
             Fermi-level           -0.3192966 Eh           -8.6885 eV

 SCC (total)                   0 d,  0 h,  0 min,  0.010 sec
 SCC setup                      ...        0 min,  0.000 sec (  1.042%)
 Dispersion                     ...        0 min,  0.000 sec (  0.963%)
 classical contributions        ...        0 min,  0.000 sec (  0.232%)
 integral evaluation            ...        0 min,  0.002 sec ( 14.900%)
 iterations                     ...        0 min,  0.004 sec ( 39.725%)
 molecular gradient             ...        0 min,  0.004 sec ( 41.652%)
 printout                       ...        0 min,  0.000 sec (  1.283%)

         :::::::::::::::::::::::::::::::::::::::::::::::::::::
         ::                     SUMMARY                     ::
         :::::::::::::::::::::::::::::::::::::::::::::::::::::
         :: total energy             -46.467129451182 Eh    ::
         :: gradient norm              0.000218471036 Eh/a0 ::
         :: HOMO-LUMO gap              4.019457967352 eV    ::
         ::.................................................::
         :: SCC energy               -47.121276453267 Eh    ::
         :: -> isotropic ES            0.045276115827 Eh    ::
         :: -> anisotropic ES          0.002416923049 Eh    ::
         :: -> anisotropic XC          0.007536667021 Eh    ::
         :: -> dispersion             -0.027404002786 Eh    ::
         :: repulsion energy           0.653912873112 Eh    ::
         :: add. restraining           0.000000000000 Eh    ::
         :: total charge              -0.000000000000 e     ::
         :::::::::::::::::::::::::::::::::::::::::::::::::::::

           -------------------------------------------------
          |                Property Printout                |
           -------------------------------------------------

    * Orbital Energies and Occupations

         #    Occupation            Energy/Eh            Energy/eV
      -------------------------------------------------------------
         1        2.0000           -0.8146192             -22.1669
       ...           ...                  ...                  ...
        29        2.0000           -0.4791290             -13.0378
        30        2.0000           -0.4741448             -12.9021
        31        2.0000           -0.4662996             -12.6887
        32        2.0000           -0.4638458             -12.6219
        33        2.0000           -0.4583451             -12.4722
        34        2.0000           -0.4565127             -12.4223
        35        2.0000           -0.4504745             -12.2580
        36        2.0000           -0.4431344             -12.0583
        37        2.0000           -0.4253634             -11.5747
        38        2.0000           -0.4127507             -11.2315
        39        2.0000           -0.4018140             -10.9339
        40        2.0000           -0.3982409             -10.8367
        41        2.0000           -0.3931528             -10.6982 (HOMO)
        42                         -0.2454404              -6.6788 (LUMO)
        43                         -0.2292241              -6.2375
        44                         -0.2246797              -6.1138
        45                         -0.2211828              -6.0187
        46                         -0.1090427              -2.9672
        47                         -0.0942207              -2.5639
        48                          0.0342808               0.9328
        49                          0.0544019               1.4804
        50                          0.0767956               2.0897
        51                          0.0990500               2.6953
        52                          0.1226090               3.3364
       ...                                ...                  ...
        74                          0.6742468              18.3472
      -------------------------------------------------------------
                  HL-Gap            0.1477124 Eh            4.0195 eV
             Fermi-level           -0.3192966 Eh           -8.6885 eV

     #   Z          covCN         q      C6AA      α(0)
     1   6 C        3.758    -0.109    22.637     6.783
     2   6 C        2.971     0.022    27.510     8.603
     3   6 C        2.924    -0.045    29.123     8.850
     4   6 C        2.923    -0.032    28.787     8.799
     5   6 C        2.917    -0.054    29.338     8.882
     6   6 C        2.791     0.169    24.353     8.084
     7   9 F        0.787    -0.229    11.537     4.012
     8   6 C        2.979     0.004    27.940     8.670
     9   6 C        2.974    -0.013    28.342     8.733
    10   6 C        2.854     0.149    24.764     8.156
    11   8 O        1.660    -0.377    20.406     6.098
    12   6 C        2.916    -0.077    29.922     8.970
    13   6 C        2.924    -0.031    28.773     8.797
    14   6 C        2.916    -0.062    29.548     8.914
    15   6 C        2.790     0.165    24.432     8.097
    16   9 F        0.787    -0.224    11.490     4.004
    17   1 H        0.925     0.045     2.380     2.412
    18   1 H        0.925     0.046     2.370     2.408
    19   1 H        0.925     0.063     2.161     2.299
    20   1 H        0.926     0.042     2.425     2.435
    21   1 H        0.926     0.043     2.413     2.429
    22   1 H        0.926     0.055     2.257     2.349
    23   1 H        0.805     0.305     0.705     1.319
    24   1 H        0.925     0.038     2.474     2.460
    25   1 H        0.926     0.048     2.345     2.395
    26   1 H        0.926     0.059     2.205     2.322

 Mol. C6AA /au·bohr⁶  :       8741.099136
 Mol. C8AA /au·bohr⁸  :     214347.806951
 Mol. α(0) /au        :        147.279813


Wiberg/Mayer (AO) data.
largest (>0.10) Wiberg bond orders for each atom

 ---------------------------------------------------------------------------
     #   Z sym  total        # sym  WBO       # sym  WBO       # sym  WBO
 ---------------------------------------------------------------------------
     1   6 C    3.996 --     2 C    1.029    17 H    0.984    18 H    0.976
                            19 H    0.964
     2   6 C    3.987 --     3 C    1.412     8 C    1.372     1 C    1.029
                             5 C    0.105
     3   6 C    3.990 --     4 C    1.444     2 C    1.412    20 H    0.968
     4   6 C    3.990 --     3 C    1.444     5 C    1.433    21 H    0.970
                             8 C    0.106
     5   6 C    3.988 --     4 C    1.433     6 C    1.402    22 H    0.967
                             2 C    0.105
     6   6 C    3.885 --     5 C    1.402     8 C    1.364     7 F    0.956
     7   9 F    1.086 --     6 C    0.956
     8   6 C    3.988 --     2 C    1.372     6 C    1.364     9 C    1.016
                             4 C    0.106
     9   6 C    3.986 --    15 C    1.376    10 C    1.323     8 C    1.016
                            13 C    0.103
    10   6 C    3.942 --    12 C    1.374     9 C    1.323    11 O    1.088
    11   8 O    2.141 --    10 C    1.088    23 H    0.885
    12   6 C    3.985 --    13 C    1.443    10 C    1.374    24 H    0.965
    13   6 C    3.989 --    12 C    1.443    14 C    1.435    25 H    0.970
                             9 C    0.103
    14   6 C    3.987 --    13 C    1.435    15 C    1.392    26 H    0.967
    15   6 C    3.886 --    14 C    1.392     9 C    1.376    16 F    0.958
    16   9 F    1.090 --    15 C    0.958
    17   1 H    0.998 --     1 C    0.984
    18   1 H    0.998 --     1 C    0.976
    19   1 H    0.996 --     1 C    0.964
    20   1 H    0.997 --     3 C    0.968
    21   1 H    0.998 --     4 C    0.970
    22   1 H    0.996 --     5 C    0.967
    23   1 H    0.906 --    11 O    0.885
    24   1 H    0.998 --    12 C    0.965
    25   1 H    0.997 --    13 C    0.970
    26   1 H    0.996 --    14 C    0.967
 ---------------------------------------------------------------------------

Topologies differ in total number of bonds
Writing topology from bond orders to xtbtopo.mol

molecular dipole:
                 x           y           z       tot (Debye)
 q only:        0.310       0.698      -0.746
   full:        0.555       0.687      -0.855       3.125
molecular quadrupole (traceless):
                xx          xy          yy          xz          yz          zz
 q only:       10.350       1.886      -6.037      -2.010       0.785      -4.313
  q+dip:       14.093       3.281      -7.638      -2.522       2.084      -6.455
   full:       11.932       2.436      -7.037      -3.152       0.922      -4.894

           -------------------------------------------------
          |                Geometry Summary                 |
           -------------------------------------------------

      molecular mass/u    :      220.2151854
   center of mass at/Å    :        0.0996411      -0.2863751       0.1108099
  moments of inertia/u·Å² :        0.5678793E+03   0.1113634E+04   0.1317344E+04
rotational constants/cm⁻¹ :        0.2968524E-01   0.1513750E-01   0.1279668E-01

 * 23 selected distances

     #   Z          #   Z                                           value/Å
     2   6 C        3   6 C                                       1.3887522
     3   6 C        4   6 C                                       1.3831773
     4   6 C        5   6 C                                       1.3832484
     5   6 C        6   6 C                                       1.3804758
     2   6 C        8   6 C                                       1.3960514
     6   6 C        8   6 C                                       1.3896709
     9   6 C       10   6 C                                       1.4003167 (max)
    10   6 C       11   8 O                                       1.3555527
    10   6 C       12   6 C                                       1.3895998
    12   6 C       13   6 C                                       1.3830042
    13   6 C       14   6 C                                       1.3826389
     9   6 C       15   6 C                                       1.3868952
    14   6 C       15   6 C                                       1.3824556
     1   6 C       17   1 H                                       1.0868956
     1   6 C       18   1 H                                       1.0887285
     1   6 C       19   1 H                                       1.0895564
     3   6 C       20   1 H                                       1.0800883
     4   6 C       21   1 H                                       1.0793538
     5   6 C       22   1 H                                       1.0782378
    11   8 O       23   1 H                                       0.9645824 (min)
    12   6 C       24   1 H                                       1.0815110
    13   6 C       25   1 H                                       1.0787728
    14   6 C       26   1 H                                       1.0776432

 * 4 distinct bonds (by element types)

   Z      Z             #   av. dist./Å        max./Å        min./Å
   1 H    6 C           9     1.0823097     1.0895564     1.0776432
   6 C    6 C          12     1.3871905     1.4003167     1.3804758
   1 H    8 O           1     0.9645824     0.9645824     0.9645824
   6 C    8 O           1     1.3555527     1.3555527     1.3555527


optimized geometry written to: xtbopt.xyz


           -------------------------------------------------
          | TOTAL ENERGY              -46.467129451182 Eh   |
          | GRADIENT NORM               0.000218471036 Eh/α |
          | HOMO-LUMO GAP               4.019457967352 eV   |
           -------------------------------------------------

------------------------------------------------------------------------
 * finished run on 2026/07/23 at 12:55:33.029     
------------------------------------------------------------------------
 total:
 * wall-time:     0 d,  0 h,  0 min,  0.521 sec
 *  cpu-time:     0 d,  0 h,  0 min,  2.041 sec
 * ratio c/w:     3.918 speedup
 SCF:
 * wall-time:     0 d,  0 h,  0 min,  0.039 sec
 *  cpu-time:     0 d,  0 h,  0 min,  0.143 sec
 * ratio c/w:     3.638 speedup
 ANC optimizer:
 * wall-time:     0 d,  0 h,  0 min,  0.461 sec
 *  cpu-time:     0 d,  0 h,  0 min,  1.835 sec
 * ratio c/w:     3.978 speedup

