 Entering Gaussian System, Link 0=g16
 Initial command:
 /path/to/gaussian "/path/to/scratch/inp" -scrdir="/path/to/scratch/"
 Entering Link 1 = /path/to/gaussian PID=   3633869.
  
 Copyright (c) 1988-2021, Gaussian, Inc.  All Rights Reserved.
  
 This is part of the Gaussian(R) 16 program.  It is based on
 the Gaussian(R) 09 system (copyright 2009, Gaussian, Inc.),
 the Gaussian(R) 03 system (copyright 2003, Gaussian, Inc.),
 the Gaussian(R) 98 system (copyright 1998, Gaussian, Inc.),
 the Gaussian(R) 94 system (copyright 1995, Gaussian, Inc.),
 the Gaussian 92(TM) system (copyright 1992, Gaussian, Inc.),
 the Gaussian 90(TM) system (copyright 1990, Gaussian, Inc.),
 the Gaussian 88(TM) system (copyright 1988, Gaussian, Inc.),
 the Gaussian 86(TM) system (copyright 1986, Carnegie Mellon
 University), and the Gaussian 82(TM) system (copyright 1983,
 Carnegie Mellon University). Gaussian is a federally registered
 trademark of Gaussian, Inc.
  
 This software contains proprietary and confidential information,
 including trade secrets, belonging to Gaussian, Inc.
  
 This software is provided under written license and may be
 used, copied, transmitted, or stored only in accord with that
 written license.
  
 The following legend is applicable only to US Government
 contracts under FAR:
  
                    RESTRICTED RIGHTS LEGEND
  
 Use, reproduction and disclosure by the US Government is
 subject to restrictions as set forth in subparagraphs (a)
 and (c) of the Commercial Computer Software - Restricted
 Rights clause in FAR 52.227-19.
  
 Gaussian, Inc.
 340 Quinnipiac St., Bldg. 40, Wallingford CT 06492
  
  
 ---------------------------------------------------------------
 Warning -- This program may not be used in any manner that
 competes with the business of Gaussian, Inc. or will provide
 assistance to any competitor of Gaussian, Inc.  The licensee
 of this program is prohibited from giving any competitor of
 Gaussian, Inc. access to this program.  By using this program,
 the user acknowledges that Gaussian, Inc. is engaged in the
 business of creating and licensing software in the field of
 computational chemistry and represents and warrants to the
 licensee that it is not a competitor of Gaussian, Inc. and that
 it will not use this program in any manner prohibited above.
 ---------------------------------------------------------------
  

 Cite this work as:
 Gaussian 16, Revision C.02,
 M. J. Frisch, G. W. Trucks, H. B. Schlegel, G. E. Scuseria, 
 M. A. Robb, J. R. Cheeseman, G. Scalmani, V. Barone, 
 G. A. Petersson, H. Nakatsuji, X. Li, M. Caricato, A. V. Marenich, 
 J. Bloino, B. G. Janesko, R. Gomperts, B. Mennucci, H. P. Hratchian, 
 J. V. Ortiz, A. F. Izmaylov, J. L. Sonnenberg, D. Williams-Young, 
 F. Ding, F. Lipparini, F. Egidi, J. Goings, B. Peng, A. Petrone, 
 T. Henderson, D. Ranasinghe, V. G. Zakrzewski, J. Gao, N. Rega, 
 G. Zheng, W. Liang, M. Hada, M. Ehara, K. Toyota, R. Fukuda, 
 J. Hasegawa, M. Ishida, T. Nakajima, Y. Honda, O. Kitao, H. Nakai, 
 T. Vreven, K. Throssell, J. A. Montgomery, Jr., J. E. Peralta, 
 F. Ogliaro, M. J. Bearpark, J. J. Heyd, E. N. Brothers, K. N. Kudin, 
 V. N. Staroverov, T. A. Keith, R. Kobayashi, J. Normand, 
 K. Raghavachari, A. P. Rendell, J. C. Burant, S. S. Iyengar, 
 J. Tomasi, M. Cossi, J. M. Millam, M. Klene, C. Adamo, R. Cammi, 
 J. W. Ochterski, R. L. Martin, K. Morokuma, O. Farkas, 
 J. B. Foresman, and D. J. Fox, Gaussian, Inc., Wallingford CT, 2019.
 
 ******************************************
 Gaussian 16:  ES64L-G16RevC.02  7-Dec-2021
                 2-Dec-2025 
 ******************************************
 %mem=6000MB
 %nprocshared=4
 Will use up to    4 processors via shared memory.
 ---------------------------------------------
 # bp86/def2svp/auto empiricaldispersion=GD3BJ
 ---------------------------------------------
 1/38=1,172=1/1;
 2/12=2,17=6,18=5,40=1/2;
 3/5=43,7=101,11=2,25=1,30=1,74=404,82=28,124=41/1,2,3;
 4//1;
 5/5=2,38=5/2;
 6/7=2,8=2,9=2,10=2,28=1/1;
 99/5=1,9=1/99;
 -------
 example
 -------
 Symbolic Z-matrix:
 Charge =  0 Multiplicity = 1
 C                     1.25155   2.63733   0.55849 
 C                     1.57286   1.2391    0.05982 
 C                     2.91668   1.11372  -0.29184 
 C                     3.55669  -0.09534  -0.45977 
 C                     2.86107  -1.22672  -0.08693 
 C                     1.51743  -1.11675   0.2051 
 F                     0.9976   -2.26447   0.73896 
 C                     0.74991   0.06596   0.06736 
 C                    -0.7488    0.00734  -0.02854 
 C                    -1.50176  -1.19884  -0.18134 
 O                    -1.06525  -2.41987  -0.58505 
 C                    -2.88678  -1.19562   0.01022 
 C                    -3.60131  -0.03809   0.20001 
 C                    -2.9293    1.16481   0.08553 
 C                    -1.55824   1.16293  -0.0595 
 F                    -1.03893   2.38498  -0.32388 
 H                     0.45626   2.62952   1.29643 
 H                     2.14846   3.02125   1.04096 
 H                     0.98937   3.31773  -0.24682 
 H                     3.49093   2.02246  -0.39761 
 H                     4.5894   -0.14797  -0.76399 
 H                     3.33321  -2.19113   0.01116 
 H                    -0.1308   -2.43032  -0.81256 
 H                    -3.37598  -2.15506  -0.0424 
 H                    -4.66698  -0.06432   0.35935 
 H                    -3.4453    2.11126   0.08167 
 
                          Input orientation:                          
 ---------------------------------------------------------------------
 Center     Atomic      Atomic             Coordinates (Angstroms)
 Number     Number       Type             X           Y           Z
 ---------------------------------------------------------------------
      1          6           0        1.251547    2.637330    0.558492
      2          6           0        1.572855    1.239099    0.059821
      3          6           0        2.916684    1.113716   -0.291837
      4          6           0        3.556685   -0.095339   -0.459768
      5          6           0        2.861072   -1.226724   -0.086930
      6          6           0        1.517434   -1.116755    0.205095
      7          9           0        0.997604   -2.264473    0.738961
      8          6           0        0.749912    0.065962    0.067358
      9          6           0       -0.748803    0.007336   -0.028537
     10          6           0       -1.501759   -1.198843   -0.181337
     11          8           0       -1.065251   -2.419871   -0.585051
     12          6           0       -2.886778   -1.195618    0.010224
     13          6           0       -3.601308   -0.038092    0.200010
     14          6           0       -2.929300    1.164811    0.085526
     15          6           0       -1.558241    1.162928   -0.059496
     16          9           0       -1.038932    2.384976   -0.323885
     17          1           0        0.456260    2.629516    1.296429
     18          1           0        2.148458    3.021253    1.040956
     19          1           0        0.989374    3.317730   -0.246821
     20          1           0        3.490932    2.022463   -0.397605
     21          1           0        4.589403   -0.147965   -0.763995
     22          1           0        3.333214   -2.191133    0.011163
     23          1           0       -0.130800   -2.430325   -0.812564
     24          1           0       -3.375982   -2.155063   -0.042398
     25          1           0       -4.666983   -0.064317    0.359348
     26          1           0       -3.445304    2.111258    0.081671
 ---------------------------------------------------------------------
                    Distance matrix (angstroms):
                    1          2          3          4          5
     1  C    0.000000
     2  C    1.518868   0.000000
     3  C    2.411874   1.394725   0.000000
     4  C    3.717256   2.446687   1.378266   0.000000
     5  C    4.235334   2.785915   2.350051   1.379463   0.000000
     6  C    3.780045   2.360979   2.679522   2.375684   1.379397
     7  F    4.911693   3.614853   4.019648   3.562441   2.287254
     8  C    2.665480   1.433019   2.433456   2.860394   2.480290
     9  C    3.356021   2.629666   3.837864   4.328248   3.815431
    10  C    4.779567   3.931281   4.988263   5.184891   4.363941
    11  O    5.678955   4.556701   5.331793   5.175079   4.133732
    12  C    5.667259   5.081204   6.253354   6.553604   5.748755
    13  C    5.553071   5.331307   6.637227   7.188563   6.577046
    14  C    4.457745   4.502841   5.858373   6.629731   6.267184
    15  C    3.232751   3.134295   4.481223   5.282606   5.024095
    16  F    2.467502   2.877794   4.155000   5.223995   5.320767
    17  H    1.084939   2.170079   3.297563   4.485722   4.750515
    18  H    1.088401   2.114242   2.450552   3.734759   4.452556
    19  H    1.086374   2.180639   2.928178   4.276152   4.917406
    20  H    2.511380   2.121772   1.080172   2.119735   3.324224
    21  H    4.544020   3.420844   2.147734   1.077882   2.146919
    22  H    5.286488   3.855868   3.344747   2.159645   1.078250
    23  H    5.428794   4.138619   4.703035   4.378832   3.305526
    24  H    6.688955   6.001814   7.095405   7.244207   6.305921
    25  H    6.509036   6.381551   7.702195   8.264420   7.630333
    26  H    4.750212   5.093433   6.450541   7.361391   7.137291
                    6          7          8          9         10
     6  C    0.000000
     7  F    1.368391   0.000000
     8  C    1.416644   2.437894   0.000000
     9  C    2.540472   2.966498   1.502924   0.000000
    10  C    3.044929   2.868681   2.594533   1.430090   0.000000
    11  O    2.998784   2.456121   3.146398   2.510215   1.358099
    12  C    4.409227   4.094134   3.849722   2.453474   1.398207
    13  C    5.231162   5.137824   4.354485   2.862006   2.429171
    14  C    4.999329   5.254288   3.839844   2.471300   2.774157
    15  C    3.837544   4.349364   2.558711   1.411220   2.365586
    16  F    4.367717   5.185991   2.954803   2.413416   3.616391
    17  H    4.043717   4.955295   2.858086   3.175459   4.546863
    18  H    4.268485   5.417985   3.411388   4.315279   5.712030
    19  H    4.488622   5.668582   3.275675   3.745347   5.158436
    20  H    3.756678   5.087857   3.399600   4.708748   5.945633
    21  H    3.363730   4.431647   3.934285   5.390868   6.208549
    22  H    2.118715   2.447477   3.430901   4.636562   4.939500
    23  H    2.340464   1.925626   2.789510   2.634163   1.947954
    24  H    5.008479   4.444182   4.687003   3.402679   2.108642
    25  H    6.275224   6.088707   5.426323   3.937985   3.405604
    26  H    5.921492   6.270445   4.667256   3.421951   3.847506
                   11         12         13         14         15
    11  O    0.000000
    12  C    2.274007   0.000000
    13  C    3.566619   1.373477   0.000000
    14  C    4.095644   2.362013   1.382634   0.000000
    15  C    3.654545   2.707880   2.384096   1.378708   0.000000
    16  F    4.812011   4.043120   3.565318   2.286900   1.353877
    17  H    5.599221   5.240408   4.978165   3.882482   2.836834
    18  H    6.525156   6.648159   6.567084   5.490250   4.289986
    19  H    6.103765   5.954909   5.703995   4.483472   3.341946
    20  H    6.366182   7.155247   7.409649   6.495257   5.132959
    21  H    6.096613   7.588825   8.247976   7.679580   6.325210
    22  H    4.444580   6.299155   7.263528   7.105419   5.931362
    23  H    0.961806   3.129999   4.335032   4.643616   3.939057
    24  H    2.388320   1.078250   2.142685   3.352231   3.783324
    25  H    4.406018   2.137957   1.077841   2.145991   3.368358
    26  H    5.161424   3.354472   2.158251   1.077978   2.116663
                   16         17         18         19         20
    16  F    0.000000
    17  H    2.218291   0.000000
    18  H    3.525208   1.755636   0.000000
    19  H    2.233830   1.771854   1.757766   0.000000
    20  H    4.544945   3.528101   2.206644   2.821036   0.000000
    21  H    6.187701   5.389120   4.388622   5.023815   2.460008
    22  H    6.337878   5.759117   5.443628   5.992304   4.236314
    23  H    4.924493   5.513119   6.192758   5.883450   5.754690
    24  H    5.113999   6.274610   7.647701   7.003541   8.045645
    25  H    4.430417   5.863657   7.512361   6.618161   8.454538
    26  H    2.455610   4.119032   5.747912   4.607586   6.953341
                   21         22         23         24         25
    21  H    0.000000
    22  H    2.520598   0.000000
    23  H    5.243266   3.568632   0.000000
    24  H    8.245999   6.709507   3.346660   0.000000
    25  H    9.324675   8.285393   5.248650   2.489840   0.000000
    26  H    8.389025   8.028938   5.693115   4.268687   2.510524
                   26
    26  H    0.000000
 Stoichiometry    C13H10F2O
 Framework group  C1[X(C13H10F2O)]
 Deg. of freedom    72
 Full point group                 C1      NOp   1
 Largest Abelian subgroup         C1      NOp   1
 Largest concise Abelian subgroup C1      NOp   1
                         Standard orientation:                         
 ---------------------------------------------------------------------
 Center     Atomic      Atomic             Coordinates (Angstroms)
 Number     Number       Type             X           Y           Z
 ---------------------------------------------------------------------
      1          6           0        1.313398    2.581630    0.519877
      2          6           0        1.594041    1.165961    0.046505
      3          6           0        2.934949    0.993720   -0.296363
      4          6           0        3.538456   -0.236959   -0.440677
      5          6           0        2.806975   -1.340106   -0.052193
      6          6           0        1.466049   -1.184291    0.231313
      7          9           0        0.909060   -2.306371    0.781942
      8          6           0        0.735625    0.018739    0.069823
      9          6           0       -0.763745    0.004172   -0.032444
     10          6           0       -1.552511   -1.180938   -0.168534
     11          8           0       -1.151728   -2.421403   -0.549394
     12          6           0       -2.937616   -1.132255    0.016124
     13          6           0       -3.617285    0.049569    0.182793
     14          6           0       -2.908352    1.229315    0.051298
     15          6           0       -1.537365    1.183192   -0.086920
     16          9           0       -0.979812    2.384166   -0.369372
     17          1           0        0.515000    2.610631    1.253916
     18          1           0        2.219482    2.946221    1.000191
     19          1           0        1.075679    3.255873   -0.298105
     20          1           0        3.537147    1.882616   -0.414652
     21          1           0        4.570414   -0.326201   -0.738882
     22          1           0        3.249003   -2.316638    0.064515
     23          1           0       -0.217039   -2.464197   -0.772094
     24          1           0       -3.455660   -2.077108   -0.022677
     25          1           0       -4.683956    0.058543    0.337303
     26          1           0       -3.395184    2.190839    0.028901
 ---------------------------------------------------------------------
 Rotational constants (GHZ):           0.8441790           0.4853353           0.3203755
 Standard basis: def2SVP (5D, 7F)
 There are   290 symmetry adapted cartesian basis functions of A   symmetry.
 There are   274 symmetry adapted basis functions of A   symmetry.
   274 basis functions,   470 primitive gaussians,   290 cartesian basis functions
    57 alpha electrons       57 beta electrons
       nuclear repulsion energy      1079.9171977521 Hartrees.
 NAtoms=   26 NActive=   26 NUniq=   26 SFac= 1.00D+00 NAtFMM=   60 NAOKFM=F Big=F
 Integral buffers will be    131072 words long.
 Raffenetti 2 integral format.
 Two-electron integral symmetry is turned on.
 Nuclear repulsion after empirical dispersion term =     1079.8650203982 Hartrees.
 Standard density basis: Auto (5D, 7F)
  1490 Density fitting functions
 There are  1490 symmetry adapted density basis functions of A   symmetry.
 One-electron integrals computed using PRISM.
   1 Symmetry operations used in ECPInt.
 ECPInt:  NShTT=    8001 NPrTT=   29641 LenC2=    7616 LenP2D=   20412.
 LDataN:  DoStor=T MaxTD1= 4 Len=   56
 NBasis=   274 RedAO= T EigKep=  2.67D-04  NBF=   274
 NBsUse=   274 1.00D-06 EigRej= -1.00D+00 NBFU=   274
 NBasis=      274 NBas6D=      290 NTT=       37675   NTT6D=    42195
 NDBShl=      236 NDBF=       1490 NDBF6D=     1748  NNucDB=        0
 IDenFi=        2 ISolve=        0 FullAP=F BlkAPC=T NucTyp=        0
 TolInv= 1.00D-06 TolIt=  1.00D-10 IR12=0.
 FoFCou: FMM=F IPFlag=           0 FMFlag=           0 FMFlg1=           0
         NFxFlg=           0 DoJE=F BraDBF=T KetDBF=T FulRan=T
         wScrn=  0.000000 ICntrl=       600 IOpCl=  3 I1Cent=           6 NGrid=           0
         NMat0=    1 NMatS0=   1748 NMatT0=    0 NMatD0=    1 NMtDS0=    0 NMtDT0=    0
 Petite list used in FoFCou.
 DBF EigKep=  1.10D-06 EigRej=  9.65D-07
 NDBF=   1490  NBFD=  1490
 NRank=  1487 NBFDU=  1487
 S*AI*S=  9.27424963298    
 ExpMin= 1.22D-01 ExpMax= 2.89D+03 ExpMxC= 4.35D+02 IAcc=3 IRadAn=         5 AccDes= 0.00D+00
 Harris functional with IExCor=  404 and IRadAn=       5 diagonalized for initial guess.
 HarFok:  IExCor=  404 AccDes= 0.00D+00 IRadAn=         5 IDoV= 1 UseB2=F ITyADJ=14
 ICtDFT=  3500011 ScaDFX=  1.000000  1.000000  1.000000  1.000000
 FoFCou: FMM=F IPFlag=           0 FMFlag=      100000 FMFlg1=           0
         NFxFlg=           0 DoJE=T BraDBF=F KetDBF=T FulRan=T
         wScrn=  0.000000 ICntrl=       500 IOpCl=  0 I1Cent=   200000004 NGrid=           0
         NMat0=    1 NMatS0=      1 NMatT0=    0 NMatD0=    1 NMtDS0=    0 NMtDT0=    0
 Petite list used in FoFCou.
 Requested convergence on RMS density matrix=1.00D-08 within 128 cycles.
 Requested convergence on MAX density matrix=1.00D-06.
 Requested convergence on             energy=1.00D-06.
 No special actions if energy rises.
 FoFCou: FMM=F IPFlag=           0 FMFlag=      100000 FMFlg1=           0
         NFxFlg=           0 DoJE=T BraDBF=T KetDBF=F FulRan=T
         wScrn=  0.000000 ICntrl=       500 IOpCl=  0 I1Cent=           5 NGrid=           0
         NMat0=    1 NMatS0=      1 NMatT0=    0 NMatD0=    1 NMtDS0=    0 NMtDT0=    0
 Symmetry not used in FoFCou.
 Initial convergence to 1.0D-05 achieved.  Increase integral accuracy.
 SCF Done:  E(RB-P86) =  -775.742676610     A.U. after   17 cycles
            NFock= 17  Conv=0.48D-08     -V/T= 2.0094

 **********************************************************************

            Population analysis using the SCF Density.

 **********************************************************************

 Orbital symmetries:
       Occupied  (A) (A) (A) (A) (A) (A) (A) (A) (A) (A) (A) (A)
                 (A) (A) (A) (A) (A) (A) (A) (A) (A) (A) (A) (A)
                 (A) (A) (A) (A) (A) (A) (A) (A) (A) (A) (A) (A)
                 (A) (A) (A) (A) (A) (A) (A) (A) (A) (A) (A) (A)
                 (A) (A) (A) (A) (A) (A) (A) (A) (A)
       Virtual   (A) (A) (A) (A) (A) (A) (A) (A) (A) (A) (A) (A)
                 (A) (A) (A) (A) (A) (A) (A) (A) (A) (A) (A) (A)
                 (A) (A) (A) (A) (A) (A) (A) (A) (A) (A) (A) (A)
                 (A) (A) (A) (A) (A) (A) (A) (A) (A) (A) (A) (A)
                 (A) (A) (A) (A) (A) (A) (A) (A) (A) (A) (A) (A)
                 (A) (A) (A) (A) (A) (A) (A) (A) (A) (A) (A) (A)
                 (A) (A) (A) (A) (A) (A) (A) (A) (A) (A) (A) (A)
                 (A) (A) (A) (A) (A) (A) (A) (A) (A) (A) (A) (A)
                 (A) (A) (A) (A) (A) (A) (A) (A) (A) (A) (A) (A)
                 (A) (A) (A) (A) (A) (A) (A) (A) (A) (A) (A) (A)
                 (A) (A) (A) (A) (A) (A) (A) (A) (A) (A) (A) (A)
                 (A) (A) (A) (A) (A) (A) (A) (A) (A) (A) (A) (A)
                 (A) (A) (A) (A) (A) (A) (A) (A) (A) (A) (A) (A)
                 (A) (A) (A) (A) (A) (A) (A) (A) (A) (A) (A) (A)
                 (A) (A) (A) (A) (A) (A) (A) (A) (A) (A) (A) (A)
                 (A) (A) (A) (A) (A) (A) (A) (A) (A) (A) (A) (A)
                 (A) (A) (A) (A) (A) (A) (A) (A) (A) (A) (A) (A)
                 (A) (A) (A) (A) (A) (A) (A) (A) (A) (A) (A) (A)
                 (A)
 The electronic state is 1-A.
 Alpha  occ. eigenvalues --  -24.31047 -24.30220 -18.81430 -10.00103  -9.99857
 Alpha  occ. eigenvalues --   -9.98754  -9.95341  -9.94569  -9.93933  -9.92212
 Alpha  occ. eigenvalues --   -9.92115  -9.92004  -9.91401  -9.91070  -9.91011
 Alpha  occ. eigenvalues --   -9.90761  -1.11560  -1.11139  -0.97134  -0.79985
 Alpha  occ. eigenvalues --   -0.78244  -0.71785  -0.70269  -0.67455  -0.66601
 Alpha  occ. eigenvalues --   -0.62596  -0.59032  -0.56241  -0.55394  -0.53536
 Alpha  occ. eigenvalues --   -0.51486  -0.48574  -0.47897  -0.45868  -0.44106
 Alpha  occ. eigenvalues --   -0.43119  -0.42929  -0.42143  -0.41848  -0.40395
 Alpha  occ. eigenvalues --   -0.38492  -0.38053  -0.37694  -0.37042  -0.35664
 Alpha  occ. eigenvalues --   -0.34232  -0.33904  -0.33272  -0.32745  -0.31595
 Alpha  occ. eigenvalues --   -0.30944  -0.30010  -0.29241  -0.26764  -0.22038
 Alpha  occ. eigenvalues --   -0.20903  -0.19737
 Alpha virt. eigenvalues --   -0.08619  -0.04299  -0.02864  -0.02171   0.03382
 Alpha virt. eigenvalues --    0.03706   0.05288   0.06445   0.07029   0.08793
 Alpha virt. eigenvalues --    0.09743   0.10446   0.11208   0.11872   0.12903
 Alpha virt. eigenvalues --    0.13403   0.14146   0.15917   0.18320   0.19741
 Alpha virt. eigenvalues --    0.20325   0.21326   0.25026   0.25610   0.25918
 Alpha virt. eigenvalues --    0.27044   0.28411   0.29765   0.30308   0.31124
 Alpha virt. eigenvalues --    0.33270   0.35451   0.36565   0.37135   0.37713
 Alpha virt. eigenvalues --    0.39726   0.40612   0.40949   0.41997   0.42445
 Alpha virt. eigenvalues --    0.43033   0.43355   0.44716   0.44774   0.46130
 Alpha virt. eigenvalues --    0.46565   0.48861   0.50130   0.50499   0.51815
 Alpha virt. eigenvalues --    0.52069   0.53390   0.53937   0.54600   0.56096
 Alpha virt. eigenvalues --    0.56612   0.57966   0.59631   0.60393   0.60828
 Alpha virt. eigenvalues --    0.61774   0.62281   0.62561   0.62929   0.64402
 Alpha virt. eigenvalues --    0.64783   0.66188   0.66303   0.66936   0.67273
 Alpha virt. eigenvalues --    0.68968   0.70089   0.71157   0.73030   0.73370
 Alpha virt. eigenvalues --    0.73430   0.75034   0.75552   0.77800   0.79216
 Alpha virt. eigenvalues --    0.80015   0.81856   0.83896   0.89637   0.91762
 Alpha virt. eigenvalues --    0.93562   0.94896   0.97638   0.99247   1.00028
 Alpha virt. eigenvalues --    1.01539   1.05060   1.08662   1.10473   1.11011
 Alpha virt. eigenvalues --    1.12438   1.15480   1.16009   1.17568   1.19572
 Alpha virt. eigenvalues --    1.21246   1.22918   1.23414   1.24372   1.24915
 Alpha virt. eigenvalues --    1.29060   1.30357   1.33648   1.35122   1.36544
 Alpha virt. eigenvalues --    1.38266   1.40871   1.44215   1.44803   1.46196
 Alpha virt. eigenvalues --    1.49996   1.53805   1.54935   1.56520   1.59333
 Alpha virt. eigenvalues --    1.60100   1.60942   1.61651   1.63452   1.64287
 Alpha virt. eigenvalues --    1.64822   1.66254   1.66516   1.67194   1.68182
 Alpha virt. eigenvalues --    1.69263   1.69807   1.72533   1.72995   1.73978
 Alpha virt. eigenvalues --    1.74097   1.75762   1.76909   1.78438   1.79229
 Alpha virt. eigenvalues --    1.80584   1.81399   1.83741   1.86034   1.86737
 Alpha virt. eigenvalues --    1.88905   1.89924   1.91775   1.93999   1.95268
 Alpha virt. eigenvalues --    1.95955   1.97129   1.99852   2.00796   2.01331
 Alpha virt. eigenvalues --    2.02625   2.03897   2.05339   2.09099   2.10776
 Alpha virt. eigenvalues --    2.11629   2.12829   2.15472   2.19131   2.19616
 Alpha virt. eigenvalues --    2.20451   2.20572   2.21352   2.22461   2.25108
 Alpha virt. eigenvalues --    2.26118   2.28047   2.29861   2.35602   2.38951
 Alpha virt. eigenvalues --    2.39476   2.40754   2.45928   2.47622   2.49305
 Alpha virt. eigenvalues --    2.50662   2.51286   2.55707   2.58028   2.59378
 Alpha virt. eigenvalues --    2.62755   2.65432   2.67395   2.69958   2.71704
 Alpha virt. eigenvalues --    2.73038   2.78221   2.80971   2.82995   2.84783
 Alpha virt. eigenvalues --    2.87075   2.89454   2.91237   2.92549   2.95310
 Alpha virt. eigenvalues --    2.96459   2.99736   3.01918   3.02168   3.05734
 Alpha virt. eigenvalues --    3.07105   3.12632   3.17960   3.20390   3.32842
 Alpha virt. eigenvalues --    3.36041   3.40488   3.45841   3.50605   3.70323
 Alpha virt. eigenvalues --    3.73638   3.78972
          Condensed to atoms (all electrons):
               1          2          3          4          5          6
     1  C    4.522815   0.438004  -0.078174   0.015321  -0.000136   0.010211
     2  C    0.438004   5.265696   0.331986   0.063917  -0.130234   0.028958
     3  C   -0.078174   0.331986   5.134948   0.260469   0.110534  -0.154614
     4  C    0.015321   0.063917   0.260469   5.113129   0.190644   0.103836
     5  C   -0.000136  -0.130234   0.110534   0.190644   5.279631   0.283588
     6  C    0.010211   0.028958  -0.154614   0.103836   0.283588   5.280480
     7  F   -0.000017   0.001692  -0.000029   0.006311  -0.067704   0.350002
     8  C   -0.065219   0.288065   0.048954  -0.095368  -0.012728   0.161513
     9  C   -0.021914  -0.049084   0.016661  -0.000350   0.016100  -0.062144
    10  C   -0.000557   0.012145   0.000318  -0.000252   0.000704  -0.038502
    11  O   -0.000003   0.000050   0.000003  -0.000001  -0.000741  -0.002681
    12  C    0.000000   0.000198  -0.000006   0.000003  -0.000086   0.000874
    13  C   -0.000026  -0.000146   0.000002  -0.000000   0.000003  -0.000247
    14  C    0.000013   0.000507  -0.000031   0.000002  -0.000005   0.000094
    15  C   -0.000456  -0.029270   0.000137  -0.000081  -0.000130   0.015581
    16  F    0.005772  -0.004368  -0.000186   0.000002  -0.000001   0.000268
    17  H    0.369508  -0.001035   0.008760  -0.001089   0.000264  -0.000948
    18  H    0.379635  -0.021376  -0.020088   0.002566  -0.000122   0.000030
    19  H    0.358154   0.000973   0.000633  -0.000197  -0.000029  -0.000299
    20  H   -0.020097  -0.073607   0.434703  -0.071857   0.015470  -0.000243
    21  H   -0.000486   0.017652  -0.074154   0.442746  -0.078677   0.016104
    22  H    0.000025  -0.000894   0.014516  -0.073775   0.423427  -0.065320
    23  H   -0.000003   0.000329  -0.000038   0.000227  -0.003419  -0.000714
    24  H    0.000000   0.000001  -0.000000  -0.000000   0.000002   0.000028
    25  H    0.000000  -0.000001   0.000000   0.000000   0.000000   0.000001
    26  H   -0.000011   0.000039  -0.000000   0.000000  -0.000000   0.000001
               7          8          9         10         11         12
     1  C   -0.000017  -0.065219  -0.021914  -0.000557  -0.000003   0.000000
     2  C    0.001692   0.288065  -0.049084   0.012145   0.000050   0.000198
     3  C   -0.000029   0.048954   0.016661   0.000318   0.000003  -0.000006
     4  C    0.006311  -0.095368  -0.000350  -0.000252  -0.000001   0.000003
     5  C   -0.067704  -0.012728   0.016100   0.000704  -0.000741  -0.000086
     6  C    0.350002   0.161513  -0.062144  -0.038502  -0.002681   0.000874
     7  F    8.960426  -0.078001   0.004065   0.000482  -0.010004  -0.001030
     8  C   -0.078001   5.582480   0.167134  -0.062484  -0.000565   0.013464
     9  C    0.004065   0.167134   5.890194   0.099844  -0.082159   0.011685
    10  C    0.000482  -0.062484   0.099844   5.252874   0.471680   0.253836
    11  O   -0.010004  -0.000565  -0.082159   0.471680   7.512557  -0.093791
    12  C   -0.001030   0.013464   0.011685   0.253836  -0.093791   5.291749
    13  C   -0.000002   0.000111  -0.116967   0.126518   0.005278   0.198644
    14  C    0.000001   0.016537   0.018420  -0.161018   0.000270   0.138145
    15  C    0.000092  -0.058092   0.120789   0.078197   0.001051  -0.161382
    16  F   -0.000000  -0.001618  -0.075871   0.001924  -0.000001  -0.000080
    17  H   -0.000004  -0.009357   0.004689   0.000144   0.000001  -0.000009
    18  H    0.000002   0.006639  -0.000618   0.000009  -0.000000  -0.000000
    19  H    0.000000  -0.000973   0.004120   0.000043   0.000000  -0.000003
    20  H    0.000005   0.017226  -0.000307   0.000002   0.000000  -0.000000
    21  H   -0.000094  -0.002066   0.000024   0.000000  -0.000000  -0.000000
    22  H    0.001367   0.020786  -0.000393   0.000071   0.000026  -0.000000
    23  H    0.014987   0.007114  -0.023049  -0.013882   0.332880   0.010635
    24  H    0.000029  -0.000354   0.023325  -0.062810   0.003277   0.422923
    25  H    0.000000   0.000003  -0.003004   0.017953  -0.000110  -0.081752
    26  H    0.000000  -0.000311   0.022929  -0.001431   0.000008   0.015786
              13         14         15         16         17         18
     1  C   -0.000026   0.000013  -0.000456   0.005772   0.369508   0.379635
     2  C   -0.000146   0.000507  -0.029270  -0.004368  -0.001035  -0.021376
     3  C    0.000002  -0.000031   0.000137  -0.000186   0.008760  -0.020088
     4  C   -0.000000   0.000002  -0.000081   0.000002  -0.001089   0.002566
     5  C    0.000003  -0.000005  -0.000130  -0.000001   0.000264  -0.000122
     6  C   -0.000247   0.000094   0.015581   0.000268  -0.000948   0.000030
     7  F   -0.000002   0.000001   0.000092  -0.000000  -0.000004   0.000002
     8  C    0.000111   0.016537  -0.058092  -0.001618  -0.009357   0.006639
     9  C   -0.116967   0.018420   0.120789  -0.075871   0.004689  -0.000618
    10  C    0.126518  -0.161018   0.078197   0.001924   0.000144   0.000009
    11  O    0.005278   0.000270   0.001051  -0.000001   0.000001  -0.000000
    12  C    0.198644   0.138145  -0.161382  -0.000080  -0.000009  -0.000000
    13  C    5.182206   0.129547   0.133678   0.005962   0.000096  -0.000002
    14  C    0.129547   5.334263   0.274393  -0.064310  -0.001373   0.000041
    15  C    0.133678   0.274393   5.157849   0.366162   0.002091   0.000112
    16  F    0.005962  -0.064310   0.366162   8.929171  -0.001821   0.001769
    17  H    0.000096  -0.001373   0.002091  -0.001821   0.647175  -0.028695
    18  H   -0.000002   0.000041   0.000112   0.001769  -0.028695   0.672981
    19  H    0.000002  -0.000158  -0.002150   0.003535  -0.016151  -0.022997
    20  H    0.000000  -0.000000   0.000031  -0.000014   0.000755   0.004104
    21  H   -0.000000   0.000000   0.000000   0.000000   0.000013  -0.000016
    22  H    0.000000  -0.000000   0.000003  -0.000000  -0.000001  -0.000003
    23  H   -0.000583   0.000011  -0.000278   0.000001   0.000001  -0.000000
    24  H   -0.079879   0.015830  -0.001267   0.000005  -0.000000  -0.000000
    25  H    0.454465  -0.081111   0.017411  -0.000093  -0.000002   0.000000
    26  H   -0.078730   0.427169  -0.067980   0.001503   0.000054  -0.000002
              19         20         21         22         23         24
     1  C    0.358154  -0.020097  -0.000486   0.000025  -0.000003   0.000000
     2  C    0.000973  -0.073607   0.017652  -0.000894   0.000329   0.000001
     3  C    0.000633   0.434703  -0.074154   0.014516  -0.000038  -0.000000
     4  C   -0.000197  -0.071857   0.442746  -0.073775   0.000227  -0.000000
     5  C   -0.000029   0.015470  -0.078677   0.423427  -0.003419   0.000002
     6  C   -0.000299  -0.000243   0.016104  -0.065320  -0.000714   0.000028
     7  F    0.000000   0.000005  -0.000094   0.001367   0.014987   0.000029
     8  C   -0.000973   0.017226  -0.002066   0.020786   0.007114  -0.000354
     9  C    0.004120  -0.000307   0.000024  -0.000393  -0.023049   0.023325
    10  C    0.000043   0.000002   0.000000   0.000071  -0.013882  -0.062810
    11  O    0.000000   0.000000  -0.000000   0.000026   0.332880   0.003277
    12  C   -0.000003  -0.000000  -0.000000  -0.000000   0.010635   0.422923
    13  C    0.000002   0.000000  -0.000000   0.000000  -0.000583  -0.079879
    14  C   -0.000158  -0.000000   0.000000  -0.000000   0.000011   0.015830
    15  C   -0.002150   0.000031   0.000000   0.000003  -0.000278  -0.001267
    16  F    0.003535  -0.000014   0.000000  -0.000000   0.000001   0.000005
    17  H   -0.016151   0.000755   0.000013  -0.000001   0.000001  -0.000000
    18  H   -0.022997   0.004104  -0.000016  -0.000003  -0.000000  -0.000000
    19  H    0.628799   0.002374   0.000016  -0.000001   0.000000  -0.000000
    20  H    0.002374   0.719623  -0.014456  -0.000462  -0.000002   0.000000
    21  H    0.000016  -0.014456   0.712120  -0.013579  -0.000002  -0.000000
    22  H   -0.000001  -0.000462  -0.013579   0.694707   0.000124  -0.000000
    23  H    0.000000  -0.000002  -0.000002   0.000124   0.499811  -0.000287
    24  H   -0.000000   0.000000  -0.000000  -0.000000  -0.000287   0.700318
    25  H    0.000000  -0.000000   0.000000  -0.000000   0.000017  -0.015053
    26  H    0.000021  -0.000000  -0.000000   0.000000  -0.000003  -0.000376
              25         26
     1  C    0.000000  -0.000011
     2  C   -0.000001   0.000039
     3  C    0.000000  -0.000000
     4  C    0.000000   0.000000
     5  C    0.000000  -0.000000
     6  C    0.000001   0.000001
     7  F    0.000000   0.000000
     8  C    0.000003  -0.000311
     9  C   -0.003004   0.022929
    10  C    0.017953  -0.001431
    11  O   -0.000110   0.000008
    12  C   -0.081752   0.015786
    13  C    0.454465  -0.078730
    14  C   -0.081111   0.427169
    15  C    0.017411  -0.067980
    16  F   -0.000093   0.001503
    17  H   -0.000002   0.000054
    18  H    0.000000  -0.000002
    19  H    0.000000   0.000021
    20  H   -0.000000  -0.000000
    21  H    0.000000  -0.000000
    22  H   -0.000000   0.000000
    23  H    0.000017  -0.000003
    24  H   -0.015053  -0.000376
    25  H    0.707838  -0.014353
    26  H   -0.014353   0.702255
 Mulliken charges:
               1
     1  C    0.087640
     2  C   -0.140197
     3  C   -0.035305
     4  C    0.043797
     5  C   -0.026354
     6  C    0.074142
     7  F   -0.182576
     8  C    0.057113
     9  C    0.035881
    10  C    0.024191
    11  O   -0.137025
    12  C   -0.019802
    13  C    0.040069
    14  C   -0.047236
    15  C    0.153511
    16  F   -0.167711
    17  H    0.026935
    18  H    0.026029
    19  H    0.044287
    20  H   -0.013249
    21  H   -0.005148
    22  H   -0.000625
    23  H    0.176123
    24  H   -0.005711
    25  H   -0.002212
    26  H   -0.006567
 Sum of Mulliken charges =  -0.00000
 Mulliken charges with hydrogens summed into heavy atoms:
               1
     1  C    0.184891
     2  C   -0.140197
     3  C   -0.048554
     4  C    0.038649
     5  C   -0.026979
     6  C    0.074142
     7  F   -0.182576
     8  C    0.057113
     9  C    0.035881
    10  C    0.024191
    11  O    0.039097
    12  C   -0.025513
    13  C    0.037857
    14  C   -0.053803
    15  C    0.153511
    16  F   -0.167711
 Electronic spatial extent (au):  <R**2>=           3309.9936
 Charge=             -0.0000 electrons
 Dipole moment (field-independent basis, Debye):
    X=              1.0916    Y=              0.5772    Z=             -0.3544  Tot=              1.2846
 Quadrupole moment (field-independent basis, Debye-Ang):
   XX=            -79.7395   YY=            -89.1290   ZZ=            -93.7990
   XY=             -1.8233   XZ=             -2.2173   YZ=              2.4549
 Traceless Quadrupole moment (field-independent basis, Debye-Ang):
   XX=              7.8164   YY=             -1.5732   ZZ=             -6.2432
   XY=             -1.8233   XZ=             -2.2173   YZ=              2.4549
 Octapole moment (field-independent basis, Debye-Ang**2):
  XXX=             -7.8676  YYY=             -2.5358  ZZZ=              1.2098  XYY=             11.1350
  XXY=             -0.3023  XXZ=             -1.0403  XZZ=              0.3130  YZZ=             -2.5273
  YYZ=             -2.4860  XYZ=              2.0730
 Hexadecapole moment (field-independent basis, Debye-Ang**3):
 XXXX=          -2522.2165 YYYY=          -1356.9607 ZZZZ=           -164.7765 XXXY=            -37.7428
 XXXZ=            -35.8189 YYYX=            -38.1730 YYYZ=             -4.2390 ZZZX=             15.7103
 ZZZY=            -12.9053 XXYY=           -647.2137 XXZZ=           -529.0599 YYZZ=           -254.9051
 XXYZ=             -7.6722 YYXZ=             -4.1391 ZZXY=             -6.8628
 N-N= 1.079865020398D+03 E-N=-3.971586804765D+03  KE= 7.685093678426D+02
 Unable to Open any file for archive entry.
 1\1\GINC-SEMLSCPN085\SP\RBP86\def2SVP/Auto\C13H10F2O1\USER-ID\02-Dec-2
 025\0\\# bp86/def2svp/auto empiricaldispersion=GD3BJ\\example\\0,1\C,0
 ,1.2515472087,2.6373296282,0.5584922401\C,0,1.5728551104,1.239098654,0
 .0598211995\C,0,2.9166835204,1.1137157694,-0.2918365638\C,0,3.55668504
 54,-0.0953393605,-0.4597681328\C,0,2.8610722747,-1.2267244158,-0.08693
 04453\C,0,1.517434286,-1.1167549525,0.205095169\F,0,0.9976044983,-2.26
 4473238,0.7389614992\C,0,0.7499120574,0.0659616426,0.0673582659\C,0,-0
 .7488033751,0.0073355189,-0.0285367859\C,0,-1.5017587728,-1.1988430013
 ,-0.1813365505\O,0,-1.065251379,-2.4198709292,-0.5850512602\C,0,-2.886
 7780235,-1.1956183981,0.0102236511\C,0,-3.6013076168,-0.0380923864,0.2
 000100472\C,0,-2.9293001131,1.164810869,0.0855264335\C,0,-1.5582414032
 ,1.1629283666,-0.059496053\F,0,-1.0389322581,2.3849758159,-0.323884765
 6\H,0,0.4562601133,2.6295158551,1.2964288203\H,0,2.1484577882,3.021252
 88,1.0409562178\H,0,0.9893743539,3.3177299119,-0.2468205088\H,0,3.4909
 321054,2.0224634175,-0.397605027\H,0,4.5894025251,-0.1479651022,-0.763
 9946075\H,0,3.3332143543,-2.191132685,0.0111633911\H,0,-0.1308002028,-
 2.4303247706,-0.8125642704\H,0,-3.3759820432,-2.155062849,-0.042398292
 4\H,0,-4.6669832757,-0.0643166754,0.3593476835\H,0,-3.4453035965,2.111
 2576899,0.0816705121\\Version=ES64L-G16RevC.02\State=1-A\HF=-775.74267
 66\RMSD=4.833e-09\Dipole=0.4216402,0.2424416,-0.1374375\Quadrupole=5.8
 703186,-1.3068171,-4.5635015,-1.101889,-1.7739984,1.8357767\PG=C01 [X(
 C13H10F2O1)]\\@
 The archive entry for this job was punched.


 A MAN IS NEVER SO BRILLIANT AS WHEN HE TAKES THE WORDS RIGHT OUT
 OF YOUR MOUTH. -- ARNOT SHEPPARD, JR.
 Job cpu time:       0 days  0 hours  1 minutes 58.1 seconds.
 Elapsed time:       0 days  0 hours  0 minutes 32.1 seconds.
 File lengths (MBytes):  RWF=     63 Int=      0 D2E=      0 Chk=     23 Scr=      1
 Normal termination of Gaussian 16 at Tue Dec  2 16:19:55 2025.
