%mem=6000MB
%nprocshared=4
# bp86/def2svp/auto empiricaldispersion=GD3BJ

example

0 1
C 1.2515472087 2.6373296282 0.5584922401
C 1.5728551104 1.2390986540 0.0598211995
C 2.9166835204 1.1137157694 -0.2918365638
C 3.5566850454 -0.0953393605 -0.4597681328
C 2.8610722747 -1.2267244158 -0.0869304453
C 1.5174342860 -1.1167549525 0.2050951690
F 0.9976044983 -2.2644732380 0.7389614992
C 0.7499120574 0.0659616426 0.0673582659
C -0.7488033751 0.0073355189 -0.0285367859
C -1.5017587728 -1.1988430013 -0.1813365505
O -1.0652513790 -2.4198709292 -0.5850512602
C -2.8867780235 -1.1956183981 0.0102236511
C -3.6013076168 -0.0380923864 0.2000100472
C -2.9293001131 1.1648108690 0.0855264335
C -1.5582414032 1.1629283666 -0.0594960530
F -1.0389322581 2.3849758159 -0.3238847656
H 0.4562601133 2.6295158551 1.2964288203
H 2.1484577882 3.0212528800 1.0409562178
H 0.9893743539 3.3177299119 -0.2468205088
H 3.4909321054 2.0224634175 -0.3976050270
H 4.5894025251 -0.1479651022 -0.7639946075
H 3.3332143543 -2.1911326850 0.0111633911
H -0.1308002028 -2.4303247706 -0.8125642704
H -3.3759820432 -2.1550628490 -0.0423982924
H -4.6669832757 -0.0643166754 0.3593476835
H -3.4453035965 2.1112576899 0.0816705121

