  26
G(CENSO)=        -776.05208361  G(xTB)=         -46.31754332        !CONF4
C   -0.7207483841   1.6196564613  -1.9903908799
C   -1.4651978044   0.7916013266  -0.9876308515
C   -2.8530716544   0.7851773806  -0.9498102336
C   -3.5418783754   0.0373067394  -0.0106993855
C   -2.8530880615  -0.7256313660   0.9146883251
C   -1.4719776782  -0.7201318871   0.8751776070
F   -0.7922986851  -1.4770472740   1.7617115169
C   -0.7579514494   0.0206865834  -0.0593832018
C    0.7258149955  -0.0029838754  -0.0471626268
C    1.4427302356  -0.7598981077  -0.9783302040
O    0.8108137007  -1.4963354218  -1.9268175527
C    2.8330704920  -0.7682924660  -0.9493844978
C    3.5134113056  -0.0359571876   0.0034595602
C    2.8245533097   0.7164380080   0.9396573103
C    1.4443393596   0.7171115663   0.8975785471
F    0.7624155363   1.4634698557   1.7925549606
H   -1.4075361303   2.2366545118  -2.5633066699
H   -0.0037263770   2.2665333069  -1.4868936306
H   -0.1632715322   0.9893910547  -2.6829901430
H   -3.4006770401   1.3823062543  -1.6635028550
H   -4.6207179498   0.0512850054   0.0033735178
H   -3.3624004846  -1.3150960056   1.6597487121
H   -0.1459485050  -1.4450243400  -1.7950630835
H    3.3565089774  -1.3612807843  -1.6814176308
H    4.5917997826  -0.0515770709   0.0195460517
H    3.3351574097   1.2938307372   1.6927176728
  26
G(CENSO)=        -776.05191241  G(xTB)=         -46.31761585        !CONF3
C   -0.7081881515   1.8087455949  -1.8019137711
C   -1.4610558007   0.8864232008  -0.8938978081
C   -2.8487916657   0.8816918173  -0.8589775978
C   -3.5422373427   0.0393118274  -0.0071043150
C   -2.8583870497  -0.8244227699   0.8290899233
C   -1.4769830312  -0.8195157986   0.7919958692
F   -0.7997342961  -1.6684543542   1.5952579740
C   -0.7588386562   0.0189010348  -0.0519671527
C    0.7260462355  -0.0042948160  -0.0404448784
C    1.4397184815  -0.8605039130  -0.8836378878
O    0.8062204147  -1.6895084087  -1.7499728422
C    2.8306459441  -0.8645925192  -0.8579931178
C    3.5135388407  -0.0291958107   0.0036605502
C    2.8270134566   0.8254141833   0.8497962101
C    1.4468474383   0.8215554212   0.8107074508
F    0.7657701808   1.6617929952   1.6203291038
H   -1.3881246866   2.3395370956  -2.4624722085
H   -0.1545219545   2.5398219291  -1.2135544743
H    0.0133513265   1.2593128357  -2.4052403627
H   -3.3932259664   1.5523731981  -1.5066758925
H   -4.6210078949   0.0555010939   0.0070608312
H   -3.3709211088  -1.4902932969   1.5043710271
H   -0.1513827073  -1.6156055036  -1.6327087935
H    3.3522088232  -1.5350352087  -1.5213311915
H    4.5918829618  -0.0429541088   0.0188634724
H    3.3396734841   1.4842135575   1.5313242652
  26
G(CENSO)=        -776.05177857  G(xTB)=         -46.31755418        !CONF2
C   -0.7121701633   1.8639361324  -1.7460583487
C   -1.4629909518   0.9151180496  -0.8644724228
C   -2.8506444713   0.9072777722  -0.8284102632
C   -3.5424934467   0.0372411131  -0.0034549558
C   -2.8570016222  -0.8523980422   0.8036285114
C   -1.4757005516  -0.8448765551   0.7645410640
F   -0.7965778215  -1.7183249457   1.5401303033
C   -0.7590352966   0.0215245561  -0.0520123179
C    0.7258482593  -0.0020913003  -0.0414409011
C    1.4388981852  -0.8878804762  -0.8542087663
O    0.8063590434  -1.7423903255  -1.6954446779
C    2.8298599266  -0.8942070360  -0.8257749706
C    3.5133599598  -0.0333755707   0.0096937029
C    2.8275242078   0.8508718151   0.8254949422
C    1.4476334974   0.8501184440   0.7825494721
F    0.7672506665   1.7178612653   1.5637574493
H    0.0037105327   1.3306573444  -2.3703158842
H   -1.3939469259   2.4179960314  -2.3854511135
H   -0.1531501322   2.5739572337  -1.1378238707
H   -3.3967468259   1.5975652397  -1.4537389062
H   -4.6212486411   0.0521778672   0.0129356896
H   -3.3680476311  -1.5397150731   1.4581430395
H   -0.1507464316  -1.6722269721  -1.5755528578
H    3.3508251286  -1.5871578105  -1.4660307949
H    4.5917274876  -0.0499705870   0.0279518403
H    3.3403258801   1.5296171020   1.4869944004
  26
G(CENSO)=        -776.05173100  G(xTB)=         -46.31727688        !CONF5
C   -0.7517899481   1.5298050544  -2.0862431685
C   -1.4719036511   0.7502263938  -1.0275209935
C   -2.8604857887   0.7422019503  -0.9792707278
C   -3.5418607113   0.0410331360  -0.0008134772
C   -2.8446426662  -0.6740277686   0.9567100811
C   -1.4647654790  -0.6684025952   0.9067865371
F   -0.7783903015  -1.3821008455   1.8228626386
C   -0.7561329722   0.0259896887  -0.0688537513
C    0.7265923870  -0.0015704950  -0.0545913316
C    1.4489179121  -0.7117035606  -1.0188160471
O    0.8238132725  -1.4017170948  -2.0049301745
C    2.8390705646  -0.7268140810  -0.9788715564
C    3.5146564854  -0.0490360934   0.0166505819
C    2.8207608862   0.6548616824   0.9864028451
C    1.4410714307   0.6630230393   0.9342966870
F    0.7563753659   1.3651491009   1.8611594283
H    0.1760399305   1.9443196327  -1.6982859482
H   -0.5019783080   0.8920838311  -2.9348652130
H   -1.3765095896   2.3412718574  -2.4497730474
H   -3.4132793038   1.3038203141  -1.7174593276
H   -4.6204666437   0.0542061074   0.0210004833
H   -3.3473457841  -1.2265090465   1.7339205602
H   -0.1334751667  -1.3522675110  -1.8782046887
H    3.3662875768  -1.2827558029  -1.7368311071
H    4.5927946401  -0.0694748229   0.0406394271
H    3.3269620310   1.1896509598   1.7730708192
  26
G(CENSO)=        -776.05146962  G(xTB)=         -46.31758183        !CONF1
C   -0.7367919320   2.1000824133  -1.4741391961
C   -1.4662811995   1.0310738617  -0.7226601494
C   -2.8543492678   1.0179909723  -0.6792029777
C   -3.5461647039   0.0383557775   0.0106160215
C   -2.8581890320  -0.9629652565   0.6718667499
C   -1.4779824313  -0.9485505838   0.6275601720
F   -0.7989009568  -1.9285073160   1.2700189473
C   -0.7575962931   0.0295111993  -0.0514341595
C    0.7247374573  -0.0012492796  -0.0400310047
C    1.4387727385  -1.0061654387  -0.7030679562
O    0.8185234040  -1.9785361621  -1.4109567897
C    2.8306327147  -1.0075749107  -0.6733509149
C    3.5173260946  -0.0304354045   0.0178592523
C    2.8320923451   0.9679372406   0.6903363305
C    1.4529429747   0.9625829048   0.6469103634
F    0.7792438088   1.9333191193   1.3044133509
H   -0.3705224329   2.8566061053  -0.7807279458
H    0.1214922998   1.6893033234  -2.0032244548
H   -1.3974125498   2.5854563043  -2.1877466922
H   -3.4011864305   1.7926112030  -1.1957430477
H   -4.6248903334   0.0513710234   0.0326488558
H   -3.3658939361  -1.7409787244   1.2186646017
H   -0.1386126934  -1.9219601211  -1.2895231934
H    3.3488289875  -1.7927033157  -1.1992945295
H    4.5956697700  -0.0457519172   0.0377828120
H    3.3451245834   1.7376310284   1.2432259220
  26
G(CENSO)=        -776.05139991  G(xTB)=         -46.31723967        !CONF8
C   -0.7901509847   1.6468034700  -2.0190045836
C   -1.4804806160   0.7915643078  -0.9994639773
C   -2.8701080397   0.7687362506  -0.9456602903
C   -3.5414969525   0.0220527994   0.0039821147
C   -2.8334065771  -0.7272740320   0.9277769312
C   -1.4545623521  -0.7056695966   0.8726516049
F   -0.7574519739  -1.4500574823   1.7559990103
C   -0.7546970104   0.0378902825  -0.0740600797
C    0.7295123219   0.0086208741  -0.0585534404
C    1.4465143302  -0.7587087290  -0.9825117993
O    0.8175527051  -1.4735125065  -1.9481724391
C    2.8359225561  -0.7970167115  -0.9280586452
C    3.5148448176  -0.0836373952   0.0399728113
C    2.8257877660   0.6824439845   0.9650743852
C    1.4468083544   0.7117201521   0.8999909602
F    0.7653038565   1.4665114248   1.7874223347
H   -1.2802941296   1.5578560267  -2.9867236367
H   -0.8447736129   2.6916207470  -1.7130266798
H    0.2586135850   1.3829154787  -2.1261324187
H   -3.4284971348   1.3546922365  -1.6605094119
H   -4.6201753460   0.0225881764   0.0291171410
H   -3.3277781375  -1.3187510319   1.6814547427
H   -0.1403606598  -1.3727616899  -1.8582450271
H    3.3593314352  -1.3986663403  -1.6531738719
H    4.5920528251  -0.1238341677   0.0758372653
H    3.3352478927   1.2472384251   1.7283169148
  26
G(CENSO)=        -776.05132212  G(xTB)=         -46.31719881        !CONF7
C   -0.7912665385   1.5904641218  -2.0663097725
C   -1.4784760839   0.7694902614  -1.0163516107
C   -2.8685740306   0.7474365118  -0.9652418640
C   -3.5418834192   0.0237481374   0.0003120776
C   -2.8352398775  -0.7018989157   0.9441612817
C   -1.4564140587  -0.6813994776   0.8917258740
F   -0.7613593204  -1.4047945959   1.7936764458
C   -0.7539989884   0.0380182410  -0.0722131346
C    0.7295489672   0.0068519977  -0.0557186070
C    1.4474040762  -0.7325211768  -1.0022062542
O    0.8191954419  -1.4240102059  -1.9844864841
C    2.8368230150  -0.7684359202  -0.9511307113
C    3.5158824752  -0.0786729163   0.0338584383
C    2.8263996432   0.6586075799   0.9815467287
C    1.4470330424   0.6843002159   0.9212724873
F    0.7664535511   1.4130446453   1.8306423941
H    0.2904670747   1.5179128337  -1.9899203053
H   -1.0962191603   1.2679966662  -3.0614545898
H   -1.0732490810   2.6369784969  -1.9571469513
H   -3.4245022138   1.3154113551  -1.6962199189
H   -4.6206724984   0.0237514362   0.0220768954
H   -3.3311852205  -1.2750921175   1.7105374887
H   -0.1381534229  -1.3224303202  -1.8935897906
H    3.3607209516  -1.3480233693  -1.6933924124
H    4.5934003089  -0.1148641591   0.0660063776
H    3.3358849035   1.2050873757   1.7579053216
  26
G(CENSO)=        -776.05024162  G(xTB)=         -46.31643677        !CONF9
C   -0.7697958678   1.8851107236  -1.7770435644
C   -1.4712732121   0.9288507833  -0.8616096563
C   -2.8609599375   0.9126608603  -0.8116754087
C   -3.5418378436   0.0343326705   0.0100616851
C   -2.8437712171  -0.8589279573   0.8045223340
C   -1.4647490787  -0.8416673181   0.7535506238
F   -0.7740084191  -1.7161718696   1.5178620059
C   -0.7557060295   0.0348199991  -0.0633375349
C    0.7296662186   0.0035243234  -0.0467735306
C    1.4417494448  -0.8932918543  -0.8484043070
O    0.8101986514  -1.7471364978  -1.6898765748
C    2.8323596535  -0.9128637500  -0.8054203895
C    3.5161114412  -0.0543069977   0.0319685452
C    2.8310232740   0.8391531447   0.8384748088
C    1.4515029927   0.8494221260   0.7846776930
F    0.7721772262   1.7227979292   1.5592075160
H   -1.1729341187   2.8882252701  -1.6517672691
H    0.2993289412   1.9101229469  -1.5837813640
H   -0.9254470698   1.5901278755  -2.8150978366
H   -3.4119235276   1.6068930017  -1.4283693886
H   -4.6204266818   0.0432654724   0.0359778282
H   -3.3453811846  -1.5549453172   1.4579284607
H   -0.1471993491  -1.6584168560  -1.5887270595
H    3.3526242123  -1.6143477370  -1.4366102051
H    4.5940144739  -0.0799610934   0.0594994919
H    3.3436324818   1.5165760012   1.5014178043
  26
G(CENSO)=        -776.04818349  G(xTB)=         -46.31686323        !CONF11
C   -0.7416401524   1.6736312731  -1.9520596044
C   -1.4763169052   0.8241787325  -0.9618913916
C   -2.8633867436   0.8027117377  -0.9212970569
C   -3.5425477710   0.0161017159  -0.0073522540
C   -2.8428646080  -0.7709556680   0.8886982259
C   -1.4623597150  -0.7476214645   0.8455255432
F   -0.7709539106  -1.5220030334   1.7116547411
C   -0.7604947033   0.0337852609  -0.0616933558
C    0.7205510000   0.0149109603  -0.0502749264
C    1.4352636094  -0.7788549922  -0.9525969109
O    0.7269473835  -1.4982980417  -1.8614951433
C    2.8235005750  -0.8113484558  -0.9043412424
C    3.5107423950  -0.0605939701   0.0323889453
C    2.8249835549   0.7348496053   0.9313185955
C    1.4435036563   0.7538964356   0.8741349611
F    0.7694541844   1.5361279459   1.7422671170
H    0.0002728794   2.2929759424  -1.4496053023
H   -0.2177626148   1.0408182595  -2.6678130532
H   -1.4291296171   2.3171969620  -2.4946669696
H   -3.4199440899   1.4144879505  -1.6158710361
H   -4.6218025526   0.0156377695   0.0082959983
H   -3.3438071739  -1.3946468646   1.6116769459
H    1.3259584310  -2.0427026919  -2.3864595531
H    3.3646082220  -1.4339364273  -1.6039566844
H    4.5885286734  -0.0974061458   0.0600670729
H    3.3371654005   1.3290806554   1.6701272723
  26
G(CENSO)=        -776.04775558  G(xTB)=         -46.31620025        !CONF10
C   -0.7587073096   1.5554417623  -2.0619373932
C   -1.4815731105   0.7672702616  -1.0143519696
C   -2.8686471930   0.7477845867  -0.9642391609
C   -3.5430348309   0.0218514957   0.0014469274
C   -2.8381465622  -0.7053635770   0.9430488791
C   -1.4581663822  -0.6844564162   0.8908758619
F   -0.7635931335  -1.4056098343   1.7989179520
C   -0.7599841304   0.0352167017  -0.0699813089
C    0.7200169882   0.0142363692  -0.0586890151
C    1.4426856027  -0.7179393136  -1.0063856471
O    0.7452541453  -1.3804805979  -1.9659231585
C    2.8303642822  -0.7546580921  -0.9489722381
C    3.5113554881  -0.0699581779   0.0412123429
C    2.8186220123   0.6634995660   0.9861669274
C    1.4377361410   0.6873842032   0.9199180712
F    0.7591111217   1.4129390023   1.8314863576
H   -0.3045513164   0.8781375999  -2.7838092238
H   -1.4424903089   2.2150365699  -2.5889636756
H    0.0361621797   2.1508957537  -1.6162532508
H   -3.4289216324   1.3142581383  -1.6935632137
H   -4.6221585422   0.0222317033   0.0225720700
H   -3.3345973702  -1.2811273070   1.7075115305
H    1.3522571191  -1.8857005646  -2.5206395330
H    3.3761229337  -1.3294293709  -1.6849504245
H    4.5888293591  -0.1096233311   0.0747906208
H    3.3246419528   1.2069290759   1.7670348188
  26
G(CENSO)=        -776.04769729  G(xTB)=         -46.31651254        !CONF6
C   -0.7776178771   2.1382235558  -1.4492295666
C   -1.4853567661   1.0412387045  -0.7153957036
C   -2.8730075422   0.9909018306  -0.6860515943
C   -3.5430686721  -0.0178207127  -0.0179338837
C   -2.8329523663  -1.0070053271   0.6385788110
C   -1.4538272518  -0.9558788775   0.6078311685
F   -0.7565444854  -1.9117674182   1.2615083910
C   -0.7585514878   0.0509375889  -0.0516120254
C    0.7201935143   0.0305818835  -0.0388686165
C    1.4134259421  -0.9997183600  -0.6864032242
O    0.6849523140  -1.9167509140  -1.3691578313
C    2.8014916975  -1.0445841810  -0.6376808433
C    3.5115153508  -0.0762604845   0.0487656522
C    2.8485153507   0.9518433177   0.6929068331
C    1.4674728086   0.9829208691   0.6384257136
F    0.8203585291   1.9786161339   1.2819730644
H   -0.4121308181   2.8842181196  -0.7441070102
H    0.0776160110   1.7475158151  -1.9977043818
H   -1.4516050467   2.6306081747  -2.1454933473
H   -3.4363860343   1.7562671072  -1.1994626795
H   -4.6222231102  -0.0368539071  -0.0089893648
H   -3.3257467778  -1.8064403885   1.1682286161
H    1.2643254843  -2.6035254395  -1.7196021799
H    3.3241480036  -1.8478894688  -1.1390595963
H    4.5887509339  -0.1248941216   0.0818787364
H    3.3787025461   1.7162526331   1.2372573447
  26
G(CENSO)=        -776.04701237  G(xTB)=         -46.31614978        !CONF12
C   -0.8102006201   2.0293789149  -1.6364242917
C   -1.4867088131   0.9937977313  -0.7907145517
C   -2.8760146212   0.9453903925  -0.7465725061
C   -3.5406941653  -0.0096983098  -0.0016780828
C   -2.8248907448  -0.9483529529   0.7210894741
C   -1.4470234953  -0.8991538408   0.6747756692
F   -0.7411020732  -1.8072279898   1.3848973081
C   -0.7560603690   0.0554058922  -0.0640392785
C    0.7245828715   0.0294475723  -0.0458774303
C    1.4218263270  -0.9456744347  -0.7676366929
O    0.6970350675  -1.8080473110  -1.5222691743
C    2.8092134488  -0.9957527072  -0.7089470527
C    3.5118360784  -0.0887097916   0.0638389482
C    2.8435347952   0.8836457604   0.7845590554
C    1.4628549264   0.9217454491   0.7171813678
F    0.8050116267   1.8674644426   1.4210371097
H   -0.9656369776   1.8022720934  -2.6911542671
H   -1.2338289219   3.0122100788  -1.4392236261
H    0.2589215342   2.0637336470  -1.4482329078
H   -3.4407066215   1.6730655704  -1.3109554435
H   -4.6199463207  -0.0275086005   0.0178532916
H   -3.3137706999  -1.7055873444   1.3129147044
H    1.2832983449  -2.4492852386  -1.9424991812
H    3.3379419070  -1.7543724394  -1.2697276033
H    4.5886149643  -0.1418720155   0.1045560804
H    3.3681901260   1.5991307823   1.3961825626
  26
G(CENSO)=        -776.04686520  G(xTB)=         -46.31598928        !CONF14
C   -0.7943460830   1.7456718548  -1.9327047500
C   -1.4811996185   0.8449774707  -0.9517428850
C   -2.8706645770   0.8123363428  -0.9037088585
C   -3.5411981507   0.0063992186  -0.0037059491
C   -2.8313065337  -0.7936984600   0.8747625565
C   -1.4528373876  -0.7598401689   0.8241663065
F   -0.7517870195  -1.5449416498   1.6727415393
C   -0.7568034933   0.0446969355  -0.0708068708
C    0.7249673849   0.0191760844  -0.0520636524
C    1.4359508964  -0.8037710311  -0.9317598825
O    0.7237719260  -1.5368655517  -1.8247016205
C    2.8239681426  -0.8454252351  -0.8771197541
C    3.5130558632  -0.0805278690   0.0468903864
C    2.8301699005   0.7389775173   0.9261444627
C    1.4490286266   0.7706091736   0.8610063573
F    0.7777697167   1.5743778596   1.7107145859
H   -0.9943064488   2.7874815595  -1.6836295329
H    0.2808495804   1.5902184739  -1.9284124198
H   -1.1721126027   1.5629208990  -2.9371846737
H   -3.4303715684   1.4348935115  -1.5863075381
H   -4.6202798927  -0.0012168341   0.0174815665
H   -3.3246916429  -1.4341724198   1.5881370070
H    1.3202723934  -2.0831456173  -2.3505493193
H    3.3628042463  -1.4867838653  -1.5613978423
H    4.5904107027  -0.1255228852   0.0806203787
H    3.3440057380   1.3429930335   1.6557018663
  26
G(CENSO)=        -776.04680918  G(xTB)=         -46.31607370        !CONF13
C   -0.7874803913   1.9053087788  -1.7650565590
C   -1.4791961366   0.9342640526  -0.8574156102
C   -2.8685717744   0.8947321423  -0.8193428968
C   -3.5411688222  -0.0010393167  -0.0102393410
C   -2.8335971800  -0.8860582316   0.7844591784
C   -1.4549878641  -0.8455623618   0.7434342140
F   -0.7560287910  -1.7064067870   1.5169701685
C   -0.7571497852   0.0482936555  -0.0602967615
C    0.7245305420   0.0221875847  -0.0427476176
C    1.4265827250  -0.8875378043  -0.8394072790
O    0.7059747048  -1.7014558876  -1.6512064001
C    2.8150807969  -0.9273539373  -0.7912862103
C    3.5130461309  -0.0735635079   0.0432241116
C    2.8387646878   0.8334390755   0.8399723051
C    1.4575610626   0.8611396977   0.7832928188
F    0.7938410351   1.7462171707   1.5557594613
H    0.2729072886   1.9761328448  -1.5379026048
H   -0.8952351359   1.5821332346  -2.8006594344
H   -1.2348096402   2.8931810481  -1.6732178446
H   -3.4268171907   1.5819342920  -1.4379668984
H   -4.6202201055  -0.0129736539   0.0046597584
H   -3.3290183814  -1.5961421049   1.4270536937
H    1.2969149850  -2.3033217065  -2.1197317189
H    3.3470014997  -1.6360581359  -1.4113997197
H    4.5905260039  -0.1165536950   0.0723602380
H    3.3596998959   1.5073311917   1.5000075800
