  26
G(CENSO)=        -776.05323643  G(xTB)=         -46.31737952        !CONF5
C   -0.7319820968   1.5669644094  -2.0544934957
C   -1.4706904162   0.7583350085  -1.0231418361
C   -2.8666116874   0.7406951269  -0.9964557046
C   -3.5597454719   0.0279573652  -0.0237726927
C   -2.8726025561  -0.6849966159   0.9506077864
C   -1.4899148290  -0.6651306797   0.9135468355
F   -0.8138374964  -1.3573817435   1.8522433764
C   -0.7591450040   0.0281417030  -0.0492129832
C    0.7219490881  -0.0115481538  -0.0343173314
C    1.4360466877  -0.7256643735  -1.0087212438
O    0.7901968135  -1.4316192729  -1.9777794416
C    2.8295861104  -0.7400411013  -1.0146064512
C    3.5226986424  -0.0483906653  -0.0314236698
C    2.8503527402   0.6561776958   0.9640073402
C    1.4681360151   0.6499146442   0.9354479367
F    0.7960353368   1.3345743229   1.8857716488
H    0.0223442987   2.2036454025  -1.5814494501
H   -0.2012385097   0.9268056487  -2.7685662200
H   -1.4224844829   2.2004253209  -2.6156236463
H   -3.4166216759   1.3071199677  -1.7424621898
H   -4.6456105203   0.0318817717  -0.0189225824
H   -3.3820707715  -1.2458791471   1.7267525321
H   -0.1611808276  -1.4020038725  -1.7968927348
H    3.3462110357  -1.3038695097  -1.7836308478
H    4.6083296863  -0.0622752507  -0.0336003493
H    3.3721750810   1.1974436405   1.7448064759
  26
G(CENSO)=        -776.05319522  G(xTB)=         -46.31693458        !CONF8
C   -0.7375414053   1.5857572613  -2.0272763371
C   -1.4777404843   0.7545939152  -1.0153777838
C   -2.8730215469   0.7117455321  -1.0089837955
C   -3.5668463991  -0.0169162045  -0.0484102896
C   -2.8808173903  -0.7196357509   0.9339222581
C   -1.4978489809  -0.6753915854   0.9161984986
F   -0.8225892815  -1.3598305449   1.8611530388
C   -0.7668515748   0.0332228342  -0.0345838004
C    0.7147961451   0.0106251969  -0.0092896103
C    1.4382921258  -0.7161037270  -0.9674959448
O    0.8011916536  -1.4430536448  -1.9266333978
C    2.8317428118  -0.7189974588  -0.9685376535
C    3.5154021284  -0.0014048962   0.0026756036
C    2.8336714298   0.7174179458   0.9812864991
C    1.4513939753   0.6983987529   0.9488352949
F    0.7698940369   1.3955930060   1.8834130961
H   -1.4365406115   2.1158596299  -2.6778762820
H   -0.1004435770   2.3230345377  -1.5269699085
H   -0.0800765586   0.9749960702  -2.6553659787
H   -3.4221833745   1.2686720951  -1.7624613955
H   -4.6525280126  -0.0338573937  -0.0602514326
H   -3.3911002283  -1.2924643598   1.7008665281
H   -0.1521144984  -1.4090824732  -1.7556916698
H    3.3555505157  -1.2930279518  -1.7250258994
H    4.6010880679  -0.0056826769   0.0038749552
H    3.3484870434   1.2788875290   1.7523223588
  26
G(CENSO)=        -776.05318033  G(xTB)=         -46.31697873        !CONF7
C   -0.7419257236   1.5948082092  -2.0296955386
C   -1.4763310977   0.7787561226  -1.0006770293
C   -2.8724368421   0.7664232967  -0.9681933501
C   -3.5648434653   0.0450305923  -0.0021296651
C   -2.8766039658  -0.6815269202   0.9618006163
C   -1.4941751021  -0.6667544420   0.9195248534
F   -0.8174176031  -1.3739754295   1.8464839924
C   -0.7637298699   0.0338708634  -0.0389468197
C    0.7170281461  -0.0168719138  -0.0322294603
C    1.4206295779  -0.7091821138  -1.0300673913
O    0.7642758971  -1.3873784536  -2.0116327374
C    2.8139994485  -0.7306814853  -1.0464441418
C    3.5177950879  -0.0708083242  -0.0493314069
C    2.8564022312   0.6095240596   0.9701391536
C    1.4738601829   0.6130358045   0.9506215369
F    0.8126800328   1.2762046736   1.9233440654
H    0.0832583659   2.1496352023  -1.5727188575
H   -0.3037972046   0.9619497983  -2.8108604518
H   -1.4185870142   2.3046171868  -2.5113245952
H   -3.4225556283   1.3436513514  -1.7056502820
H   -4.6506619885   0.0534809634   0.0067930854
H   -3.3850072828  -1.2487645192   1.7341159371
H   -0.1855574703  -1.3580391931  -1.8223426987
H    3.3218144958  -1.2756403509  -1.8344910756
H    4.6032979292  -0.0900705379  -0.0599000274
H    3.3866158034   1.1256300100   1.7623352903
  26
G(CENSO)=        -776.05317465  G(xTB)=         -46.31744550        !CONF4
C   -0.7154752437   1.6144554169  -2.0015274801
C   -1.4630304166   0.7809271928  -0.9971441903
C   -2.8585058169   0.7505852185  -0.9883788229
C   -3.5564786481   0.0111562673  -0.0390538736
C   -2.8748923042  -0.7141504564   0.9297967619
C   -1.4916037690  -0.6805911741   0.9106751018
F   -0.8200870607  -1.3853518702   1.8431738204
C   -0.7568358529   0.0378043785  -0.0296757262
C    0.7248150555   0.0002448334  -0.0122755918
C    1.4342645801  -0.7299418265  -0.9781559296
O    0.7829883888  -1.4479421634  -1.9339820243
C    2.8274598939  -0.7445176946  -0.9904946144
C    3.5246839620  -0.0337392423  -0.0239474360
C    2.8570356186   0.6896203377   0.9610480146
C    1.4741825451   0.6814679472   0.9402391309
F    0.8057157200   1.3834620279   1.8804965324
H   -1.4072045609   2.2078836274  -2.6034946133
H   -0.0187742141   2.2931905739  -1.4983547721
H   -0.1178412327   0.9939433644  -2.6787371831
H   -3.4043703958   1.3251547884  -1.7308031665
H   -4.6422010426   0.0029298150  -0.0489725196
H   -3.3888105851  -1.2958954997   1.6875330803
H   -0.1684205399  -1.4070384254  -1.7549475890
H    3.3402915209  -1.3213408682  -1.7520822035
H    4.6103317240  -0.0467218891  -0.0315825138
H    3.3828841480   1.2465835634   1.7280556437
  26
G(CENSO)=        -776.05286422  G(xTB)=         -46.31752923        !CONF2
C   -0.7138239935   1.8889871963  -1.7304113557
C   -1.4646138682   0.9213043234  -0.8600994292
C   -2.8594434204   0.8978356939  -0.8459220524
C   -3.5559768049   0.0122913731  -0.0291064726
C   -2.8730712662  -0.8741630457   0.7933531573
C   -1.4889994519  -0.8423703915   0.7706171852
F   -0.8142629735  -1.7006633529   1.5637306531
C   -0.7570415641   0.0288463735  -0.0320372976
C    0.7262477227  -0.0031559467  -0.0136531238
C    1.4359596964  -0.8974162440  -0.8283302631
O    0.7851525200  -1.7633624787  -1.6521763417
C    2.8297761108  -0.9171815166  -0.8300420617
C    3.5249669027  -0.0397612322  -0.0100643773
C    2.8556519112   0.8626611107   0.8127381994
C    1.4733565491   0.8538969884   0.7850880488
F    0.8009451850   1.7269716379   1.5690369234
H    0.0224048318   1.3727051922  -2.3558340153
H   -1.3973714575   2.4414972563  -2.3791285946
H   -0.1600257257   2.6102607105  -1.1188457752
H   -3.4071655139   1.5859513013  -1.4832288298
H   -4.6418636805   0.0115347432  -0.0328489334
H   -3.3847394504  -1.5750079738   1.4439352785
H   -0.1684968672  -1.6356592732  -1.5399290188
H    3.3451447273  -1.6220105130  -1.4733863029
H    4.6104712385  -0.0570196689  -0.0096464380
H    3.3796480317   1.5543284335   1.4618305617
  26
G(CENSO)=        -776.05269237  G(xTB)=         -46.31757667        !CONF1
C   -0.7430447148   2.1037883528  -1.4782552310
C   -1.4723603006   1.0273308008  -0.7258646676
C   -2.8673211133   0.9981029422  -0.7031493465
C   -3.5589481083   0.0127775513  -0.0065724113
C   -2.8689618439  -0.9733486049   0.6866035174
C   -1.4858727677  -0.9344731817   0.6591935416
F   -0.8062718002  -1.8875406160   1.3345750014
C   -0.7558387390   0.0367008770  -0.0256538820
C    0.7257922620   0.0003410123  -0.0087715704
C    1.4384378958  -0.9981917104  -0.6929212919
O    0.7997305994  -1.9637761581  -1.4043256736
C    2.8325133151  -1.0213563837  -0.6827612803
C    3.5287385011  -0.0435687509   0.0121378010
C    2.8587280017   0.9649970453   0.7001950640
C    1.4770447419   0.9553348037   0.6684437472
F    0.8088710306   1.9231941018   1.3376474962
H   -0.3615365295   2.8651295317  -0.7881652156
H    0.1189767659   1.6987780266  -2.0170789433
H   -1.4070107167   2.5960510014  -2.1928821382
H   -3.4195739451   1.7606386070  -1.2449075442
H   -4.6447742366   0.0096415705  -0.0048549202
H   -3.3741099148  -1.7551748810   1.2434551444
H   -0.1546999532  -1.8121392805  -1.3536085776
H    3.3466287442  -1.8074842512  -1.2248501427
H    4.6141748982  -0.0642512170   0.0199439115
H    3.3813031702   1.7369502111   1.2532346431
  26
G(CENSO)=        -776.05265371  G(xTB)=         -46.31726832        !CONF3
C   -0.7113629759   1.8264111832  -1.7982926639
C   -1.4632223829   0.8894056684  -0.8955166009
C   -2.8582737061   0.8668343464  -0.8816645439
C   -3.5553476782   0.0143299844  -0.0309092766
C   -2.8731842960  -0.8387468547   0.8268555881
C   -1.4892072891  -0.8082475533   0.8040990008
F   -0.8152674274  -1.6341520783   1.6309506406
C   -0.7566545020   0.0294288897  -0.0326580136
C    0.7266921780  -0.0020742804  -0.0136874697
C    1.4370573070  -0.8588451563  -0.8669517827
O    0.7858302916  -1.6897285572  -1.7263452441
C    2.8308030419  -0.8772986465  -0.8701326608
C    3.5251429670  -0.0357634534  -0.0125262275
C    2.8550982452   0.8275827062   0.8506167051
C    1.4726565043   0.8176288466   0.8241384941
F    0.7993699744   1.6528957668   1.6468660228
H   -1.3952491096   2.3636899666  -2.4593738029
H   -0.1501570971   2.5617093892  -1.2105128727
H    0.0189090374   1.2889575142  -2.4127975179
H   -3.4053962403   1.5306962471  -1.5447784713
H   -4.6412542130   0.0137229401  -0.0351880096
H   -3.3857259462  -1.5134019878   1.5038815947
H   -0.1678681791  -1.5802681312  -1.5946643609
H    3.3467988861  -1.5536742704  -1.5428475094
H    4.6107030426  -0.0514423018  -0.0134188554
H    3.3786396054   1.4905566249   1.5293945223
  26
G(CENSO)=        -776.05220700  G(xTB)=         -46.31727711        !CONF9
C   -0.7692205743   1.9055449288  -1.7659234043
C   -1.4746838057   0.9343780849  -0.8592994442
C   -2.8719453735   0.8926984524  -0.8376185308
C   -3.5544435932  -0.0003172400  -0.0219838453
C   -2.8569808323  -0.8784413886   0.8005676144
C   -1.4759959245  -0.8278193619   0.7735277328
F   -0.7866540160  -1.6739221105   1.5669827360
C   -0.7537866270   0.0518734548  -0.0348021337
C    0.7302184206   0.0112622960  -0.0144146821
C    1.4323651900  -0.8882929689  -0.8298630619
O    0.7755885339  -1.7411458489  -1.6608797829
C    2.8257685908  -0.9293964639  -0.8207389226
C    3.5274978020  -0.0678502026   0.0103569340
C    2.8655185656   0.8388106555   0.8348344349
C    1.4830271341   0.8493717610   0.7990558653
F    0.8178640959   1.7253471554   1.5840846808
H   -1.2117026741   2.9025851222  -1.6775517001
H    0.2955139453   1.9760393473  -1.5363153325
H   -0.8672798455   1.5955354139  -2.8132132499
H   -3.4288987520   1.5770977562  -1.4719531212
H   -4.6402258936  -0.0145121126  -0.0213515034
H   -3.3581654037  -1.5842189852   1.4541599189
H   -0.1771508103  -1.6009185239  -1.5565143193
H    3.3349884071  -1.6381234763  -1.4646840832
H    4.6126836973  -0.1010482770   0.0186071019
H    3.3950665386   1.5193176364   1.4916093119
