  26
G(CENSO)=        -776.05208361  G(xTB)=         -46.31754332        !CONF4
C   -0.7207483841   1.6196564613  -1.9903908799
C   -1.4651978044   0.7916013266  -0.9876308515
C   -2.8530716544   0.7851773806  -0.9498102336
C   -3.5418783754   0.0373067394  -0.0106993855
C   -2.8530880615  -0.7256313660   0.9146883251
C   -1.4719776782  -0.7201318871   0.8751776070
F   -0.7922986851  -1.4770472740   1.7617115169
C   -0.7579514494   0.0206865834  -0.0593832018
C    0.7258149955  -0.0029838754  -0.0471626268
C    1.4427302356  -0.7598981077  -0.9783302040
O    0.8108137007  -1.4963354218  -1.9268175527
C    2.8330704920  -0.7682924660  -0.9493844978
C    3.5134113056  -0.0359571876   0.0034595602
C    2.8245533097   0.7164380080   0.9396573103
C    1.4443393596   0.7171115663   0.8975785471
F    0.7624155363   1.4634698557   1.7925549606
H   -1.4075361303   2.2366545118  -2.5633066699
H   -0.0037263770   2.2665333069  -1.4868936306
H   -0.1632715322   0.9893910547  -2.6829901430
H   -3.4006770401   1.3823062543  -1.6635028550
H   -4.6207179498   0.0512850054   0.0033735178
H   -3.3624004846  -1.3150960056   1.6597487121
H   -0.1459485050  -1.4450243400  -1.7950630835
H    3.3565089774  -1.3612807843  -1.6814176308
H    4.5917997826  -0.0515770709   0.0195460517
H    3.3351574097   1.2938307372   1.6927176728
