 Entering Gaussian System, Link 0=/path/to/g16
 Initial command:
 /path/to/g16 "path/to/scratch/gaussian_tmp/Gau-3398991.inp" -scrdir="path/to/scratch/gaussian_tmp/"
 Entering Link 1 = /path/to/g16 PID=   3398992.
  
 Copyright (c) 1988-2021, Gaussian, Inc.  All Rights Reserved.
  
 This is part of the Gaussian(R) 16 program.  It is based on
 the Gaussian(R) 09 system (copyright 2009, Gaussian, Inc.),
 the Gaussian(R) 03 system (copyright 2003, Gaussian, Inc.),
 the Gaussian(R) 98 system (copyright 1998, Gaussian, Inc.),
 the Gaussian(R) 94 system (copyright 1995, Gaussian, Inc.),
 the Gaussian 92(TM) system (copyright 1992, Gaussian, Inc.),
 the Gaussian 90(TM) system (copyright 1990, Gaussian, Inc.),
 the Gaussian 88(TM) system (copyright 1988, Gaussian, Inc.),
 the Gaussian 86(TM) system (copyright 1986, Carnegie Mellon
 University), and the Gaussian 82(TM) system (copyright 1983,
 Carnegie Mellon University). Gaussian is a federally registered
 trademark of Gaussian, Inc.
  
 This software contains proprietary and confidential information,
 including trade secrets, belonging to Gaussian, Inc.
  
 This software is provided under written license and may be
 used, copied, transmitted, or stored only in accord with that
 written license.
  
 The following legend is applicable only to US Government
 contracts under FAR:
  
                    RESTRICTED RIGHTS LEGEND
  
 Use, reproduction and disclosure by the US Government is
 subject to restrictions as set forth in subparagraphs (a)
 and (c) of the Commercial Computer Software - Restricted
 Rights clause in FAR 52.227-19.
  
 Gaussian, Inc.
 340 Quinnipiac St., Bldg. 40, Wallingford CT 06492
  
  
 ---------------------------------------------------------------
 Warning -- This program may not be used in any manner that
 competes with the business of Gaussian, Inc. or will provide
 assistance to any competitor of Gaussian, Inc.  The licensee
 of this program is prohibited from giving any competitor of
 Gaussian, Inc. access to this program.  By using this program,
 the user acknowledges that Gaussian, Inc. is engaged in the
 business of creating and licensing software in the field of
 computational chemistry and represents and warrants to the
 licensee that it is not a competitor of Gaussian, Inc. and that
 it will not use this program in any manner prohibited above.
 ---------------------------------------------------------------
  

 Cite this work as:
 Gaussian 16, Revision C.02,
 M. J. Frisch, G. W. Trucks, H. B. Schlegel, G. E. Scuseria, 
 M. A. Robb, J. R. Cheeseman, G. Scalmani, V. Barone, 
 G. A. Petersson, H. Nakatsuji, X. Li, M. Caricato, A. V. Marenich, 
 J. Bloino, B. G. Janesko, R. Gomperts, B. Mennucci, H. P. Hratchian, 
 J. V. Ortiz, A. F. Izmaylov, J. L. Sonnenberg, D. Williams-Young, 
 F. Ding, F. Lipparini, F. Egidi, J. Goings, B. Peng, A. Petrone, 
 T. Henderson, D. Ranasinghe, V. G. Zakrzewski, J. Gao, N. Rega, 
 G. Zheng, W. Liang, M. Hada, M. Ehara, K. Toyota, R. Fukuda, 
 J. Hasegawa, M. Ishida, T. Nakajima, Y. Honda, O. Kitao, H. Nakai, 
 T. Vreven, K. Throssell, J. A. Montgomery, Jr., J. E. Peralta, 
 F. Ogliaro, M. J. Bearpark, J. J. Heyd, E. N. Brothers, K. N. Kudin, 
 V. N. Staroverov, T. A. Keith, R. Kobayashi, J. Normand, 
 K. Raghavachari, A. P. Rendell, J. C. Burant, S. S. Iyengar, 
 J. Tomasi, M. Cossi, J. M. Millam, M. Klene, C. Adamo, R. Cammi, 
 J. W. Ochterski, R. L. Martin, K. Morokuma, O. Farkas, 
 J. B. Foresman, and D. J. Fox, Gaussian, Inc., Wallingford CT, 2019.
 
 ******************************************
 Gaussian 16:  ES64L-G16RevC.02  7-Dec-2021
                23-Jul-2026 
 ******************************************
 %mem=12000MB
 %nprocshared=8
 Will use up to    8 processors via shared memory.
 ----------------------------------------------------------------------
 # opt=modredundant bp86 empiricaldispersion=GD3BJ def2svp IOP(1/8=2) n
 osymm
 ----------------------------------------------------------------------
 1/8=2,18=120,19=15,26=3,38=1/1,3;
 2/9=110,12=2,15=1,17=6,18=5,40=1/2;
 3/5=43,7=101,11=2,25=1,30=1,71=1,74=404,124=41/1,2,3;
 4//1;
 5/5=2,38=5/2;
 6/7=2,8=2,9=2,10=2,28=1/1;
 7/30=1/1,2,3,16;
 1/8=2,18=20,19=15,26=3/3(2);
 2/9=110,15=1/2;
 99//99;
 2/9=110,15=1/2;
 3/5=43,7=101,11=2,25=1,30=1,71=1,74=404,124=41/1,2,3;
 4/5=5,16=3,69=1/1;
 5/5=2,38=5/2;
 7/30=1/1,2,3,16;
 1/8=2,18=20,19=15,26=3/3(-5);
 2/9=110,15=1/2;
 6/7=2,8=2,9=2,10=2,19=2,28=1/1;
 99/9=1/99;
 -------
 example
 -------
 Symbolic Z-matrix:
 Charge =  0 Multiplicity = 1
 C                    -1.09302   2.51832  -1.23609 
 C                    -1.50666   1.20791  -0.58182 
 C                    -2.88212   1.16957  -0.25688 
 C                    -3.58275  -0.00757   0.02465 
 C                    -2.90452  -1.21303  -0.17327 
 C                    -1.54293  -1.16254  -0.46199 
 F                    -1.02929  -2.38138  -0.87335 
 C                    -0.7047   -0.00321  -0.44914 
 C                     0.79135  -0.11322  -0.31954 
 C                     1.51317  -1.32876   0.04772 
 O                     0.97278  -2.46256   0.54788 
 C                     2.92782  -1.39279   0.01545 
 C                     3.71457  -0.27011  -0.21966 
 C                     3.07369   0.96525  -0.36929 
 C                     1.67918   1.01347  -0.35729 
 F                     1.18624   2.26956  -0.31112 
 H                    -1.98075   2.9167   -1.7674 
 H                    -0.76011   3.29231  -0.51853 
 H                    -0.29273   2.38456  -1.98331 
 H                    -3.43525   2.12151  -0.29994 
 H                    -4.65172   0.01016   0.28338 
 H                    -3.40156  -2.19368  -0.15958 
 H                     0.07982  -2.6263    0.18057 
 H                     3.3686   -2.37491   0.23797 
 H                     4.81247  -0.34284  -0.23606 
 H                     3.61828   1.9169   -0.44407 
 
 The following ModRedundant input section has been read:
 D       7       8       9      11 F                                           
 D       1       8       9      16 F                                           
 

 GradGradGradGradGradGradGradGradGradGradGradGradGradGradGradGradGradGrad
 Berny optimization.
 Initialization pass.
                           ----------------------------
                           !    Initial Parameters    !
                           ! (Angstroms and Degrees)  !
 --------------------------                            --------------------------
 ! Name  Definition              Value          Derivative Info.                !
 --------------------------------------------------------------------------------
 ! R1    R(1,2)                  1.5219         estimate D2E/DX2                !
 ! R2    R(1,17)                 1.1086         estimate D2E/DX2                !
 ! R3    R(1,18)                 1.1067         estimate D2E/DX2                !
 ! R4    R(1,19)                 1.103          estimate D2E/DX2                !
 ! R5    R(2,3)                  1.4138         estimate D2E/DX2                !
 ! R6    R(2,8)                  1.4586         estimate D2E/DX2                !
 ! R7    R(3,4)                  1.3985         estimate D2E/DX2                !
 ! R8    R(3,20)                 1.1018         estimate D2E/DX2                !
 ! R9    R(4,5)                  1.3973         estimate D2E/DX2                !
 ! R10   R(4,21)                 1.1            estimate D2E/DX2                !
 ! R11   R(5,6)                  1.3928         estimate D2E/DX2                !
 ! R12   R(5,22)                 1.0995         estimate D2E/DX2                !
 ! R13   R(6,7)                  1.3851         estimate D2E/DX2                !
 ! R14   R(6,8)                  1.4307         estimate D2E/DX2                !
 ! R15   R(8,9)                  1.5057         estimate D2E/DX2                !
 ! R16   R(9,10)                 1.4606         estimate D2E/DX2                !
 ! R17   R(9,15)                 1.435          estimate D2E/DX2                !
 ! R18   R(10,11)                1.3519         estimate D2E/DX2                !
 ! R19   R(10,12)                1.4165         estimate D2E/DX2                !
 ! R20   R(11,23)                0.9793         estimate D2E/DX2                !
 ! R21   R(12,13)                1.3909         estimate D2E/DX2                !
 ! R22   R(12,24)                1.0993         estimate D2E/DX2                !
 ! R23   R(13,14)                1.3997         estimate D2E/DX2                !
 ! R24   R(13,25)                1.1004         estimate D2E/DX2                !
 ! R25   R(14,15)                1.3954         estimate D2E/DX2                !
 ! R26   R(14,26)                1.099          estimate D2E/DX2                !
 ! R27   R(15,16)                1.3501         estimate D2E/DX2                !
 ! A1    A(2,1,17)             107.3249         estimate D2E/DX2                !
 ! A2    A(2,1,18)             113.903          estimate D2E/DX2                !
 ! A3    A(2,1,19)             112.5818         estimate D2E/DX2                !
 ! A4    A(17,1,18)            107.4749         estimate D2E/DX2                !
 ! A5    A(17,1,19)            107.4509         estimate D2E/DX2                !
 ! A6    A(18,1,19)            107.8051         estimate D2E/DX2                !
 ! A7    A(1,2,3)              112.7407         estimate D2E/DX2                !
 ! A8    A(1,2,8)              127.1991         estimate D2E/DX2                !
 ! A9    A(3,2,8)              119.4363         estimate D2E/DX2                !
 ! A10   A(2,3,4)              123.8131         estimate D2E/DX2                !
 ! A11   A(2,3,20)             117.1277         estimate D2E/DX2                !
 ! A12   A(4,3,20)             118.9196         estimate D2E/DX2                !
 ! A13   A(3,4,5)              117.0316         estimate D2E/DX2                !
 ! A14   A(3,4,21)             121.3762         estimate D2E/DX2                !
 ! A15   A(5,4,21)             121.2612         estimate D2E/DX2                !
 ! A16   A(4,5,6)              118.2047         estimate D2E/DX2                !
 ! A17   A(4,5,22)             123.249          estimate D2E/DX2                !
 ! A18   A(6,5,22)             118.48           estimate D2E/DX2                !
 ! A19   A(5,6,7)              113.0902         estimate D2E/DX2                !
 ! A20   A(5,6,8)              126.8908         estimate D2E/DX2                !
 ! A21   A(7,6,8)              119.8976         estimate D2E/DX2                !
 ! A22   A(2,8,6)              110.4806         estimate D2E/DX2                !
 ! A23   A(2,8,9)              127.9368         estimate D2E/DX2                !
 ! A24   A(6,8,9)              121.5819         estimate D2E/DX2                !
 ! A25   A(8,9,10)             124.9928         estimate D2E/DX2                !
 ! A26   A(8,9,15)             123.7193         estimate D2E/DX2                !
 ! A27   A(10,9,15)            110.7491         estimate D2E/DX2                !
 ! A28   A(9,10,11)            126.4001         estimate D2E/DX2                !
 ! A29   A(9,10,12)            121.6979         estimate D2E/DX2                !
 ! A30   A(11,10,12)           111.6989         estimate D2E/DX2                !
 ! A31   A(10,11,23)           111.4647         estimate D2E/DX2                !
 ! A32   A(10,12,13)           122.1591         estimate D2E/DX2                !
 ! A33   A(10,12,24)           115.8642         estimate D2E/DX2                !
 ! A34   A(13,12,24)           121.9076         estimate D2E/DX2                !
 ! A35   A(12,13,14)           118.1291         estimate D2E/DX2                !
 ! A36   A(12,13,25)           120.8973         estimate D2E/DX2                !
 ! A37   A(14,13,25)           120.9004         estimate D2E/DX2                !
 ! A38   A(13,14,15)           119.1534         estimate D2E/DX2                !
 ! A39   A(13,14,26)           122.9999         estimate D2E/DX2                !
 ! A40   A(15,14,26)           117.7664         estimate D2E/DX2                !
 ! A41   A(9,15,14)            126.2574         estimate D2E/DX2                !
 ! A42   A(9,15,16)            120.244          estimate D2E/DX2                !
 ! A43   A(14,15,16)           113.4107         estimate D2E/DX2                !
 ! D1    D(17,1,2,3)           -28.4315         estimate D2E/DX2                !
 ! D2    D(17,1,2,8)           142.3665         estimate D2E/DX2                !
 ! D3    D(18,1,2,3)            90.4056         estimate D2E/DX2                !
 ! D4    D(18,1,2,8)           -98.7963         estimate D2E/DX2                !
 ! D5    D(19,1,2,3)          -146.4631         estimate D2E/DX2                !
 ! D6    D(19,1,2,8)            24.3349         estimate D2E/DX2                !
 ! D7    D(1,2,3,4)            162.8774         estimate D2E/DX2                !
 ! D8    D(1,2,3,20)           -12.7698         estimate D2E/DX2                !
 ! D9    D(8,2,3,4)             -8.7123         estimate D2E/DX2                !
 ! D10   D(8,2,3,20)           175.6405         estimate D2E/DX2                !
 ! D11   D(1,2,8,6)           -149.2889         estimate D2E/DX2                !
 ! D12   D(1,2,8,9)             30.4036         estimate D2E/DX2                !
 ! D13   D(3,2,8,6)             20.9613         estimate D2E/DX2                !
 ! D14   D(3,2,8,9)           -159.3462         estimate D2E/DX2                !
 ! D15   D(2,3,4,5)             -7.1751         estimate D2E/DX2                !
 ! D16   D(2,3,4,21)           179.3517         estimate D2E/DX2                !
 ! D17   D(20,3,4,5)           168.3989         estimate D2E/DX2                !
 ! D18   D(20,3,4,21)           -5.0743         estimate D2E/DX2                !
 ! D19   D(3,4,5,6)              8.2782         estimate D2E/DX2                !
 ! D20   D(3,4,5,22)          -168.7133         estimate D2E/DX2                !
 ! D21   D(21,4,5,6)          -178.2406         estimate D2E/DX2                !
 ! D22   D(21,4,5,22)            4.768          estimate D2E/DX2                !
 ! D23   D(4,5,6,7)           -169.0368         estimate D2E/DX2                !
 ! D24   D(4,5,6,8)              6.9143         estimate D2E/DX2                !
 ! D25   D(22,5,6,7)             8.1009         estimate D2E/DX2                !
 ! D26   D(22,5,6,8)          -175.948          estimate D2E/DX2                !
 ! D27   D(5,6,8,2)            -21.1888         estimate D2E/DX2                !
 ! D28   D(5,6,8,9)            159.0958         estimate D2E/DX2                !
 ! D29   D(7,6,8,2)            154.5144         estimate D2E/DX2                !
 ! D30   D(7,6,8,9)            -25.2009         estimate D2E/DX2                !
 ! D31   D(1,8,9,16)            16.215          Frozen                          !
 ! D32   D(2,8,9,10)           168.4406         estimate D2E/DX2                !
 ! D33   D(2,8,9,15)            -2.3536         estimate D2E/DX2                !
 ! D34   D(6,8,9,10)           -11.8976         estimate D2E/DX2                !
 ! D35   D(6,8,9,15)           177.3082         estimate D2E/DX2                !
 ! D36   D(7,8,9,11)           -29.3992         Frozen                          !
 ! D37   D(8,9,10,11)          -12.2577         estimate D2E/DX2                !
 ! D38   D(8,9,10,12)          173.3616         estimate D2E/DX2                !
 ! D39   D(15,9,10,11)         159.5616         estimate D2E/DX2                !
 ! D40   D(15,9,10,12)         -14.8192         estimate D2E/DX2                !
 ! D41   D(8,9,15,14)         -173.54           estimate D2E/DX2                !
 ! D42   D(8,9,15,16)           10.1035         estimate D2E/DX2                !
 ! D43   D(10,9,15,14)          14.5166         estimate D2E/DX2                !
 ! D44   D(10,9,15,16)        -161.84           estimate D2E/DX2                !
 ! D45   D(9,10,11,23)          33.7385         estimate D2E/DX2                !
 ! D46   D(12,10,11,23)       -151.4058         estimate D2E/DX2                !
 ! D47   D(9,10,12,13)           7.3562         estimate D2E/DX2                !
 ! D48   D(9,10,12,24)        -175.615          estimate D2E/DX2                !
 ! D49   D(11,10,12,13)       -167.7779         estimate D2E/DX2                !
 ! D50   D(11,10,12,24)          9.2509         estimate D2E/DX2                !
 ! D51   D(10,12,13,14)          2.8242         estimate D2E/DX2                !
 ! D52   D(10,12,13,25)        179.742          estimate D2E/DX2                !
 ! D53   D(24,12,13,14)       -174.0262         estimate D2E/DX2                !
 ! D54   D(24,12,13,25)          2.8917         estimate D2E/DX2                !
 ! D55   D(12,13,14,15)         -3.7682         estimate D2E/DX2                !
 ! D56   D(12,13,14,26)        172.8997         estimate D2E/DX2                !
 ! D57   D(25,13,14,15)        179.3141         estimate D2E/DX2                !
 ! D58   D(25,13,14,26)         -4.018          estimate D2E/DX2                !
 ! D59   D(13,14,15,9)          -5.8007         estimate D2E/DX2                !
 ! D60   D(13,14,15,16)        170.7697         estimate D2E/DX2                !
 ! D61   D(26,14,15,9)         177.3573         estimate D2E/DX2                !
 ! D62   D(26,14,15,16)         -6.0724         estimate D2E/DX2                !
 --------------------------------------------------------------------------------
 Trust Radius=2.00D-02 FncErr=1.00D-07 GrdErr=1.00D-06 EigMax=2.50D+02 EigMin=1.00D-04
 Number of steps in this run=    142 maximum allowed number of steps=    156.
 GradGradGradGradGradGradGradGradGradGradGradGradGradGradGradGradGradGrad

                          Input orientation:                          
 ---------------------------------------------------------------------
 Center     Atomic      Atomic             Coordinates (Angstroms)
 Number     Number       Type             X           Y           Z
 ---------------------------------------------------------------------
      1          6           0       -1.093017    2.518315   -1.236089
      2          6           0       -1.506660    1.207914   -0.581823
      3          6           0       -2.882120    1.169568   -0.256880
      4          6           0       -3.582752   -0.007566    0.024647
      5          6           0       -2.904520   -1.213027   -0.173274
      6          6           0       -1.542931   -1.162537   -0.461990
      7          9           0       -1.029294   -2.381375   -0.873349
      8          6           0       -0.704700   -0.003209   -0.449138
      9          6           0        0.791345   -0.113224   -0.319540
     10          6           0        1.513168   -1.328764    0.047721
     11          8           0        0.972779   -2.462560    0.547879
     12          6           0        2.927818   -1.392793    0.015447
     13          6           0        3.714568   -0.270110   -0.219655
     14          6           0        3.073694    0.965248   -0.369287
     15          6           0        1.679179    1.013473   -0.357285
     16          9           0        1.186238    2.269557   -0.311121
     17          1           0       -1.980751    2.916701   -1.767395
     18          1           0       -0.760108    3.292305   -0.518534
     19          1           0       -0.292729    2.384563   -1.983312
     20          1           0       -3.435254    2.121514   -0.299940
     21          1           0       -4.651719    0.010158    0.283384
     22          1           0       -3.401564   -2.193676   -0.159581
     23          1           0        0.079822   -2.626302    0.180570
     24          1           0        3.368596   -2.374914    0.237965
     25          1           0        4.812465   -0.342844   -0.236055
     26          1           0        3.618275    1.916900   -0.444071
 ---------------------------------------------------------------------
                    Distance matrix (angstroms):
                    1          2          3          4          5
     1  C    0.000000
     2  C    1.521945   0.000000
     3  C    2.445170   1.413842   0.000000
     4  C    3.764082   2.480999   1.398495   0.000000
     5  C    4.281826   2.825222   2.384167   1.397250   0.000000
     6  C    3.788182   2.373755   2.697075   2.394085   1.392778
     7  F    4.913512   3.632611   4.052431   3.600210   2.317674
     8  C    2.669862   1.458617   2.480630   2.916792   2.525662
     9  C    3.363908   2.663649   3.891507   4.388890   3.858805
    10  C    4.820828   3.993798   5.064879   5.264456   4.424726
    11  O    5.679716   4.571239   5.357260   5.201310   4.137009
    12  C    5.747193   5.175423   6.355725   6.656310   5.838159
    13  C    5.649896   5.438469   6.752063   7.306127   6.686073
    14  C    4.530435   4.591699   5.960378   6.738681   6.365716
    15  C    3.274434   3.199655   4.565073   5.373668   5.099163
    16  F    2.472337   2.907244   4.214790   5.295403   5.374169
    17  H    1.108634   2.133142   2.479233   3.785388   4.522082
    18  H    1.106695   2.214956   3.012874   4.376244   5.001572
    19  H    1.103038   2.195974   3.340917   4.536346   4.800036
    20  H    2.553410   2.152579   1.101822   2.158725   3.378888
    21  H    4.611292   3.474852   2.183483   1.099977   2.181152
    22  H    5.356409   3.916601   3.404512   2.201328   1.099506
    23  H    5.463475   4.218931   4.834573   4.505168   3.320971
    24  H    6.783990   6.105475   7.202755   7.346501   6.393050
    25  H    6.637847   6.515807   7.841840   8.405953   7.766146
    26  H    4.815108   5.175577   6.545890   7.468471   7.239933
                    6          7          8          9         10
     6  C    0.000000
     7  F    1.385137   0.000000
     8  C    1.430677   2.437415   0.000000
     9  C    2.563239   2.960733   1.505672   0.000000
    10  C    3.102769   2.901805   2.631141   1.460632   0.000000
    11  O    3.006442   2.456578   3.139488   2.510919   1.351914
    12  C    4.502062   4.174445   3.916883   2.512773   1.416466
    13  C    5.338206   5.233448   4.433264   2.929133   2.457316
    14  C    5.084220   5.318691   3.901352   2.524816   2.805642
    15  C    3.889470   4.373459   2.593252   1.434963   2.382785
    16  F    4.387527   5.182263   2.959757   2.415296   3.630918
    17  H    4.305340   5.456574   3.448475   4.354451   5.790172
    18  H    4.523453   5.691133   3.296710   3.747564   5.180995
    19  H    4.057012   4.948607   2.867903   3.190971   4.601647
    20  H    3.793697   5.137456   3.463038   4.781064   6.042530
    21  H    3.405196   4.492151   4.014440   5.477745   6.313009
    22  H    2.146908   2.484424   3.486411   4.683413   4.994561
    23  H    2.277898   1.549475   2.809381   2.659311   1.937972
    24  H    5.107141   4.536132   4.763280   3.473942   2.138512
    25  H    6.412020   6.219960   5.531715   4.028536   3.455131
    26  H    6.010100   6.345025   4.730217   3.482592   3.899701
                   11         12         13         14         15
    11  O    0.000000
    12  C    2.291302   0.000000
    13  C    3.593515   1.390923   0.000000
    14  C    4.123700   2.393670   1.399721   0.000000
    15  C    3.660755   2.736447   2.410256   1.395400   0.000000
    16  F    4.814185   4.068483   3.584791   2.295015   1.350137
    17  H    6.558985   6.770843   6.707304   5.595560   4.359561
    18  H    6.103983   5.986324   5.727378   4.487260   3.342035
    19  H    5.612757   5.351203   5.120176   3.994038   2.900392
    20  H    6.415862   7.275885   7.539646   6.611215   5.233399
    21  H    6.149737   7.712940   8.386081   7.811542   6.441845
    22  H    4.439333   6.382251   7.371774   7.207756   6.011559
    23  H    0.979336   3.108037   4.350080   4.707955   4.011881
    24  H    2.417368   1.099255   2.181585   3.407698   3.832704
    25  H    4.455439   2.171990   1.100426   2.179950   3.416398
    26  H    5.211745   3.412031   2.200602   1.099001   2.140982
                   16         17         18         19         20
    16  F    0.000000
    17  H    3.545328   0.000000
    18  H    2.208460   1.786253   0.000000
    19  H    2.235351   1.783034   1.785501   0.000000
    20  H    4.623876   2.213894   2.928300   3.574689   0.000000
    21  H    6.288089   4.448343   5.153659   5.456785   2.505569
    22  H    6.402448   5.542538   6.099354   5.826759   4.317604
    23  H    5.043347   6.226188   6.018649   5.470827   5.926922
    24  H    5.160939   7.787052   7.052365   6.402499   8.173101
    25  H    4.469877   7.688785   6.659405   6.046045   8.608252
    26  H    2.461066   5.839510   4.589937   4.228939   7.057968
                   21         22         23         24         25
    21  H    0.000000
    22  H    2.572157   0.000000
    23  H    5.417469   3.524616   0.000000
    24  H    8.367561   6.784243   3.298867   0.000000
    25  H    9.484999   8.420315   5.271211   2.537471   0.000000
    26  H    8.518078   8.139773   5.792367   4.352836   2.564333
                   26
    26  H    0.000000
 Symmetry turned off by external request.
 Stoichiometry    C13H10F2O
 Framework group  C1[X(C13H10F2O)]
 Deg. of freedom    72
 Full point group                 C1      NOp   1
 Rotational constants (GHZ):           0.8391898           0.4705095           0.3127938
 Standard basis: def2SVP (5D, 7F)
   274 basis functions,   470 primitive gaussians,   290 cartesian basis functions
    57 alpha electrons       57 beta electrons
       nuclear repulsion energy      1069.4468141737 Hartrees.
 NAtoms=   26 NActive=   26 NUniq=   26 SFac= 1.00D+00 NAtFMM=   60 NAOKFM=F Big=F
 Integral buffers will be    131072 words long.
 Raffenetti 2 integral format.
 Two-electron integral symmetry is turned off.
 Nuclear repulsion after empirical dispersion term =     1069.3952812104 Hartrees.
 One-electron integrals computed using PRISM.
   1 Symmetry operations used in ECPInt.
 ECPInt:  NShTT=    8001 NPrTT=   29641 LenC2=    7593 LenP2D=   20284.
 LDataN:  DoStor=T MaxTD1= 4 Len=   56
 NBasis=   274 RedAO= T EigKep=  3.15D-04  NBF=   274
 NBsUse=   274 1.00D-06 EigRej= -1.00D+00 NBFU=   274
 ExpMin= 1.22D-01 ExpMax= 2.89D+03 ExpMxC= 4.35D+02 IAcc=3 IRadAn=         5 AccDes= 0.00D+00
 Harris functional with IExCor=  404 and IRadAn=       5 diagonalized for initial guess.
 HarFok:  IExCor=  404 AccDes= 0.00D+00 IRadAn=         5 IDoV= 1 UseB2=F ITyADJ=14
 ICtDFT=  3500011 ScaDFX=  1.000000  1.000000  1.000000  1.000000
 FoFCou: FMM=F IPFlag=           0 FMFlag=      100000 FMFlg1=           0
         NFxFlg=           0 DoJE=T BraDBF=F KetDBF=T FulRan=T
         wScrn=  0.000000 ICntrl=       500 IOpCl=  0 I1Cent=   200000004 NGrid=           0
         NMat0=    1 NMatS0=      1 NMatT0=    0 NMatD0=    1 NMtDS0=    0 NMtDT0=    0
 Symmetry not used in FoFCou.
 Requested convergence on RMS density matrix=1.00D-08 within 128 cycles.
 Requested convergence on MAX density matrix=1.00D-06.
 Requested convergence on             energy=1.00D-06.
 No special actions if energy rises.
 Integral accuracy reduced to 1.0D-05 until final iterations.
 Initial convergence to 1.0D-05 achieved.  Increase integral accuracy.
 SCF Done:  E(RB-P86) =  -775.751037742     A.U. after   16 cycles
            NFock= 16  Conv=0.49D-08     -V/T= 2.0104

 **********************************************************************

            Population analysis using the SCF Density.

 **********************************************************************

 Alpha  occ. eigenvalues --  -24.33274 -24.30374 -18.80081 -10.01149 -10.00347
 Alpha  occ. eigenvalues --   -9.98879  -9.96256  -9.95154  -9.94834  -9.93325
 Alpha  occ. eigenvalues --   -9.93250  -9.92725  -9.92496  -9.91747  -9.91702
 Alpha  occ. eigenvalues --   -9.91216  -1.13412  -1.11385  -0.96064  -0.79510
 Alpha  occ. eigenvalues --   -0.77258  -0.71560  -0.70154  -0.66807  -0.66214
 Alpha  occ. eigenvalues --   -0.62544  -0.58933  -0.56153  -0.55019  -0.53569
 Alpha  occ. eigenvalues --   -0.51718  -0.48587  -0.47921  -0.46161  -0.44242
 Alpha  occ. eigenvalues --   -0.43440  -0.42993  -0.42325  -0.41717  -0.40429
 Alpha  occ. eigenvalues --   -0.38737  -0.38147  -0.38026  -0.36637  -0.35949
 Alpha  occ. eigenvalues --   -0.34299  -0.33950  -0.33134  -0.32890  -0.31006
 Alpha  occ. eigenvalues --   -0.30670  -0.30267  -0.28568  -0.26714  -0.22494
 Alpha  occ. eigenvalues --   -0.20908  -0.19766
 Alpha virt. eigenvalues --   -0.09124  -0.04994  -0.03072  -0.02562   0.02477
 Alpha virt. eigenvalues --    0.03867   0.04595   0.06561   0.07598   0.08082
 Alpha virt. eigenvalues --    0.09526   0.10089   0.10981   0.11164   0.11985
 Alpha virt. eigenvalues --    0.12670   0.13961   0.15810   0.16996   0.19065
 Alpha virt. eigenvalues --    0.19871   0.21864   0.23651   0.25104   0.25728
 Alpha virt. eigenvalues --    0.26498   0.27526   0.28575   0.29521   0.30598
 Alpha virt. eigenvalues --    0.32711   0.34907   0.36017   0.36530   0.37316
 Alpha virt. eigenvalues --    0.38766   0.39695   0.40234   0.41617   0.41691
 Alpha virt. eigenvalues --    0.42368   0.42804   0.43946   0.44205   0.45734
 Alpha virt. eigenvalues --    0.46838   0.47295   0.48761   0.49897   0.51304
 Alpha virt. eigenvalues --    0.51920   0.52082   0.53250   0.53919   0.55196
 Alpha virt. eigenvalues --    0.56165   0.56817   0.58428   0.59073   0.59447
 Alpha virt. eigenvalues --    0.60460   0.61040   0.61451   0.61912   0.62627
 Alpha virt. eigenvalues --    0.63551   0.64628   0.64875   0.65522   0.65984
 Alpha virt. eigenvalues --    0.67376   0.68381   0.70110   0.71404   0.71853
 Alpha virt. eigenvalues --    0.72622   0.73847   0.75043   0.76079   0.77714
 Alpha virt. eigenvalues --    0.81053   0.82099   0.82202   0.88241   0.92043
 Alpha virt. eigenvalues --    0.93989   0.95593   0.96709   0.98016   1.01055
 Alpha virt. eigenvalues --    1.04283   1.05324   1.07541   1.09245   1.10437
 Alpha virt. eigenvalues --    1.11783   1.14075   1.16001   1.17266   1.19220
 Alpha virt. eigenvalues --    1.21058   1.22125   1.22909   1.25478   1.27191
 Alpha virt. eigenvalues --    1.28003   1.30965   1.31278   1.34660   1.35830
 Alpha virt. eigenvalues --    1.37073   1.38547   1.42351   1.44192   1.46579
 Alpha virt. eigenvalues --    1.49391   1.52211   1.55016   1.56889   1.57371
 Alpha virt. eigenvalues --    1.58804   1.59272   1.61481   1.61889   1.62565
 Alpha virt. eigenvalues --    1.63491   1.63971   1.64329   1.65343   1.66064
 Alpha virt. eigenvalues --    1.67192   1.67631   1.70610   1.71808   1.72300
 Alpha virt. eigenvalues --    1.72520   1.73501   1.74531   1.76099   1.77816
 Alpha virt. eigenvalues --    1.78058   1.81294   1.82832   1.84671   1.85878
 Alpha virt. eigenvalues --    1.86275   1.87409   1.89977   1.90625   1.92651
 Alpha virt. eigenvalues --    1.93957   1.95532   1.96831   1.97813   1.99047
 Alpha virt. eigenvalues --    1.99936   2.01763   2.04704   2.05899   2.08864
 Alpha virt. eigenvalues --    2.09241   2.09607   2.13719   2.15161   2.17497
 Alpha virt. eigenvalues --    2.17587   2.18502   2.19476   2.20214   2.23422
 Alpha virt. eigenvalues --    2.23604   2.28420   2.31228   2.33280   2.35373
 Alpha virt. eigenvalues --    2.36578   2.37795   2.43531   2.44987   2.46895
 Alpha virt. eigenvalues --    2.48328   2.48756   2.52205   2.54761   2.55168
 Alpha virt. eigenvalues --    2.59332   2.61653   2.62743   2.65372   2.67574
 Alpha virt. eigenvalues --    2.68737   2.75909   2.77508   2.81013   2.81911
 Alpha virt. eigenvalues --    2.83986   2.87066   2.88460   2.90030   2.93020
 Alpha virt. eigenvalues --    2.93731   2.97996   3.00366   3.01846   3.06744
 Alpha virt. eigenvalues --    3.09998   3.12406   3.15090   3.20139   3.29532
 Alpha virt. eigenvalues --    3.32316   3.38448   3.43475   3.47965   3.67682
 Alpha virt. eigenvalues --    3.74401   3.78886
          Condensed to atoms (all electrons):
               1          2          3          4          5          6
     1  C    4.556983   0.439414  -0.074518   0.013536   0.000039   0.008933
     2  C    0.439414   5.187769   0.364237   0.056539  -0.117205   0.038266
     3  C   -0.074518   0.364237   5.091757   0.294402   0.083855  -0.134503
     4  C    0.013536   0.056539   0.294402   5.069257   0.237122   0.089774
     5  C    0.000039  -0.117205   0.083855   0.237122   5.199078   0.317573
     6  C    0.008933   0.038266  -0.134503   0.089774   0.317573   5.211593
     7  F   -0.000015   0.001768  -0.000007   0.005091  -0.059276   0.299718
     8  C   -0.063551   0.303644   0.031372  -0.088281  -0.003693   0.212284
     9  C   -0.019268  -0.045597   0.013917  -0.000328   0.011657  -0.065415
    10  C   -0.000367   0.007755   0.000272  -0.000244   0.001433  -0.026322
    11  O   -0.000003  -0.000019   0.000000   0.000003  -0.001144   0.008478
    12  C    0.000002   0.000110  -0.000002   0.000001  -0.000049   0.001720
    13  C   -0.000021  -0.000074   0.000001  -0.000000   0.000002  -0.000295
    14  C    0.000052   0.000213  -0.000016   0.000001  -0.000002   0.000176
    15  C   -0.001038  -0.021752   0.000116  -0.000054  -0.000063   0.011135
    16  F    0.004805  -0.004732  -0.000063   0.000001  -0.000001   0.000286
    17  H    0.375634  -0.023403  -0.019001   0.002047  -0.000068  -0.000017
    18  H    0.357524   0.000266   0.000115  -0.000230  -0.000046  -0.000229
    19  H    0.372164  -0.002074   0.007695  -0.000866   0.000218  -0.000830
    20  H   -0.018911  -0.064431   0.424549  -0.065849   0.013752  -0.000516
    21  H   -0.000410   0.014334  -0.064547   0.431971  -0.070447   0.013509
    22  H    0.000018  -0.000888   0.012492  -0.064206   0.415021  -0.057909
    23  H   -0.000001   0.000450  -0.000069   0.000257  -0.002204  -0.017579
    24  H    0.000000   0.000001  -0.000000   0.000000   0.000001   0.000004
    25  H    0.000000  -0.000000   0.000000   0.000000  -0.000000   0.000001
    26  H   -0.000010   0.000027  -0.000000   0.000000  -0.000000   0.000001
               7          8          9         10         11         12
     1  C   -0.000015  -0.063551  -0.019268  -0.000367  -0.000003   0.000002
     2  C    0.001768   0.303644  -0.045597   0.007755  -0.000019   0.000110
     3  C   -0.000007   0.031372   0.013917   0.000272   0.000000  -0.000002
     4  C    0.005091  -0.088281  -0.000328  -0.000244   0.000003   0.000001
     5  C   -0.059276  -0.003693   0.011657   0.001433  -0.001144  -0.000049
     6  C    0.299718   0.212284  -0.065415  -0.026322   0.008478   0.001720
     7  F    8.990027  -0.070133   0.002383   0.001066  -0.026851  -0.000544
     8  C   -0.070133   5.456888   0.228775  -0.068315  -0.003977   0.009413
     9  C    0.002383   0.228775   5.751834   0.138609  -0.075002   0.009733
    10  C    0.001066  -0.068315   0.138609   5.183332   0.454889   0.287346
    11  O   -0.026851  -0.003977  -0.075002   0.454889   7.556949  -0.089449
    12  C   -0.000544   0.009413   0.009733   0.287346  -0.089449   5.254623
    13  C    0.000001  -0.000119  -0.103281   0.115334   0.005983   0.211566
    14  C   -0.000000   0.013475   0.001820  -0.140384   0.000095   0.108778
    15  C    0.000158  -0.056097   0.164728   0.093089   0.001450  -0.137961
    16  F   -0.000000   0.000027  -0.074141   0.001839  -0.000001   0.000036
    17  H    0.000001   0.007424  -0.000616   0.000005   0.000000   0.000000
    18  H    0.000000  -0.001290   0.003957   0.000030   0.000000  -0.000002
    19  H   -0.000004  -0.011254   0.005196   0.000185   0.000001  -0.000010
    20  H    0.000004   0.014989  -0.000227   0.000001   0.000000  -0.000000
    21  H   -0.000074  -0.001305   0.000018   0.000000  -0.000000   0.000000
    22  H    0.000821   0.017046  -0.000284   0.000053   0.000008  -0.000000
    23  H    0.051388   0.005627  -0.011572  -0.025408   0.338536   0.004582
    24  H    0.000018  -0.000196   0.019801  -0.056407   0.003627   0.415741
    25  H   -0.000000   0.000012  -0.001939   0.014417  -0.000112  -0.069310
    26  H   -0.000000  -0.000225   0.019187  -0.001351   0.000006   0.013499
              13         14         15         16         17         18
     1  C   -0.000021   0.000052  -0.001038   0.004805   0.375634   0.357524
     2  C   -0.000074   0.000213  -0.021752  -0.004732  -0.023403   0.000266
     3  C    0.000001  -0.000016   0.000116  -0.000063  -0.019001   0.000115
     4  C   -0.000000   0.000001  -0.000054   0.000001   0.002047  -0.000230
     5  C    0.000002  -0.000002  -0.000063  -0.000001  -0.000068  -0.000046
     6  C   -0.000295   0.000176   0.011135   0.000286  -0.000017  -0.000229
     7  F    0.000001  -0.000000   0.000158  -0.000000   0.000001   0.000000
     8  C   -0.000119   0.013475  -0.056097   0.000027   0.007424  -0.001290
     9  C   -0.103281   0.001820   0.164728  -0.074141  -0.000616   0.003957
    10  C    0.115334  -0.140384   0.093089   0.001839   0.000005   0.000030
    11  O    0.005983   0.000095   0.001450  -0.000001   0.000000   0.000000
    12  C    0.211566   0.108778  -0.137961   0.000036   0.000000  -0.000002
    13  C    5.175527   0.165229   0.115023   0.005210  -0.000001   0.000002
    14  C    0.165229   5.283301   0.317976  -0.061778   0.000033  -0.000179
    15  C    0.115023   0.317976   5.055406   0.360024   0.000193  -0.002174
    16  F    0.005210  -0.061778   0.360024   8.927027   0.001689   0.003538
    17  H   -0.000001   0.000033   0.000193   0.001689   0.671895  -0.023050
    18  H    0.000002  -0.000179  -0.002174   0.003538  -0.023050   0.624448
    19  H    0.000066  -0.001145   0.000901  -0.001097  -0.028679  -0.018174
    20  H    0.000000  -0.000000   0.000023  -0.000010   0.005000   0.001921
    21  H   -0.000000   0.000000   0.000000   0.000000  -0.000018   0.000013
    22  H    0.000000  -0.000000   0.000001  -0.000000  -0.000002  -0.000001
    23  H    0.000025  -0.000163   0.000217   0.000001  -0.000001   0.000001
    24  H   -0.073356   0.014369  -0.001548   0.000004  -0.000000  -0.000000
    25  H    0.436278  -0.070756   0.014038  -0.000084   0.000000   0.000000
    26  H   -0.069498   0.416012  -0.059285   0.001781  -0.000002   0.000024
              19         20         21         22         23         24
     1  C    0.372164  -0.018911  -0.000410   0.000018  -0.000001   0.000000
     2  C   -0.002074  -0.064431   0.014334  -0.000888   0.000450   0.000001
     3  C    0.007695   0.424549  -0.064547   0.012492  -0.000069  -0.000000
     4  C   -0.000866  -0.065849   0.431971  -0.064206   0.000257   0.000000
     5  C    0.000218   0.013752  -0.070447   0.415021  -0.002204   0.000001
     6  C   -0.000830  -0.000516   0.013509  -0.057909  -0.017579   0.000004
     7  F   -0.000004   0.000004  -0.000074   0.000821   0.051388   0.000018
     8  C   -0.011254   0.014989  -0.001305   0.017046   0.005627  -0.000196
     9  C    0.005196  -0.000227   0.000018  -0.000284  -0.011572   0.019801
    10  C    0.000185   0.000001   0.000000   0.000053  -0.025408  -0.056407
    11  O    0.000001   0.000000  -0.000000   0.000008   0.338536   0.003627
    12  C   -0.000010  -0.000000   0.000000  -0.000000   0.004582   0.415741
    13  C    0.000066   0.000000  -0.000000   0.000000   0.000025  -0.073356
    14  C   -0.001145  -0.000000   0.000000  -0.000000  -0.000163   0.014369
    15  C    0.000901   0.000023   0.000000   0.000001   0.000217  -0.001548
    16  F   -0.001097  -0.000010   0.000000  -0.000000   0.000001   0.000004
    17  H   -0.028679   0.005000  -0.000018  -0.000002  -0.000001  -0.000000
    18  H   -0.018174   0.001921   0.000013  -0.000001   0.000001  -0.000000
    19  H    0.641723   0.000542   0.000010  -0.000001   0.000002  -0.000000
    20  H    0.000542   0.700244  -0.012408  -0.000367  -0.000001   0.000000
    21  H    0.000010  -0.012408   0.688687  -0.011710   0.000003  -0.000000
    22  H   -0.000001  -0.000367  -0.011710   0.673751   0.000148  -0.000000
    23  H    0.000002  -0.000001   0.000003   0.000148   0.470682   0.000037
    24  H   -0.000000   0.000000  -0.000000  -0.000000   0.000037   0.686113
    25  H   -0.000001  -0.000000   0.000000  -0.000000   0.000012  -0.013164
    26  H    0.000039  -0.000000  -0.000000   0.000000  -0.000002  -0.000306
              25         26
     1  C    0.000000  -0.000010
     2  C   -0.000000   0.000027
     3  C    0.000000  -0.000000
     4  C    0.000000   0.000000
     5  C   -0.000000  -0.000000
     6  C    0.000001   0.000001
     7  F   -0.000000  -0.000000
     8  C    0.000012  -0.000225
     9  C   -0.001939   0.019187
    10  C    0.014417  -0.001351
    11  O   -0.000112   0.000006
    12  C   -0.069310   0.013499
    13  C    0.436278  -0.069498
    14  C   -0.070756   0.416012
    15  C    0.014038  -0.059285
    16  F   -0.000084   0.001781
    17  H    0.000000  -0.000002
    18  H    0.000000   0.000024
    19  H   -0.000001   0.000039
    20  H   -0.000000  -0.000000
    21  H    0.000000  -0.000000
    22  H   -0.000000   0.000000
    23  H    0.000012  -0.000002
    24  H   -0.013164  -0.000306
    25  H    0.691516  -0.012328
    26  H   -0.012328   0.685345
 Mulliken charges:
               1
     1  C    0.049012
     2  C   -0.134620
     3  C   -0.032053
     4  C    0.020057
     5  C   -0.025552
     6  C    0.090162
     7  F   -0.195540
     8  C    0.067459
     9  C    0.026055
    10  C    0.019146
    11  O   -0.173468
    12  C   -0.019823
    13  C    0.016399
    14  C   -0.047110
    15  C    0.145490
    16  F   -0.164361
    17  H    0.030935
    18  H    0.053538
    19  H    0.035393
    20  H    0.001698
    21  H    0.012373
    22  H    0.016009
    23  H    0.185033
    24  H    0.005262
    25  H    0.011420
    26  H    0.007084
 Sum of Mulliken charges =  -0.00000
 Mulliken charges with hydrogens summed into heavy atoms:
               1
     1  C    0.168877
     2  C   -0.134620
     3  C   -0.030355
     4  C    0.032430
     5  C   -0.009543
     6  C    0.090162
     7  F   -0.195540
     8  C    0.067459
     9  C    0.026055
    10  C    0.019146
    11  O    0.011565
    12  C   -0.014560
    13  C    0.027820
    14  C   -0.040026
    15  C    0.145490
    16  F   -0.164361
 Electronic spatial extent (au):  <R**2>=           3429.2380
 Charge=             -0.0000 electrons
 Dipole moment (field-independent basis, Debye):
    X=             -1.3642    Y=              0.6303    Z=             -0.5122  Tot=              1.5876
 Quadrupole moment (field-independent basis, Debye-Ang):
   XX=            -78.6886   YY=            -88.7221   ZZ=            -95.1226
   XY=              1.4970   XZ=             -1.0326   YZ=             -0.9641
 Traceless Quadrupole moment (field-independent basis, Debye-Ang):
   XX=              8.8225   YY=             -1.2110   ZZ=             -7.6115
   XY=              1.4970   XZ=             -1.0326   YZ=             -0.9641
 Octapole moment (field-independent basis, Debye-Ang**2):
  XXX=             -3.8405  YYY=             12.8221  ZZZ=             88.5708  XYY=            -14.0929
  XXY=              2.9230  XXZ=             31.1138  XZZ=             -2.7732  YZZ=              7.3841
  YYZ=             25.0891  XYZ=              2.5649
 Hexadecapole moment (field-independent basis, Debye-Ang**3):
 XXXX=          -2567.5553 YYYY=          -1345.6323 ZZZZ=           -253.6757 XXXY=             73.0368
 XXXZ=            -72.1478 YYYX=             78.8254 YYYZ=             95.1471 ZZZX=            -47.8918
 ZZZY=             94.3669 XXYY=           -657.8726 XXZZ=           -566.1424 YYZZ=           -275.9995
 XXYZ=             21.0120 YYXZ=            -17.8215 ZZXY=             24.7136
 N-N= 1.069395281210D+03 E-N=-3.949857048350D+03  KE= 7.677349587820D+02
   1 Symmetry operations used in ECPInt.
 ECPInt:  NShTT=    8001 NPrTT=   29641 LenC2=    7593 LenP2D=   20284.
 LDataN:  DoStor=T MaxTD1= 5 Len=  102
 Calling FoFJK, ICntrl=      2527 FMM=F ISym2X=0 I1Cent= 0 IOpClX= 0 NMat=1 NMatS=1 NMatT=0.
 -------------------------------------------------------------------
 Center     Atomic                   Forces (Hartrees/Bohr)
 Number     Number              X              Y              Z
 -------------------------------------------------------------------
      1        6          -0.000018433    0.000139278    0.000583849
      2        6          -0.000164023   -0.000030344    0.000321060
      3        6           0.000141273   -0.000001280   -0.000149824
      4        6           0.000133881   -0.000150463   -0.000146612
      5        6          -0.000056126    0.000081987    0.000124485
      6        6           0.000229707   -0.000712613   -0.000414223
      7        9          -0.000112587    0.000526634    0.000190983
      8        6           0.000018382    0.000441899   -0.000441400
      9        6           0.000050888    0.000003290    0.000554632
     10        6          -0.000075158    0.000015667    0.000007834
     11        8          -0.000180398   -0.000059609    0.000236027
     12        6           0.000189253    0.000068644   -0.000053015
     13        6          -0.000015013   -0.000038108    0.000056718
     14        6          -0.000102609    0.000051824   -0.000051398
     15        6           0.000182075   -0.000092448   -0.000098995
     16        9          -0.000220476   -0.000000848   -0.000623569
     17        1          -0.000007961   -0.000003080    0.000052659
     18        1          -0.000072402   -0.000048915   -0.000074273
     19        1           0.000230293   -0.000138617    0.000022959
     20        1           0.000053752   -0.000017381    0.000016773
     21        1           0.000030120   -0.000036909    0.000028490
     22        1          -0.000027126    0.000032489   -0.000001678
     23        1          -0.000165217   -0.000060025   -0.000116692
     24        1          -0.000009743    0.000041959   -0.000024044
     25        1          -0.000020703    0.000004784   -0.000007790
     26        1          -0.000011646   -0.000017813    0.000007044
 -------------------------------------------------------------------
 Cartesian Forces:  Max     0.000712613 RMS     0.000201805

 GradGradGradGradGradGradGradGradGradGradGradGradGradGradGradGradGradGrad
 Berny optimization.
 FormGI is forming the generalized inverse of G from B-inverse, IUseBI=4.
 Internal  Forces:  Max     0.000800787 RMS     0.000192348
 Search for a local minimum.
 Step number   1 out of a maximum of  142
 All quantities printed in internal units (Hartrees-Bohrs-Radians)
 Mixed Optimization -- En-DIIS/RFO-DIIS
 Second derivative matrix not updated -- first step.
 ITU=  0
     Eigenvalues ---    0.00476   0.01207   0.01248   0.01361   0.01618
     Eigenvalues ---    0.01691   0.01834   0.01848   0.01967   0.02009
     Eigenvalues ---    0.02034   0.02044   0.02121   0.02131   0.02132
     Eigenvalues ---    0.02147   0.02161   0.02164   0.02328   0.06598
     Eigenvalues ---    0.07383   0.15880   0.15964   0.15965   0.15977
     Eigenvalues ---    0.15980   0.15986   0.16000   0.16000   0.16000
     Eigenvalues ---    0.16000   0.22019   0.22075   0.22346   0.22760
     Eigenvalues ---    0.23138   0.24173   0.24461   0.24653   0.24682
     Eigenvalues ---    0.24921   0.24950   0.24990   0.30095   0.31789
     Eigenvalues ---    0.32745   0.32952   0.33348   0.33481   0.33635
     Eigenvalues ---    0.33685   0.33737   0.33765   0.33793   0.35655
     Eigenvalues ---    0.35788   0.38614   0.38625   0.41467   0.41696
     Eigenvalues ---    0.44416   0.44425   0.45108   0.45286   0.46382
     Eigenvalues ---    0.46606   0.47982   0.51514   0.54573   0.54955
     Eigenvalues --- 1000.000001000.000001000.000001000.000001000.00000
     Eigenvalues --- 1000.000001000.000001000.000001000.000001000.00000
     Eigenvalues --- 1000.000001000.000001000.000001000.000001000.00000
     Eigenvalues --- 1000.000001000.000001000.000001000.000001000.00000
     Eigenvalues --- 1000.000001000.000001000.000001000.000001000.00000
     Eigenvalues --- 1000.000001000.000001000.000001000.000001000.00000
     Eigenvalues --- 1000.000001000.000001000.000001000.000001000.00000
     Eigenvalues --- 1000.000001000.000001000.000001000.000001000.00000
     Eigenvalues --- 1000.000001000.000001000.000001000.000001000.00000
     Eigenvalues --- 1000.000001000.000001000.000001000.000001000.00000
     Eigenvalues --- 1000.000001000.000001000.000001000.000001000.00000
     Eigenvalues --- 1000.000001000.000001000.000001000.000001000.00000
     Eigenvalues --- 1000.000001000.00000
 RFO step:  Lambda=-2.24503691D-05 EMin= 4.75662775D-03
 Linear search not attempted -- first point.
 Iteration  1 RMS(Cart)=  0.00687793 RMS(Int)=  0.00003411
 Iteration  2 RMS(Cart)=  0.00003988 RMS(Int)=  0.00000303
 Iteration  3 RMS(Cart)=  0.00000000 RMS(Int)=  0.00000303
 Iteration  1 RMS(Cart)=  0.00000148 RMS(Int)=  0.00000139
 Iteration  2 RMS(Cart)=  0.00000112 RMS(Int)=  0.00000150
 Iteration  3 RMS(Cart)=  0.00000086 RMS(Int)=  0.00000171
 Variable       Old X    -DE/DX   Delta X   Delta X   Delta X     New X
                                 (Linear)    (Quad)   (Total)
    R1        2.87606  -0.00023   0.00000  -0.00052  -0.00052   2.87554
    R2        2.09501  -0.00002   0.00000  -0.00006  -0.00006   2.09495
    R3        2.09135  -0.00010   0.00000  -0.00032  -0.00032   2.09104
    R4        2.08444   0.00017   0.00000   0.00051   0.00051   2.08494
    R5        2.67177  -0.00022   0.00000  -0.00053  -0.00053   2.67124
    R6        2.75639  -0.00037   0.00000  -0.00121  -0.00121   2.75517
    R7        2.64277   0.00009   0.00000   0.00019   0.00019   2.64296
    R8        2.08214  -0.00004   0.00000  -0.00013  -0.00013   2.08202
    R9        2.64042  -0.00016   0.00000  -0.00034  -0.00034   2.64008
   R10        2.07866  -0.00002   0.00000  -0.00007  -0.00007   2.07859
   R11        2.63197  -0.00008   0.00000  -0.00014  -0.00014   2.63183
   R12        2.07776  -0.00002   0.00000  -0.00005  -0.00005   2.07771
   R13        2.61753  -0.00058   0.00000  -0.00120  -0.00120   2.61633
   R14        2.70359   0.00003   0.00000   0.00008   0.00008   2.70366
   R15        2.84531  -0.00038   0.00000  -0.00120  -0.00120   2.84411
   R16        2.76019  -0.00018   0.00000  -0.00049  -0.00049   2.75971
   R17        2.71169  -0.00025   0.00000  -0.00072  -0.00072   2.71097
   R18        2.55475   0.00028   0.00000   0.00050   0.00050   2.55525
   R19        2.67673   0.00016   0.00000   0.00041   0.00041   2.67714
   R20        1.85068   0.00020   0.00000   0.00040   0.00040   1.85107
   R21        2.62846   0.00006   0.00000   0.00016   0.00016   2.62863
   R22        2.07729  -0.00005   0.00000  -0.00014  -0.00014   2.07715
   R23        2.64509   0.00011   0.00000   0.00021   0.00021   2.64530
   R24        2.07950  -0.00002   0.00000  -0.00006  -0.00006   2.07944
   R25        2.63692  -0.00013   0.00000  -0.00033  -0.00033   2.63660
   R26        2.07681  -0.00002   0.00000  -0.00006  -0.00006   2.07675
   R27        2.55139   0.00007   0.00000   0.00019   0.00019   2.55158
    A1        1.87317   0.00002   0.00000   0.00035   0.00035   1.87353
    A2        1.98798   0.00004   0.00000   0.00004   0.00004   1.98802
    A3        1.96492  -0.00020   0.00000  -0.00132  -0.00132   1.96360
    A4        1.87579  -0.00002   0.00000  -0.00009  -0.00009   1.87570
    A5        1.87537   0.00015   0.00000   0.00133   0.00133   1.87670
    A6        1.88155   0.00004   0.00000  -0.00016  -0.00016   1.88139
    A7        1.96770   0.00031   0.00000   0.00138   0.00138   1.96908
    A8        2.22004  -0.00021   0.00000  -0.00218  -0.00219   2.21786
    A9        2.08456  -0.00009   0.00000   0.00010   0.00010   2.08466
   A10        2.16095  -0.00001   0.00000  -0.00003  -0.00003   2.16091
   A11        2.04426  -0.00003   0.00000  -0.00013  -0.00013   2.04413
   A12        2.07554   0.00005   0.00000   0.00030   0.00030   2.07584
   A13        2.04259   0.00013   0.00000   0.00062   0.00062   2.04321
   A14        2.11841  -0.00002   0.00000   0.00005   0.00005   2.11847
   A15        2.11641  -0.00010   0.00000  -0.00046  -0.00046   2.11595
   A16        2.06306  -0.00011   0.00000  -0.00034  -0.00034   2.06272
   A17        2.15110   0.00002   0.00000  -0.00011  -0.00012   2.15099
   A18        2.06787   0.00009   0.00000   0.00037   0.00037   2.06824
   A19        1.97380   0.00014   0.00000   0.00059   0.00059   1.97439
   A20        2.21466  -0.00011   0.00000  -0.00034  -0.00034   2.21432
   A21        2.09261  -0.00004   0.00000  -0.00009  -0.00010   2.09251
   A22        1.92825   0.00026   0.00000   0.00112   0.00111   1.92937
   A23        2.23292  -0.00001   0.00000   0.00011   0.00010   2.23302
   A24        2.12200  -0.00024   0.00000  -0.00127  -0.00129   2.12071
   A25        2.18154  -0.00017   0.00000  -0.00056  -0.00056   2.18097
   A26        2.15931  -0.00018   0.00000  -0.00085  -0.00085   2.15846
   A27        1.93294   0.00036   0.00000   0.00131   0.00131   1.93425
   A28        2.20610  -0.00020   0.00000  -0.00079  -0.00079   2.20531
   A29        2.12403  -0.00022   0.00000  -0.00080  -0.00080   2.12323
   A30        1.94951   0.00042   0.00000   0.00168   0.00168   1.95119
   A31        1.94543  -0.00000   0.00000  -0.00002  -0.00002   1.94541
   A32        2.13208  -0.00005   0.00000  -0.00000  -0.00000   2.13208
   A33        2.02221   0.00003   0.00000   0.00007   0.00007   2.02228
   A34        2.12769   0.00002   0.00000  -0.00004  -0.00004   2.12765
   A35        2.06174   0.00009   0.00000   0.00044   0.00044   2.06218
   A36        2.11006  -0.00004   0.00000  -0.00016  -0.00016   2.10989
   A37        2.11011  -0.00005   0.00000  -0.00022  -0.00022   2.10989
   A38        2.07962  -0.00007   0.00000  -0.00035  -0.00035   2.07927
   A39        2.14675   0.00004   0.00000   0.00017   0.00017   2.14692
   A40        2.05541   0.00003   0.00000   0.00016   0.00016   2.05557
   A41        2.20361  -0.00007   0.00000  -0.00012  -0.00012   2.20349
   A42        2.09865  -0.00022   0.00000  -0.00125  -0.00125   2.09740
   A43        1.97939   0.00031   0.00000   0.00132   0.00132   1.98071
    D1       -0.49622  -0.00006   0.00000  -0.00764  -0.00764  -0.50386
    D2        2.48476   0.00001   0.00000  -0.01264  -0.01264   2.47212
    D3        1.57788  -0.00006   0.00000  -0.00749  -0.00749   1.57039
    D4       -1.72432   0.00002   0.00000  -0.01249  -0.01249  -1.73681
    D5       -2.55626  -0.00014   0.00000  -0.00874  -0.00874  -2.56500
    D6        0.42472  -0.00007   0.00000  -0.01374  -0.01374   0.41099
    D7        2.84275   0.00018   0.00000  -0.00063  -0.00064   2.84211
    D8       -0.22287   0.00009   0.00000  -0.00275  -0.00276  -0.22564
    D9       -0.15206   0.00013   0.00000   0.00419   0.00419  -0.14787
   D10        3.06550   0.00003   0.00000   0.00206   0.00206   3.06757
   D11       -2.60558  -0.00030   0.00000   0.00120   0.00121  -2.60438
   D12        0.53064  -0.00024   0.00000  -0.00779  -0.00780   0.52284
   D13        0.36584  -0.00019   0.00000  -0.00401  -0.00400   0.36184
   D14       -2.78112  -0.00013   0.00000  -0.01300  -0.01301  -2.79412
   D15       -0.12523   0.00005   0.00000  -0.00042  -0.00043  -0.12565
   D16        3.13028  -0.00007   0.00000  -0.00247  -0.00247   3.12781
   D17        2.93912   0.00014   0.00000   0.00172   0.00172   2.94083
   D18       -0.08856   0.00002   0.00000  -0.00033  -0.00033  -0.08889
   D19        0.14448  -0.00012   0.00000  -0.00297  -0.00297   0.14151
   D20       -2.94460  -0.00009   0.00000  -0.00105  -0.00105  -2.94565
   D21       -3.11089  -0.00000   0.00000  -0.00089  -0.00089  -3.11177
   D22        0.08322   0.00003   0.00000   0.00103   0.00103   0.08425
   D23       -2.95025  -0.00001   0.00000   0.00007   0.00007  -2.95017
   D24        0.12068  -0.00002   0.00000   0.00271   0.00271   0.12339
   D25        0.14139  -0.00004   0.00000  -0.00177  -0.00177   0.13962
   D26       -3.07087  -0.00005   0.00000   0.00087   0.00087  -3.07000
   D27       -0.36982   0.00013   0.00000   0.00073   0.00073  -0.36909
   D28        2.77675   0.00008   0.00000   0.00906   0.00905   2.78580
   D29        2.69679   0.00013   0.00000   0.00356   0.00355   2.70034
   D30       -0.43984   0.00008   0.00000   0.01188   0.01188  -0.42796
   D31        0.28300  -0.00080   0.00000   0.00000  -0.00001   0.28300
   D32        2.93984  -0.00048   0.00000   0.00271   0.00271   2.94255
   D33       -0.04108  -0.00066   0.00000   0.00349   0.00349  -0.03759
   D34       -0.20765  -0.00041   0.00000  -0.00717  -0.00718  -0.21483
   D35        3.09461  -0.00059   0.00000  -0.00640  -0.00639   3.08822
   D36       -0.51311  -0.00038   0.00000   0.00000   0.00001  -0.51311
   D37       -0.21394  -0.00001   0.00000   0.00399   0.00399  -0.20995
   D38        3.02573   0.00001   0.00000   0.00266   0.00266   3.02839
   D39        2.78487   0.00011   0.00000   0.00314   0.00314   2.78801
   D40       -0.25864   0.00013   0.00000   0.00182   0.00182  -0.25683
   D41       -3.02884   0.00003   0.00000  -0.00243  -0.00243  -3.03128
   D42        0.17634  -0.00022   0.00000  -0.00160  -0.00160   0.17474
   D43        0.25336  -0.00010   0.00000  -0.00163  -0.00162   0.25174
   D44       -2.82464  -0.00035   0.00000  -0.00079  -0.00079  -2.82543
   D45        0.58885   0.00007   0.00000   0.00138   0.00138   0.59023
   D46       -2.64253   0.00002   0.00000   0.00248   0.00248  -2.64005
   D47        0.12839  -0.00008   0.00000  -0.00069  -0.00068   0.12771
   D48       -3.06506  -0.00006   0.00000  -0.00007  -0.00007  -3.06513
   D49       -2.92828  -0.00004   0.00000  -0.00173  -0.00172  -2.93000
   D50        0.16146  -0.00001   0.00000  -0.00111  -0.00111   0.16035
   D51        0.04929  -0.00008   0.00000  -0.00104  -0.00104   0.04825
   D52        3.13709   0.00003   0.00000   0.00029   0.00028   3.13737
   D53       -3.03733  -0.00010   0.00000  -0.00170  -0.00169  -3.03902
   D54        0.05047   0.00001   0.00000  -0.00037  -0.00037   0.05010
   D55       -0.06577   0.00009   0.00000   0.00119   0.00119  -0.06458
   D56        3.01767   0.00014   0.00000   0.00072   0.00071   3.01838
   D57        3.12962  -0.00001   0.00000  -0.00014  -0.00014   3.12948
   D58       -0.07013   0.00003   0.00000  -0.00061  -0.00061  -0.07074
   D59       -0.10124   0.00003   0.00000   0.00033   0.00033  -0.10091
   D60        2.98049   0.00025   0.00000  -0.00053  -0.00053   2.97996
   D61        3.09547  -0.00001   0.00000   0.00078   0.00078   3.09625
   D62       -0.10598   0.00021   0.00000  -0.00008  -0.00009  -0.10607
         Item               Value     Threshold  Converged?
 Maximum Force            0.000581     0.000450     NO 
 RMS     Force            0.000143     0.000300     YES
 Maximum Displacement     0.036606     0.001800     NO 
 RMS     Displacement     0.006883     0.001200     NO 
 Predicted change in Energy=-1.121889D-05
 GradGradGradGradGradGradGradGradGradGradGradGradGradGradGradGradGradGrad

                          Input orientation:                          
 ---------------------------------------------------------------------
 Center     Atomic      Atomic             Coordinates (Angstroms)
 Number     Number       Type             X           Y           Z
 ---------------------------------------------------------------------
      1          6           0       -1.088434    2.517688   -1.229243
      2          6           0       -1.506555    1.208865   -0.575298
      3          6           0       -2.883809    1.169274   -0.259457
      4          6           0       -3.584892   -0.008465    0.018893
      5          6           0       -2.904855   -1.213628   -0.173306
      6          6           0       -1.542342   -1.162095   -0.457082
      7          9           0       -1.025108   -2.380388   -0.863374
      8          6           0       -0.705392   -0.001833   -0.440979
      9          6           0        0.790468   -0.112673   -0.317452
     10          6           0        1.512097   -1.328343    0.048730
     11          8           0        0.970675   -2.461993    0.548821
     12          6           0        2.926906   -1.392149    0.013598
     13          6           0        3.713008   -0.269456   -0.224118
     14          6           0        3.071998    0.965823   -0.374875
     15          6           0        1.677678    1.013867   -0.359851
     16          9           0        1.182963    2.269391   -0.314481
     17          1           0       -1.969882    2.911118   -1.774458
     18          1           0       -0.767906    3.295659   -0.510615
     19          1           0       -0.276551    2.382238   -1.963941
     20          1           0       -3.437173    2.120875   -0.305367
     21          1           0       -4.654994    0.008413    0.272797
     22          1           0       -3.401379   -2.194524   -0.160573
     23          1           0        0.077726   -2.625400    0.180783
     24          1           0        3.368344   -2.374042    0.235458
     25          1           0        4.810830   -0.342225   -0.242941
     26          1           0        3.616408    1.917316   -0.452374
 ---------------------------------------------------------------------
                    Distance matrix (angstroms):
                    1          2          3          4          5
     1  C    0.000000
     2  C    1.521672   0.000000
     3  C    2.445828   1.413560   0.000000
     4  C    3.764517   2.480815   1.398594   0.000000
     5  C    4.282184   2.825830   2.384551   1.397072   0.000000
     6  C    3.787224   2.374175   2.697011   2.393622   1.392704
     7  F    4.912129   3.632838   4.052108   3.599571   2.317535
     8  C    2.667595   1.457975   2.479907   2.915998   2.525417
     9  C    3.358636   2.662567   3.891922   4.389506   3.858535
    10  C    4.815385   3.992379   5.065279   5.265194   4.424017
    11  O    5.674387   4.568973   5.356907   5.201328   4.135168
    12  C    5.740595   5.173746   6.356088   6.657186   5.837485
    13  C    5.642011   5.436229   6.751976   7.306607   6.685069
    14  C    4.521883   4.589377   5.960398   6.739323   6.365014
    15  C    3.266297   3.197465   4.565238   5.374315   5.098641
    16  F    2.461237   2.902800   4.213303   5.294546   5.372300
    17  H    1.108601   2.133148   2.482843   3.787918   4.522321
    18  H    1.106528   2.214610   3.010256   4.374132   5.001400
    19  H    1.103305   2.195004   3.342804   4.537864   4.800480
    20  H    2.554913   2.152188   1.101755   2.158947   3.379306
    21  H    4.612258   3.474625   2.183572   1.099941   2.180683
    22  H    5.356930   3.917322   3.404818   2.201077   1.099479
    23  H    5.458887   4.217012   4.833637   4.504368   3.318775
    24  H    6.777701   6.104030   7.203432   7.347813   6.392704
    25  H    6.629722   6.513501   7.841707   8.406433   7.765049
    26  H    4.806195   5.173176   6.545960   7.469233   7.239306
                    6          7          8          9         10
     6  C    0.000000
     7  F    1.384501   0.000000
     8  C    1.430717   2.436834   0.000000
     9  C    2.561793   2.955821   1.505039   0.000000
    10  C    3.100497   2.894156   2.629963   1.460374   0.000000
    11  O    3.002803   2.446243   3.137084   2.510420   1.352181
    12  C    4.499849   4.167027   3.915765   2.512174   1.416683
    13  C    5.335708   5.226320   4.431807   2.928230   2.457579
    14  C    5.082020   5.312442   3.899924   2.524249   2.806409
    15  C    3.887518   4.368015   2.591766   1.434584   2.383339
    16  F    4.384372   5.176612   2.956408   2.414186   3.630970
    17  H    4.302247   5.451853   3.444180   4.345769   5.781109
    18  H    4.524842   5.692811   3.298820   3.752675   5.185815
    19  H    4.054028   4.945117   2.861312   3.173962   4.584596
    20  H    3.793585   5.137197   3.462211   4.781405   6.042993
    21  H    3.404616   4.491472   4.013593   5.478696   6.314280
    22  H    2.147055   2.484982   3.486383   4.682979   4.993628
    23  H    2.274369   1.538355   2.807662   2.658954   1.938354
    24  H    5.105219   4.528785   4.762381   3.473462   2.138693
    25  H    6.409434   6.212667   5.530262   4.027600   3.455307
    26  H    6.007952   6.338994   4.728765   3.482096   3.900453
                   11         12         13         14         15
    11  O    0.000000
    12  C    2.293005   0.000000
    13  C    3.595142   1.391009   0.000000
    14  C    4.125373   2.394158   1.399834   0.000000
    15  C    3.661577   2.736594   2.409960   1.395228   0.000000
    16  F    4.814183   4.068888   3.585392   2.295951   1.350238
    17  H    6.550941   6.759718   6.694389   5.582433   4.348031
    18  H    6.107015   5.991826   5.733299   4.493487   3.348162
    19  H    5.597868   5.330928   5.096572   3.967889   2.874814
    20  H    6.415718   7.276302   7.539587   6.611224   5.233559
    21  H    6.150386   7.714529   8.387346   7.812971   6.443129
    22  H    4.437300   6.381327   7.370510   7.206825   6.010849
    23  H    0.979547   3.109129   4.350827   4.708641   4.012031
    24  H    2.419659   1.099183   2.181578   3.408082   3.832841
    25  H    4.457253   2.171941   1.100393   2.179893   3.416035
    26  H    5.213506   3.412492   2.200774   1.098967   2.140900
                   16         17         18         19         20
    16  F    0.000000
    17  H    3.533239   0.000000
    18  H    2.213049   1.786034   0.000000
    19  H    2.205365   1.784093   1.785476   0.000000
    20  H    4.622532   2.221633   2.923565   3.578926   0.000000
    21  H    6.287977   4.452726   5.150648   5.459743   2.505963
    22  H    6.400501   5.542687   6.099166   5.827815   4.317975
    23  H    5.042402   6.218416   6.020969   5.459101   5.926042
    24  H    5.161375   7.776203   7.057670   6.383166   8.173850
    25  H    4.470691   7.675145   6.665444   6.022125   8.608154
    26  H    2.462645   5.825992   4.596240   4.201918   7.058048
                   21         22         23         24         25
    21  H    0.000000
    22  H    2.571437   0.000000
    23  H    5.417017   3.522265   0.000000
    24  H    8.369673   6.783673   3.300657   0.000000
    25  H    9.486346   8.418918   5.272069   2.537304   0.000000
    26  H    8.519734   8.138901   5.793050   4.353206   2.564378
                   26
    26  H    0.000000
 Symmetry turned off by external request.
 Stoichiometry    C13H10F2O
 Framework group  C1[X(C13H10F2O)]
 Deg. of freedom    72
 Full point group                 C1      NOp   1
 Rotational constants (GHZ):           0.8400822           0.4710776           0.3129542
 Standard basis: def2SVP (5D, 7F)
   274 basis functions,   470 primitive gaussians,   290 cartesian basis functions
    57 alpha electrons       57 beta electrons
       nuclear repulsion energy      1069.9161661117 Hartrees.
 NAtoms=   26 NActive=   26 NUniq=   26 SFac= 1.00D+00 NAtFMM=   60 NAOKFM=F Big=F
 Integral buffers will be    131072 words long.
 Raffenetti 2 integral format.
 Two-electron integral symmetry is turned off.
 Nuclear repulsion after empirical dispersion term =     1069.8646040227 Hartrees.
 One-electron integrals computed using PRISM.
   1 Symmetry operations used in ECPInt.
 ECPInt:  NShTT=    8001 NPrTT=   29641 LenC2=    7593 LenP2D=   20288.
 LDataN:  DoStor=T MaxTD1= 4 Len=   56
 NBasis=   274 RedAO= T EigKep=  3.15D-04  NBF=   274
 NBsUse=   274 1.00D-06 EigRej= -1.00D+00 NBFU=   274
 Initial guess from the checkpoint file:  "path/to/scratch/gaussian_tmp/Gau-3398992.chk"
 B after Tr=    -0.000450    0.000868    0.001489
         Rot=    1.000000    0.000327   -0.000229   -0.000043 Ang=   0.05 deg.
 ExpMin= 1.22D-01 ExpMax= 2.89D+03 ExpMxC= 4.35D+02 IAcc=3 IRadAn=         5 AccDes= 0.00D+00
 Harris functional with IExCor=  404 and IRadAn=       5 diagonalized for initial guess.
 HarFok:  IExCor=  404 AccDes= 0.00D+00 IRadAn=         5 IDoV= 1 UseB2=F ITyADJ=14
 ICtDFT=  3500011 ScaDFX=  1.000000  1.000000  1.000000  1.000000
 FoFCou: FMM=F IPFlag=           0 FMFlag=      100000 FMFlg1=           0
         NFxFlg=           0 DoJE=T BraDBF=F KetDBF=T FulRan=T
         wScrn=  0.000000 ICntrl=       500 IOpCl=  0 I1Cent=   200000004 NGrid=           0
         NMat0=    1 NMatS0=      1 NMatT0=    0 NMatD0=    1 NMtDS0=    0 NMtDT0=    0
 Symmetry not used in FoFCou.
 Requested convergence on RMS density matrix=1.00D-08 within 128 cycles.
 Requested convergence on MAX density matrix=1.00D-06.
 Requested convergence on             energy=1.00D-06.
 No special actions if energy rises.
 Integral accuracy reduced to 1.0D-05 until final iterations.
 Initial convergence to 1.0D-05 achieved.  Increase integral accuracy.
 SCF Done:  E(RB-P86) =  -775.751017279     A.U. after   11 cycles
            NFock= 11  Conv=0.78D-08     -V/T= 2.0104
   1 Symmetry operations used in ECPInt.
 ECPInt:  NShTT=    8001 NPrTT=   29641 LenC2=    7593 LenP2D=   20288.
 LDataN:  DoStor=T MaxTD1= 5 Len=  102
 Calling FoFJK, ICntrl=      2527 FMM=F ISym2X=0 I1Cent= 0 IOpClX= 0 NMat=1 NMatS=1 NMatT=0.
 -------------------------------------------------------------------
 Center     Atomic                   Forces (Hartrees/Bohr)
 Number     Number              X              Y              Z
 -------------------------------------------------------------------
      1        6          -0.000190243    0.000079218   -0.000006906
      2        6          -0.000202441   -0.000187845   -0.000112521
      3        6           0.000052350    0.000064735    0.000187667
      4        6           0.000087572    0.000051830   -0.000032296
      5        6          -0.000033865   -0.000003305   -0.000032693
      6        6           0.000163321   -0.000063791    0.000124624
      7        9          -0.000969162    0.000168075   -0.000781104
      8        6          -0.000028039   -0.000119749   -0.001103868
      9        6           0.000087965    0.000002503    0.000844035
     10        6          -0.000173853   -0.000296991    0.000093370
     11        8           0.000820575    0.000284231    0.000577191
     12        6           0.000032860    0.000045253   -0.000018598
     13        6          -0.000093541   -0.000089200   -0.000015521
     14        6          -0.000070099    0.000091201   -0.000026875
     15        6           0.000170277   -0.000094142    0.000098924
     16        9           0.000713928   -0.000079817   -0.000102693
     17        1          -0.000113999    0.000005299    0.000068177
     18        1          -0.000013799    0.000031523    0.000045149
     19        1          -0.000467568    0.000118361   -0.000011779
     20        1          -0.000005584    0.000011209    0.000001036
     21        1          -0.000012454   -0.000009512   -0.000022853
     22        1          -0.000030024    0.000014320    0.000020023
     23        1           0.000234400   -0.000017411    0.000184095
     24        1           0.000015272    0.000000007    0.000002936
     25        1           0.000004140    0.000002530    0.000016169
     26        1           0.000022009   -0.000008534    0.000004314
 -------------------------------------------------------------------
 Cartesian Forces:  Max     0.001103868 RMS     0.000275828

 GradGradGradGradGradGradGradGradGradGradGradGradGradGradGradGradGradGrad
 Berny optimization.
 Using GEDIIS/GDIIS optimizer.
 FormGI is forming the generalized inverse of G from B-inverse, IUseBI=4.
 Internal  Forces:  Max     0.001900589 RMS     0.000480081
 Search for a local minimum.
 Step number   2 out of a maximum of  142
 All quantities printed in internal units (Hartrees-Bohrs-Radians)
 Mixed Optimization -- En-DIIS/RFO-DIIS
 Swapping is turned off.
 Update second derivatives using D2CorX and points    1    2
 DE=  2.05D-05 DEPred=-1.12D-05 R=-1.82D+00
 Trust test=-1.82D+00 RLast= 3.81D-02 DXMaxT set to 5.00D-02
 ITU= -1  0
     Eigenvalues ---    0.00492   0.01160   0.01264   0.01580   0.01676
     Eigenvalues ---    0.01813   0.01844   0.01965   0.02007   0.02025
     Eigenvalues ---    0.02044   0.02121   0.02123   0.02131   0.02137
     Eigenvalues ---    0.02161   0.02164   0.02315   0.02501   0.06674
     Eigenvalues ---    0.07366   0.15766   0.15888   0.15965   0.15967
     Eigenvalues ---    0.15978   0.15983   0.15986   0.16000   0.16000
     Eigenvalues ---    0.16032   0.21929   0.22068   0.22241   0.22897
     Eigenvalues ---    0.23019   0.23853   0.24487   0.24616   0.24833
     Eigenvalues ---    0.24903   0.24985   0.29687   0.29993   0.32744
     Eigenvalues ---    0.32909   0.33250   0.33476   0.33633   0.33683
     Eigenvalues ---    0.33736   0.33757   0.33792   0.34315   0.35537
     Eigenvalues ---    0.37879   0.38243   0.41383   0.41686   0.44146
     Eigenvalues ---    0.44354   0.44782   0.45271   0.46377   0.46442
     Eigenvalues ---    0.46966   0.51221   0.53926   0.54874   0.69736
     Eigenvalues --- 1000.000001000.000001000.000001000.000001000.00000
     Eigenvalues --- 1000.000001000.000001000.000001000.000001000.00000
     Eigenvalues --- 1000.000001000.000001000.000001000.000001000.00000
     Eigenvalues --- 1000.000001000.000001000.000001000.000001000.00000
     Eigenvalues --- 1000.000001000.000001000.000001000.000001000.00000
     Eigenvalues --- 1000.000001000.000001000.000001000.000001000.00000
     Eigenvalues --- 1000.000001000.000001000.000001000.000001000.00000
     Eigenvalues --- 1000.000001000.000001000.000001000.000001000.00000
     Eigenvalues --- 1000.000001000.000001000.000001000.000001000.00000
     Eigenvalues --- 1000.000001000.000001000.000001000.000001000.00000
     Eigenvalues --- 1000.000001000.000001000.000001000.000001000.00000
     Eigenvalues --- 1000.000001000.000001000.000001000.000001000.00000
     Eigenvalues --- 1000.000001000.00000
 En-DIIS/RFO-DIIS/Sim-DIIS IScMMF=       -3 using points:     2    1
 RFO step:  Lambda=-5.11212985D-05.
 DidBck=T Rises=T En-DIIS coefs:    0.38070    0.61930
 Iteration  1 RMS(Cart)=  0.00437443 RMS(Int)=  0.00001041
 Iteration  2 RMS(Cart)=  0.00001287 RMS(Int)=  0.00000094
 Iteration  3 RMS(Cart)=  0.00000000 RMS(Int)=  0.00000094
 Iteration  1 RMS(Cart)=  0.00000053 RMS(Int)=  0.00000060
 Variable       Old X    -DE/DX   Delta X   Delta X   Delta X     New X
                                 (Linear)    (Quad)   (Total)
    R1        2.87554  -0.00003   0.00032  -0.00043  -0.00012   2.87543
    R2        2.09495   0.00006   0.00004  -0.00000   0.00004   2.09499
    R3        2.09104   0.00005   0.00020  -0.00022  -0.00002   2.09101
    R4        2.08494  -0.00035  -0.00031   0.00014  -0.00018   2.08477
    R5        2.67124  -0.00008   0.00033  -0.00052  -0.00019   2.67105
    R6        2.75517   0.00098   0.00075  -0.00029   0.00046   2.75563
    R7        2.64296  -0.00047  -0.00012  -0.00016  -0.00027   2.64269
    R8        2.08202   0.00001   0.00008  -0.00009  -0.00001   2.08200
    R9        2.64008  -0.00042   0.00021  -0.00050  -0.00030   2.63979
   R10        2.07859   0.00001   0.00004  -0.00005  -0.00001   2.07858
   R11        2.63183   0.00005   0.00009  -0.00005   0.00004   2.63187
   R12        2.07771   0.00000   0.00003  -0.00004  -0.00001   2.07771
   R13        2.61633  -0.00031   0.00075  -0.00120  -0.00045   2.61588
   R14        2.70366   0.00083  -0.00005   0.00068   0.00063   2.70429
   R15        2.84411   0.00190   0.00074   0.00059   0.00133   2.84544
   R16        2.75971   0.00110   0.00030   0.00041   0.00072   2.76042
   R17        2.71097   0.00075   0.00044  -0.00009   0.00035   2.71133
   R18        2.55525  -0.00038  -0.00031   0.00021  -0.00010   2.55515
   R19        2.67714  -0.00001  -0.00025   0.00034   0.00008   2.67722
   R20        1.85107  -0.00028  -0.00025   0.00018  -0.00007   1.85101
   R21        2.62863  -0.00048  -0.00010  -0.00013  -0.00023   2.62839
   R22        2.07715   0.00001   0.00008  -0.00011  -0.00002   2.07713
   R23        2.64530  -0.00039  -0.00013  -0.00006  -0.00019   2.64511
   R24        2.07944   0.00000   0.00004  -0.00005  -0.00001   2.07943
   R25        2.63660  -0.00008   0.00020  -0.00032  -0.00012   2.63648
   R26        2.07675   0.00000   0.00004  -0.00005  -0.00001   2.07674
   R27        2.55158  -0.00033  -0.00012   0.00000  -0.00012   2.55146
    A1        1.87353  -0.00021  -0.00022  -0.00024  -0.00046   1.87306
    A2        1.98802  -0.00001  -0.00002   0.00011   0.00008   1.98810
    A3        1.96360   0.00024   0.00082  -0.00057   0.00025   1.96385
    A4        1.87570   0.00000   0.00006  -0.00027  -0.00021   1.87549
    A5        1.87670  -0.00009  -0.00082   0.00077  -0.00006   1.87665
    A6        1.88139   0.00005   0.00010   0.00026   0.00036   1.88175
    A7        1.96908  -0.00154  -0.00085  -0.00042  -0.00127   1.96780
    A8        2.21786   0.00121   0.00135  -0.00046   0.00089   2.21875
    A9        2.08466   0.00035  -0.00006   0.00040   0.00034   2.08500
   A10        2.16091   0.00026   0.00002   0.00002   0.00005   2.16096
   A11        2.04413  -0.00013   0.00008  -0.00017  -0.00009   2.04404
   A12        2.07584  -0.00014  -0.00019   0.00017  -0.00001   2.07583
   A13        2.04321  -0.00020  -0.00038   0.00014  -0.00024   2.04297
   A14        2.11847   0.00009  -0.00003   0.00019   0.00016   2.11862
   A15        2.11595   0.00009   0.00029  -0.00025   0.00004   2.11599
   A16        2.06272   0.00022   0.00021  -0.00002   0.00020   2.06291
   A17        2.15099  -0.00016   0.00007  -0.00027  -0.00020   2.15078
   A18        2.06824  -0.00006  -0.00023   0.00025   0.00002   2.06826
   A19        1.97439  -0.00116  -0.00037  -0.00086  -0.00122   1.97317
   A20        2.21432   0.00036   0.00021  -0.00005   0.00016   2.21448
   A21        2.09251   0.00078   0.00006   0.00099   0.00105   2.09356
   A22        1.92937  -0.00111  -0.00069  -0.00033  -0.00102   1.92834
   A23        2.23302   0.00029  -0.00006   0.00047   0.00041   2.23343
   A24        2.12071   0.00083   0.00080  -0.00012   0.00068   2.12139
   A25        2.18097   0.00100   0.00035   0.00074   0.00109   2.18206
   A26        2.15846   0.00013   0.00053  -0.00045   0.00008   2.15853
   A27        1.93425  -0.00113  -0.00081  -0.00002  -0.00083   1.93341
   A28        2.20531   0.00109   0.00049   0.00063   0.00112   2.20643
   A29        2.12323   0.00031   0.00050  -0.00046   0.00003   2.12326
   A30        1.95119  -0.00142  -0.00104  -0.00015  -0.00119   1.95000
   A31        1.94541   0.00018   0.00001   0.00028   0.00029   1.94570
   A32        2.13208   0.00026   0.00000   0.00024   0.00024   2.13232
   A33        2.02228  -0.00011  -0.00004  -0.00005  -0.00009   2.02219
   A34        2.12765  -0.00015   0.00002  -0.00019  -0.00017   2.12748
   A35        2.06218  -0.00016  -0.00027   0.00007  -0.00020   2.06198
   A36        2.10989   0.00008   0.00010  -0.00001   0.00009   2.10998
   A37        2.10989   0.00008   0.00013  -0.00005   0.00008   2.10998
   A38        2.07927   0.00017   0.00021  -0.00019   0.00002   2.07929
   A39        2.14692  -0.00011  -0.00010   0.00005  -0.00005   2.14687
   A40        2.05557  -0.00006  -0.00010   0.00013   0.00003   2.05560
   A41        2.20349   0.00050   0.00007   0.00037   0.00045   2.20394
   A42        2.09740   0.00054   0.00077  -0.00043   0.00035   2.09775
   A43        1.98071  -0.00104  -0.00082   0.00003  -0.00079   1.97992
    D1       -0.50386   0.00006   0.00473   0.00012   0.00486  -0.49901
    D2        2.47212   0.00020   0.00783  -0.00327   0.00456   2.47668
    D3        1.57039  -0.00008   0.00464  -0.00031   0.00433   1.57472
    D4       -1.73681   0.00006   0.00774  -0.00370   0.00403  -1.73278
    D5       -2.56500   0.00017   0.00541  -0.00033   0.00508  -2.55992
    D6        0.41099   0.00031   0.00851  -0.00373   0.00478   0.41577
    D7        2.84211  -0.00008   0.00040  -0.00222  -0.00182   2.84029
    D8       -0.22564   0.00002   0.00171  -0.00263  -0.00092  -0.22655
    D9       -0.14787  -0.00031  -0.00259   0.00097  -0.00162  -0.14949
   D10        3.06757  -0.00021  -0.00128   0.00056  -0.00072   3.06685
   D11       -2.60438   0.00024  -0.00075   0.00287   0.00212  -2.60225
   D12        0.52284   0.00049   0.00483   0.00443   0.00926   0.53211
   D13        0.36184   0.00024   0.00248  -0.00080   0.00168   0.36352
   D14       -2.79412   0.00049   0.00806   0.00076   0.00882  -2.78530
   D15       -0.12565  -0.00007   0.00026  -0.00005   0.00022  -0.12544
   D16        3.12781   0.00012   0.00153  -0.00090   0.00063   3.12843
   D17        2.94083  -0.00018  -0.00106   0.00036  -0.00071   2.94013
   D18       -0.08889   0.00001   0.00020  -0.00050  -0.00029  -0.08919
   D19        0.14151   0.00021   0.00184  -0.00114   0.00070   0.14221
   D20       -2.94565   0.00024   0.00065  -0.00032   0.00033  -2.94532
   D21       -3.11177   0.00002   0.00055  -0.00026   0.00029  -3.11148
   D22        0.08425   0.00005  -0.00064   0.00056  -0.00007   0.08417
   D23       -2.95017   0.00035  -0.00005   0.00002  -0.00002  -2.95020
   D24        0.12339   0.00005  -0.00168   0.00143  -0.00025   0.12314
   D25        0.13962   0.00031   0.00109  -0.00078   0.00032   0.13994
   D26       -3.07000   0.00002  -0.00054   0.00063   0.00009  -3.06991
   D27       -0.36909  -0.00013  -0.00045  -0.00035  -0.00080  -0.36989
   D28        2.78580  -0.00036  -0.00561  -0.00181  -0.00741   2.77839
   D29        2.70034  -0.00051  -0.00220   0.00107  -0.00113   2.69921
   D30       -0.42796  -0.00074  -0.00736  -0.00038  -0.00773  -0.43570
   D31        0.28300  -0.00077   0.00000   0.00000   0.00000   0.28300
   D32        2.94255  -0.00083  -0.00168  -0.00105  -0.00273   2.93982
   D33       -0.03759  -0.00071  -0.00216  -0.00330  -0.00546  -0.04304
   D34       -0.21483  -0.00057   0.00444   0.00067   0.00511  -0.20972
   D35        3.08822  -0.00045   0.00396  -0.00158   0.00238   3.09060
   D36       -0.51311  -0.00085  -0.00000   0.00000  -0.00000  -0.51311
   D37       -0.20995  -0.00046  -0.00247  -0.00181  -0.00427  -0.21423
   D38        3.02839  -0.00011  -0.00165  -0.00198  -0.00363   3.02477
   D39        2.78801  -0.00049  -0.00194   0.00014  -0.00180   2.78621
   D40       -0.25683  -0.00014  -0.00112  -0.00003  -0.00115  -0.25798
   D41       -3.03128   0.00022   0.00151   0.00207   0.00357  -3.02770
   D42        0.17474   0.00013   0.00099   0.00260   0.00359   0.17833
   D43        0.25174   0.00017   0.00100   0.00003   0.00104   0.25278
   D44       -2.82543   0.00007   0.00049   0.00056   0.00105  -2.82437
   D45        0.59023   0.00010  -0.00085   0.00117   0.00032   0.59054
   D46       -2.64005  -0.00016  -0.00154   0.00131  -0.00023  -2.64028
   D47        0.12771   0.00014   0.00042   0.00029   0.00071   0.12842
   D48       -3.06513   0.00005   0.00005   0.00029   0.00034  -3.06479
   D49       -2.93000   0.00033   0.00107   0.00009   0.00116  -2.92884
   D50        0.16035   0.00023   0.00069   0.00010   0.00079   0.16114
   D51        0.04825   0.00011   0.00064  -0.00041   0.00023   0.04849
   D52        3.13737  -0.00005  -0.00018  -0.00013  -0.00031   3.13707
   D53       -3.03902   0.00021   0.00105  -0.00042   0.00063  -3.03840
   D54        0.05010   0.00005   0.00023  -0.00014   0.00009   0.05019
   D55       -0.06458  -0.00013  -0.00074   0.00028  -0.00046  -0.06504
   D56        3.01838  -0.00013  -0.00044  -0.00012  -0.00056   3.01782
   D57        3.12948   0.00003   0.00009  -0.00001   0.00008   3.12956
   D58       -0.07074   0.00002   0.00038  -0.00040  -0.00002  -0.07076
   D59       -0.10091  -0.00014  -0.00021  -0.00011  -0.00032  -0.10122
   D60        2.97996  -0.00000   0.00033  -0.00062  -0.00029   2.97967
   D61        3.09625  -0.00013  -0.00048   0.00027  -0.00022   3.09603
   D62       -0.10607   0.00001   0.00005  -0.00025  -0.00020  -0.10626
         Item               Value     Threshold  Converged?
 Maximum Force            0.001901     0.000450     NO 
 RMS     Force            0.000456     0.000300     NO 
 Maximum Displacement     0.021388     0.001800     NO 
 RMS     Displacement     0.004373     0.001200     NO 
 Predicted change in Energy=-2.555190D-05
 GradGradGradGradGradGradGradGradGradGradGradGradGradGradGradGradGradGrad

                          Input orientation:                          
 ---------------------------------------------------------------------
 Center     Atomic      Atomic             Coordinates (Angstroms)
 Number     Number       Type             X           Y           Z
 ---------------------------------------------------------------------
      1          6           0       -1.091961    2.517817   -1.233738
      2          6           0       -1.506508    1.208875   -0.577902
      3          6           0       -2.882598    1.169955   -0.257393
      4          6           0       -3.583627   -0.007439    0.021829
      5          6           0       -2.904975   -1.212605   -0.174074
      6          6           0       -1.543162   -1.161787   -0.461416
      7          9           0       -1.029668   -2.380387   -0.870709
      8          6           0       -0.704869   -0.002074   -0.446091
      9          6           0        0.791237   -0.113107   -0.317240
     10          6           0        1.513172   -1.328975    0.049191
     11          8           0        0.973283   -2.463120    0.549670
     12          6           0        2.928049   -1.392526    0.014589
     13          6           0        3.714274   -0.269804   -0.221860
     14          6           0        3.073244    0.965472   -0.371595
     15          6           0        1.678971    1.013341   -0.357410
     16          9           0        1.185108    2.269080   -0.310549
     17          1           0       -1.977545    2.912609   -1.771249
     18          1           0       -0.765106    3.294799   -0.516909
     19          1           0       -0.286434    2.382361   -1.975259
     20          1           0       -3.435477    2.121936   -0.301046
     21          1           0       -4.652968    0.009773    0.278879
     22          1           0       -3.402249   -2.193114   -0.161206
     23          1           0        0.080433   -2.627913    0.182103
     24          1           0        3.369472   -2.374467    0.236211
     25          1           0        4.812109   -0.342486   -0.239977
     26          1           0        3.617623    1.917101   -0.447555
 ---------------------------------------------------------------------
                    Distance matrix (angstroms):
                    1          2          3          4          5
     1  C    0.000000
     2  C    1.521611   0.000000
     3  C    2.444660   1.413458   0.000000
     4  C    3.763212   2.480629   1.398450   0.000000
     5  C    4.280883   2.825306   2.384121   1.396915   0.000000
     6  C    3.786760   2.373805   2.696801   2.393647   1.392726
     7  F    4.912034   3.632618   4.051473   3.598641   2.316418
     8  C    2.668347   1.458217   2.480274   2.916544   2.525836
     9  C    3.362762   2.663684   3.891901   4.389256   3.858935
    10  C    4.819797   3.994045   5.065712   5.265412   4.425315
    11  O    5.679394   4.572126   5.358956   5.203308   4.138657
    12  C    5.745397   5.175290   6.356407   6.657360   5.838848
    13  C    5.647532   5.437814   6.752250   7.306680   6.686226
    14  C    4.527913   4.590853   5.960445   6.739085   6.365700
    15  C    3.272531   3.199082   4.565352   5.374081   5.099118
    16  F    2.469654   2.905220   4.213921   5.294699   5.373038
    17  H    1.108620   2.132760   2.479461   3.784351   4.519789
    18  H    1.106516   2.214605   3.010993   4.374823   5.001327
    19  H    1.103211   2.195052   3.340817   4.535525   4.798417
    20  H    2.553176   2.152034   1.101747   2.158803   3.378863
    21  H    4.610755   3.474497   2.183533   1.099936   2.180562
    22  H    5.355430   3.916759   3.404339   2.200813   1.099475
    23  H    5.464216   4.221011   4.836994   4.507539   3.323044
    24  H    6.782299   6.105596   7.203815   7.348086   6.394290
    25  H    6.635280   6.515047   7.841958   8.406497   7.766264
    26  H    4.812392   5.174484   6.545781   7.468746   7.239761
                    6          7          8          9         10
     6  C    0.000000
     7  F    1.384262   0.000000
     8  C    1.431050   2.437656   0.000000
     9  C    2.563188   2.960166   1.505744   0.000000
    10  C    3.103200   2.901330   2.631669   1.460753   0.000000
    11  O    3.008032   2.456854   3.140778   2.511421   1.352126
    12  C    4.502394   4.174104   3.917101   2.512567   1.416726
    13  C    5.337944   5.232643   4.432920   2.928787   2.457674
    14  C    5.083749   5.317685   3.900748   2.524647   2.806310
    15  C    3.888976   4.372366   2.592609   1.434772   2.383120
    16  F    4.386007   5.180401   2.957790   2.414538   3.630846
    17  H    4.301751   5.452087   3.445450   4.351466   5.787067
    18  H    4.524335   5.692355   3.298184   3.751786   5.185587
    19  H    4.053649   4.945321   2.863384   3.183986   4.594671
    20  H    3.793337   5.136472   3.462466   4.781296   6.043226
    21  H    3.404626   4.490291   4.014126   5.478122   6.313975
    22  H    2.147083   2.483466   3.486786   4.683599   4.995234
    23  H    2.280286   1.549840   2.811825   2.660608   1.938465
    24  H    5.107959   4.536269   4.763826   3.473809   2.138663
    25  H    6.411689   6.219102   5.531312   4.028151   3.455397
    26  H    6.009446   6.343877   4.729394   3.482410   3.900318
                   11         12         13         14         15
    11  O    0.000000
    12  C    2.292072   0.000000
    13  C    3.594291   1.390885   0.000000
    14  C    4.124780   2.393820   1.399731   0.000000
    15  C    3.661499   2.736198   2.409833   1.395167   0.000000
    16  F    4.814412   4.068282   3.584756   2.295251   1.350176
    17  H    6.556868   6.766702   6.702623   5.591140   4.356176
    18  H    6.108455   5.991069   5.732216   4.492195   3.347238
    19  H    5.607214   5.342488   5.110191   3.983309   2.890410
    20  H    6.417447   7.276368   7.539604   6.611039   5.233520
    21  H    6.151685   7.714150   8.386872   7.812223   6.442473
    22  H    4.441118   6.383143   7.372089   7.207839   6.011542
    23  H    0.979512   3.108562   4.350708   4.709131   4.013119
    24  H    2.418230   1.099172   2.181359   3.407693   3.832418
    25  H    4.456144   2.171882   1.100388   2.179847   3.415936
    26  H    5.212804   3.412143   2.200644   1.098961   2.140860
                   16         17         18         19         20
    16  F    0.000000
    17  H    3.542619   0.000000
    18  H    2.213147   1.785902   0.000000
    19  H    2.224754   1.783995   1.785625   0.000000
    20  H    4.622937   2.216355   2.924566   3.575931   0.000000
    21  H    6.287687   4.448300   5.151712   5.456823   2.505958
    22  H    6.401353   5.539894   6.099036   5.825294   4.317443
    23  H    5.044160   6.224809   6.023460   5.467325   5.929259
    24  H    5.160709   7.782908   7.057089   6.394033   8.173959
    25  H    4.469944   7.683739   6.664224   6.035822   8.608123
    26  H    2.461664   5.835161   4.594690   4.218057   7.057594
                   21         22         23         24         25
    21  H    0.000000
    22  H    2.571125   0.000000
    23  H    5.419579   3.526469   0.000000
    24  H    8.369346   6.785796   3.299233   0.000000
    25  H    9.485831   8.420612   5.271630   2.537106   0.000000
    26  H    8.518701   8.139684   5.793559   4.352778   2.564298
                   26
    26  H    0.000000
 Symmetry turned off by external request.
 Stoichiometry    C13H10F2O
 Framework group  C1[X(C13H10F2O)]
 Deg. of freedom    72
 Full point group                 C1      NOp   1
 Rotational constants (GHZ):           0.8395318           0.4705498           0.3128064
 Standard basis: def2SVP (5D, 7F)
   274 basis functions,   470 primitive gaussians,   290 cartesian basis functions
    57 alpha electrons       57 beta electrons
       nuclear repulsion energy      1069.5391269727 Hartrees.
 NAtoms=   26 NActive=   26 NUniq=   26 SFac= 1.00D+00 NAtFMM=   60 NAOKFM=F Big=F
 Integral buffers will be    131072 words long.
 Raffenetti 2 integral format.
 Two-electron integral symmetry is turned off.
 Nuclear repulsion after empirical dispersion term =     1069.4875877753 Hartrees.
 One-electron integrals computed using PRISM.
   1 Symmetry operations used in ECPInt.
 ECPInt:  NShTT=    8001 NPrTT=   29641 LenC2=    7594 LenP2D=   20287.
 LDataN:  DoStor=T MaxTD1= 4 Len=   56
 NBasis=   274 RedAO= T EigKep=  3.15D-04  NBF=   274
 NBsUse=   274 1.00D-06 EigRej= -1.00D+00 NBFU=   274
 Initial guess from the checkpoint file:  "path/to/scratch/gaussian_tmp/Gau-3398992.chk"
 B after Tr=     0.000229   -0.000497   -0.000524
         Rot=    1.000000   -0.000289    0.000174    0.000059 Ang=  -0.04 deg.
 ExpMin= 1.22D-01 ExpMax= 2.89D+03 ExpMxC= 4.35D+02 IAcc=3 IRadAn=         5 AccDes= 0.00D+00
 Harris functional with IExCor=  404 and IRadAn=       5 diagonalized for initial guess.
 HarFok:  IExCor=  404 AccDes= 0.00D+00 IRadAn=         5 IDoV= 1 UseB2=F ITyADJ=14
 ICtDFT=  3500011 ScaDFX=  1.000000  1.000000  1.000000  1.000000
 FoFCou: FMM=F IPFlag=           0 FMFlag=      100000 FMFlg1=           0
         NFxFlg=           0 DoJE=T BraDBF=F KetDBF=T FulRan=T
         wScrn=  0.000000 ICntrl=       500 IOpCl=  0 I1Cent=   200000004 NGrid=           0
         NMat0=    1 NMatS0=      1 NMatT0=    0 NMatD0=    1 NMtDS0=    0 NMtDT0=    0
 Symmetry not used in FoFCou.
 Requested convergence on RMS density matrix=1.00D-08 within 128 cycles.
 Requested convergence on MAX density matrix=1.00D-06.
 Requested convergence on             energy=1.00D-06.
 No special actions if energy rises.
 Integral accuracy reduced to 1.0D-05 until final iterations.
 Initial convergence to 1.0D-05 achieved.  Increase integral accuracy.
 SCF Done:  E(RB-P86) =  -775.751041225     A.U. after   11 cycles
            NFock= 11  Conv=0.54D-08     -V/T= 2.0104
   1 Symmetry operations used in ECPInt.
 ECPInt:  NShTT=    8001 NPrTT=   29641 LenC2=    7594 LenP2D=   20287.
 LDataN:  DoStor=T MaxTD1= 5 Len=  102
 Calling FoFJK, ICntrl=      2527 FMM=F ISym2X=0 I1Cent= 0 IOpClX= 0 NMat=1 NMatS=1 NMatT=0.
 -------------------------------------------------------------------
 Center     Atomic                   Forces (Hartrees/Bohr)
 Number     Number              X              Y              Z
 -------------------------------------------------------------------
      1        6           0.000089423    0.000171010    0.000358256
      2        6          -0.000108167   -0.000141420   -0.000108664
      3        6          -0.000029149    0.000025150    0.000108900
      4        6          -0.000036192    0.000036138    0.000039127
      5        6          -0.000077073    0.000066544   -0.000026911
      6        6           0.000278329   -0.000286870   -0.000012714
      7        9           0.000196231    0.000148918   -0.000041054
      8        6          -0.000038312   -0.000200876   -0.000460640
      9        6          -0.000002789   -0.000130197    0.000516529
     10        6          -0.000027615    0.000077099   -0.000086332
     11        8          -0.000165251    0.000045034    0.000156321
     12        6          -0.000048364    0.000014498    0.000020638
     13        6          -0.000002990   -0.000024766   -0.000017099
     14        6           0.000005026    0.000034078    0.000000066
     15        6           0.000024320   -0.000016874    0.000032571
     16        9           0.000014453    0.000036659   -0.000490379
     17        1           0.000009567    0.000009002    0.000007881
     18        1           0.000039774    0.000043894    0.000032597
     19        1          -0.000080082    0.000031370    0.000017378
     20        1          -0.000006367    0.000010648   -0.000004269
     21        1          -0.000014576    0.000003845   -0.000001147
     22        1           0.000002235    0.000000144    0.000002957
     23        1          -0.000041437    0.000064947   -0.000051857
     24        1           0.000006922   -0.000012636    0.000004056
     25        1           0.000004875   -0.000005206   -0.000000196
     26        1           0.000007208   -0.000000131    0.000003984
 -------------------------------------------------------------------
 Cartesian Forces:  Max     0.000516529 RMS     0.000130904

 GradGradGradGradGradGradGradGradGradGradGradGradGradGradGradGradGradGrad
 Berny optimization.
 Using GEDIIS/GDIIS optimizer.
 FormGI is forming the generalized inverse of G from B-inverse, IUseBI=4.
 Internal  Forces:  Max     0.000691366 RMS     0.000168591
 Search for a local minimum.
 Step number   3 out of a maximum of  142
 All quantities printed in internal units (Hartrees-Bohrs-Radians)
 Mixed Optimization -- En-DIIS/RFO-DIIS
 Swapping is turned off.
 Update second derivatives using D2CorX and points    1    2    3
 DE= -2.39D-05 DEPred=-2.56D-05 R= 9.37D-01
 TightC=F SS=  1.41D+00  RLast= 2.41D-02 DXNew= 8.4090D-02 7.2162D-02
 Trust test= 9.37D-01 RLast= 2.41D-02 DXMaxT set to 7.22D-02
 ITU=  1 -1  0
     Eigenvalues ---    0.00528   0.01104   0.01331   0.01576   0.01640
     Eigenvalues ---    0.01813   0.01833   0.01966   0.02005   0.02043
     Eigenvalues ---    0.02051   0.02111   0.02121   0.02132   0.02138
     Eigenvalues ---    0.02161   0.02164   0.02290   0.02576   0.06684
     Eigenvalues ---    0.07355   0.15339   0.15886   0.15965   0.15967
     Eigenvalues ---    0.15978   0.15986   0.15987   0.16000   0.16028
     Eigenvalues ---    0.16105   0.20420   0.22052   0.22148   0.22677
     Eigenvalues ---    0.23077   0.23579   0.24482   0.24619   0.24845
     Eigenvalues ---    0.24897   0.28385   0.29651   0.31178   0.32744
     Eigenvalues ---    0.33036   0.33456   0.33598   0.33650   0.33702
     Eigenvalues ---    0.33739   0.33788   0.33870   0.34352   0.36642
     Eigenvalues ---    0.37662   0.40217   0.41381   0.41701   0.43998
     Eigenvalues ---    0.44392   0.45142   0.45327   0.45913   0.46514
     Eigenvalues ---    0.46761   0.51461   0.54654   0.54878   0.91986
     Eigenvalues --- 1000.000001000.000001000.000001000.000001000.00000
     Eigenvalues --- 1000.000001000.000001000.000001000.000001000.00000
     Eigenvalues --- 1000.000001000.000001000.000001000.000001000.00000
     Eigenvalues --- 1000.000001000.000001000.000001000.000001000.00000
     Eigenvalues --- 1000.000001000.000001000.000001000.000001000.00000
     Eigenvalues --- 1000.000001000.000001000.000001000.000001000.00000
     Eigenvalues --- 1000.000001000.000001000.000001000.000001000.00000
     Eigenvalues --- 1000.000001000.000001000.000001000.000001000.00000
     Eigenvalues --- 1000.000001000.000001000.000001000.000001000.00000
     Eigenvalues --- 1000.000001000.000001000.000001000.000001000.00000
     Eigenvalues --- 1000.000001000.000001000.000001000.000001000.00000
     Eigenvalues --- 1000.000001000.000001000.000001000.000001000.00000
     Eigenvalues --- 1000.000001000.00000
 En-DIIS/RFO-DIIS/Sim-DIIS IScMMF=       -3 using points:     3    2    1
 RFO step:  Lambda=-4.75553666D-06.
 DidBck=F Rises=F RFO-DIIS coefs:    1.03065   -0.18631    0.15565
 Iteration  1 RMS(Cart)=  0.00304311 RMS(Int)=  0.00000254
 Iteration  2 RMS(Cart)=  0.00000415 RMS(Int)=  0.00000060
 Iteration  3 RMS(Cart)=  0.00000000 RMS(Int)=  0.00000060
 Iteration  1 RMS(Cart)=  0.00000052 RMS(Int)=  0.00000059
 Variable       Old X    -DE/DX   Delta X   Delta X   Delta X     New X
                                 (Linear)    (Quad)   (Total)
    R1        2.87543   0.00008   0.00008  -0.00000   0.00007   2.87550
    R2        2.09499  -0.00001   0.00001  -0.00003  -0.00002   2.09497
    R3        2.09101   0.00006   0.00005  -0.00003   0.00002   2.09103
    R4        2.08477  -0.00007  -0.00008  -0.00000  -0.00009   2.08468
    R5        2.67105   0.00008   0.00008  -0.00027  -0.00020   2.67085
    R6        2.75563   0.00007   0.00020  -0.00034  -0.00014   2.75549
    R7        2.64269   0.00006  -0.00004   0.00002  -0.00002   2.64267
    R8        2.08200   0.00001   0.00002  -0.00004  -0.00002   2.08198
    R9        2.63979   0.00010   0.00004  -0.00012  -0.00008   2.63971
   R10        2.07858   0.00001   0.00001  -0.00001   0.00000   2.07858
   R11        2.63187   0.00010   0.00002   0.00013   0.00015   2.63202
   R12        2.07771  -0.00000   0.00001  -0.00003  -0.00002   2.07768
   R13        2.61588  -0.00006   0.00017  -0.00087  -0.00069   2.61518
   R14        2.70429  -0.00021   0.00001   0.00002   0.00003   2.70432
   R15        2.84544  -0.00022   0.00023  -0.00029  -0.00006   2.84539
   R16        2.76042  -0.00034   0.00010  -0.00045  -0.00035   2.76007
   R17        2.71133   0.00001   0.00012  -0.00016  -0.00004   2.71129
   R18        2.55515   0.00002  -0.00008   0.00020   0.00012   2.55527
   R19        2.67722  -0.00007  -0.00006   0.00013   0.00007   2.67729
   R20        1.85101   0.00005  -0.00006   0.00020   0.00014   1.85115
   R21        2.62839   0.00004  -0.00003   0.00001  -0.00002   2.62837
   R22        2.07713   0.00002   0.00002  -0.00004  -0.00002   2.07711
   R23        2.64511   0.00010  -0.00004   0.00013   0.00009   2.64520
   R24        2.07943   0.00001   0.00001  -0.00002  -0.00001   2.07942
   R25        2.63648   0.00004   0.00005  -0.00015  -0.00011   2.63638
   R26        2.07674   0.00000   0.00001  -0.00003  -0.00002   2.07672
   R27        2.55146   0.00002  -0.00003   0.00008   0.00005   2.55151
    A1        1.87306   0.00000  -0.00007  -0.00010  -0.00016   1.87290
    A2        1.98810   0.00001  -0.00000   0.00011   0.00011   1.98821
    A3        1.96385   0.00004   0.00021  -0.00032  -0.00011   1.96374
    A4        1.87549  -0.00001   0.00001  -0.00018  -0.00018   1.87532
    A5        1.87665  -0.00003  -0.00021   0.00042   0.00021   1.87686
    A6        1.88175  -0.00002   0.00004   0.00009   0.00013   1.88188
    A7        1.96780  -0.00001  -0.00025   0.00028   0.00002   1.96782
    A8        2.21875   0.00019   0.00037  -0.00041  -0.00004   2.21871
    A9        2.08500  -0.00015  -0.00001   0.00002   0.00002   2.08502
   A10        2.16096   0.00001   0.00001  -0.00015  -0.00014   2.16082
   A11        2.04404  -0.00001   0.00002  -0.00005  -0.00004   2.04400
   A12        2.07583   0.00000  -0.00005   0.00019   0.00014   2.07597
   A13        2.04297   0.00004  -0.00010   0.00026   0.00015   2.04312
   A14        2.11862  -0.00002  -0.00000   0.00005   0.00004   2.11867
   A15        2.11599  -0.00001   0.00007  -0.00021  -0.00013   2.11585
   A16        2.06291  -0.00001   0.00006   0.00002   0.00008   2.06300
   A17        2.15078   0.00001   0.00001  -0.00016  -0.00015   2.15063
   A18        2.06826   0.00000  -0.00006   0.00016   0.00010   2.06836
   A19        1.97317   0.00033  -0.00013   0.00051   0.00039   1.97355
   A20        2.21448  -0.00009   0.00006  -0.00037  -0.00031   2.21417
   A21        2.09356  -0.00025   0.00005  -0.00004   0.00001   2.09356
   A22        1.92834   0.00025  -0.00020   0.00043   0.00022   1.92856
   A23        2.23343   0.00034  -0.00000   0.00131   0.00131   2.23473
   A24        2.12139  -0.00058   0.00022  -0.00173  -0.00151   2.11988
   A25        2.18206  -0.00065   0.00012  -0.00136  -0.00124   2.18082
   A26        2.15853   0.00048   0.00014   0.00076   0.00090   2.15943
   A27        1.93341   0.00018  -0.00023   0.00042   0.00019   1.93361
   A28        2.20643  -0.00037   0.00016  -0.00068  -0.00052   2.20590
   A29        2.12326   0.00005   0.00013  -0.00026  -0.00014   2.12313
   A30        1.95000   0.00031  -0.00030   0.00093   0.00063   1.95064
   A31        1.94570  -0.00015   0.00001  -0.00044  -0.00042   1.94527
   A32        2.13232  -0.00007   0.00001  -0.00007  -0.00007   2.13225
   A33        2.02219   0.00004  -0.00001   0.00009   0.00008   2.02227
   A34        2.12748   0.00004   0.00000  -0.00001  -0.00001   2.12748
   A35        2.06198   0.00003  -0.00008   0.00018   0.00011   2.06209
   A36        2.10998  -0.00002   0.00003  -0.00010  -0.00007   2.10991
   A37        2.10998  -0.00001   0.00004  -0.00009  -0.00005   2.10993
   A38        2.07929  -0.00002   0.00005  -0.00019  -0.00014   2.07916
   A39        2.14687   0.00001  -0.00003   0.00003   0.00001   2.14687
   A40        2.05560   0.00001  -0.00002   0.00013   0.00011   2.05571
   A41        2.20394  -0.00016   0.00003  -0.00013  -0.00010   2.20383
   A42        2.09775   0.00012   0.00021  -0.00027  -0.00006   2.09769
   A43        1.97992   0.00005  -0.00023   0.00037   0.00014   1.98006
    D1       -0.49901  -0.00005   0.00134   0.00105   0.00239  -0.49662
    D2        2.47668   0.00008   0.00211   0.00028   0.00239   2.47907
    D3        1.57472  -0.00005   0.00130   0.00082   0.00212   1.57684
    D4       -1.73278   0.00008   0.00207   0.00006   0.00212  -1.73065
    D5       -2.55992  -0.00004   0.00152   0.00078   0.00230  -2.55762
    D6        0.41577   0.00010   0.00228   0.00001   0.00230   0.41807
    D7        2.84029   0.00018   0.00004  -0.00093  -0.00089   2.83940
    D8       -0.22655   0.00015   0.00040  -0.00081  -0.00041  -0.22697
    D9       -0.14949   0.00002  -0.00070  -0.00018  -0.00088  -0.15038
   D10        3.06685  -0.00001  -0.00034  -0.00006  -0.00041   3.06644
   D11       -2.60225  -0.00022  -0.00012   0.00051   0.00039  -2.60187
   D12        0.53211  -0.00008   0.00150   0.00117   0.00267   0.53478
   D13        0.36352  -0.00006   0.00067  -0.00029   0.00039   0.36391
   D14       -2.78530   0.00008   0.00230   0.00037   0.00267  -2.78263
   D15       -0.12544   0.00007   0.00007   0.00067   0.00074  -0.12470
   D16        3.12843   0.00001   0.00040  -0.00027   0.00013   3.12857
   D17        2.94013   0.00010  -0.00029   0.00054   0.00025   2.94037
   D18       -0.08919   0.00003   0.00004  -0.00040  -0.00036  -0.08955
   D19        0.14221  -0.00003   0.00048  -0.00057  -0.00008   0.14212
   D20       -2.94532  -0.00007   0.00017  -0.00096  -0.00079  -2.94611
   D21       -3.11148   0.00004   0.00015   0.00039   0.00053  -3.11095
   D22        0.08417  -0.00000  -0.00016  -0.00001  -0.00017   0.08400
   D23       -2.95020  -0.00006  -0.00001  -0.00185  -0.00186  -2.95206
   D24        0.12314  -0.00009  -0.00043  -0.00006  -0.00049   0.12265
   D25        0.13994  -0.00002   0.00028  -0.00148  -0.00119   0.13874
   D26       -3.06991  -0.00005  -0.00013   0.00031   0.00017  -3.06974
   D27       -0.36989   0.00011  -0.00014   0.00048   0.00034  -0.36955
   D28        2.77839  -0.00003  -0.00164  -0.00015  -0.00178   2.77661
   D29        2.69921   0.00009  -0.00059   0.00239   0.00180   2.70101
   D30       -0.43570  -0.00004  -0.00209   0.00177  -0.00031  -0.43601
   D31        0.28300  -0.00069   0.00000   0.00000  -0.00000   0.28300
   D32        2.93982  -0.00043  -0.00051  -0.00198  -0.00249   2.93734
   D33       -0.04304  -0.00053  -0.00071  -0.00055  -0.00126  -0.04430
   D34       -0.20972  -0.00028   0.00127  -0.00125   0.00003  -0.20969
   D35        3.09060  -0.00037   0.00107   0.00019   0.00126   3.09186
   D36       -0.51311  -0.00039  -0.00000   0.00000  -0.00000  -0.51311
   D37       -0.21423  -0.00007  -0.00075   0.00098   0.00022  -0.21400
   D38        3.02477  -0.00005  -0.00053   0.00105   0.00053   3.02529
   D39        2.78621   0.00005  -0.00054  -0.00025  -0.00079   2.78542
   D40       -0.25798   0.00007  -0.00032  -0.00017  -0.00049  -0.25847
   D41       -3.02770  -0.00005   0.00049  -0.00107  -0.00058  -3.02828
   D42        0.17833  -0.00022   0.00036  -0.00034   0.00002   0.17835
   D43        0.25278  -0.00006   0.00028   0.00034   0.00063   0.25341
   D44       -2.82437  -0.00023   0.00015   0.00107   0.00123  -2.82315
   D45        0.59054   0.00000  -0.00020   0.00068   0.00048   0.59102
   D46       -2.64028  -0.00002  -0.00039   0.00057   0.00017  -2.64010
   D47        0.12842  -0.00007   0.00013  -0.00005   0.00007   0.12849
   D48       -3.06479  -0.00004   0.00002   0.00011   0.00013  -3.06466
   D49       -2.92884  -0.00002   0.00030   0.00008   0.00039  -2.92845
   D50        0.16114   0.00001   0.00020   0.00025   0.00045   0.16158
   D51        0.04849  -0.00001   0.00017   0.00009   0.00026   0.04875
   D52        3.13707   0.00004  -0.00005   0.00004  -0.00001   3.13706
   D53       -3.03840  -0.00004   0.00028  -0.00008   0.00020  -3.03820
   D54        0.05019   0.00001   0.00006  -0.00014  -0.00008   0.05011
   D55       -0.06504   0.00006  -0.00020   0.00004  -0.00016  -0.06520
   D56        3.01782   0.00008  -0.00013  -0.00045  -0.00057   3.01725
   D57        3.12956   0.00001   0.00002   0.00010   0.00012   3.12968
   D58       -0.07076   0.00003   0.00009  -0.00039  -0.00030  -0.07106
   D59       -0.10122   0.00000  -0.00006  -0.00023  -0.00030  -0.10152
   D60        2.97967   0.00016   0.00007  -0.00094  -0.00087   2.97880
   D61        3.09603  -0.00002  -0.00013   0.00023   0.00010   3.09613
   D62       -0.10626   0.00015   0.00001  -0.00048  -0.00047  -0.10673
         Item               Value     Threshold  Converged?
 Maximum Force            0.000626     0.000450     NO 
 RMS     Force            0.000125     0.000300     YES
 Maximum Displacement     0.010588     0.001800     NO 
 RMS     Displacement     0.003044     0.001200     NO 
 Predicted change in Energy=-2.371166D-06
 GradGradGradGradGradGradGradGradGradGradGradGradGradGradGradGradGradGrad

                          Input orientation:                          
 ---------------------------------------------------------------------
 Center     Atomic      Atomic             Coordinates (Angstroms)
 Number     Number       Type             X           Y           Z
 ---------------------------------------------------------------------
      1          6           0       -1.094832    2.519098   -1.235393
      2          6           0       -1.507022    1.209654   -0.578983
      3          6           0       -2.882437    1.169329   -0.256213
      4          6           0       -3.581889   -0.008989    0.023026
      5          6           0       -2.902340   -1.213369   -0.174298
      6          6           0       -1.540823   -1.161220   -0.463197
      7          9           0       -1.025903   -2.379163   -0.871412
      8          6           0       -0.703974   -0.000434   -0.448652
      9          6           0        0.792016   -0.111749   -0.319067
     10          6           0        1.511818   -1.328254    0.048712
     11          8           0        0.969210   -2.461104    0.549350
     12          6           0        2.926692   -1.393509    0.015754
     13          6           0        3.714446   -0.271769   -0.220206
     14          6           0        3.075115    0.964336   -0.370820
     15          6           0        1.680938    1.013777   -0.358119
     16          9           0        1.188269    2.269999   -0.310888
     17          1           0       -1.982474    2.914188   -1.769261
     18          1           0       -0.765510    3.295699   -0.519268
     19          1           0       -0.292037    2.384055   -1.979877
     20          1           0       -3.436210    2.120838   -0.298469
     21          1           0       -4.650835    0.006909    0.281794
     22          1           0       -3.398705   -2.194316   -0.160720
     23          1           0        0.076603   -2.624353    0.180309
     24          1           0        3.366756   -2.375866    0.238169
     25          1           0        4.812207   -0.345771   -0.237025
     26          1           0        3.620750    1.915300   -0.445952
 ---------------------------------------------------------------------
                    Distance matrix (angstroms):
                    1          2          3          4          5
     1  C    0.000000
     2  C    1.521650   0.000000
     3  C    2.444627   1.413355   0.000000
     4  C    3.763016   2.480438   1.398442   0.000000
     5  C    4.280692   2.825194   2.384189   1.396873   0.000000
     6  C    3.786811   2.373940   2.697077   2.393741   1.392807
     7  F    4.912249   3.632711   4.051787   3.598722   2.316475
     8  C    2.668290   1.458144   2.480136   2.916323   2.525727
     9  C    3.364700   2.664440   3.891878   4.388466   3.857823
    10  C    4.821376   3.993541   5.063632   5.261840   4.421281
    11  O    5.678731   4.569390   5.353891   5.196382   4.131514
    12  C    5.748610   5.175712   6.355162   6.654215   5.834911
    13  C    5.652318   5.439400   6.752549   7.305116   6.683606
    14  C    4.533567   4.593418   5.962179   6.739300   6.364825
    15  C    3.277270   3.201600   4.567162   5.374818   5.099060
    16  F    2.475744   2.908746   4.217240   5.297140   5.374532
    17  H    1.108612   2.132664   2.478666   3.783567   4.519601
    18  H    1.106524   2.214722   3.011981   4.375732   5.001675
    19  H    1.103165   2.194974   3.340172   4.534468   4.797422
    20  H    2.553133   2.151909   1.101736   2.158876   3.378961
    21  H    4.610652   3.474348   2.183553   1.099937   2.180444
    22  H    5.355280   3.916684   3.404373   2.200676   1.099463
    23  H    5.461827   4.217107   4.830992   4.499936   3.315226
    24  H    6.785118   6.105522   7.201752   7.343845   6.389295
    25  H    6.640582   6.516820   7.842413   8.404873   7.763434
    26  H    4.819180   5.177806   6.548580   7.469995   7.239687
                    6          7          8          9         10
     6  C    0.000000
     7  F    1.383895   0.000000
     8  C    1.431067   2.437358   0.000000
     9  C    2.562090   2.958223   1.505713   0.000000
    10  C    3.099769   2.896733   2.630630   1.460569   0.000000
    11  O    3.002535   2.450664   3.138543   2.510980   1.352188
    12  C    4.499116   4.169123   3.916385   2.512341   1.416762
    13  C    5.335543   5.228393   4.432635   2.928477   2.457651
    14  C    5.082657   5.314878   3.901071   2.524515   2.806399
    15  C    3.888624   4.370641   2.593189   1.434753   2.383112
    16  F    4.386845   5.179908   2.958789   2.414499   3.630623
    17  H    4.302303   5.453505   3.445807   4.353981   5.789077
    18  H    4.524200   5.691737   3.297464   3.751889   5.185535
    19  H    4.053240   4.945249   2.863586   3.187867   4.598946
    20  H    3.793617   5.136911   3.462291   4.781503   6.041503
    21  H    3.404660   4.490362   4.013890   5.477203   6.309935
    22  H    2.147208   2.483835   3.486775   4.682340   4.990707
    23  H    2.273966   1.543293   2.808886   2.659769   1.938306
    24  H    5.104078   4.530633   4.762904   3.473618   2.138734
    25  H    6.409142   6.214552   5.531031   4.027832   3.455357
    26  H    6.008918   6.341514   4.730040   3.482349   3.900375
                   11         12         13         14         15
    11  O    0.000000
    12  C    2.292646   0.000000
    13  C    3.594681   1.390875   0.000000
    14  C    4.124948   2.393931   1.399781   0.000000
    15  C    3.661265   2.736186   2.409731   1.395111   0.000000
    16  F    4.813661   4.068182   3.584743   2.295329   1.350203
    17  H    6.556078   6.770705   6.708561   5.597925   4.361591
    18  H    6.106717   5.992269   5.734656   4.495297   3.349365
    19  H    5.609216   5.349089   5.118765   3.992791   2.898343
    20  H    6.412544   7.275706   7.540728   6.613629   5.235872
    21  H    6.143906   7.710439   8.384963   7.812354   6.443185
    22  H    4.433289   6.378329   7.368626   7.206356   6.011123
    23  H    0.979586   3.108868   4.350743   4.708875   4.012454
    24  H    2.419159   1.099159   2.181335   3.407767   3.832391
    25  H    4.456641   2.171824   1.100381   2.179856   3.415828
    26  H    5.212888   3.412199   2.200684   1.098951   2.140870
                   16         17         18         19         20
    16  F    0.000000
    17  H    3.549006   0.000000
    18  H    2.216470   1.785787   0.000000
    19  H    2.233795   1.784090   1.785679   0.000000
    20  H    4.626901   2.214945   2.926037   3.575225   0.000000
    21  H    6.290309   4.447387   5.153018   5.455740   2.506136
    22  H    6.402577   5.539849   6.099389   5.824276   4.317515
    23  H    5.042990   6.222222   6.020430   5.466849   5.923337
    24  H    5.160555   7.786444   7.058044   6.400261   8.172434
    25  H    4.469970   7.690434   6.667151   6.045063   8.609549
    26  H    2.461913   5.843376   4.598929   4.228777   7.061493
                   21         22         23         24         25
    21  H    0.000000
    22  H    2.570806   0.000000
    23  H    5.411331   3.518380   0.000000
    24  H    8.364287   6.779641   3.300030   0.000000
    25  H    9.483814   8.416770   5.271816   2.537011   0.000000
    26  H    8.520017   8.138983   5.793239   4.352774   2.564305
                   26
    26  H    0.000000
 Symmetry turned off by external request.
 Stoichiometry    C13H10F2O
 Framework group  C1[X(C13H10F2O)]
 Deg. of freedom    72
 Full point group                 C1      NOp   1
 Rotational constants (GHZ):           0.8395180           0.4706883           0.3128961
 Standard basis: def2SVP (5D, 7F)
   274 basis functions,   470 primitive gaussians,   290 cartesian basis functions
    57 alpha electrons       57 beta electrons
       nuclear repulsion energy      1069.6209797258 Hartrees.
 NAtoms=   26 NActive=   26 NUniq=   26 SFac= 1.00D+00 NAtFMM=   60 NAOKFM=F Big=F
 Integral buffers will be    131072 words long.
 Raffenetti 2 integral format.
 Two-electron integral symmetry is turned off.
 Nuclear repulsion after empirical dispersion term =     1069.5694390672 Hartrees.
 One-electron integrals computed using PRISM.
   1 Symmetry operations used in ECPInt.
 ECPInt:  NShTT=    8001 NPrTT=   29641 LenC2=    7594 LenP2D=   20287.
 LDataN:  DoStor=T MaxTD1= 4 Len=   56
 NBasis=   274 RedAO= T EigKep=  3.15D-04  NBF=   274
 NBsUse=   274 1.00D-06 EigRej= -1.00D+00 NBFU=   274
 Initial guess from the checkpoint file:  "path/to/scratch/gaussian_tmp/Gau-3398992.chk"
 B after Tr=     0.000907    0.000496   -0.000542
         Rot=    1.000000   -0.000004    0.000065    0.000023 Ang=  -0.01 deg.
 Requested convergence on RMS density matrix=1.00D-08 within 128 cycles.
 Requested convergence on MAX density matrix=1.00D-06.
 Requested convergence on             energy=1.00D-06.
 No special actions if energy rises.
 SCF Done:  E(RB-P86) =  -775.751037080     A.U. after    9 cycles
            NFock=  9  Conv=0.60D-08     -V/T= 2.0104
   1 Symmetry operations used in ECPInt.
 ECPInt:  NShTT=    8001 NPrTT=   29641 LenC2=    7594 LenP2D=   20287.
 LDataN:  DoStor=T MaxTD1= 5 Len=  102
 Calling FoFJK, ICntrl=      2527 FMM=F ISym2X=0 I1Cent= 0 IOpClX= 0 NMat=1 NMatS=1 NMatT=0.
 -------------------------------------------------------------------
 Center     Atomic                   Forces (Hartrees/Bohr)
 Number     Number              X              Y              Z
 -------------------------------------------------------------------
      1        6           0.000226103    0.000151219    0.000590567
      2        6          -0.000003288   -0.000066240   -0.000148852
      3        6          -0.000061329   -0.000017901    0.000045617
      4        6          -0.000072192    0.000024134    0.000089602
      5        6          -0.000026222    0.000017345   -0.000061784
      6        6          -0.000021602    0.000137956    0.000125222
      7        9          -0.000245587   -0.000040124   -0.000616971
      8        6           0.000011458   -0.000381821   -0.000308299
      9        6          -0.000100475   -0.000031473    0.000514341
     10        6          -0.000013128   -0.000112433    0.000038997
     11        8           0.000291378    0.000202185    0.000320241
     12        6          -0.000066835   -0.000024355    0.000004543
     13        6          -0.000002651   -0.000028220   -0.000014918
     14        6           0.000018264    0.000008890    0.000007228
     15        6          -0.000067484    0.000045059    0.000015445
     16        9          -0.000333633    0.000119996   -0.000761013
     17        1           0.000065297    0.000020377   -0.000025648
     18        1           0.000104955    0.000035110    0.000054952
     19        1           0.000081365    0.000001703    0.000024670
     20        1          -0.000021694    0.000008394   -0.000007467
     21        1          -0.000015507    0.000009346   -0.000008981
     22        1          -0.000000935   -0.000012223   -0.000002069
     23        1           0.000222901   -0.000046453    0.000113657
     24        1           0.000009774   -0.000021066    0.000012194
     25        1           0.000012173   -0.000004329   -0.000002299
     26        1           0.000008893    0.000004924    0.000001027
 -------------------------------------------------------------------
 Cartesian Forces:  Max     0.000761013 RMS     0.000179889

 GradGradGradGradGradGradGradGradGradGradGradGradGradGradGradGradGradGrad
 Berny optimization.
 Using GEDIIS/GDIIS optimizer.
 FormGI is forming the generalized inverse of G from B-inverse, IUseBI=4.
 Internal  Forces:  Max     0.002185964 RMS     0.000441430
 Search for a local minimum.
 Step number   4 out of a maximum of  142
 All quantities printed in internal units (Hartrees-Bohrs-Radians)
 Mixed Optimization -- En-DIIS/RFO-DIIS
 Swapping is turned off.
 Update second derivatives using D2CorX and points    1    2    3    4
 DE=  4.14D-06 DEPred=-2.37D-06 R=-1.75D+00
 Trust test=-1.75D+00 RLast= 9.20D-03 DXMaxT set to 5.00D-02
 ITU= -1  1 -1  0
     Eigenvalues ---    0.00536   0.01146   0.01347   0.01538   0.01603
     Eigenvalues ---    0.01788   0.01817   0.01965   0.01999   0.02042
     Eigenvalues ---    0.02066   0.02087   0.02123   0.02133   0.02139
     Eigenvalues ---    0.02161   0.02164   0.02268   0.02611   0.06702
     Eigenvalues ---    0.07291   0.13417   0.15887   0.15965   0.15967
     Eigenvalues ---    0.15978   0.15986   0.15992   0.16001   0.16027
     Eigenvalues ---    0.16180   0.18096   0.22051   0.22145   0.22765
     Eigenvalues ---    0.23254   0.23775   0.24491   0.24746   0.24890
     Eigenvalues ---    0.24995   0.29369   0.30574   0.32733   0.33026
     Eigenvalues ---    0.33408   0.33557   0.33630   0.33692   0.33701
     Eigenvalues ---    0.33756   0.33787   0.34064   0.34600   0.36299
     Eigenvalues ---    0.38400   0.40971   0.41668   0.42640   0.44232
     Eigenvalues ---    0.44504   0.45279   0.45895   0.46526   0.46646
     Eigenvalues ---    0.51419   0.54184   0.54792   0.76258   1.99800
     Eigenvalues --- 1000.000001000.000001000.000001000.000001000.00000
     Eigenvalues --- 1000.000001000.000001000.000001000.000001000.00000
     Eigenvalues --- 1000.000001000.000001000.000001000.000001000.00000
     Eigenvalues --- 1000.000001000.000001000.000001000.000001000.00000
     Eigenvalues --- 1000.000001000.000001000.000001000.000001000.00000
     Eigenvalues --- 1000.000001000.000001000.000001000.000001000.00000
     Eigenvalues --- 1000.000001000.000001000.000001000.000001000.00000
     Eigenvalues --- 1000.000001000.000001000.000001000.000001000.00000
     Eigenvalues --- 1000.000001000.000001000.000001000.000001000.00000
     Eigenvalues --- 1000.000001000.000001000.000001000.000001000.00000
     Eigenvalues --- 1000.000001000.000001000.000001000.000001000.00000
     Eigenvalues --- 1000.000001000.000001000.000001000.000001000.00000
     Eigenvalues --- 1000.000001000.00000
 En-DIIS/RFO-DIIS/Sim-DIIS IScMMF=       -3 using points:     4    3    2    1
 RFO step:  Lambda=-1.12492450D-05.
 EnCoef did   100 forward-backward iterations
 EnCoef did     3 forward-backward iterations
 DidBck=T Rises=T En-DIIS coefs:    0.31772    0.42105    0.00000    0.26123
 Iteration  1 RMS(Cart)=  0.00238718 RMS(Int)=  0.00000107
 Iteration  2 RMS(Cart)=  0.00000189 RMS(Int)=  0.00000032
 Iteration  3 RMS(Cart)=  0.00000000 RMS(Int)=  0.00000032
 Iteration  1 RMS(Cart)=  0.00000042 RMS(Int)=  0.00000043
 Variable       Old X    -DE/DX   Delta X   Delta X   Delta X     New X
                                 (Linear)    (Quad)   (Total)
    R1        2.87550   0.00007   0.00011   0.00003   0.00015   2.87565
    R2        2.09497  -0.00003   0.00002  -0.00004  -0.00002   2.09495
    R3        2.09103   0.00009   0.00008  -0.00001   0.00007   2.09110
    R4        2.08468   0.00004  -0.00003   0.00001  -0.00002   2.08466
    R5        2.67085   0.00009   0.00032  -0.00036  -0.00004   2.67082
    R6        2.75549  -0.00025   0.00029  -0.00052  -0.00023   2.75527
    R7        2.64267   0.00004   0.00003  -0.00002   0.00001   2.64268
    R8        2.08198   0.00002   0.00005  -0.00005   0.00001   2.08199
    R9        2.63971   0.00010   0.00022  -0.00016   0.00006   2.63977
   R10        2.07858   0.00001   0.00002  -0.00001   0.00001   2.07859
   R11        2.63202   0.00012  -0.00008   0.00021   0.00013   2.63216
   R12        2.07768   0.00001   0.00003  -0.00003  -0.00000   2.07768
   R13        2.61518   0.00009   0.00091  -0.00109  -0.00019   2.61500
   R14        2.70432   0.00016  -0.00021   0.00027   0.00006   2.70439
   R15        2.84539  -0.00001   0.00000  -0.00009  -0.00008   2.84530
   R16        2.76007   0.00041   0.00018  -0.00014   0.00004   2.76011
   R17        2.71129  -0.00014   0.00012  -0.00021  -0.00009   2.71120
   R18        2.55527  -0.00019  -0.00018   0.00015  -0.00004   2.55523
   R19        2.67729  -0.00002  -0.00017   0.00019   0.00001   2.67730
   R20        1.85115  -0.00024  -0.00018   0.00014  -0.00004   1.85111
   R21        2.62837   0.00001   0.00003  -0.00002   0.00001   2.62839
   R22        2.07711   0.00003   0.00006  -0.00005   0.00001   2.07712
   R23        2.64520   0.00000  -0.00007   0.00011   0.00004   2.64524
   R24        2.07942   0.00001   0.00003  -0.00002   0.00000   2.07942
   R25        2.63638  -0.00001   0.00019  -0.00022  -0.00004   2.63634
   R26        2.07672   0.00001   0.00003  -0.00003  -0.00000   2.07672
   R27        2.55151   0.00022  -0.00005   0.00016   0.00011   2.55162
    A1        1.87290   0.00012   0.00014   0.00001   0.00016   1.87306
    A2        1.98821  -0.00003  -0.00011   0.00009  -0.00002   1.98819
    A3        1.96374  -0.00004   0.00036  -0.00046  -0.00010   1.96364
    A4        1.87532   0.00001   0.00020  -0.00016   0.00004   1.87535
    A5        1.87686  -0.00001  -0.00048   0.00055   0.00007   1.87693
    A6        1.88188  -0.00005  -0.00014   0.00002  -0.00012   1.88176
    A7        1.96782   0.00054  -0.00004   0.00067   0.00062   1.96845
    A8        2.21871  -0.00061   0.00037  -0.00093  -0.00056   2.21814
    A9        2.08502   0.00010  -0.00013   0.00029   0.00016   2.08518
   A10        2.16082  -0.00006   0.00009  -0.00030  -0.00021   2.16061
   A11        2.04400   0.00004   0.00008   0.00000   0.00009   2.04409
   A12        2.07597   0.00002  -0.00017   0.00029   0.00011   2.07608
   A13        2.04312  -0.00003  -0.00020   0.00023   0.00002   2.04314
   A14        2.11867  -0.00000  -0.00008   0.00008  -0.00000   2.11866
   A15        2.11585   0.00003   0.00020  -0.00022  -0.00002   2.11583
   A16        2.06300   0.00008  -0.00002   0.00018   0.00016   2.06316
   A17        2.15063  -0.00004   0.00019  -0.00029  -0.00011   2.15053
   A18        2.06836  -0.00004  -0.00017   0.00012  -0.00005   2.06831
   A19        1.97355  -0.00021  -0.00010   0.00009  -0.00000   1.97355
   A20        2.21417  -0.00016   0.00026  -0.00057  -0.00031   2.21386
   A21        2.09356   0.00035  -0.00025   0.00052   0.00027   2.09383
   A22        1.92856   0.00009  -0.00017   0.00029   0.00012   1.92868
   A23        2.23473  -0.00219  -0.00102   0.00002  -0.00100   2.23373
   A24        2.11988   0.00210   0.00119  -0.00031   0.00088   2.12076
   A25        2.18082   0.00196   0.00071   0.00022   0.00092   2.18174
   A26        2.15943  -0.00194  -0.00041  -0.00064  -0.00105   2.15838
   A27        1.93361  -0.00000  -0.00026   0.00036   0.00010   1.93371
   A28        2.20590   0.00074   0.00027   0.00004   0.00032   2.20622
   A29        2.12313  -0.00017   0.00029  -0.00047  -0.00018   2.12294
   A30        1.95064  -0.00059  -0.00056   0.00040  -0.00016   1.95047
   A31        1.94527   0.00016   0.00022  -0.00023  -0.00001   1.94526
   A32        2.13225   0.00010  -0.00002   0.00008   0.00007   2.13232
   A33        2.02227  -0.00005  -0.00005   0.00002  -0.00002   2.02224
   A34        2.12748  -0.00005   0.00006  -0.00010  -0.00005   2.12743
   A35        2.06209   0.00002  -0.00014   0.00019   0.00005   2.06214
   A36        2.10991  -0.00001   0.00007  -0.00010  -0.00004   2.10988
   A37        2.10993  -0.00001   0.00007  -0.00009  -0.00002   2.10991
   A38        2.07916  -0.00005   0.00018  -0.00030  -0.00012   2.07904
   A39        2.14687   0.00003  -0.00003   0.00007   0.00004   2.14691
   A40        2.05571   0.00003  -0.00012   0.00021   0.00008   2.05579
   A41        2.20383   0.00011  -0.00002   0.00007   0.00005   2.20389
   A42        2.09769  -0.00039   0.00028  -0.00063  -0.00035   2.09734
   A43        1.98006   0.00030  -0.00023   0.00054   0.00031   1.98037
    D1       -0.49662  -0.00016  -0.00090   0.00079  -0.00011  -0.49673
    D2        2.47907   0.00012   0.00048   0.00099   0.00147   2.48054
    D3        1.57684  -0.00008  -0.00062   0.00065   0.00003   1.57687
    D4       -1.73065   0.00020   0.00076   0.00085   0.00161  -1.72905
    D5       -2.55762  -0.00020  -0.00061   0.00037  -0.00024  -2.55786
    D6        0.41807   0.00008   0.00077   0.00057   0.00134   0.41941
    D7        2.83940   0.00021   0.00125  -0.00041   0.00084   2.84024
    D8       -0.22697   0.00015   0.00124  -0.00035   0.00089  -0.22607
    D9       -0.15038   0.00004  -0.00007  -0.00046  -0.00052  -0.15090
   D10        3.06644  -0.00002  -0.00007  -0.00040  -0.00047   3.06597
   D11       -2.60187  -0.00036  -0.00113  -0.00018  -0.00131  -2.60318
   D12        0.53478  -0.00036  -0.00220   0.00057  -0.00163   0.53315
   D13        0.36391  -0.00004   0.00034   0.00005   0.00039   0.36430
   D14       -2.78263  -0.00004  -0.00073   0.00080   0.00008  -2.78256
   D15       -0.12470  -0.00002  -0.00045   0.00065   0.00020  -0.12449
   D16        3.12857  -0.00001   0.00039  -0.00018   0.00021   3.12878
   D17        2.94037   0.00005  -0.00043   0.00059   0.00015   2.94053
   D18       -0.08955   0.00006   0.00041  -0.00024   0.00016  -0.08938
   D19        0.14212   0.00000   0.00065  -0.00040   0.00025   0.14238
   D20       -2.94611   0.00006   0.00073  -0.00065   0.00008  -2.94603
   D21       -3.11095  -0.00001  -0.00021   0.00045   0.00024  -3.11071
   D22        0.08400   0.00004  -0.00013   0.00021   0.00007   0.08407
   D23       -2.95206   0.00027   0.00125  -0.00095   0.00030  -2.95175
   D24        0.12265  -0.00006  -0.00031  -0.00016  -0.00047   0.12218
   D25        0.13874   0.00022   0.00119  -0.00073   0.00046   0.13921
   D26       -3.06974  -0.00011  -0.00037   0.00006  -0.00031  -3.07004
   D27       -0.36955   0.00008  -0.00021   0.00038   0.00017  -0.36939
   D28        2.77661   0.00010   0.00079  -0.00032   0.00046   2.77707
   D29        2.70101  -0.00029  -0.00186   0.00120  -0.00066   2.70035
   D30       -0.43601  -0.00028  -0.00087   0.00050  -0.00036  -0.43637
   D31        0.28300  -0.00108   0.00000   0.00000   0.00000   0.28300
   D32        2.93734  -0.00080   0.00170  -0.00115   0.00055   2.93789
   D33       -0.04430  -0.00089   0.00137  -0.00065   0.00072  -0.04358
   D34       -0.20969  -0.00081   0.00052  -0.00032   0.00020  -0.20949
   D35        3.09186  -0.00089   0.00019   0.00018   0.00037   3.09223
   D36       -0.51311  -0.00091  -0.00000   0.00000  -0.00000  -0.51311
   D37       -0.21400  -0.00011  -0.00008  -0.00014  -0.00021  -0.21422
   D38        3.02529   0.00016  -0.00011   0.00027   0.00017   3.02546
   D39        2.78542  -0.00022   0.00019  -0.00066  -0.00047   2.78495
   D40       -0.25847   0.00005   0.00016  -0.00025  -0.00009  -0.25856
   D41       -3.02828   0.00023   0.00010  -0.00004   0.00005  -3.02823
   D42        0.17835  -0.00016  -0.00053   0.00027  -0.00026   0.17809
   D43        0.25341  -0.00004  -0.00028   0.00039   0.00012   0.25352
   D44       -2.82315  -0.00043  -0.00091   0.00071  -0.00020  -2.82334
   D45        0.59102   0.00014  -0.00077   0.00120   0.00043   0.59146
   D46       -2.64010  -0.00009  -0.00071   0.00079   0.00008  -2.64002
   D47        0.12849  -0.00000  -0.00006   0.00006   0.00000   0.12849
   D48       -3.06466  -0.00006  -0.00016   0.00012  -0.00004  -3.06470
   D49       -2.92845   0.00016  -0.00012   0.00042   0.00031  -2.92814
   D50        0.16158   0.00011  -0.00022   0.00049   0.00027   0.16185
   D51        0.04875  -0.00004   0.00003   0.00005   0.00009   0.04883
   D52        3.13706  -0.00000   0.00001  -0.00000   0.00001   3.13707
   D53       -3.03820   0.00001   0.00014  -0.00001   0.00013  -3.03807
   D54        0.05011   0.00005   0.00013  -0.00007   0.00005   0.05016
   D55       -0.06520   0.00001  -0.00008  -0.00001  -0.00009  -0.06529
   D56        3.01725   0.00011   0.00035  -0.00040  -0.00005   3.01720
   D57        3.12968  -0.00003  -0.00007   0.00005  -0.00002   3.12966
   D58       -0.07106   0.00007   0.00037  -0.00034   0.00002  -0.07103
   D59       -0.10152   0.00002   0.00020  -0.00020  -0.00000  -0.10152
   D60        2.97880   0.00036   0.00081  -0.00054   0.00027   2.97907
   D61        3.09613  -0.00008  -0.00022   0.00017  -0.00004   3.09609
   D62       -0.10673   0.00027   0.00039  -0.00016   0.00023  -0.10650
         Item               Value     Threshold  Converged?
 Maximum Force            0.002105     0.000450     NO 
 RMS     Force            0.000398     0.000300     NO 
 Maximum Displacement     0.008391     0.001800     NO 
 RMS     Displacement     0.002387     0.001200     NO 
 Predicted change in Energy=-5.564763D-06
 GradGradGradGradGradGradGradGradGradGradGradGradGradGradGradGradGradGrad

                          Input orientation:                          
 ---------------------------------------------------------------------
 Center     Atomic      Atomic             Coordinates (Angstroms)
 Number     Number       Type             X           Y           Z
 ---------------------------------------------------------------------
      1          6           0       -1.091814    2.517732   -1.234835
      2          6           0       -1.506620    1.208562   -0.579346
      3          6           0       -2.882034    1.169838   -0.256463
      4          6           0       -3.582594   -0.007821    0.022804
      5          6           0       -2.904153   -1.212885   -0.174391
      6          6           0       -1.542428   -1.162276   -0.462925
      7          9           0       -1.028901   -2.380623   -0.871355
      8          6           0       -0.704705   -0.002079   -0.448526
      9          6           0        0.791269   -0.113153   -0.319033
     10          6           0        1.512469   -1.328905    0.048584
     11          8           0        0.971623   -2.462388    0.549647
     12          6           0        2.927424   -1.392365    0.015329
     13          6           0        3.713787   -0.269662   -0.220726
     14          6           0        3.073003    0.965748   -0.371058
     15          6           0        1.678786    1.013419   -0.358087
     16          9           0        1.184122    2.268919   -0.310922
     17          1           0       -1.978491    2.914959   -1.768694
     18          1           0       -0.761070    3.293213   -0.518096
     19          1           0       -0.289020    2.381587   -1.979106
     20          1           0       -3.434799    2.121939   -0.298701
     21          1           0       -4.651551    0.009083    0.281491
     22          1           0       -3.401558   -2.193305   -0.160829
     23          1           0        0.079193   -2.627020    0.180846
     24          1           0        3.368759   -2.374181    0.237644
     25          1           0        4.811632   -0.342385   -0.237765
     26          1           0        3.617498    1.917364   -0.446193
 ---------------------------------------------------------------------
                    Distance matrix (angstroms):
                    1          2          3          4          5
     1  C    0.000000
     2  C    1.521728   0.000000
     3  C    2.445183   1.413336   0.000000
     4  C    3.763517   2.480290   1.398447   0.000000
     5  C    4.280960   2.824977   2.384239   1.396907   0.000000
     6  C    3.786998   2.373965   2.697393   2.393946   1.392878
     7  F    4.912225   3.632593   4.051909   3.598758   2.316450
     8  C    2.667880   1.458024   2.480130   2.916236   2.525624
     9  C    3.362476   2.663641   3.891418   4.388465   3.858299
    10  C    4.819342   3.993486   5.064427   5.263610   4.423768
    11  O    5.678357   4.570797   5.356636   5.200322   4.136076
    12  C    5.745089   5.174863   6.355200   6.655626   5.837422
    13  C    5.647281   5.437500   6.751170   7.305138   6.684979
    14  C    4.527744   4.590783   5.959636   6.737948   6.364866
    15  C    3.272288   3.199039   4.564634   5.373093   5.098383
    16  F    2.468887   2.904565   4.212431   5.293061   5.371740
    17  H    1.108599   2.132839   2.479654   3.784872   4.520814
    18  H    1.106561   2.214806   3.012585   4.376117   5.001586
    19  H    1.103156   2.194963   3.340592   4.534814   4.797515
    20  H    2.553934   2.151951   1.101739   2.158955   3.379067
    21  H    4.611322   3.474245   2.183560   1.099942   2.180466
    22  H    5.355583   3.916459   3.404377   2.200644   1.099463
    23  H    5.462955   4.219524   4.834898   4.504871   3.320591
    24  H    6.782014   6.105149   7.202543   7.346232   6.392793
    25  H    6.635140   6.514785   7.840898   8.404931   7.764994
    26  H    4.812485   5.174622   6.545129   7.467772   7.239079
                    6          7          8          9         10
     6  C    0.000000
     7  F    1.383796   0.000000
     8  C    1.431099   2.437490   0.000000
     9  C    2.562714   2.959644   1.505670   0.000000
    10  C    3.101902   2.900165   2.631243   1.460590   0.000000
    11  O    3.006001   2.455204   3.139991   2.511182   1.352169
    12  C    4.501249   4.173173   3.916685   2.512239   1.416769
    13  C    5.336967   5.231880   4.432444   2.928357   2.457708
    14  C    5.083220   5.317340   3.900483   2.524490   2.806563
    15  C    3.888555   4.372016   2.592382   1.434705   2.383175
    16  F    4.385234   5.179749   2.957031   2.414264   3.630619
    17  H    4.303374   5.454368   3.445938   4.352304   5.787890
    18  H    4.523820   5.691128   3.296509   3.748695   5.182092
    19  H    4.053245   4.945015   2.863098   3.185372   4.596154
    20  H    3.793957   5.137056   3.462271   4.780764   6.041886
    21  H    3.404832   4.490360   4.013807   5.477212   6.311861
    22  H    2.147242   2.483835   3.486726   4.683146   4.993866
    23  H    2.278063   1.547808   2.810857   2.660161   1.938266
    24  H    5.106786   4.535343   4.763486   3.473556   2.138729
    25  H    6.410694   6.218334   5.530841   4.027713   3.455387
    26  H    6.009101   6.343696   4.729239   3.482347   3.900540
                   11         12         13         14         15
    11  O    0.000000
    12  C    2.292510   0.000000
    13  C    3.594577   1.390882   0.000000
    14  C    4.124998   2.393990   1.399800   0.000000
    15  C    3.661324   2.736116   2.409646   1.395092   0.000000
    16  F    4.813626   4.068236   3.584932   2.295592   1.350259
    17  H    6.556961   6.767849   6.703733   5.591994   4.356758
    18  H    6.104854   5.987001   5.727727   4.487631   3.343047
    19  H    5.607843   5.344717   5.113070   3.986680   2.893414
    20  H    6.415006   7.275083   7.538443   6.610106   5.232695
    21  H    6.148183   7.712053   8.385034   7.810875   6.441344
    22  H    4.438682   6.381893   7.371033   7.207202   6.010980
    23  H    0.979566   3.108728   4.350710   4.709085   4.012722
    24  H    2.418964   1.099164   2.181318   3.407802   3.832327
    25  H    4.456467   2.171809   1.100383   2.179865   3.415758
    26  H    5.212924   3.412259   2.200725   1.098951   2.140907
                   16         17         18         19         20
    16  F    0.000000
    17  H    3.541834   0.000000
    18  H    2.208137   1.785829   0.000000
    19  H    2.228380   1.784116   1.785621   0.000000
    20  H    4.621275   2.215986   2.927259   3.575906   0.000000
    21  H    6.285928   4.448891   5.153707   5.456258   2.506246
    22  H    6.400190   5.541184   6.099320   5.824402   4.317574
    23  H    5.043107   6.224813   6.020276   5.466911   5.927117
    24  H    5.160615   7.784181   7.053083   6.396143   8.172586
    25  H    4.470245   7.685037   6.659667   6.038952   8.606988
    26  H    2.462358   5.836034   4.590205   4.222109   7.056805
                   21         22         23         24         25
    21  H    0.000000
    22  H    2.570727   0.000000
    23  H    5.416558   3.524270   0.000000
    24  H    8.367033   6.784445   3.299757   0.000000
    25  H    9.483933   8.419520   5.271696   2.536945   0.000000
    26  H    8.517525   8.139176   5.793462   4.352799   2.564345
                   26
    26  H    0.000000
 Symmetry turned off by external request.
 Stoichiometry    C13H10F2O
 Framework group  C1[X(C13H10F2O)]
 Deg. of freedom    72
 Full point group                 C1      NOp   1
 Rotational constants (GHZ):           0.8394951           0.4707425           0.3129138
 Standard basis: def2SVP (5D, 7F)
   274 basis functions,   470 primitive gaussians,   290 cartesian basis functions
    57 alpha electrons       57 beta electrons
       nuclear repulsion energy      1069.6381012024 Hartrees.
 NAtoms=   26 NActive=   26 NUniq=   26 SFac= 1.00D+00 NAtFMM=   60 NAOKFM=F Big=F
 Integral buffers will be    131072 words long.
 Raffenetti 2 integral format.
 Two-electron integral symmetry is turned off.
 Nuclear repulsion after empirical dispersion term =     1069.5865560383 Hartrees.
 One-electron integrals computed using PRISM.
   1 Symmetry operations used in ECPInt.
 ECPInt:  NShTT=    8001 NPrTT=   29641 LenC2=    7594 LenP2D=   20286.
 LDataN:  DoStor=T MaxTD1= 4 Len=   56
 NBasis=   274 RedAO= T EigKep=  3.15D-04  NBF=   274
 NBsUse=   274 1.00D-06 EigRej= -1.00D+00 NBFU=   274
 Initial guess from the checkpoint file:  "path/to/scratch/gaussian_tmp/Gau-3398992.chk"
 B after Tr=    -0.001094   -0.000531   -0.000065
         Rot=    1.000000    0.000018   -0.000021   -0.000046 Ang=   0.01 deg.
 Requested convergence on RMS density matrix=1.00D-08 within 128 cycles.
 Requested convergence on MAX density matrix=1.00D-06.
 Requested convergence on             energy=1.00D-06.
 No special actions if energy rises.
 SCF Done:  E(RB-P86) =  -775.751041847     A.U. after    9 cycles
            NFock=  9  Conv=0.50D-08     -V/T= 2.0104
   1 Symmetry operations used in ECPInt.
 ECPInt:  NShTT=    8001 NPrTT=   29641 LenC2=    7594 LenP2D=   20286.
 LDataN:  DoStor=T MaxTD1= 5 Len=  102
 Calling FoFJK, ICntrl=      2527 FMM=F ISym2X=0 I1Cent= 0 IOpClX= 0 NMat=1 NMatS=1 NMatT=0.
 -------------------------------------------------------------------
 Center     Atomic                   Forces (Hartrees/Bohr)
 Number     Number              X              Y              Z
 -------------------------------------------------------------------
      1        6          -0.000076406    0.000202847    0.000507827
      2        6           0.000067529    0.000064432   -0.000078233
      3        6          -0.000062437    0.000000275   -0.000007343
      4        6          -0.000053507    0.000014740    0.000073442
      5        6           0.000004563    0.000031699   -0.000038239
      6        6          -0.000024103    0.000092164    0.000086292
      7        9           0.000137084   -0.000060542   -0.000287407
      8        6          -0.000019955   -0.000423953   -0.000324330
      9        6          -0.000100007   -0.000055397    0.000528876
     10        6           0.000050910    0.000047663   -0.000011582
     11        8          -0.000034736    0.000097236    0.000129537
     12        6          -0.000089955   -0.000029444    0.000003016
     13        6           0.000005445    0.000002876   -0.000012425
     14        6           0.000028893    0.000005852    0.000006726
     15        6          -0.000038255    0.000036007    0.000016123
     16        9           0.000161991   -0.000040903   -0.000535802
     17        1           0.000008900   -0.000004248   -0.000037684
     18        1          -0.000026044    0.000012687   -0.000018354
     19        1          -0.000007888    0.000016030   -0.000011188
     20        1          -0.000018303    0.000006335   -0.000011789
     21        1          -0.000012652    0.000009163   -0.000008743
     22        1           0.000004730   -0.000016028   -0.000003061
     23        1           0.000061097    0.000010130    0.000026594
     24        1           0.000010932   -0.000018943    0.000010246
     25        1           0.000010322   -0.000003730   -0.000001638
     26        1           0.000011853    0.000003054   -0.000000862
 -------------------------------------------------------------------
 Cartesian Forces:  Max     0.000535802 RMS     0.000134188

 GradGradGradGradGradGradGradGradGradGradGradGradGradGradGradGradGradGrad
 Berny optimization.
 Using GEDIIS/GDIIS optimizer.
 FormGI is forming the generalized inverse of G from B-inverse, IUseBI=4.
 Internal  Forces:  Max     0.000806960 RMS     0.000150998
 Search for a local minimum.
 Step number   5 out of a maximum of  142
 All quantities printed in internal units (Hartrees-Bohrs-Radians)
 Mixed Optimization -- En-DIIS/RFO-DIIS
 Swapping is turned off.
 Update second derivatives using D2CorX and points    1    2    3    4    5
 DE= -4.77D-06 DEPred=-5.56D-06 R= 8.57D-01
 TightC=F SS=  1.41D+00  RLast= 4.72D-03 DXNew= 8.4090D-02 1.4152D-02
 Trust test= 8.57D-01 RLast= 4.72D-03 DXMaxT set to 5.00D-02
 ITU=  1 -1  1 -1  0
     Eigenvalues ---    0.00569   0.01325   0.01420   0.01597   0.01716
     Eigenvalues ---    0.01812   0.01964   0.01988   0.02035   0.02044
     Eigenvalues ---    0.02094   0.02121   0.02131   0.02136   0.02160
     Eigenvalues ---    0.02164   0.02199   0.02259   0.03291   0.06705
     Eigenvalues ---    0.07376   0.14303   0.15886   0.15967   0.15967
     Eigenvalues ---    0.15981   0.15986   0.15992   0.16019   0.16071
     Eigenvalues ---    0.16243   0.18541   0.22052   0.22156   0.22873
     Eigenvalues ---    0.23257   0.23862   0.24482   0.24763   0.24900
     Eigenvalues ---    0.25637   0.29405   0.30445   0.32739   0.33029
     Eigenvalues ---    0.33485   0.33632   0.33641   0.33698   0.33742
     Eigenvalues ---    0.33782   0.33802   0.34296   0.35843   0.36832
     Eigenvalues ---    0.38631   0.41260   0.41618   0.42653   0.44279
     Eigenvalues ---    0.44497   0.45287   0.45746   0.46601   0.46816
     Eigenvalues ---    0.51643   0.54289   0.54874   0.86192   2.16725
     Eigenvalues --- 1000.000001000.000001000.000001000.000001000.00000
     Eigenvalues --- 1000.000001000.000001000.000001000.000001000.00000
     Eigenvalues --- 1000.000001000.000001000.000001000.000001000.00000
     Eigenvalues --- 1000.000001000.000001000.000001000.000001000.00000
     Eigenvalues --- 1000.000001000.000001000.000001000.000001000.00000
     Eigenvalues --- 1000.000001000.000001000.000001000.000001000.00000
     Eigenvalues --- 1000.000001000.000001000.000001000.000001000.00000
     Eigenvalues --- 1000.000001000.000001000.000001000.000001000.00000
     Eigenvalues --- 1000.000001000.000001000.000001000.000001000.00000
     Eigenvalues --- 1000.000001000.000001000.000001000.000001000.00000
     Eigenvalues --- 1000.000001000.000001000.000001000.000001000.00000
     Eigenvalues --- 1000.000001000.000001000.000001000.000001000.00000
     Eigenvalues --- 1000.000001000.00000
 En-DIIS/RFO-DIIS/Sim-DIIS IScMMF=       -3 using points:     5    4    3    2    1
 RFO step:  Lambda=-1.20513738D-06.
 DidBck=T Rises=F RFO-DIIS coefs:    0.71256   -0.32764    0.52151   -0.00687    0.10043
 Iteration  1 RMS(Cart)=  0.00094785 RMS(Int)=  0.00000058
 Iteration  2 RMS(Cart)=  0.00000080 RMS(Int)=  0.00000011
 Iteration  1 RMS(Cart)=  0.00000039 RMS(Int)=  0.00000039
 Variable       Old X    -DE/DX   Delta X   Delta X   Delta X     New X
                                 (Linear)    (Quad)   (Total)
    R1        2.87565   0.00001  -0.00003   0.00018   0.00015   2.87580
    R2        2.09495   0.00001   0.00002  -0.00001   0.00001   2.09496
    R3        2.09110  -0.00001   0.00000   0.00003   0.00003   2.09113
    R4        2.08466  -0.00000   0.00002  -0.00005  -0.00002   2.08464
    R5        2.67082   0.00013   0.00020   0.00002   0.00022   2.67103
    R6        2.75527   0.00027   0.00023   0.00007   0.00030   2.75557
    R7        2.64268   0.00003   0.00001   0.00002   0.00004   2.64272
    R8        2.08199   0.00002   0.00003   0.00001   0.00004   2.08202
    R9        2.63977   0.00002   0.00009   0.00004   0.00013   2.63990
   R10        2.07859   0.00001   0.00000   0.00002   0.00002   2.07861
   R11        2.63216   0.00000  -0.00012   0.00013   0.00001   2.63217
   R12        2.07768   0.00001   0.00002   0.00000   0.00002   2.07771
   R13        2.61500   0.00017   0.00064  -0.00022   0.00043   2.61542
   R14        2.70439  -0.00008  -0.00010  -0.00005  -0.00016   2.70423
   R15        2.84530   0.00009   0.00005   0.00002   0.00007   2.84537
   R16        2.76011  -0.00002   0.00018  -0.00018   0.00000   2.76012
   R17        2.71120   0.00013   0.00009   0.00006   0.00014   2.71134
   R18        2.55523  -0.00005  -0.00010  -0.00001  -0.00011   2.55512
   R19        2.67730  -0.00009  -0.00009  -0.00005  -0.00015   2.67716
   R20        1.85111  -0.00007  -0.00011  -0.00001  -0.00011   1.85100
   R21        2.62839  -0.00002   0.00001  -0.00002  -0.00000   2.62838
   R22        2.07712   0.00002   0.00003   0.00002   0.00005   2.07717
   R23        2.64524  -0.00000  -0.00007   0.00005  -0.00002   2.64522
   R24        2.07942   0.00001   0.00001   0.00001   0.00002   2.07945
   R25        2.63634   0.00007   0.00012   0.00000   0.00012   2.63647
   R26        2.07672   0.00001   0.00002   0.00000   0.00002   2.07674
   R27        2.55162  -0.00010  -0.00007   0.00001  -0.00006   2.55156
    A1        1.87306   0.00000   0.00006  -0.00002   0.00004   1.87310
    A2        1.98819   0.00003  -0.00007   0.00012   0.00005   1.98824
    A3        1.96364   0.00002   0.00021  -0.00003   0.00018   1.96381
    A4        1.87535  -0.00001   0.00013  -0.00008   0.00004   1.87540
    A5        1.87693  -0.00003  -0.00028  -0.00003  -0.00031   1.87662
    A6        1.88176  -0.00001  -0.00006   0.00003  -0.00004   1.88172
    A7        1.96845  -0.00021  -0.00021   0.00007  -0.00014   1.96830
    A8        2.21814   0.00036   0.00032   0.00004   0.00036   2.21850
    A9        2.08518  -0.00013  -0.00010  -0.00005  -0.00015   2.08503
   A10        2.16061   0.00007   0.00014  -0.00009   0.00005   2.16067
   A11        2.04409  -0.00003   0.00002   0.00002   0.00004   2.04413
   A12        2.07608  -0.00004  -0.00015   0.00005  -0.00010   2.07598
   A13        2.04314  -0.00002  -0.00014   0.00000  -0.00014   2.04301
   A14        2.11866  -0.00000  -0.00005   0.00000  -0.00005   2.11862
   A15        2.11583   0.00002   0.00013  -0.00002   0.00011   2.11594
   A16        2.06316   0.00000  -0.00008   0.00011   0.00003   2.06319
   A17        2.15053   0.00001   0.00015  -0.00008   0.00008   2.15060
   A18        2.06831  -0.00001  -0.00009  -0.00002  -0.00011   2.06821
   A19        1.97355   0.00009  -0.00018   0.00033   0.00015   1.97369
   A20        2.21386   0.00008   0.00030  -0.00023   0.00007   2.21393
   A21        2.09383  -0.00017  -0.00017  -0.00011  -0.00027   2.09356
   A22        1.92868   0.00001  -0.00019   0.00012  -0.00007   1.92861
   A23        2.23373   0.00018  -0.00056   0.00057   0.00000   2.23373
   A24        2.12076  -0.00019   0.00074  -0.00068   0.00006   2.12082
   A25        2.18174  -0.00023   0.00045  -0.00051  -0.00006   2.18168
   A26        2.15838   0.00031  -0.00017   0.00052   0.00035   2.15873
   A27        1.93371  -0.00007  -0.00020   0.00005  -0.00016   1.93356
   A28        2.20622  -0.00006   0.00021  -0.00018   0.00003   2.20624
   A29        2.12294   0.00012   0.00021   0.00005   0.00026   2.12321
   A30        1.95047  -0.00007  -0.00040   0.00014  -0.00026   1.95021
   A31        1.94526   0.00000   0.00024  -0.00020   0.00004   1.94530
   A32        2.13232  -0.00001  -0.00000  -0.00004  -0.00004   2.13228
   A33        2.02224   0.00001  -0.00004   0.00004   0.00000   2.02225
   A34        2.12743   0.00001   0.00004  -0.00000   0.00003   2.12746
   A35        2.06214  -0.00001  -0.00011   0.00004  -0.00007   2.06207
   A36        2.10988   0.00000   0.00006  -0.00003   0.00003   2.10990
   A37        2.10991   0.00001   0.00005  -0.00000   0.00005   2.10996
   A38        2.07904   0.00004   0.00015  -0.00004   0.00011   2.07914
   A39        2.14691  -0.00002  -0.00003  -0.00003  -0.00006   2.14686
   A40        2.05579  -0.00001  -0.00011   0.00007  -0.00004   2.05575
   A41        2.20389  -0.00005   0.00002  -0.00005  -0.00003   2.20386
   A42        2.09734   0.00020   0.00023   0.00005   0.00028   2.09762
   A43        1.98037  -0.00014  -0.00023   0.00000  -0.00023   1.98014
    D1       -0.49673  -0.00007  -0.00112  -0.00030  -0.00143  -0.49816
    D2        2.48054   0.00002  -0.00105   0.00010  -0.00095   2.47959
    D3        1.57687  -0.00007  -0.00097  -0.00034  -0.00131   1.57556
    D4       -1.72905   0.00002  -0.00089   0.00006  -0.00083  -1.72988
    D5       -2.55786  -0.00005  -0.00094  -0.00023  -0.00118  -2.55904
    D6        0.41941   0.00005  -0.00087   0.00017  -0.00070   0.41871
    D7        2.84024   0.00016   0.00054  -0.00015   0.00038   2.84063
    D8       -0.22607   0.00013   0.00036   0.00016   0.00052  -0.22556
    D9       -0.15090   0.00002   0.00042  -0.00053  -0.00011  -0.15101
   D10        3.06597  -0.00001   0.00025  -0.00022   0.00003   3.06599
   D11       -2.60318  -0.00016  -0.00018   0.00010  -0.00008  -2.60326
   D12        0.53315  -0.00011  -0.00126  -0.00028  -0.00154   0.53161
   D13        0.36430  -0.00007  -0.00011   0.00054   0.00043   0.36473
   D14       -2.78256  -0.00002  -0.00118   0.00016  -0.00103  -2.78359
   D15       -0.12449   0.00002  -0.00049   0.00006  -0.00043  -0.12493
   D16        3.12878   0.00001   0.00005   0.00028   0.00032   3.12910
   D17        2.94053   0.00005  -0.00030  -0.00026  -0.00056   2.93996
   D18       -0.08938   0.00004   0.00023  -0.00004   0.00019  -0.08919
   D19        0.14238   0.00001   0.00021   0.00042   0.00063   0.14300
   D20       -2.94603   0.00001   0.00054   0.00007   0.00060  -2.94542
   D21       -3.11071   0.00002  -0.00034   0.00020  -0.00014  -3.11084
   D22        0.08407   0.00002  -0.00001  -0.00015  -0.00016   0.08391
   D23       -2.95175   0.00006   0.00105  -0.00034   0.00071  -2.95104
   D24        0.12218  -0.00004   0.00018  -0.00046  -0.00027   0.12191
   D25        0.13921   0.00007   0.00075  -0.00001   0.00074   0.13995
   D26       -3.07004  -0.00004  -0.00012  -0.00013  -0.00024  -3.07028
   D27       -0.36939   0.00006  -0.00025  -0.00002  -0.00028  -0.36967
   D28        2.77707   0.00001   0.00075   0.00033   0.00107   2.77814
   D29        2.70035  -0.00005  -0.00117  -0.00014  -0.00131   2.69904
   D30       -0.43637  -0.00009  -0.00017   0.00021   0.00004  -0.43633
   D31        0.28300  -0.00081   0.00000   0.00000   0.00000   0.28300
   D32        2.93789  -0.00045   0.00135   0.00047   0.00182   2.93971
   D33       -0.04358  -0.00058   0.00072  -0.00001   0.00072  -0.04286
   D34       -0.20949  -0.00040   0.00017   0.00005   0.00022  -0.20927
   D35        3.09223  -0.00053  -0.00046  -0.00042  -0.00088   3.09135
   D36       -0.51311  -0.00054   0.00000   0.00000  -0.00000  -0.51311
   D37       -0.21422  -0.00013  -0.00008  -0.00032  -0.00040  -0.21461
   D38        3.02546  -0.00007  -0.00030  -0.00042  -0.00072   3.02474
   D39        2.78495   0.00002   0.00048   0.00015   0.00062   2.78557
   D40       -0.25856   0.00007   0.00025   0.00005   0.00030  -0.25826
   D41       -3.02823   0.00003   0.00025   0.00035   0.00060  -3.02763
   D42        0.17809  -0.00018  -0.00011   0.00021   0.00009   0.17818
   D43        0.25352  -0.00006  -0.00035  -0.00001  -0.00037   0.25316
   D44       -2.82334  -0.00027  -0.00072  -0.00016  -0.00088  -2.82422
   D45        0.59146   0.00002  -0.00059   0.00015  -0.00044   0.59102
   D46       -2.64002  -0.00002  -0.00036   0.00024  -0.00011  -2.64014
   D47        0.12849  -0.00004  -0.00004  -0.00009  -0.00014   0.12835
   D48       -3.06470  -0.00003  -0.00009  -0.00001  -0.00011  -3.06481
   D49       -2.92814   0.00001  -0.00026  -0.00017  -0.00043  -2.92857
   D50        0.16185   0.00002  -0.00031  -0.00008  -0.00040   0.16145
   D51        0.04883  -0.00001  -0.00010   0.00009  -0.00001   0.04882
   D52        3.13707   0.00003   0.00000   0.00007   0.00007   3.13714
   D53       -3.03807  -0.00002  -0.00005   0.00000  -0.00005  -3.03812
   D54        0.05016   0.00002   0.00006  -0.00002   0.00004   0.05021
   D55       -0.06529   0.00005   0.00005  -0.00004   0.00001  -0.06528
   D56        3.01720   0.00008   0.00035  -0.00005   0.00030   3.01749
   D57        3.12966   0.00001  -0.00006  -0.00002  -0.00008   3.12959
   D58       -0.07103   0.00004   0.00024  -0.00003   0.00021  -0.07082
   D59       -0.10152  -0.00001   0.00018   0.00001   0.00019  -0.10133
   D60        2.97907   0.00019   0.00054   0.00015   0.00069   2.97976
   D61        3.09609  -0.00004  -0.00011   0.00003  -0.00008   3.09601
   D62       -0.10650   0.00016   0.00025   0.00017   0.00042  -0.10609
         Item               Value     Threshold  Converged?
 Maximum Force            0.000292     0.000450     YES
 RMS     Force            0.000063     0.000300     YES
 Maximum Displacement     0.003903     0.001800     NO 
 RMS     Displacement     0.000948     0.001200     YES
 Predicted change in Energy=-6.009810D-07
 GradGradGradGradGradGradGradGradGradGradGradGradGradGradGradGradGradGrad

                          Input orientation:                          
 ---------------------------------------------------------------------
 Center     Atomic      Atomic             Coordinates (Angstroms)
 Number     Number       Type             X           Y           Z
 ---------------------------------------------------------------------
      1          6           0       -1.092064    2.517985   -1.234449
      2          6           0       -1.506865    1.208666   -0.579066
      3          6           0       -2.882570    1.169762   -0.256936
      4          6           0       -3.583087   -0.007910    0.022478
      5          6           0       -2.904297   -1.212922   -0.174330
      6          6           0       -1.542354   -1.162142   -0.461830
      7          9           0       -1.028312   -2.380301   -0.870932
      8          6           0       -0.704798   -0.001932   -0.447018
      9          6           0        0.791246   -0.112820   -0.317742
     10          6           0        1.512630   -1.328724    0.049015
     11          8           0        0.972076   -2.462417    0.549762
     12          6           0        2.927469   -1.392604    0.014886
     13          6           0        3.713984   -0.270075   -0.221483
     14          6           0        3.073353    0.965474   -0.371232
     15          6           0        1.679093    1.013567   -0.357400
     16          9           0        1.185130    2.269323   -0.310599
     17          1           0       -1.978145    2.914225   -1.770045
     18          1           0       -0.763135    3.294087   -0.517521
     19          1           0       -0.288040    2.382385   -1.977472
     20          1           0       -3.435608    2.121689   -0.300044
     21          1           0       -4.652280    0.008942    0.280236
     22          1           0       -3.401508   -2.193461   -0.161233
     23          1           0        0.079389   -2.626740    0.181607
     24          1           0        3.368656   -2.374616    0.236756
     25          1           0        4.811811   -0.343072   -0.239288
     26          1           0        3.618055    1.916948   -0.446828
 ---------------------------------------------------------------------
                    Distance matrix (angstroms):
                    1          2          3          4          5
     1  C    0.000000
     2  C    1.521809   0.000000
     3  C    2.445229   1.413451   0.000000
     4  C    3.763669   2.480445   1.398466   0.000000
     5  C    4.281087   2.825016   2.384215   1.396976   0.000000
     6  C    3.787220   2.373970   2.697394   2.394033   1.392884
     7  F    4.912170   3.632476   4.051939   3.599068   2.316754
     8  C    2.668333   1.458182   2.480259   2.916334   2.525600
     9  C    3.362788   2.663819   3.891739   4.388797   3.858475
    10  C    4.819635   3.993769   5.064960   5.264179   4.424087
    11  O    5.678775   4.571242   5.357404   5.201167   4.136644
    12  C    5.745449   5.175201   6.355797   6.656182   5.837601
    13  C    5.647785   5.437997   6.751956   7.305853   6.685270
    14  C    4.528370   4.591376   5.960521   6.738744   6.365256
    15  C    3.272889   3.199614   4.565442   5.373850   5.098847
    16  F    2.470009   2.905840   4.214036   5.294584   5.372897
    17  H    1.108606   2.132948   2.480047   3.785215   4.520775
    18  H    1.106577   2.214927   3.012086   4.375718   5.001548
    19  H    1.103144   2.195152   3.341001   4.535487   4.798162
    20  H    2.553891   2.152094   1.101760   2.158926   3.379012
    21  H    4.611367   3.474388   2.183559   1.099954   2.180602
    22  H    5.355655   3.916468   3.404368   2.200762   1.099475
    23  H    5.463122   4.219617   4.835177   4.505254   3.320836
    24  H    6.782330   6.105422   7.203066   7.346695   6.392845
    25  H    6.635641   6.515291   7.841713   8.405662   7.765255
    26  H    4.813192   5.175323   6.546180   7.468720   7.239574
                    6          7          8          9         10
     6  C    0.000000
     7  F    1.384021   0.000000
     8  C    1.431016   2.437418   0.000000
     9  C    2.562718   2.959439   1.505708   0.000000
    10  C    3.101877   2.899742   2.631238   1.460592   0.000000
    11  O    3.006060   2.454928   3.139979   2.511149   1.352111
    12  C    4.501076   4.172340   3.916719   2.512357   1.416691
    13  C    5.336913   5.231082   4.432652   2.928548   2.457614
    14  C    5.083278   5.316725   3.900775   2.524598   2.806387
    15  C    3.888745   4.371739   2.592722   1.434780   2.383110
    16  F    4.386000   5.179991   2.957877   2.414498   3.630774
    17  H    4.303267   5.453677   3.446126   4.352207   5.787669
    18  H    4.524186   5.691563   3.297288   3.750070   5.183671
    19  H    4.053905   4.945261   2.863729   3.185217   4.595802
    20  H    3.793959   5.137012   3.462468   4.781175   6.042537
    21  H    3.404958   4.490748   4.013929   5.477625   6.312601
    22  H    2.147191   2.484077   3.486649   4.683241   4.994069
    23  H    2.277961   1.547764   2.810647   2.660053   1.938197
    24  H    5.106479   4.534350   4.763423   3.473648   2.138683
    25  H    6.410602   6.217420   5.531049   4.027917   3.455318
    26  H    6.009230   6.343102   4.729605   3.482453   3.900393
                   11         12         13         14         15
    11  O    0.000000
    12  C    2.292194   0.000000
    13  C    3.594335   1.390880   0.000000
    14  C    4.124807   2.393930   1.399791   0.000000
    15  C    3.661322   2.736183   2.409770   1.395157   0.000000
    16  F    4.814040   4.068340   3.584910   2.295448   1.350227
    17  H    6.556950   6.767555   6.703591   5.592131   4.357001
    18  H    6.106340   5.989080   5.730225   4.490265   3.345278
    19  H    5.607754   5.344111   5.112263   3.985800   2.892733
    20  H    6.415908   7.275862   7.539454   6.611238   5.233679
    21  H    6.149280   7.712803   8.385938   7.811835   6.442215
    22  H    4.439154   6.381876   7.371111   7.207412   6.011324
    23  H    0.979506   3.108448   4.350476   4.708870   4.012657
    24  H    2.418527   1.099191   2.181360   3.407793   3.832418
    25  H    4.456207   2.171834   1.100395   2.179894   3.415895
    26  H    5.212795   3.412217   2.200693   1.098962   2.140950
                   16         17         18         19         20
    16  F    0.000000
    17  H    3.542907   0.000000
    18  H    2.211039   1.785878   0.000000
    19  H    2.227437   1.783910   1.785602   0.000000
    20  H    4.623108   2.216577   2.926418   3.576159   0.000000
    21  H    6.287588   4.449193   5.153061   5.456837   2.506135
    22  H    6.401250   5.541001   6.099273   5.825013   4.317516
    23  H    5.043447   6.224522   6.021197   5.466988   5.927458
    24  H    5.160770   7.783788   7.055127   6.395567   8.173305
    25  H    4.470180   7.684836   6.662309   6.038036   8.608057
    26  H    2.462083   5.836345   4.593075   4.221028   7.058160
                   21         22         23         24         25
    21  H    0.000000
    22  H    2.570974   0.000000
    23  H    5.417124   3.524473   0.000000
    24  H    8.367715   6.784271   3.299376   0.000000
    25  H    9.484874   8.419539   5.271443   2.537023   0.000000
    26  H    8.518659   8.139490   5.793289   4.352816   2.564336
                   26
    26  H    0.000000
 Symmetry turned off by external request.
 Stoichiometry    C13H10F2O
 Framework group  C1[X(C13H10F2O)]
 Deg. of freedom    72
 Full point group                 C1      NOp   1
 Rotational constants (GHZ):           0.8394980           0.4706600           0.3128656
 Standard basis: def2SVP (5D, 7F)
   274 basis functions,   470 primitive gaussians,   290 cartesian basis functions
    57 alpha electrons       57 beta electrons
       nuclear repulsion energy      1069.5912218705 Hartrees.
 NAtoms=   26 NActive=   26 NUniq=   26 SFac= 1.00D+00 NAtFMM=   60 NAOKFM=F Big=F
 Integral buffers will be    131072 words long.
 Raffenetti 2 integral format.
 Two-electron integral symmetry is turned off.
 Nuclear repulsion after empirical dispersion term =     1069.5396800167 Hartrees.
 One-electron integrals computed using PRISM.
   1 Symmetry operations used in ECPInt.
 ECPInt:  NShTT=    8001 NPrTT=   29641 LenC2=    7594 LenP2D=   20287.
 LDataN:  DoStor=T MaxTD1= 4 Len=   56
 NBasis=   274 RedAO= T EigKep=  3.15D-04  NBF=   274
 NBsUse=   274 1.00D-06 EigRej= -1.00D+00 NBFU=   274
 Initial guess from the checkpoint file:  "path/to/scratch/gaussian_tmp/Gau-3398992.chk"
 B after Tr=     0.000229    0.000107    0.000410
         Rot=    1.000000   -0.000001   -0.000014    0.000004 Ang=  -0.00 deg.
 Requested convergence on RMS density matrix=1.00D-08 within 128 cycles.
 Requested convergence on MAX density matrix=1.00D-06.
 Requested convergence on             energy=1.00D-06.
 No special actions if energy rises.
 SCF Done:  E(RB-P86) =  -775.751042439     A.U. after    8 cycles
            NFock=  8  Conv=0.59D-08     -V/T= 2.0104
   1 Symmetry operations used in ECPInt.
 ECPInt:  NShTT=    8001 NPrTT=   29641 LenC2=    7594 LenP2D=   20287.
 LDataN:  DoStor=T MaxTD1= 5 Len=  102
 Calling FoFJK, ICntrl=      2527 FMM=F ISym2X=0 I1Cent= 0 IOpClX= 0 NMat=1 NMatS=1 NMatT=0.
 -------------------------------------------------------------------
 Center     Atomic                   Forces (Hartrees/Bohr)
 Number     Number              X              Y              Z
 -------------------------------------------------------------------
      1        6          -0.000024448    0.000131202    0.000478122
      2        6           0.000029611    0.000026060    0.000015288
      3        6          -0.000005703    0.000004601   -0.000011813
      4        6          -0.000012251   -0.000009021    0.000007409
      5        6           0.000013957    0.000017218    0.000006708
      6        6          -0.000020781   -0.000014411   -0.000002888
      7        9           0.000036283    0.000038217   -0.000209595
      8        6           0.000019368   -0.000241806   -0.000445959
      9        6          -0.000053099   -0.000038645    0.000490758
     10        6           0.000012424    0.000019914   -0.000009897
     11        8          -0.000040084    0.000071515    0.000200539
     12        6          -0.000012960   -0.000002812    0.000003366
     13        6           0.000006155   -0.000000195   -0.000001410
     14        6           0.000001473    0.000003344    0.000006436
     15        6          -0.000009795    0.000009588   -0.000005450
     16        9           0.000045719   -0.000005185   -0.000520311
     17        1          -0.000004050   -0.000002132   -0.000006710
     18        1           0.000001324   -0.000000770    0.000004021
     19        1          -0.000005397    0.000003825   -0.000003501
     20        1          -0.000002921    0.000001530   -0.000002757
     21        1          -0.000000743   -0.000000256   -0.000000235
     22        1          -0.000001224   -0.000005721   -0.000000325
     23        1           0.000020541   -0.000003065    0.000008623
     24        1           0.000002011   -0.000002052    0.000001276
     25        1           0.000002207   -0.000000250   -0.000001352
     26        1           0.000002383   -0.000000695   -0.000000344
 -------------------------------------------------------------------
 Cartesian Forces:  Max     0.000520311 RMS     0.000119888

 GradGradGradGradGradGradGradGradGradGradGradGradGradGradGradGradGradGrad
 Berny optimization.
 Using GEDIIS/GDIIS optimizer.
 FormGI is forming the generalized inverse of G from B-inverse, IUseBI=4.
 Internal  Forces:  Max     0.000802501 RMS     0.000136522
 Search for a local minimum.
 Step number   6 out of a maximum of  142
 All quantities printed in internal units (Hartrees-Bohrs-Radians)
 Mixed Optimization -- En-DIIS/RFO-DIIS
 Swapping is turned off.
 Update second derivatives using D2CorX and points    1    2    3    4    5
                                                      6
 DE= -5.93D-07 DEPred=-6.01D-07 R= 9.86D-01
 Trust test= 9.86D-01 RLast= 5.17D-03 DXMaxT set to 5.00D-02
 ITU=  0  1 -1  1 -1  0
     Eigenvalues ---    0.00570   0.01392   0.01429   0.01612   0.01748
     Eigenvalues ---    0.01824   0.01965   0.02003   0.02041   0.02071
     Eigenvalues ---    0.02104   0.02118   0.02131   0.02136   0.02159
     Eigenvalues ---    0.02164   0.02226   0.02484   0.03310   0.06705
     Eigenvalues ---    0.07355   0.14631   0.15886   0.15950   0.15967
     Eigenvalues ---    0.15972   0.15986   0.15989   0.16009   0.16130
     Eigenvalues ---    0.16281   0.18815   0.22051   0.22107   0.22906
     Eigenvalues ---    0.23141   0.23764   0.24324   0.24769   0.24877
     Eigenvalues ---    0.25005   0.29404   0.30624   0.32737   0.33030
     Eigenvalues ---    0.33478   0.33626   0.33635   0.33690   0.33734
     Eigenvalues ---    0.33770   0.33795   0.34300   0.35551   0.36924
     Eigenvalues ---    0.38311   0.41245   0.41650   0.42814   0.44174
     Eigenvalues ---    0.44438   0.45290   0.45689   0.46527   0.46828
     Eigenvalues ---    0.51178   0.54329   0.55020   0.87636   2.17007
     Eigenvalues --- 1000.000001000.000001000.000001000.000001000.00000
     Eigenvalues --- 1000.000001000.000001000.000001000.000001000.00000
     Eigenvalues --- 1000.000001000.000001000.000001000.000001000.00000
     Eigenvalues --- 1000.000001000.000001000.000001000.000001000.00000
     Eigenvalues --- 1000.000001000.000001000.000001000.000001000.00000
     Eigenvalues --- 1000.000001000.000001000.000001000.000001000.00000
     Eigenvalues --- 1000.000001000.000001000.000001000.000001000.00000
     Eigenvalues --- 1000.000001000.000001000.000001000.000001000.00000
     Eigenvalues --- 1000.000001000.000001000.000001000.000001000.00000
     Eigenvalues --- 1000.000001000.000001000.000001000.000001000.00000
     Eigenvalues --- 1000.000001000.000001000.000001000.000001000.00000
     Eigenvalues --- 1000.000001000.000001000.000001000.000001000.00000
     Eigenvalues --- 1000.000001000.00000
 En-DIIS/RFO-DIIS/Sim-DIIS IScMMF=       -3 using points:     6    5    4    3    2    1
 RFO step:  Lambda=-4.94362216D-08.
 DidBck=F Rises=F RFO-DIIS coefs:    0.64514    0.17545   -0.00437    0.09876    0.02840
                  RFO-DIIS coefs:    0.05662
 Iteration  1 RMS(Cart)=  0.00012480 RMS(Int)=  0.00000010
 Iteration  2 RMS(Cart)=  0.00000002 RMS(Int)=  0.00000010
 Iteration  1 RMS(Cart)=  0.00000036 RMS(Int)=  0.00000032
 Variable       Old X    -DE/DX   Delta X   Delta X   Delta X     New X
                                 (Linear)    (Quad)   (Total)
    R1        2.87580  -0.00007  -0.00006   0.00004  -0.00002   2.87578
    R2        2.09496   0.00001   0.00000   0.00001   0.00001   2.09498
    R3        2.09113   0.00000  -0.00001   0.00001   0.00001   2.09113
    R4        2.08464  -0.00000   0.00001  -0.00002  -0.00001   2.08463
    R5        2.67103   0.00004   0.00001   0.00003   0.00004   2.67108
    R6        2.75557   0.00007  -0.00001   0.00005   0.00004   2.75561
    R7        2.64272   0.00002   0.00000   0.00002   0.00002   2.64274
    R8        2.08202   0.00000  -0.00000   0.00001   0.00001   2.08203
    R9        2.63990  -0.00002   0.00000   0.00001   0.00001   2.63991
   R10        2.07861   0.00000  -0.00001   0.00001   0.00000   2.07861
   R11        2.63217  -0.00003  -0.00005   0.00004  -0.00001   2.63215
   R12        2.07771   0.00001  -0.00000   0.00001   0.00001   2.07772
   R13        2.61542   0.00002   0.00012  -0.00008   0.00004   2.61546
   R14        2.70423  -0.00002  -0.00002   0.00001  -0.00001   2.70422
   R15        2.84537  -0.00001  -0.00005   0.00004  -0.00000   2.84537
   R16        2.76012  -0.00002   0.00002  -0.00003  -0.00001   2.76011
   R17        2.71134   0.00003  -0.00002   0.00005   0.00003   2.71137
   R18        2.55512   0.00002   0.00000  -0.00000   0.00000   2.55512
   R19        2.67716  -0.00002   0.00001  -0.00003  -0.00002   2.67713
   R20        1.85100  -0.00002   0.00000  -0.00004  -0.00004   1.85096
   R21        2.62838  -0.00000   0.00001  -0.00001   0.00000   2.62839
   R22        2.07717   0.00000  -0.00001   0.00002   0.00001   2.07718
   R23        2.64522   0.00001  -0.00001   0.00002   0.00000   2.64522
   R24        2.07945   0.00000  -0.00000   0.00001   0.00001   2.07945
   R25        2.63647   0.00002   0.00001   0.00001   0.00002   2.63649
   R26        2.07674   0.00000   0.00000   0.00000   0.00000   2.07674
   R27        2.55156  -0.00003  -0.00001   0.00000  -0.00001   2.55155
    A1        1.87310  -0.00000   0.00001  -0.00003  -0.00002   1.87308
    A2        1.98824  -0.00000  -0.00004   0.00003  -0.00001   1.98823
    A3        1.96381   0.00001   0.00003   0.00002   0.00005   1.96386
    A4        1.87540   0.00000   0.00003  -0.00001   0.00003   1.87542
    A5        1.87662  -0.00001  -0.00001  -0.00005  -0.00006   1.87655
    A6        1.88172   0.00000  -0.00001   0.00003   0.00001   1.88174
    A7        1.96830  -0.00009  -0.00003  -0.00002  -0.00006   1.96825
    A8        2.21850   0.00020   0.00003   0.00001   0.00004   2.21855
    A9        2.08503  -0.00009  -0.00001   0.00001  -0.00000   2.08503
   A10        2.16067   0.00005   0.00004  -0.00001   0.00003   2.16070
   A11        2.04413  -0.00003  -0.00001   0.00000  -0.00000   2.04413
   A12        2.07598  -0.00002  -0.00003   0.00001  -0.00002   2.07596
   A13        2.04301   0.00001   0.00000  -0.00001  -0.00001   2.04299
   A14        2.11862  -0.00001  -0.00001   0.00001   0.00000   2.11862
   A15        2.11594  -0.00000   0.00001  -0.00000   0.00001   2.11595
   A16        2.06319  -0.00002  -0.00005   0.00008   0.00002   2.06321
   A17        2.15060   0.00001   0.00004  -0.00004   0.00000   2.15060
   A18        2.06821   0.00001   0.00000  -0.00003  -0.00003   2.06818
   A19        1.97369   0.00004  -0.00005   0.00010   0.00004   1.97374
   A20        2.21393   0.00004   0.00009  -0.00008   0.00002   2.21395
   A21        2.09356  -0.00008  -0.00004  -0.00002  -0.00006   2.09350
   A22        1.92861   0.00005  -0.00001   0.00006   0.00004   1.92866
   A23        2.23373  -0.00008  -0.00010   0.00004  -0.00006   2.23367
   A24        2.12082   0.00003   0.00011  -0.00009   0.00002   2.12085
   A25        2.18168  -0.00003   0.00002  -0.00002  -0.00000   2.18168
   A26        2.15873   0.00002  -0.00006   0.00006  -0.00000   2.15873
   A27        1.93356   0.00002  -0.00000  -0.00004  -0.00004   1.93352
   A28        2.20624  -0.00003  -0.00002   0.00003   0.00001   2.20625
   A29        2.12321   0.00002   0.00001   0.00003   0.00004   2.12324
   A30        1.95021   0.00000   0.00001  -0.00006  -0.00005   1.95016
   A31        1.94530   0.00001   0.00004   0.00002   0.00006   1.94537
   A32        2.13228  -0.00001  -0.00001   0.00000  -0.00000   2.13228
   A33        2.02225   0.00001  -0.00001   0.00001   0.00000   2.02225
   A34        2.12746   0.00001   0.00001  -0.00001  -0.00000   2.12746
   A35        2.06207   0.00001  -0.00001  -0.00001  -0.00002   2.06205
   A36        2.10990  -0.00000   0.00001  -0.00000   0.00001   2.10991
   A37        2.10996  -0.00000   0.00000   0.00001   0.00001   2.10997
   A38        2.07914   0.00002   0.00003  -0.00001   0.00001   2.07916
   A39        2.14686  -0.00001   0.00001  -0.00003  -0.00002   2.14684
   A40        2.05575  -0.00001  -0.00003   0.00004   0.00001   2.05576
   A41        2.20386  -0.00004  -0.00001   0.00001  -0.00001   2.20385
   A42        2.09762   0.00007   0.00002   0.00002   0.00003   2.09765
   A43        1.98014  -0.00002  -0.00001  -0.00003  -0.00003   1.98010
    D1       -0.49816  -0.00006   0.00011  -0.00007   0.00004  -0.49812
    D2        2.47959   0.00005  -0.00004  -0.00007  -0.00010   2.47949
    D3        1.57556  -0.00005   0.00013  -0.00007   0.00005   1.57561
    D4       -1.72988   0.00005  -0.00002  -0.00007  -0.00009  -1.72997
    D5       -2.55904  -0.00005   0.00010   0.00000   0.00011  -2.55893
    D6        0.41871   0.00006  -0.00004   0.00000  -0.00004   0.41867
    D7        2.84063   0.00016   0.00007   0.00013   0.00020   2.84082
    D8       -0.22556   0.00012  -0.00003   0.00014   0.00010  -0.22545
    D9       -0.15101   0.00003   0.00020   0.00013   0.00033  -0.15068
   D10        3.06599  -0.00001   0.00010   0.00014   0.00023   3.06622
   D11       -2.60326  -0.00020  -0.00006  -0.00012  -0.00018  -2.60344
   D12        0.53161  -0.00010   0.00000  -0.00001  -0.00001   0.53160
   D13        0.36473  -0.00008  -0.00021  -0.00013  -0.00034   0.36439
   D14       -2.78359   0.00001  -0.00015  -0.00001  -0.00017  -2.78375
   D15       -0.12493   0.00003  -0.00001  -0.00006  -0.00008  -0.12501
   D16        3.12910  -0.00000  -0.00009   0.00002  -0.00007   3.12904
   D17        2.93996   0.00007   0.00009  -0.00007   0.00002   2.93998
   D18       -0.08919   0.00004   0.00001   0.00002   0.00003  -0.08916
   D19        0.14300  -0.00002  -0.00014   0.00003  -0.00011   0.14289
   D20       -2.94542  -0.00002  -0.00005   0.00003  -0.00003  -2.94545
   D21       -3.11084   0.00001  -0.00007  -0.00006  -0.00012  -3.11097
   D22        0.08391   0.00002   0.00002  -0.00006  -0.00004   0.08388
   D23       -2.95104   0.00005   0.00003  -0.00003  -0.00000  -2.95104
   D24        0.12191  -0.00004   0.00014  -0.00007   0.00007   0.12198
   D25        0.13995   0.00004  -0.00005  -0.00003  -0.00008   0.13986
   D26       -3.07028  -0.00004   0.00005  -0.00007  -0.00001  -3.07030
   D27       -0.36967   0.00007   0.00003   0.00012   0.00015  -0.36952
   D28        2.77814  -0.00001  -0.00002   0.00001  -0.00001   2.77814
   D29        2.69904  -0.00001   0.00015   0.00008   0.00023   2.69927
   D30       -0.43633  -0.00010   0.00009  -0.00002   0.00007  -0.43626
   D31        0.28300  -0.00080  -0.00000   0.00000   0.00000   0.28300
   D32        2.93971  -0.00053  -0.00021  -0.00005  -0.00026   2.93946
   D33       -0.04286  -0.00061   0.00011  -0.00003   0.00008  -0.04277
   D34       -0.20927  -0.00042  -0.00015   0.00008  -0.00007  -0.20934
   D35        3.09135  -0.00051   0.00018   0.00010   0.00027   3.09162
   D36       -0.51311  -0.00053   0.00000   0.00000  -0.00000  -0.51311
   D37       -0.21461  -0.00010   0.00028  -0.00017   0.00011  -0.21450
   D38        3.02474  -0.00001   0.00029  -0.00005   0.00023   3.02497
   D39        2.78557  -0.00002  -0.00002  -0.00017  -0.00019   2.78538
   D40       -0.25826   0.00006  -0.00000  -0.00006  -0.00007  -0.25833
   D41       -3.02763   0.00002  -0.00028   0.00002  -0.00027  -3.02789
   D42        0.17818  -0.00018  -0.00020   0.00007  -0.00013   0.17805
   D43        0.25316  -0.00005  -0.00000   0.00003   0.00003   0.25319
   D44       -2.82422  -0.00025   0.00008   0.00009   0.00016  -2.82406
   D45        0.59102   0.00004  -0.00012   0.00024   0.00013   0.59115
   D46       -2.64014  -0.00004  -0.00013   0.00014   0.00002  -2.64012
   D47        0.12835  -0.00004   0.00001   0.00001   0.00003   0.12838
   D48       -3.06481  -0.00004  -0.00000  -0.00001  -0.00002  -3.06482
   D49       -2.92857   0.00004   0.00003   0.00011   0.00013  -2.92844
   D50        0.16145   0.00004   0.00001   0.00008   0.00009   0.16154
   D51        0.04882  -0.00002  -0.00002   0.00008   0.00006   0.04888
   D52        3.13714   0.00002  -0.00002   0.00001  -0.00001   3.13713
   D53       -3.03812  -0.00002  -0.00000   0.00010   0.00010  -3.03801
   D54        0.05021   0.00002   0.00000   0.00003   0.00004   0.05024
   D55       -0.06528   0.00004   0.00001  -0.00010  -0.00008  -0.06536
   D56        3.01749   0.00008   0.00002  -0.00008  -0.00007   3.01743
   D57        3.12959   0.00000   0.00001  -0.00003  -0.00002   3.12957
   D58       -0.07082   0.00004   0.00001  -0.00001   0.00000  -0.07082
   D59       -0.10133  -0.00000  -0.00000   0.00004   0.00004  -0.10129
   D60        2.97976   0.00019  -0.00008  -0.00001  -0.00008   2.97967
   D61        3.09601  -0.00004  -0.00001   0.00003   0.00002   3.09603
   D62       -0.10609   0.00016  -0.00008  -0.00002  -0.00010  -0.10619
         Item               Value     Threshold  Converged?
 Maximum Force            0.000021     0.000450     YES
 RMS     Force            0.000006     0.000300     YES
 Maximum Displacement     0.000586     0.001800     YES
 RMS     Displacement     0.000125     0.001200     YES
 Predicted change in Energy=-2.192570D-08
 Optimization completed.
    -- Stationary point found.
                           ----------------------------
                           !   Optimized Parameters   !
                           ! (Angstroms and Degrees)  !
 --------------------------                            --------------------------
 ! Name  Definition              Value          Derivative Info.                !
 --------------------------------------------------------------------------------
 ! R1    R(1,2)                  1.5218         -DE/DX =   -0.0001              !
 ! R2    R(1,17)                 1.1086         -DE/DX =    0.0                 !
 ! R3    R(1,18)                 1.1066         -DE/DX =    0.0                 !
 ! R4    R(1,19)                 1.1031         -DE/DX =    0.0                 !
 ! R5    R(2,3)                  1.4135         -DE/DX =    0.0                 !
 ! R6    R(2,8)                  1.4582         -DE/DX =    0.0001              !
 ! R7    R(3,4)                  1.3985         -DE/DX =    0.0                 !
 ! R8    R(3,20)                 1.1018         -DE/DX =    0.0                 !
 ! R9    R(4,5)                  1.397          -DE/DX =    0.0                 !
 ! R10   R(4,21)                 1.1            -DE/DX =    0.0                 !
 ! R11   R(5,6)                  1.3929         -DE/DX =    0.0                 !
 ! R12   R(5,22)                 1.0995         -DE/DX =    0.0                 !
 ! R13   R(6,7)                  1.384          -DE/DX =    0.0                 !
 ! R14   R(6,8)                  1.431          -DE/DX =    0.0                 !
 ! R15   R(8,9)                  1.5057         -DE/DX =    0.0                 !
 ! R16   R(9,10)                 1.4606         -DE/DX =    0.0                 !
 ! R17   R(9,15)                 1.4348         -DE/DX =    0.0                 !
 ! R18   R(10,11)                1.3521         -DE/DX =    0.0                 !
 ! R19   R(10,12)                1.4167         -DE/DX =    0.0                 !
 ! R20   R(11,23)                0.9795         -DE/DX =    0.0                 !
 ! R21   R(12,13)                1.3909         -DE/DX =    0.0                 !
 ! R22   R(12,24)                1.0992         -DE/DX =    0.0                 !
 ! R23   R(13,14)                1.3998         -DE/DX =    0.0                 !
 ! R24   R(13,25)                1.1004         -DE/DX =    0.0                 !
 ! R25   R(14,15)                1.3952         -DE/DX =    0.0                 !
 ! R26   R(14,26)                1.099          -DE/DX =    0.0                 !
 ! R27   R(15,16)                1.3502         -DE/DX =    0.0                 !
 ! A1    A(2,1,17)             107.3207         -DE/DX =    0.0                 !
 ! A2    A(2,1,18)             113.918          -DE/DX =    0.0                 !
 ! A3    A(2,1,19)             112.5182         -DE/DX =    0.0                 !
 ! A4    A(17,1,18)            107.4523         -DE/DX =    0.0                 !
 ! A5    A(17,1,19)            107.5222         -DE/DX =    0.0                 !
 ! A6    A(18,1,19)            107.8148         -DE/DX =    0.0                 !
 ! A7    A(1,2,3)              112.7755         -DE/DX =   -0.0001              !
 ! A8    A(1,2,8)              127.111          -DE/DX =    0.0002              !
 ! A9    A(3,2,8)              119.4634         -DE/DX =   -0.0001              !
 ! A10   A(2,3,4)              123.7972         -DE/DX =    0.0                 !
 ! A11   A(2,3,20)             117.12           -DE/DX =    0.0                 !
 ! A12   A(4,3,20)             118.9451         -DE/DX =    0.0                 !
 ! A13   A(3,4,5)              117.0556         -DE/DX =    0.0                 !
 ! A14   A(3,4,21)             121.3878         -DE/DX =    0.0                 !
 ! A15   A(5,4,21)             121.2344         -DE/DX =    0.0                 !
 ! A16   A(4,5,6)              118.2121         -DE/DX =    0.0                 !
 ! A17   A(4,5,22)             123.2204         -DE/DX =    0.0                 !
 ! A18   A(6,5,22)             118.4995         -DE/DX =    0.0                 !
 ! A19   A(5,6,7)              113.0843         -DE/DX =    0.0                 !
 ! A20   A(5,6,8)              126.849          -DE/DX =    0.0                 !
 ! A21   A(7,6,8)              119.952          -DE/DX =   -0.0001              !
 ! A22   A(2,8,6)              110.5013         -DE/DX =    0.0                 !
 ! A23   A(2,8,9)              127.9833         -DE/DX =   -0.0001              !
 ! A24   A(6,8,9)              121.5143         -DE/DX =    0.0                 !
 ! A25   A(8,9,10)             125.0013         -DE/DX =    0.0                 !
 ! A26   A(8,9,15)             123.6861         -DE/DX =    0.0                 !
 ! A27   A(10,9,15)            110.7845         -DE/DX =    0.0                 !
 ! A28   A(9,10,11)            126.4085         -DE/DX =    0.0                 !
 ! A29   A(9,10,12)            121.6508         -DE/DX =    0.0                 !
 ! A30   A(11,10,12)           111.7389         -DE/DX =    0.0                 !
 ! A31   A(10,11,23)           111.4577         -DE/DX =    0.0                 !
 ! A32   A(10,12,13)           122.1707         -DE/DX =    0.0                 !
 ! A33   A(10,12,24)           115.8662         -DE/DX =    0.0                 !
 ! A34   A(13,12,24)           121.8948         -DE/DX =    0.0                 !
 ! A35   A(12,13,14)           118.1479         -DE/DX =    0.0                 !
 ! A36   A(12,13,25)           120.8886         -DE/DX =    0.0                 !
 ! A37   A(14,13,25)           120.8917         -DE/DX =    0.0                 !
 ! A38   A(13,14,15)           119.1261         -DE/DX =    0.0                 !
 ! A39   A(13,14,26)           123.0059         -DE/DX =    0.0                 !
 ! A40   A(15,14,26)           117.786          -DE/DX =    0.0                 !
 ! A41   A(9,15,14)            126.2719         -DE/DX =    0.0                 !
 ! A42   A(9,15,16)            120.1849         -DE/DX =    0.0001              !
 ! A43   A(14,15,16)           113.4535         -DE/DX =    0.0                 !
 ! D1    D(17,1,2,3)           -28.5424         -DE/DX =   -0.0001              !
 ! D2    D(17,1,2,8)           142.0702         -DE/DX =    0.0001              !
 ! D3    D(18,1,2,3)            90.2727         -DE/DX =   -0.0001              !
 ! D4    D(18,1,2,8)           -99.1147         -DE/DX =    0.0001              !
 ! D5    D(19,1,2,3)          -146.6221         -DE/DX =   -0.0001              !
 ! D6    D(19,1,2,8)            23.9905         -DE/DX =    0.0001              !
 ! D7    D(1,2,3,4)            162.7559         -DE/DX =    0.0002              !
 ! D8    D(1,2,3,20)           -12.9235         -DE/DX =    0.0001              !
 ! D9    D(8,2,3,4)             -8.6522         -DE/DX =    0.0                 !
 ! D10   D(8,2,3,20)           175.6684         -DE/DX =    0.0                 !
 ! D11   D(1,2,8,6)           -149.1558         -DE/DX =   -0.0002              !
 ! D12   D(1,2,8,9)             30.4589         -DE/DX =   -0.0001              !
 ! D13   D(3,2,8,6)             20.8976         -DE/DX =   -0.0001              !
 ! D14   D(3,2,8,9)           -159.4877         -DE/DX =    0.0                 !
 ! D15   D(2,3,4,5)             -7.1578         -DE/DX =    0.0                 !
 ! D16   D(2,3,4,21)           179.2845         -DE/DX =    0.0                 !
 ! D17   D(20,3,4,5)           168.4475         -DE/DX =    0.0001              !
 ! D18   D(20,3,4,21)           -5.1102         -DE/DX =    0.0                 !
 ! D19   D(3,4,5,6)              8.1935         -DE/DX =    0.0                 !
 ! D20   D(3,4,5,22)          -168.7604         -DE/DX =    0.0                 !
 ! D21   D(21,4,5,6)          -178.2382         -DE/DX =    0.0                 !
 ! D22   D(21,4,5,22)            4.8079         -DE/DX =    0.0                 !
 ! D23   D(4,5,6,7)           -169.082          -DE/DX =    0.0                 !
 ! D24   D(4,5,6,8)              6.9852         -DE/DX =    0.0                 !
 ! D25   D(22,5,6,7)             8.0184         -DE/DX =    0.0                 !
 ! D26   D(22,5,6,8)          -175.9143         -DE/DX =    0.0                 !
 ! D27   D(5,6,8,2)            -21.1803         -DE/DX =    0.0001              !
 ! D28   D(5,6,8,9)            159.1759         -DE/DX =    0.0                 !
 ! D29   D(7,6,8,2)            154.6438         -DE/DX =    0.0                 !
 ! D30   D(7,6,8,9)            -25.0001         -DE/DX =   -0.0001              !
 ! D31   D(1,8,9,16)            16.2148         -DE/DX =   -0.0008              !
 ! D32   D(2,8,9,10)           168.433          -DE/DX =   -0.0005              !
 ! D33   D(2,8,9,15)            -2.4556         -DE/DX =   -0.0006              !
 ! D34   D(6,8,9,10)           -11.9902         -DE/DX =   -0.0004              !
 ! D35   D(6,8,9,15)           177.1211         -DE/DX =   -0.0005              !
 ! D36   D(7,8,9,11)           -29.3991         -DE/DX =   -0.0005              !
 ! D37   D(8,9,10,11)          -12.2964         -DE/DX =   -0.0001              !
 ! D38   D(8,9,10,12)          173.3046         -DE/DX =    0.0                 !
 ! D39   D(15,9,10,11)         159.6016         -DE/DX =    0.0                 !
 ! D40   D(15,9,10,12)         -14.7974         -DE/DX =    0.0001              !
 ! D41   D(8,9,15,14)         -173.4702         -DE/DX =    0.0                 !
 ! D42   D(8,9,15,16)           10.2091         -DE/DX =   -0.0002              !
 ! D43   D(10,9,15,14)          14.5049         -DE/DX =    0.0                 !
 ! D44   D(10,9,15,16)        -161.8158         -DE/DX =   -0.0003              !
 ! D45   D(9,10,11,23)          33.8629         -DE/DX =    0.0                 !
 ! D46   D(12,10,11,23)       -151.2688         -DE/DX =    0.0                 !
 ! D47   D(9,10,12,13)           7.3541         -DE/DX =    0.0                 !
 ! D48   D(9,10,12,24)        -175.6005         -DE/DX =    0.0                 !
 ! D49   D(11,10,12,13)       -167.7949         -DE/DX =    0.0                 !
 ! D50   D(11,10,12,24)          9.2504         -DE/DX =    0.0                 !
 ! D51   D(10,12,13,14)          2.7972         -DE/DX =    0.0                 !
 ! D52   D(10,12,13,25)        179.745          -DE/DX =    0.0                 !
 ! D53   D(24,12,13,14)       -174.0712         -DE/DX =    0.0                 !
 ! D54   D(24,12,13,25)          2.8766         -DE/DX =    0.0                 !
 ! D55   D(12,13,14,15)         -3.7403         -DE/DX =    0.0                 !
 ! D56   D(12,13,14,26)        172.8897         -DE/DX =    0.0001              !
 ! D57   D(25,13,14,15)        179.312          -DE/DX =    0.0                 !
 ! D58   D(25,13,14,26)         -4.058          -DE/DX =    0.0                 !
 ! D59   D(13,14,15,9)          -5.806          -DE/DX =    0.0                 !
 ! D60   D(13,14,15,16)        170.7274         -DE/DX =    0.0002              !
 ! D61   D(26,14,15,9)         177.3882         -DE/DX =    0.0                 !
 ! D62   D(26,14,15,16)         -6.0783         -DE/DX =    0.0002              !
 --------------------------------------------------------------------------------
 GradGradGradGradGradGradGradGradGradGradGradGradGradGradGradGradGradGrad

                          Input orientation:                          
 ---------------------------------------------------------------------
 Center     Atomic      Atomic             Coordinates (Angstroms)
 Number     Number       Type             X           Y           Z
 ---------------------------------------------------------------------
      1          6           0       -1.092064    2.517985   -1.234449
      2          6           0       -1.506865    1.208666   -0.579066
      3          6           0       -2.882570    1.169762   -0.256936
      4          6           0       -3.583087   -0.007910    0.022478
      5          6           0       -2.904297   -1.212922   -0.174330
      6          6           0       -1.542354   -1.162142   -0.461830
      7          9           0       -1.028312   -2.380301   -0.870932
      8          6           0       -0.704798   -0.001932   -0.447018
      9          6           0        0.791246   -0.112820   -0.317742
     10          6           0        1.512630   -1.328724    0.049015
     11          8           0        0.972076   -2.462417    0.549762
     12          6           0        2.927469   -1.392604    0.014886
     13          6           0        3.713984   -0.270075   -0.221483
     14          6           0        3.073353    0.965474   -0.371232
     15          6           0        1.679093    1.013567   -0.357400
     16          9           0        1.185130    2.269323   -0.310599
     17          1           0       -1.978145    2.914225   -1.770045
     18          1           0       -0.763135    3.294087   -0.517521
     19          1           0       -0.288040    2.382385   -1.977472
     20          1           0       -3.435608    2.121689   -0.300044
     21          1           0       -4.652280    0.008942    0.280236
     22          1           0       -3.401508   -2.193461   -0.161233
     23          1           0        0.079389   -2.626740    0.181607
     24          1           0        3.368656   -2.374616    0.236756
     25          1           0        4.811811   -0.343072   -0.239288
     26          1           0        3.618055    1.916948   -0.446828
 ---------------------------------------------------------------------
                    Distance matrix (angstroms):
                    1          2          3          4          5
     1  C    0.000000
     2  C    1.521809   0.000000
     3  C    2.445229   1.413451   0.000000
     4  C    3.763669   2.480445   1.398466   0.000000
     5  C    4.281087   2.825016   2.384215   1.396976   0.000000
     6  C    3.787220   2.373970   2.697394   2.394033   1.392884
     7  F    4.912170   3.632476   4.051939   3.599068   2.316754
     8  C    2.668333   1.458182   2.480259   2.916334   2.525600
     9  C    3.362788   2.663819   3.891739   4.388797   3.858475
    10  C    4.819635   3.993769   5.064960   5.264179   4.424087
    11  O    5.678775   4.571242   5.357404   5.201167   4.136644
    12  C    5.745449   5.175201   6.355797   6.656182   5.837601
    13  C    5.647785   5.437997   6.751956   7.305853   6.685270
    14  C    4.528370   4.591376   5.960521   6.738744   6.365256
    15  C    3.272889   3.199614   4.565442   5.373850   5.098847
    16  F    2.470009   2.905840   4.214036   5.294584   5.372897
    17  H    1.108606   2.132948   2.480047   3.785215   4.520775
    18  H    1.106577   2.214927   3.012086   4.375718   5.001548
    19  H    1.103144   2.195152   3.341001   4.535487   4.798162
    20  H    2.553891   2.152094   1.101760   2.158926   3.379012
    21  H    4.611367   3.474388   2.183559   1.099954   2.180602
    22  H    5.355655   3.916468   3.404368   2.200762   1.099475
    23  H    5.463122   4.219617   4.835177   4.505254   3.320836
    24  H    6.782330   6.105422   7.203066   7.346695   6.392845
    25  H    6.635641   6.515291   7.841713   8.405662   7.765255
    26  H    4.813192   5.175323   6.546180   7.468720   7.239574
                    6          7          8          9         10
     6  C    0.000000
     7  F    1.384021   0.000000
     8  C    1.431016   2.437418   0.000000
     9  C    2.562718   2.959439   1.505708   0.000000
    10  C    3.101877   2.899742   2.631238   1.460592   0.000000
    11  O    3.006060   2.454928   3.139979   2.511149   1.352111
    12  C    4.501076   4.172340   3.916719   2.512357   1.416691
    13  C    5.336913   5.231082   4.432652   2.928548   2.457614
    14  C    5.083278   5.316725   3.900775   2.524598   2.806387
    15  C    3.888745   4.371739   2.592722   1.434780   2.383110
    16  F    4.386000   5.179991   2.957877   2.414498   3.630774
    17  H    4.303267   5.453677   3.446126   4.352207   5.787669
    18  H    4.524186   5.691563   3.297288   3.750070   5.183671
    19  H    4.053905   4.945261   2.863729   3.185217   4.595802
    20  H    3.793959   5.137012   3.462468   4.781175   6.042537
    21  H    3.404958   4.490748   4.013929   5.477625   6.312601
    22  H    2.147191   2.484077   3.486649   4.683241   4.994069
    23  H    2.277961   1.547764   2.810647   2.660053   1.938197
    24  H    5.106479   4.534350   4.763423   3.473648   2.138683
    25  H    6.410602   6.217420   5.531049   4.027917   3.455318
    26  H    6.009230   6.343102   4.729605   3.482453   3.900393
                   11         12         13         14         15
    11  O    0.000000
    12  C    2.292194   0.000000
    13  C    3.594335   1.390880   0.000000
    14  C    4.124807   2.393930   1.399791   0.000000
    15  C    3.661322   2.736183   2.409770   1.395157   0.000000
    16  F    4.814040   4.068340   3.584910   2.295448   1.350227
    17  H    6.556950   6.767555   6.703591   5.592131   4.357001
    18  H    6.106340   5.989080   5.730225   4.490265   3.345278
    19  H    5.607754   5.344111   5.112263   3.985800   2.892733
    20  H    6.415908   7.275862   7.539454   6.611238   5.233679
    21  H    6.149280   7.712803   8.385938   7.811835   6.442215
    22  H    4.439154   6.381876   7.371111   7.207412   6.011324
    23  H    0.979506   3.108448   4.350476   4.708870   4.012657
    24  H    2.418527   1.099191   2.181360   3.407793   3.832418
    25  H    4.456207   2.171834   1.100395   2.179894   3.415895
    26  H    5.212795   3.412217   2.200693   1.098962   2.140950
                   16         17         18         19         20
    16  F    0.000000
    17  H    3.542907   0.000000
    18  H    2.211039   1.785878   0.000000
    19  H    2.227437   1.783910   1.785602   0.000000
    20  H    4.623108   2.216577   2.926418   3.576159   0.000000
    21  H    6.287588   4.449193   5.153061   5.456837   2.506135
    22  H    6.401250   5.541001   6.099273   5.825013   4.317516
    23  H    5.043447   6.224522   6.021197   5.466988   5.927458
    24  H    5.160770   7.783788   7.055127   6.395567   8.173305
    25  H    4.470180   7.684836   6.662309   6.038036   8.608057
    26  H    2.462083   5.836345   4.593075   4.221028   7.058160
                   21         22         23         24         25
    21  H    0.000000
    22  H    2.570974   0.000000
    23  H    5.417124   3.524473   0.000000
    24  H    8.367715   6.784271   3.299376   0.000000
    25  H    9.484874   8.419539   5.271443   2.537023   0.000000
    26  H    8.518659   8.139490   5.793289   4.352816   2.564336
                   26
    26  H    0.000000
 Symmetry turned off by external request.
 Stoichiometry    C13H10F2O
 Framework group  C1[X(C13H10F2O)]
 Deg. of freedom    72
 Full point group                 C1      NOp   1
 Rotational constants (GHZ):           0.8394980           0.4706600           0.3128656

 **********************************************************************

            Population analysis using the SCF Density.

 **********************************************************************

 Alpha  occ. eigenvalues --  -24.33304 -24.30369 -18.80074 -10.01151 -10.00341
 Alpha  occ. eigenvalues --   -9.98880  -9.96247  -9.95147  -9.94820  -9.93317
 Alpha  occ. eigenvalues --   -9.93242  -9.92726  -9.92488  -9.91737  -9.91703
 Alpha  occ. eigenvalues --   -9.91220  -1.13477  -1.11381  -0.96049  -0.79510
 Alpha  occ. eigenvalues --   -0.77259  -0.71561  -0.70155  -0.66808  -0.66211
 Alpha  occ. eigenvalues --   -0.62542  -0.58939  -0.56163  -0.55023  -0.53569
 Alpha  occ. eigenvalues --   -0.51728  -0.48595  -0.47924  -0.46167  -0.44266
 Alpha  occ. eigenvalues --   -0.43447  -0.42995  -0.42334  -0.41726  -0.40422
 Alpha  occ. eigenvalues --   -0.38742  -0.38148  -0.38019  -0.36640  -0.35949
 Alpha  occ. eigenvalues --   -0.34300  -0.33949  -0.33135  -0.32886  -0.31004
 Alpha  occ. eigenvalues --   -0.30666  -0.30258  -0.28558  -0.26710  -0.22490
 Alpha  occ. eigenvalues --   -0.20908  -0.19770
 Alpha virt. eigenvalues --   -0.09113  -0.04990  -0.03075  -0.02554   0.02503
 Alpha virt. eigenvalues --    0.03872   0.04601   0.06563   0.07606   0.08084
 Alpha virt. eigenvalues --    0.09527   0.10085   0.10988   0.11158   0.11997
 Alpha virt. eigenvalues --    0.12673   0.13964   0.15823   0.17006   0.19080
 Alpha virt. eigenvalues --    0.19880   0.21862   0.23656   0.25104   0.25728
 Alpha virt. eigenvalues --    0.26511   0.27548   0.28575   0.29533   0.30595
 Alpha virt. eigenvalues --    0.32716   0.34908   0.36014   0.36540   0.37320
 Alpha virt. eigenvalues --    0.38767   0.39697   0.40243   0.41625   0.41696
 Alpha virt. eigenvalues --    0.42375   0.42814   0.43949   0.44212   0.45757
 Alpha virt. eigenvalues --    0.46839   0.47292   0.48752   0.49910   0.51306
 Alpha virt. eigenvalues --    0.51930   0.52088   0.53249   0.53932   0.55198
 Alpha virt. eigenvalues --    0.56144   0.56827   0.58429   0.59080   0.59469
 Alpha virt. eigenvalues --    0.60456   0.61048   0.61462   0.61900   0.62634
 Alpha virt. eigenvalues --    0.63556   0.64638   0.64887   0.65536   0.65984
 Alpha virt. eigenvalues --    0.67374   0.68381   0.70127   0.71427   0.71855
 Alpha virt. eigenvalues --    0.72630   0.73845   0.75055   0.76091   0.77717
 Alpha virt. eigenvalues --    0.81023   0.82085   0.82233   0.88217   0.92040
 Alpha virt. eigenvalues --    0.94002   0.95593   0.96697   0.98012   1.01040
 Alpha virt. eigenvalues --    1.04277   1.05312   1.07549   1.09280   1.10434
 Alpha virt. eigenvalues --    1.11824   1.14107   1.16013   1.17293   1.19233
 Alpha virt. eigenvalues --    1.21042   1.22116   1.22895   1.25462   1.27203
 Alpha virt. eigenvalues --    1.28046   1.31005   1.31294   1.34698   1.35849
 Alpha virt. eigenvalues --    1.37072   1.38539   1.42420   1.44171   1.46571
 Alpha virt. eigenvalues --    1.49447   1.52336   1.55034   1.56851   1.57364
 Alpha virt. eigenvalues --    1.58810   1.59301   1.61500   1.61888   1.62571
 Alpha virt. eigenvalues --    1.63465   1.63980   1.64338   1.65342   1.66070
 Alpha virt. eigenvalues --    1.67209   1.67620   1.70620   1.71829   1.72284
 Alpha virt. eigenvalues --    1.72513   1.73519   1.74512   1.76100   1.77832
 Alpha virt. eigenvalues --    1.78080   1.81301   1.82839   1.84681   1.85895
 Alpha virt. eigenvalues --    1.86283   1.87424   1.89994   1.90638   1.92677
 Alpha virt. eigenvalues --    1.93994   1.95544   1.96848   1.97831   1.99048
 Alpha virt. eigenvalues --    1.99947   2.01792   2.04711   2.05898   2.08880
 Alpha virt. eigenvalues --    2.09244   2.09624   2.13715   2.15186   2.17458
 Alpha virt. eigenvalues --    2.17588   2.18516   2.19472   2.20244   2.23421
 Alpha virt. eigenvalues --    2.23610   2.28393   2.31215   2.33291   2.35401
 Alpha virt. eigenvalues --    2.36603   2.37794   2.43531   2.45024   2.46917
 Alpha virt. eigenvalues --    2.48337   2.48775   2.52214   2.54759   2.55179
 Alpha virt. eigenvalues --    2.59320   2.61664   2.62761   2.65395   2.67604
 Alpha virt. eigenvalues --    2.68706   2.75916   2.77520   2.81025   2.81898
 Alpha virt. eigenvalues --    2.84007   2.87073   2.88461   2.90049   2.92998
 Alpha virt. eigenvalues --    2.93731   2.97998   3.00393   3.01850   3.06750
 Alpha virt. eigenvalues --    3.10038   3.12416   3.15176   3.20141   3.29593
 Alpha virt. eigenvalues --    3.32318   3.38530   3.43523   3.47986   3.67738
 Alpha virt. eigenvalues --    3.74448   3.78935
          Condensed to atoms (all electrons):
               1          2          3          4          5          6
     1  C    4.556648   0.439422  -0.074519   0.013523   0.000044   0.008924
     2  C    0.439422   5.188253   0.363542   0.057115  -0.117632   0.038686
     3  C   -0.074519   0.363542   5.092454   0.293675   0.084214  -0.134758
     4  C    0.013523   0.057115   0.293675   5.069802   0.236859   0.090066
     5  C    0.000044  -0.117632   0.084214   0.236859   5.199903   0.316749
     6  C    0.008924   0.038686  -0.134758   0.090066   0.316749   5.211386
     7  F   -0.000015   0.001775  -0.000008   0.005103  -0.059383   0.299924
     8  C   -0.063543   0.303375   0.031701  -0.088599  -0.003179   0.212475
     9  C   -0.019301  -0.045816   0.013951  -0.000327   0.011662  -0.065313
    10  C   -0.000373   0.007758   0.000274  -0.000245   0.001448  -0.026305
    11  O   -0.000003  -0.000020   0.000000   0.000003  -0.001147   0.008519
    12  C    0.000002   0.000109  -0.000002   0.000001  -0.000049   0.001723
    13  C   -0.000022  -0.000073   0.000001  -0.000000   0.000002  -0.000295
    14  C    0.000056   0.000213  -0.000016   0.000001  -0.000002   0.000175
    15  C   -0.001042  -0.021723   0.000115  -0.000054  -0.000066   0.011159
    16  F    0.004735  -0.004718  -0.000057   0.000001  -0.000001   0.000289
    17  H    0.375808  -0.023559  -0.018939   0.002046  -0.000065  -0.000016
    18  H    0.357423   0.000304   0.000125  -0.000230  -0.000046  -0.000230
    19  H    0.372099  -0.001982   0.007711  -0.000867   0.000218  -0.000840
    20  H   -0.018870  -0.064538   0.424664  -0.065976   0.013764  -0.000520
    21  H   -0.000411   0.014355  -0.064676   0.432033  -0.070483   0.013537
    22  H    0.000018  -0.000892   0.012523  -0.064180   0.415171  -0.058108
    23  H   -0.000001   0.000450  -0.000069   0.000259  -0.002216  -0.017569
    24  H    0.000000   0.000001  -0.000000   0.000000   0.000001   0.000003
    25  H    0.000000  -0.000000   0.000000   0.000000  -0.000000   0.000001
    26  H   -0.000010   0.000027  -0.000000   0.000000  -0.000000   0.000001
               7          8          9         10         11         12
     1  C   -0.000015  -0.063543  -0.019301  -0.000373  -0.000003   0.000002
     2  C    0.001775   0.303375  -0.045816   0.007758  -0.000020   0.000109
     3  C   -0.000008   0.031701   0.013951   0.000274   0.000000  -0.000002
     4  C    0.005103  -0.088599  -0.000327  -0.000245   0.000003   0.000001
     5  C   -0.059383  -0.003179   0.011662   0.001448  -0.001147  -0.000049
     6  C    0.299924   0.212475  -0.065313  -0.026305   0.008519   0.001723
     7  F    8.989173  -0.070082   0.002417   0.001092  -0.027013  -0.000549
     8  C   -0.070082   5.457088   0.228695  -0.068421  -0.003973   0.009412
     9  C    0.002417   0.228695   5.752182   0.138441  -0.075035   0.009867
    10  C    0.001092  -0.068421   0.138441   5.183886   0.454855   0.287054
    11  O   -0.027013  -0.003973  -0.075035   0.454855   7.557448  -0.089331
    12  C   -0.000549   0.009412   0.009867   0.287054  -0.089331   5.254495
    13  C    0.000001  -0.000111  -0.103423   0.115378   0.005975   0.211681
    14  C   -0.000000   0.013489   0.001881  -0.140405   0.000092   0.108866
    15  C    0.000157  -0.056049   0.164753   0.092944   0.001458  -0.138002
    16  F   -0.000000  -0.000011  -0.074237   0.001844  -0.000001   0.000035
    17  H    0.000001   0.007361  -0.000618   0.000005   0.000000   0.000000
    18  H    0.000000  -0.001229   0.003954   0.000030   0.000000  -0.000002
    19  H   -0.000004  -0.011364   0.005264   0.000192   0.000001  -0.000010
    20  H    0.000004   0.015028  -0.000228   0.000001   0.000000  -0.000000
    21  H   -0.000074  -0.001309   0.000018   0.000000  -0.000000   0.000000
    22  H    0.000815   0.017024  -0.000285   0.000052   0.000008  -0.000000
    23  H    0.051409   0.005646  -0.011557  -0.025473   0.338547   0.004560
    24  H    0.000018  -0.000197   0.019823  -0.056422   0.003625   0.415737
    25  H   -0.000000   0.000011  -0.001942   0.014420  -0.000112  -0.069307
    26  H   -0.000000  -0.000225   0.019202  -0.001353   0.000006   0.013498
              13         14         15         16         17         18
     1  C   -0.000022   0.000056  -0.001042   0.004735   0.375808   0.357423
     2  C   -0.000073   0.000213  -0.021723  -0.004718  -0.023559   0.000304
     3  C    0.000001  -0.000016   0.000115  -0.000057  -0.018939   0.000125
     4  C   -0.000000   0.000001  -0.000054   0.000001   0.002046  -0.000230
     5  C    0.000002  -0.000002  -0.000066  -0.000001  -0.000065  -0.000046
     6  C   -0.000295   0.000175   0.011159   0.000289  -0.000016  -0.000230
     7  F    0.000001  -0.000000   0.000157  -0.000000   0.000001   0.000000
     8  C   -0.000111   0.013489  -0.056049  -0.000011   0.007361  -0.001229
     9  C   -0.103423   0.001881   0.164753  -0.074237  -0.000618   0.003954
    10  C    0.115378  -0.140405   0.092944   0.001844   0.000005   0.000030
    11  O    0.005975   0.000092   0.001458  -0.000001   0.000000   0.000000
    12  C    0.211681   0.108866  -0.138002   0.000035   0.000000  -0.000002
    13  C    5.175707   0.164968   0.115188   0.005203  -0.000001   0.000002
    14  C    0.164968   5.283567   0.317743  -0.061703   0.000034  -0.000181
    15  C    0.115188   0.317743   5.055592   0.359969   0.000193  -0.002159
    16  F    0.005203  -0.061703   0.359969   8.927412   0.001699   0.003444
    17  H   -0.000001   0.000034   0.000193   0.001699   0.671893  -0.023150
    18  H    0.000002  -0.000181  -0.002159   0.003444  -0.023150   0.624944
    19  H    0.000068  -0.001178   0.000866  -0.001080  -0.028640  -0.018134
    20  H    0.000000  -0.000000   0.000023  -0.000010   0.004955   0.001946
    21  H   -0.000000   0.000000   0.000000   0.000000  -0.000018   0.000013
    22  H    0.000000  -0.000000   0.000002  -0.000000  -0.000002  -0.000001
    23  H    0.000026  -0.000162   0.000216   0.000001  -0.000001   0.000001
    24  H   -0.073395   0.014381  -0.001551   0.000004  -0.000000  -0.000000
    25  H    0.436293  -0.070781   0.014048  -0.000084   0.000000   0.000000
    26  H   -0.069532   0.416049  -0.059306   0.001775  -0.000002   0.000024
              19         20         21         22         23         24
     1  C    0.372099  -0.018870  -0.000411   0.000018  -0.000001   0.000000
     2  C   -0.001982  -0.064538   0.014355  -0.000892   0.000450   0.000001
     3  C    0.007711   0.424664  -0.064676   0.012523  -0.000069  -0.000000
     4  C   -0.000867  -0.065976   0.432033  -0.064180   0.000259   0.000000
     5  C    0.000218   0.013764  -0.070483   0.415171  -0.002216   0.000001
     6  C   -0.000840  -0.000520   0.013537  -0.058108  -0.017569   0.000003
     7  F   -0.000004   0.000004  -0.000074   0.000815   0.051409   0.000018
     8  C   -0.011364   0.015028  -0.001309   0.017024   0.005646  -0.000197
     9  C    0.005264  -0.000228   0.000018  -0.000285  -0.011557   0.019823
    10  C    0.000192   0.000001   0.000000   0.000052  -0.025473  -0.056422
    11  O    0.000001   0.000000  -0.000000   0.000008   0.338547   0.003625
    12  C   -0.000010  -0.000000   0.000000  -0.000000   0.004560   0.415737
    13  C    0.000068   0.000000  -0.000000   0.000000   0.000026  -0.073395
    14  C   -0.001178  -0.000000   0.000000  -0.000000  -0.000162   0.014381
    15  C    0.000866   0.000023   0.000000   0.000002   0.000216  -0.001551
    16  F   -0.001080  -0.000010   0.000000  -0.000000   0.000001   0.000004
    17  H   -0.028640   0.004955  -0.000018  -0.000002  -0.000001  -0.000000
    18  H   -0.018134   0.001946   0.000013  -0.000001   0.000001  -0.000000
    19  H    0.641691   0.000538   0.000010  -0.000001   0.000002  -0.000000
    20  H    0.000538   0.700383  -0.012399  -0.000367  -0.000001   0.000000
    21  H    0.000010  -0.012399   0.688872  -0.011750   0.000003  -0.000000
    22  H   -0.000001  -0.000367  -0.011750   0.673911   0.000147  -0.000000
    23  H    0.000002  -0.000001   0.000003   0.000147   0.470509   0.000037
    24  H   -0.000000   0.000000  -0.000000  -0.000000   0.000037   0.686229
    25  H   -0.000001  -0.000000   0.000000  -0.000000   0.000012  -0.013182
    26  H    0.000040  -0.000000  -0.000000   0.000000  -0.000002  -0.000306
              25         26
     1  C    0.000000  -0.000010
     2  C   -0.000000   0.000027
     3  C    0.000000  -0.000000
     4  C    0.000000   0.000000
     5  C   -0.000000  -0.000000
     6  C    0.000001   0.000001
     7  F   -0.000000  -0.000000
     8  C    0.000011  -0.000225
     9  C   -0.001942   0.019202
    10  C    0.014420  -0.001353
    11  O   -0.000112   0.000006
    12  C   -0.069307   0.013498
    13  C    0.436293  -0.069532
    14  C   -0.070781   0.416049
    15  C    0.014048  -0.059306
    16  F   -0.000084   0.001775
    17  H    0.000000  -0.000002
    18  H    0.000000   0.000024
    19  H   -0.000001   0.000040
    20  H   -0.000000  -0.000000
    21  H    0.000000  -0.000000
    22  H   -0.000000   0.000000
    23  H    0.000012  -0.000002
    24  H   -0.013182  -0.000306
    25  H    0.691536  -0.012326
    26  H   -0.012326   0.685382
 Mulliken charges:
               1
     1  C    0.049407
     2  C   -0.134430
     3  C   -0.031906
     4  C    0.019990
     5  C   -0.025766
     6  C    0.090337
     7  F   -0.194763
     8  C    0.066987
     9  C    0.025971
    10  C    0.019323
    11  O   -0.173902
    12  C   -0.019787
    13  C    0.016357
    14  C   -0.047085
    15  C    0.145528
    16  F   -0.164508
    17  H    0.031014
    18  H    0.053153
    19  H    0.035400
    20  H    0.001602
    21  H    0.012277
    22  H    0.015914
    23  H    0.185227
    24  H    0.005193
    25  H    0.011413
    26  H    0.007057
 Sum of Mulliken charges =  -0.00000
 Mulliken charges with hydrogens summed into heavy atoms:
               1
     1  C    0.168973
     2  C   -0.134430
     3  C   -0.030304
     4  C    0.032267
     5  C   -0.009852
     6  C    0.090337
     7  F   -0.194763
     8  C    0.066987
     9  C    0.025971
    10  C    0.019323
    11  O    0.011324
    12  C   -0.014595
    13  C    0.027771
    14  C   -0.040028
    15  C    0.145528
    16  F   -0.164508
 Electronic spatial extent (au):  <R**2>=           3428.2307
 Charge=             -0.0000 electrons
 Dipole moment (field-independent basis, Debye):
    X=             -1.3625    Y=              0.6240    Z=             -0.5188  Tot=              1.5858
 Quadrupole moment (field-independent basis, Debye-Ang):
   XX=            -78.6931   YY=            -88.7112   ZZ=            -95.1259
   XY=              1.5101   XZ=             -1.0361   YZ=             -0.9449
 Traceless Quadrupole moment (field-independent basis, Debye-Ang):
   XX=              8.8169   YY=             -1.2011   ZZ=             -7.6158
   XY=              1.5101   XZ=             -1.0361   YZ=             -0.9449
 Octapole moment (field-independent basis, Debye-Ang**2):
  XXX=             -3.7802  YYY=             12.7061  ZZZ=             88.4940  XYY=            -14.0967
  XXY=              2.8998  XXZ=             30.9969  XZZ=             -2.7609  YZZ=              7.3468
  YYZ=             25.0319  XYZ=              2.5502
 Hexadecapole moment (field-independent basis, Debye-Ang**3):
 XXXX=          -2567.1986 YYYY=          -1345.2158 ZZZZ=           -253.3714 XXXY=             73.1108
 XXXZ=            -72.0150 YYYX=             78.8821 YYYZ=             95.3511 ZZZX=            -47.6872
 ZZZY=             94.4883 XXYY=           -657.7229 XXZZ=           -565.9711 YYZZ=           -275.9394
 XXYZ=             21.0436 YYXZ=            -17.7964 ZZXY=             24.7571
 N-N= 1.069539680017D+03 E-N=-3.950148145399D+03  KE= 7.677393088611D+02

 Test job not archived.
 1\1\GINC-SEMLSCPN045\FOpt\RBP86\def2SVP\C13H10F2O1\KTVF206\23-Jul-2026
 \0\\# opt=modredundant bp86 empiricaldispersion=GD3BJ def2svp IOP(1/8=
 2) nosymm\\example\\0,1\C,-1.0920641813,2.5179848191,-1.2344486043\C,-
 1.5068654464,1.2086661144,-0.5790657456\C,-2.8825696328,1.1697617783,-
 0.2569357293\C,-3.5830866432,-0.0079101858,0.022478174\C,-2.9042974967
 ,-1.2129222113,-0.1743295625\C,-1.5423542564,-1.1621420836,-0.46183001
 31\F,-1.0283122573,-2.3803010699,-0.8709323204\C,-0.7047981732,-0.0019
 317333,-0.4470175163\C,0.7912455541,-0.1128203444,-0.3177423919\C,1.51
 26300336,-1.3287242877,0.0490154994\O,0.9720763705,-2.4624172117,0.549
 7618964\C,2.9274687774,-1.3926035711,0.0148864727\C,3.7139840561,-0.27
 00745302,-0.2214831309\C,3.0733528407,0.9654741233,-0.3712319673\C,1.6
 790932899,1.0135668876,-0.3574001335\F,1.1851302599,2.2693228209,-0.31
 05994744\H,-1.9781446883,2.9142250351,-1.7700445912\H,-0.7631350615,3.
 2940865202,-0.5175209892\H,-0.2880396634,2.3823846283,-1.9774720365\H,
 -3.4356078219,2.1216885961,-0.300044065\H,-4.6522801237,0.0089423089,0
 .2802362204\H,-3.4015080292,-2.1934611144,-0.1612331524\H,0.0793885355
 ,-2.6267398041,0.1816071423\H,3.3686555352,-2.3746160578,0.2367555184\
 H,4.8118108501,-0.3430724865,-0.2392877624\H,3.6180553722,1.9169480596
 ,-0.4468277375\\Version=ES64L-G16RevC.02\HF=-775.7510424\RMSD=5.910e-0
 9\RMSF=1.199e-04\Dipole=-0.5360426,0.2454918,-0.2040996\Quadrupole=6.5
 55168,-0.8929855,-5.6621826,1.1227202,-0.7703065,-0.7025073\PG=C01 [X(
 C13H10F2O1)]\\@


 WORK FAITHFULLY FOR EIGHT HOURS A DAY AND DON'T WORRY.
 IN TIME YOU MAY BECOME BOSS AND WORK TWELVE HOURS A DAY
 AND HAVE ALL THE WORRY.
 Job cpu time:       0 days  0 hours 18 minutes 32.9 seconds.
 Elapsed time:       0 days  0 hours  2 minutes 26.7 seconds.
 File lengths (MBytes):  RWF=     53 Int=      0 D2E=      0 Chk=      7 Scr=      1
 Normal termination of Gaussian 16 at Thu Jul 23 14:21:46 2026.
