%mem=12000MB
%nprocshared=8
# opt=modredundant bp86 empiricaldispersion=GD3BJ def2svp  IOP(1/8=2) nosymm

example

0 1
C -1.0930170000 2.5183150000 -1.2360890000
C -1.5066600000 1.2079140000 -0.5818230000
C -2.8821200000 1.1695680000 -0.2568800000
C -3.5827520000 -0.0075660000 0.0246470000
C -2.9045200000 -1.2130270000 -0.1732740000
C -1.5429310000 -1.1625370000 -0.4619900000
F -1.0292940000 -2.3813750000 -0.8733490000
C -0.7047000000 -0.0032090000 -0.4491380000
C 0.7913450000 -0.1132240000 -0.3195400000
C 1.5131680000 -1.3287640000 0.0477210000
O 0.9727790000 -2.4625600000 0.5478790000
C 2.9278180000 -1.3927930000 0.0154470000
C 3.7145680000 -0.2701100000 -0.2196550000
C 3.0736940000 0.9652480000 -0.3692870000
C 1.6791790000 1.0134730000 -0.3572850000
F 1.1862380000 2.2695570000 -0.3111210000
H -1.9807510000 2.9167010000 -1.7673950000
H -0.7601080000 3.2923050000 -0.5185340000
H -0.2927290000 2.3845630000 -1.9833120000
H -3.4352540000 2.1215140000 -0.2999400000
H -4.6517190000 0.0101580000 0.2833840000
H -3.4015640000 -2.1936760000 -0.1595810000
H 0.0798220000 -2.6263020000 0.1805700000
H 3.3685960000 -2.3749140000 0.2379650000
H 4.8124650000 -0.3428440000 -0.2360550000
H 3.6182750000 1.9169000000 -0.4440710000

D 7 8 9 11 F
D 1 8 9 16 F

