      -----------------------------------------------------------      
     |                   =====================                   |     
     |                           x T B                           |     
     |                   =====================                   |     
     |                         S. Grimme                         |     
     |          Mulliken Center for Theoretical Chemistry        |     
     |                    University of Bonn                     |     
      -----------------------------------------------------------      

   * xtb version 6.6.1 (8d0f1dd) compiled by 'stahn@M-Bot' on 2023-08-01

   xtb is free software: you can redistribute it and/or modify it under
   the terms of the GNU Lesser General Public License as published by
   the Free Software Foundation, either version 3 of the License, or
   (at your option) any later version.
   
   xtb is distributed in the hope that it will be useful,
   but WITHOUT ANY WARRANTY; without even the implied warranty of
   MERCHANTABILITY or FITNESS FOR A PARTICULAR PURPOSE.  See the
   GNU Lesser General Public License for more details.
   
   Cite this work as:
   * C. Bannwarth, E. Caldeweyher, S. Ehlert, A. Hansen, P. Pracht,
     J. Seibert, S. Spicher, S. Grimme, WIREs Comput. Mol. Sci., 2020, 11,
     e01493. DOI: 10.1002/wcms.1493
   
   for GFN2-xTB:
   * C. Bannwarth, S. Ehlert and S. Grimme., J. Chem. Theory Comput., 2019,
     15, 1652-1671. DOI: 10.1021/acs.jctc.8b01176
   for GFN1-xTB:
   * S. Grimme, C. Bannwarth, P. Shushkov, J. Chem. Theory Comput., 2017,
     13, 1989-2009. DOI: 10.1021/acs.jctc.7b00118
   for GFN0-xTB:
   * P. Pracht, E. Caldeweyher, S. Ehlert, S. Grimme, ChemRxiv, 2019, preprint.
     DOI: 10.26434/chemrxiv.8326202.v1
   for GFN-FF:
   * S. Spicher and S. Grimme, Angew. Chem. Int. Ed., 2020, 59, 15665-15673.
     DOI: 10.1002/anie.202004239
   
   for ALPB and GBSA implicit solvation:
   * S. Ehlert, M. Stahn, S. Spicher, S. Grimme, J. Chem. Theory Comput.,
     2021, 17, 4250-4261. DOI: 10.1021/acs.jctc.1c00471
   
   for DFT-D4:
   * E. Caldeweyher, C. Bannwarth and S. Grimme, J. Chem. Phys., 2017,
     147, 034112. DOI: 10.1063/1.4993215
   * E. Caldeweyher, S. Ehlert, A. Hansen, H. Neugebauer, S. Spicher,
     C. Bannwarth and S. Grimme, J. Chem. Phys., 2019, 150, 154122.
     DOI: 10.1063/1.5090222
   * E. Caldeweyher, J.-M. Mewes, S. Ehlert and S. Grimme, Phys. Chem. Chem. Phys.
     2020, 22, 8499-8512. DOI: 10.1039/D0CP00502A
   
   for sTDA-xTB:
   * S. Grimme and C. Bannwarth, J. Chem. Phys., 2016, 145, 054103.
     DOI: 10.1063/1.4959605
   
   in the mass-spec context:
   * V. Asgeirsson, C. Bauer and S. Grimme, Chem. Sci., 2017, 8, 4879.
     DOI: 10.1039/c7sc00601b
   * J. Koopman and S. Grimme, ACS Omega 2019, 4, 12, 15120-15133.
     DOI: 10.1021/acsomega.9b02011
   
   for metadynamics refer to:
   * S. Grimme, J. Chem. Theory Comput., 2019, 155, 2847-2862
     DOI: 10.1021/acs.jctc.9b00143
   
   for SPH calculations refer to:
   * S. Spicher and S. Grimme, J. Chem. Theory Comput., 2021, 17, 1701-1714
     DOI: 10.1021/acs.jctc.0c01306
   
   with help from (in alphabetical order)
   P. Atkinson, C. Bannwarth, F. Bohle, G. Brandenburg, E. Caldeweyher
   M. Checinski, S. Dohm, S. Ehlert, S. Ehrlich, I. Gerasimov, C. Hölzer
   A. Katbashev, J. Koopman, C. Lavigne, S. Lehtola, F. März, M. Müller,
   F. Musil, H. Neugebauer, J. Pisarek, C. Plett, P. Pracht, F. Pultar,
   J. Seibert, P. Shushkov, S. Spicher, M. Stahn, M. Steiner, T. Strunk,
   J. Stückrath, T. Rose, and J. Unsleber
   
 * started run on 2025/08/28 at 10:02:12.864     

           -------------------------------------------------
          |                Calculation Setup                |
           -------------------------------------------------

          program call               : /path/to/xtb /path/to/13.xyz --opt --etemp 298.15 --chrg 0 --uhf 0 -P 4
          hostname                   : semlscpn101
          coordinate file            : /path/to/13.xyz
          omp threads                :                     4

   ID    Z sym.   atoms
    1    6 C      1-6, 8-10, 12-15
    2    9 F      7, 16
    3    8 O      11
    4    1 H      17-26

           -------------------------------------------------
          |                 G F N 2 - x T B                 |
           -------------------------------------------------

        Reference                      10.1021/acs.jctc.8b01176
      * Hamiltonian:
        H0-scaling (s, p, d)           1.850000    2.230000    2.230000
        zeta-weighting                 0.500000
      * Dispersion:
        s8                             2.700000
        a1                             0.520000
        a2                             5.000000
        s9                             5.000000
      * Repulsion:
        kExp                           1.500000    1.000000
        rExp                           1.000000
      * Coulomb:
        alpha                          2.000000
        third order                    shell-resolved
        anisotropic                    true
        a3                             3.000000
        a5                             4.000000
        cn-shift                       1.200000
        cn-exp                         4.000000
        max-rad                        5.000000


          ...................................................
          :                      SETUP                      :
          :.................................................:
          :  # basis functions                  74          :
          :  # atomic orbitals                  74          :
          :  # shells                           42          :
          :  # electrons                        82          :
          :  max. iterations                   250          :
          :  Hamiltonian                  GFN2-xTB          :
          :  restarted?                      false          :
          :  GBSA solvation                  false          :
          :  PC potential                    false          :
          :  electronic temp.          298.1500000     K    :
          :  accuracy                    1.0000000          :
          :  -> integral cutoff          0.2500000E+02      :
          :  -> integral neglect         0.1000000E-07      :
          :  -> SCF convergence          0.1000000E-05 Eh   :
          :  -> wf. convergence          0.1000000E-03 e    :
          :  Broyden damping             0.4000000          :
          ...................................................

 iter      E             dE          RMSdq      gap      omega  full diag
   1    -47.0544280 -0.470544E+02  0.416E+00    4.44       0.0  T
   2    -47.0942488 -0.398207E-01  0.250E+00    4.29       1.0  T
   3    -47.0900597  0.418903E-02  0.134E+00    4.30       1.0  T
   4    -47.1069657 -0.169060E-01  0.245E-01    4.31       1.0  T
   5    -47.1072396 -0.273901E-03  0.881E-02    4.37       1.0  T
   6    -47.1073491 -0.109510E-03  0.428E-02    4.37       1.0  T
   7    -47.1073604 -0.112471E-04  0.173E-02    4.36       1.1  T
   8    -47.1073639 -0.347131E-05  0.760E-03    4.36       2.6  T
   9    -47.1073645 -0.687616E-06  0.158E-03    4.36      12.4  T
  10    -47.1073646 -0.144075E-07  0.746E-04    4.36      26.3  T
  11    -47.1073646 -0.379971E-08  0.347E-04    4.36      56.5  T

   *** convergence criteria satisfied after 11 iterations ***

         #    Occupation            Energy/Eh            Energy/eV
      -------------------------------------------------------------
         1        2.0000           -0.8192524             -22.2930
       ...           ...                  ...                  ...
        35        2.0000           -0.4521993             -12.3050
        36        2.0000           -0.4486520             -12.2084
        37        2.0000           -0.4327188             -11.7749
        38        2.0000           -0.4137740             -11.2594
        39        2.0000           -0.4105006             -11.1703
        40        2.0000           -0.4076908             -11.0938
        41        2.0000           -0.4007244             -10.9043 (HOMO)
        42                         -0.2404558              -6.5431 (LUMO)
        43                         -0.2393301              -6.5125
        44                         -0.2363653              -6.4318
        45                         -0.2297750              -6.2525
        46                         -0.1108326              -3.0159
       ...                                ...                  ...
        74                          0.6978838              18.9904
      -------------------------------------------------------------
                  HL-Gap            0.1602686 Eh            4.3611 eV
             Fermi-level           -0.3205901 Eh           -8.7237 eV

 SCC (total)                   0 d,  0 h,  0 min,  0.099 sec
 SCC setup                      ...        0 min,  0.000 sec (  0.315%)
 Dispersion                     ...        0 min,  0.001 sec (  0.517%)
 classical contributions        ...        0 min,  0.000 sec (  0.124%)
 integral evaluation            ...        0 min,  0.005 sec (  5.423%)
 iterations                     ...        0 min,  0.078 sec ( 78.510%)
 molecular gradient             ...        0 min,  0.015 sec ( 14.658%)
 printout                       ...        0 min,  0.000 sec (  0.430%)

         :::::::::::::::::::::::::::::::::::::::::::::::::::::
         ::                     SUMMARY                     ::
         :::::::::::::::::::::::::::::::::::::::::::::::::::::
         :: total energy             -46.447296366574 Eh    ::
         :: gradient norm              0.096515058808 Eh/a0 ::
         :: HOMO-LUMO gap              4.361131382056 eV    ::
         ::.................................................::
         :: SCC energy               -47.107364566217 Eh    ::
         :: -> isotropic ES            0.047450456456 Eh    ::
         :: -> anisotropic ES          0.002768792832 Eh    ::
         :: -> anisotropic XC          0.007977708081 Eh    ::
         :: -> dispersion             -0.028030605962 Eh    ::
         :: repulsion energy           0.659820495362 Eh    ::
         :: add. restraining           0.000000000000 Eh    ::
         :: total charge               0.000000000000 e     ::
         :::::::::::::::::::::::::::::::::::::::::::::::::::::

      ----------------------------------------------------------- 
     |                   =====================                   |
     |                        A N C O P T                        |
     |                   =====================                   |
     |               Approximate Normal Coordinate               |
     |                Rational Function Optimizer                |
      ----------------------------------------------------------- 

          ...................................................
          :                      SETUP                      :
          :.................................................:
          :   optimization level            normal          :
          :   max. optcycles                   200          :
          :   ANC micro-cycles                  20          :
          :   degrees of freedom                72          :
          :.................................................:
          :   RF solver                   davidson          :
          :   write xtbopt.log                true          :
          :   linear?                        false          :
          :   energy convergence         0.5000000E-05 Eh   :
          :   grad. convergence          0.1000000E-02 Eh/α :
          :   maxmium RF displ.          1.0000000          :
          :   Hlow (freq-cutoff)         0.1000000E-01      :
          :   Hmax (freq-cutoff)         5.0000000          :
          :   S6 in model hess.         20.0000000          :
          ...................................................

generating ANC from model Hessian ...
Using Lindh-Hessian (1995)
 Shifting diagonal of input Hessian by   8.471066995869751E-003
 Lowest  eigenvalues of input Hessian
    0.000000    0.000000    0.000000    0.000000    0.000000    0.000000
    0.010000    0.010375    0.010808    0.013954    0.014829    0.016721
    0.020576    0.021889    0.025738    0.029643    0.030591    0.032503
 Highest eigenvalues
    1.912985    1.950040    2.040206    2.105825    2.175908    2.220116
 

........................................................................
.............................. CYCLE    1 ..............................
........................................................................

 iter      E             dE          RMSdq      gap      omega  full diag
   1    -47.1073646 -0.471074E+02  0.112E-04    4.36       0.0  T
   2    -47.1073646 -0.469385E-10  0.658E-05    4.36     298.2  T
   3    -47.1073646 -0.731148E-11  0.439E-05    4.36     446.7  T
     SCC iter.                  ...        0 min,  0.011 sec
     gradient                   ...        0 min,  0.016 sec
 * total energy  :   -46.4472964 Eh     change       -0.1068834E-08 Eh
   gradient norm :     0.0965156 Eh/α   predicted     0.0000000E+00 (-100.00%)
   displ. norm   :     0.3499667 α      lambda       -0.2032145E-01
   maximum displ.:     0.1722363 α      in ANC's #17, #16, #32, ...

........................................................................
.............................. CYCLE    2 ..............................
........................................................................

 iter      E             dE          RMSdq      gap      omega  full diag
   1    -47.1175410 -0.471175E+02  0.276E-01    4.28       0.0  T
   2    -47.1177613 -0.220331E-03  0.190E-01    4.29       1.0  T
   3    -47.1177299  0.313950E-04  0.969E-02    4.29       1.0  T
   4    -47.1179038 -0.173882E-03  0.222E-02    4.29       1.0  T
   5    -47.1179118 -0.794373E-05  0.629E-03    4.29       3.1  T
   6    -47.1179123 -0.512178E-06  0.314E-03    4.29       6.3  T
   7    -47.1179123 -0.503716E-07  0.118E-03    4.29      16.6  T
   8    -47.1179123 -0.468424E-08  0.422E-04    4.29      46.4  T
   9    -47.1179123 -0.331084E-08  0.155E-04    4.29     126.5  T
     SCC iter.                  ...        0 min,  0.032 sec
     gradient                   ...        0 min,  0.016 sec
 * total energy  :   -46.4613507 Eh     change       -0.1405429E-01 Eh
   gradient norm :     0.0404711 Eh/α   predicted    -0.1140538E-01 ( -18.85%)
   displ. norm   :     0.2689841 α      lambda       -0.6111632E-02
   maximum displ.:     0.1010124 α      in ANC's #17, #7, #15, ...

........................................................................
.............................. CYCLE    3 ..............................
........................................................................

 iter      E             dE          RMSdq      gap      omega  full diag
   1    -47.1190543 -0.471191E+02  0.187E-01    4.20       0.0  T
   2    -47.1191876 -0.133316E-03  0.127E-01    4.21       1.0  T
   3    -47.1192076 -0.200331E-04  0.696E-02    4.21       1.0  T
   4    -47.1192709 -0.632630E-04  0.177E-02    4.21       1.1  T
   5    -47.1192747 -0.384750E-05  0.484E-03    4.21       4.1  T
   6    -47.1192751 -0.345753E-06  0.242E-03    4.21       8.1  T
   7    -47.1192751 -0.322081E-07  0.951E-04    4.21      20.6  T
   8    -47.1192751 -0.228596E-08  0.335E-04    4.21      58.5  T
     SCC iter.                  ...        0 min,  0.029 sec
     gradient                   ...        0 min,  0.014 sec
 * total energy  :   -46.4650240 Eh     change       -0.3673314E-02 Eh
   gradient norm :     0.0150727 Eh/α   predicted    -0.3277607E-02 ( -10.77%)
   displ. norm   :     0.1653856 α      lambda       -0.9559303E-03
   maximum displ.:     0.0638415 α      in ANC's #7, #15, #2, ...

........................................................................
.............................. CYCLE    4 ..............................
........................................................................

 iter      E             dE          RMSdq      gap      omega  full diag
   1    -47.1167819 -0.471168E+02  0.773E-02    4.16       0.0  T
   2    -47.1168012 -0.193340E-04  0.482E-02    4.16       1.0  T
   3    -47.1168008  0.467731E-06  0.294E-02    4.16       1.0  T
   4    -47.1168130 -0.122346E-04  0.656E-03    4.16       3.0  T
   5    -47.1168134 -0.367438E-06  0.231E-03    4.16       8.5  T
   6    -47.1168134 -0.811584E-07  0.121E-03    4.16      16.2  T
   7    -47.1168135 -0.859199E-08  0.428E-04    4.16      45.9  T
   8    -47.1168135 -0.531529E-09  0.129E-04    4.16     152.1  T
     SCC iter.                  ...        0 min,  0.029 sec
     gradient                   ...        0 min,  0.014 sec
 * total energy  :   -46.4656934 Eh     change       -0.6693763E-03 Eh
   gradient norm :     0.0166269 Eh/α   predicted    -0.4910483E-03 ( -26.64%)
   displ. norm   :     0.1821272 α      lambda       -0.7379751E-03
   maximum displ.:     0.0783511 α      in ANC's #6, #2, #1, ...

........................................................................
.............................. CYCLE    5 ..............................
........................................................................

 iter      E             dE          RMSdq      gap      omega  full diag
   1    -47.1162291 -0.471162E+02  0.699E-02    4.13       0.0  T
   2    -47.1162358 -0.672780E-05  0.423E-02    4.13       1.0  T
   3    -47.1162285  0.732701E-05  0.249E-02    4.13       1.0  T
   4    -47.1162404 -0.118657E-04  0.330E-03    4.13       5.9  T
   5    -47.1162405 -0.104997E-06  0.171E-03    4.13      11.4  T
   6    -47.1162405 -0.470875E-07  0.854E-04    4.13      23.0  T
   7    -47.1162405 -0.431804E-08  0.241E-04    4.13      81.2  T
     SCC iter.                  ...        0 min,  0.025 sec
     gradient                   ...        0 min,  0.015 sec
 * total energy  :   -46.4662104 Eh     change       -0.5170203E-03 Eh
   gradient norm :     0.0125362 Eh/α   predicted    -0.3812389E-03 ( -26.26%)
   displ. norm   :     0.1889780 α      lambda       -0.4990589E-03
   maximum displ.:     0.0936302 α      in ANC's #2, #1, #6, ...

........................................................................
.............................. CYCLE    6 ..............................
........................................................................

 iter      E             dE          RMSdq      gap      omega  full diag
   1    -47.1167631 -0.471168E+02  0.639E-02    4.11       0.0  T
   2    -47.1167656 -0.252534E-05  0.379E-02    4.11       1.0  T
   3    -47.1167592  0.641478E-05  0.187E-02    4.11       1.0  T
   4    -47.1167676 -0.835438E-05  0.221E-03    4.11       8.9  T
   5    -47.1167676 -0.106853E-07  0.139E-03    4.11      14.1  T
   6    -47.1167676 -0.295232E-07  0.558E-04    4.11      35.1  T
   7    -47.1167676 -0.164393E-08  0.146E-04    4.11     134.7  T
     SCC iter.                  ...        0 min,  0.026 sec
     gradient                   ...        0 min,  0.015 sec
 * total energy  :   -46.4665788 Eh     change       -0.3684502E-03 Eh
   gradient norm :     0.0119630 Eh/α   predicted    -0.2584477E-03 ( -29.86%)
   displ. norm   :     0.2183605 α      lambda       -0.5240020E-03
   maximum displ.:     0.1190773 α      in ANC's #1, #2, #6, ...

........................................................................
.............................. CYCLE    7 ..............................
........................................................................

 iter      E             dE          RMSdq      gap      omega  full diag
   1    -47.1197010 -0.471197E+02  0.730E-02    4.11       0.0  T
   2    -47.1197042 -0.317409E-05  0.435E-02    4.11       1.0  T
   3    -47.1196974  0.676265E-05  0.173E-02    4.11       1.1  T
   4    -47.1197061 -0.871602E-05  0.254E-03    4.11       7.7  T
   5    -47.1197061 -0.179438E-07  0.144E-03    4.11      13.7  T
   6    -47.1197061 -0.803159E-08  0.673E-04    4.11      29.1  T
   7    -47.1197061 -0.379192E-08  0.206E-04    4.11      95.2  T
     SCC iter.                  ...        0 min,  0.025 sec
     gradient                   ...        0 min,  0.015 sec
 * total energy  :   -46.4668872 Eh     change       -0.3083740E-03 Eh
   gradient norm :     0.0077823 Eh/α   predicted    -0.2745923E-03 ( -10.95%)
   displ. norm   :     0.3344134 α      lambda       -0.4647628E-03
   maximum displ.:     0.1818292 α      in ANC's #2, #1, #6, ...

........................................................................
.............................. CYCLE    8 ..............................
........................................................................

 iter      E             dE          RMSdq      gap      omega  full diag
   1    -47.1167585 -0.471168E+02  0.107E-01    4.08       0.0  T
   2    -47.1167699 -0.114163E-04  0.634E-02    4.08       1.0  T
   3    -47.1167518  0.180871E-04  0.325E-02    4.08       1.0  T
   4    -47.1167774 -0.256374E-04  0.504E-03    4.08       3.9  T
   5    -47.1167775 -0.663368E-07  0.298E-03    4.08       6.6  T
   6    -47.1167776 -0.101266E-06  0.145E-03    4.08      13.5  T
   7    -47.1167776 -0.163703E-07  0.426E-04    4.08      46.0  T
   8    -47.1167776 -0.258655E-08  0.173E-04    4.08     113.4  T
     SCC iter.                  ...        0 min,  0.029 sec
     gradient                   ...        0 min,  0.015 sec
 * total energy  :   -46.4667337 Eh     change        0.1534815E-03 Eh
   gradient norm :     0.0231194 Eh/α   predicted    -0.2583732E-03 (-268.34%)
   displ. norm   :     0.1486533 α      lambda       -0.8205781E-03
   maximum displ.:     0.0668766 α      in ANC's #2, #1, #6, ...

........................................................................
.............................. CYCLE    9 ..............................
........................................................................

 iter      E             dE          RMSdq      gap      omega  full diag
   1    -47.1204227 -0.471204E+02  0.588E-02    4.10       0.0  T
   2    -47.1204265 -0.379367E-05  0.344E-02    4.10       1.0  T
   3    -47.1204220  0.445098E-05  0.168E-02    4.10       1.2  T
   4    -47.1204288 -0.672356E-05  0.373E-03    4.10       5.3  T
   5    -47.1204288 -0.929754E-08  0.202E-03    4.10       9.7  T
   6    -47.1204288 -0.444750E-07  0.103E-03    4.10      19.1  T
   7    -47.1204288 -0.108138E-07  0.253E-04    4.10      77.5  T
   8    -47.1204288 -0.652236E-09  0.121E-04    4.10     162.3  T
     SCC iter.                  ...        0 min,  0.029 sec
     gradient                   ...        0 min,  0.014 sec
 * total energy  :   -46.4670914 Eh     change       -0.3576886E-03 Eh
   gradient norm :     0.0033010 Eh/α   predicted    -0.4193591E-03 (  17.24%)
   displ. norm   :     0.0848558 α      lambda       -0.5735012E-04
   maximum displ.:     0.0531061 α      in ANC's #2, #6, #1, ...

........................................................................
.............................. CYCLE   10 ..............................
........................................................................

 iter      E             dE          RMSdq      gap      omega  full diag
   1    -47.1202456 -0.471202E+02  0.242E-02    4.10       0.0  T
   2    -47.1202460 -0.358342E-06  0.146E-02    4.10       1.3  T
   3    -47.1202450  0.960669E-06  0.660E-03    4.10       3.0  T
   4    -47.1202462 -0.122666E-05  0.685E-04    4.10      28.6  T
   5    -47.1202462 -0.344824E-08  0.394E-04    4.10      49.8  T
   6    -47.1202463 -0.198006E-08  0.160E-04    4.10     122.9  T
     SCC iter.                  ...        0 min,  0.022 sec
     gradient                   ...        0 min,  0.014 sec
 * total energy  :   -46.4671404 Eh     change       -0.4897237E-04 Eh
   gradient norm :     0.0024405 Eh/α   predicted    -0.2888272E-04 ( -41.02%)
   displ. norm   :     0.2322430 α      lambda       -0.1172419E-03
   maximum displ.:     0.1520112 α      in ANC's #2, #6, #1, ...

........................................................................
.............................. CYCLE   11 ..............................
........................................................................

 iter      E             dE          RMSdq      gap      omega  full diag
   1    -47.1194301 -0.471194E+02  0.635E-02    4.09       0.0  T
   2    -47.1194324 -0.230077E-05  0.382E-02    4.09       1.0  T
   3    -47.1194258  0.654766E-05  0.171E-02    4.09       1.1  T
   4    -47.1194341 -0.826832E-05  0.174E-03    4.09      11.3  T
   5    -47.1194341 -0.219221E-07  0.101E-03    4.09      19.4  T
   6    -47.1194341 -0.136235E-07  0.414E-04    4.09      47.3  T
   7    -47.1194341 -0.937590E-09  0.167E-04    4.09     117.2  T
     SCC iter.                  ...        0 min,  0.025 sec
     gradient                   ...        0 min,  0.016 sec
 * total energy  :   -46.4672049 Eh     change       -0.6455468E-04 Eh
   gradient norm :     0.0028659 Eh/α   predicted    -0.6179007E-04 (  -4.28%)
   displ. norm   :     0.0500655 α      lambda       -0.2196476E-04
   maximum displ.:     0.0372096 α      in ANC's #2, #6, #3, ...

........................................................................
.............................. CYCLE   12 ..............................
........................................................................

 iter      E             dE          RMSdq      gap      omega  full diag
   1    -47.1199923 -0.471200E+02  0.140E-02    4.09       0.0  T
   2    -47.1199923 -0.647130E-07  0.833E-03    4.09       2.4  T
   3    -47.1199921  0.201611E-06  0.274E-03    4.09       7.2  T
   4    -47.1199924 -0.241277E-06  0.321E-04    4.09      61.1  T
   5    -47.1199924 -0.346908E-09  0.187E-04    4.09     104.7  T
     SCC iter.                  ...        0 min,  0.019 sec
     gradient                   ...        0 min,  0.015 sec
 * total energy  :   -46.4672226 Eh     change       -0.1766685E-04 Eh
   gradient norm :     0.0019660 Eh/α   predicted    -0.1102805E-04 ( -37.58%)
   displ. norm   :     0.2017737 α      lambda       -0.4089489E-04
   maximum displ.:     0.1481429 α      in ANC's #2, #6, #3, ...

........................................................................
.............................. CYCLE   13 ..............................
........................................................................

 iter      E             dE          RMSdq      gap      omega  full diag
   1    -47.1206152 -0.471206E+02  0.527E-02    4.09       0.0  T
   2    -47.1206159 -0.681216E-06  0.313E-02    4.09       1.0  T
   3    -47.1206134  0.248068E-05  0.941E-03    4.09       2.1  T
   4    -47.1206163 -0.292699E-05  0.963E-04    4.09      20.4  T
   5    -47.1206163 -0.258854E-08  0.575E-04    4.09      34.1  T
   6    -47.1206163 -0.263607E-08  0.260E-04    4.09      75.6  T
     SCC iter.                  ...        0 min,  0.022 sec
     gradient                   ...        0 min,  0.016 sec
 * total energy  :   -46.4672567 Eh     change       -0.3410723E-04 Eh
   gradient norm :     0.0042040 Eh/α   predicted    -0.2082414E-04 ( -38.95%)
   displ. norm   :     0.0526494 α      lambda       -0.2622496E-04
   maximum displ.:     0.0349936 α      in ANC's #2, #3, #6, ...

........................................................................
.............................. CYCLE   14 ..............................
........................................................................

 iter      E             dE          RMSdq      gap      omega  full diag
   1    -47.1212970 -0.471213E+02  0.167E-02    4.09       0.0  T
   2    -47.1212972 -0.160632E-06  0.979E-03    4.09       2.0  T
   3    -47.1212971  0.110491E-06  0.265E-03    4.09       7.4  T
   4    -47.1212972 -0.144180E-06  0.611E-04    4.09      32.1  T
   5    -47.1212972 -0.514131E-08  0.290E-04    4.09      67.6  T
     SCC iter.                  ...        0 min,  0.018 sec
     gradient                   ...        0 min,  0.014 sec
 * total energy  :   -46.4672759 Eh     change       -0.1919914E-04 Eh
   gradient norm :     0.0033091 Eh/α   predicted    -0.1315110E-04 ( -31.50%)
   displ. norm   :     0.1812955 α      lambda       -0.5338334E-04
   maximum displ.:     0.1121816 α      in ANC's #2, #3, #6, ...

........................................................................
.............................. CYCLE   15 ..............................
........................................................................

 iter      E             dE          RMSdq      gap      omega  full diag
   1    -47.1206561 -0.471207E+02  0.503E-02    4.09       0.0  T
   2    -47.1206565 -0.496008E-06  0.299E-02    4.09       1.0  T
   3    -47.1206554  0.118243E-05  0.728E-03    4.09       2.7  T
   4    -47.1206568 -0.143282E-05  0.105E-03    4.09      18.7  T
   5    -47.1206568 -0.468666E-08  0.590E-04    4.09      33.3  T
   6    -47.1206568 -0.738396E-09  0.224E-04    4.09      87.7  T
     SCC iter.                  ...        0 min,  0.022 sec
     gradient                   ...        0 min,  0.014 sec
 * total energy  :   -46.4673140 Eh     change       -0.3814172E-04 Eh
   gradient norm :     0.0023397 Eh/α   predicted    -0.2757990E-04 ( -27.69%)
   displ. norm   :     0.1503676 α      lambda       -0.4066594E-04
   maximum displ.:     0.1007640 α      in ANC's #3, #6, #2, ...

........................................................................
.............................. CYCLE   16 ..............................
........................................................................

 iter      E             dE          RMSdq      gap      omega  full diag
   1    -47.1201411 -0.471201E+02  0.461E-02    4.08       0.0  T
   2    -47.1201414 -0.306379E-06  0.274E-02    4.08       1.0  T
   3    -47.1201408  0.554018E-06  0.551E-03    4.08       3.6  T
   4    -47.1201415 -0.681143E-06  0.100E-03    4.08      19.6  T
   5    -47.1201415 -0.625997E-08  0.558E-04    4.08      35.2  T
   6    -47.1201415 -0.105492E-08  0.249E-04    4.08      78.9  T
     SCC iter.                  ...        0 min,  0.022 sec
     gradient                   ...        0 min,  0.014 sec
 * total energy  :   -46.4673412 Eh     change       -0.2712138E-04 Eh
   gradient norm :     0.0030176 Eh/α   predicted    -0.2080081E-04 ( -23.30%)
   displ. norm   :     0.0893392 α      lambda       -0.3466077E-04
   maximum displ.:     0.0658758 α      in ANC's #3, #5, #6, ...

........................................................................
.............................. CYCLE   17 ..............................
........................................................................

 iter      E             dE          RMSdq      gap      omega  full diag
   1    -47.1202904 -0.471203E+02  0.319E-02    4.08       0.0  T
   2    -47.1202905 -0.128239E-06  0.189E-02    4.08       1.0  T
   3    -47.1202901  0.491870E-06  0.405E-03    4.08       4.8  T
   4    -47.1202906 -0.573467E-06  0.658E-04    4.08      29.8  T
   5    -47.1202906 -0.291768E-08  0.384E-04    4.08      51.1  T
     SCC iter.                  ...        0 min,  0.018 sec
     gradient                   ...        0 min,  0.014 sec
 * total energy  :   -46.4673654 Eh     change       -0.2424406E-04 Eh
   gradient norm :     0.0025466 Eh/α   predicted    -0.1746960E-04 ( -27.94%)
   displ. norm   :     0.1601953 α      lambda       -0.4223792E-04
   maximum displ.:     0.1068049 α      in ANC's #3, #6, #7, ...

........................................................................
.............................. CYCLE   18 ..............................
........................................................................

 iter      E             dE          RMSdq      gap      omega  full diag
   1    -47.1191780 -0.471192E+02  0.497E-02    4.07       0.0  T
   2    -47.1191784 -0.415690E-06  0.294E-02    4.07       1.0  T
   3    -47.1191776  0.752199E-06  0.545E-03    4.07       3.6  T
   4    -47.1191785 -0.898182E-06  0.113E-03    4.07      17.3  T
   5    -47.1191786 -0.152369E-07  0.588E-04    4.07      33.4  T
   6    -47.1191786 -0.869839E-09  0.288E-04    4.07      68.0  T
     SCC iter.                  ...        0 min,  0.022 sec
     gradient                   ...        0 min,  0.016 sec
 * total energy  :   -46.4673888 Eh     change       -0.2340123E-04 Eh
   gradient norm :     0.0039015 Eh/α   predicted    -0.2166724E-04 (  -7.41%)
   displ. norm   :     0.1013958 α      lambda       -0.5026039E-04
   maximum displ.:     0.0867525 α      in ANC's #2, #3, #6, ...

........................................................................
.............................. CYCLE   19 ..............................
........................................................................

 iter      E             dE          RMSdq      gap      omega  full diag
   1    -47.1203877 -0.471204E+02  0.354E-02    4.08       0.0  T
   2    -47.1203884 -0.639531E-06  0.209E-02    4.08       1.0  T
   3    -47.1203875  0.828626E-06  0.720E-03    4.08       2.7  T
   4    -47.1203886 -0.105641E-05  0.985E-04    4.08      19.9  T
   5    -47.1203886 -0.963910E-08  0.484E-04    4.08      40.5  T
   6    -47.1203886 -0.577806E-09  0.262E-04    4.08      75.0  T
     SCC iter.                  ...        0 min,  0.022 sec
     gradient                   ...        0 min,  0.016 sec
 * total energy  :   -46.4674170 Eh     change       -0.2814281E-04 Eh
   gradient norm :     0.0029954 Eh/α   predicted    -0.2539338E-04 (  -9.77%)
   displ. norm   :     0.0985159 α      lambda       -0.3138680E-04
   maximum displ.:     0.0685524 α      in ANC's #6, #3, #1, ...

........................................................................
.............................. CYCLE   20 ..............................
........................................................................

 iter      E             dE          RMSdq      gap      omega  full diag
   1    -47.1202971 -0.471203E+02  0.272E-02    4.08       0.0  T
   2    -47.1202973 -0.168553E-06  0.161E-02    4.08       1.2  T
   3    -47.1202969  0.401339E-06  0.409E-03    4.08       4.8  T
   4    -47.1202974 -0.481780E-06  0.565E-04    4.08      34.7  T
   5    -47.1202974 -0.144610E-08  0.295E-04    4.08      66.4  T
     SCC iter.                  ...        0 min,  0.018 sec
     gradient                   ...        0 min,  0.014 sec
 * total energy  :   -46.4674429 Eh     change       -0.2597500E-04 Eh
   gradient norm :     0.0027889 Eh/α   predicted    -0.1584613E-04 ( -38.99%)
   displ. norm   :     0.2016267 α      lambda       -0.7194853E-04
   maximum displ.:     0.1403200 α      in ANC's #6, #1, #3, ...
 * RMSD in coord.:     0.4123592 α      energy gain  -0.2014656E-01 Eh

generating ANC from model Hessian ...
Using Lindh-Hessian (1995)
 Shifting diagonal of input Hessian by   8.681558556893607E-003
 Lowest  eigenvalues of input Hessian
    0.000000    0.000000    0.000000    0.000000    0.000000    0.000000
    0.010000    0.010363    0.010801    0.013701    0.015225    0.017562
    0.020694    0.021843    0.025160    0.029815    0.030602    0.033298
 Highest eigenvalues
    1.888729    1.912022    2.023791    2.073133    2.120649    2.127187
 

........................................................................
.............................. CYCLE   21 ..............................
........................................................................

 iter      E             dE          RMSdq      gap      omega  full diag
   1    -47.1201620 -0.471202E+02  0.556E-02    4.08       0.0  T
   2    -47.1201627 -0.765707E-06  0.329E-02    4.08       1.0  T
   3    -47.1201604  0.237557E-05  0.959E-03    4.08       2.0  T
   4    -47.1201632 -0.282898E-05  0.110E-03    4.08      17.8  T
   5    -47.1201632 -0.375777E-08  0.620E-04    4.08      31.6  T
   6    -47.1201632 -0.133864E-08  0.280E-04    4.08      70.0  T
     SCC iter.                  ...        0 min,  0.022 sec
     gradient                   ...        0 min,  0.014 sec
 * total energy  :   -46.4674831 Eh     change       -0.4017734E-04 Eh
   gradient norm :     0.0046489 Eh/α   predicted     0.0000000E+00 (-100.00%)
   displ. norm   :     0.0219904 α      lambda       -0.2136782E-04
   maximum displ.:     0.0126541 α      in ANC's #6, #7, #2, ...

........................................................................
.............................. CYCLE   22 ..............................
........................................................................

 iter      E             dE          RMSdq      gap      omega  full diag
   1    -47.1208042 -0.471208E+02  0.134E-02    4.08       0.0  T
   2    -47.1208046 -0.348745E-06  0.764E-03    4.08       2.6  T
   3    -47.1208045  0.637492E-07  0.306E-03    4.08       6.4  T
   4    -47.1208046 -0.103306E-06  0.911E-04    4.08      21.5  T
   5    -47.1208046 -0.142845E-07  0.323E-04    4.08      60.8  T
     SCC iter.                  ...        0 min,  0.018 sec
     gradient                   ...        0 min,  0.016 sec
 * total energy  :   -46.4675101 Eh     change       -0.2702684E-04 Eh
   gradient norm :     0.0015838 Eh/α   predicted    -0.2073064E-04 ( -23.30%)
   displ. norm   :     0.0390627 α      lambda       -0.1148562E-04
   maximum displ.:     0.0277890 α      in ANC's #6, #2, #7, ...

........................................................................
.............................. CYCLE   23 ..............................
........................................................................

 iter      E             dE          RMSdq      gap      omega  full diag
   1    -47.1211042 -0.471211E+02  0.148E-02    4.08       0.0  T
   2    -47.1211044 -0.196598E-06  0.875E-03    4.08       2.2  T
   3    -47.1211042  0.164464E-06  0.353E-03    4.08       5.6  T
   4    -47.1211044 -0.224945E-06  0.588E-04    4.08      33.3  T
   5    -47.1211044 -0.391639E-08  0.283E-04    4.08      69.2  T
     SCC iter.                  ...        0 min,  0.018 sec
     gradient                   ...        0 min,  0.014 sec
 * total energy  :   -46.4675193 Eh     change       -0.9145640E-05 Eh
   gradient norm :     0.0011980 Eh/α   predicted    -0.5750342E-05 ( -37.12%)
   displ. norm   :     0.0333014 α      lambda       -0.5005024E-05
   maximum displ.:     0.0267120 α      in ANC's #6, #2, #1, ...

........................................................................
.............................. CYCLE   24 ..............................
........................................................................

 iter      E             dE          RMSdq      gap      omega  full diag
   1    -47.1209676 -0.471210E+02  0.101E-02    4.08       0.0  T
   2    -47.1209676 -0.287428E-07  0.602E-03    4.08       3.3  T
   3    -47.1209676  0.553280E-07  0.158E-03    4.08      12.4  T
   4    -47.1209676 -0.679241E-07  0.241E-04    4.08      81.5  T
   5    -47.1209676 -0.251710E-09  0.133E-04    4.08     148.0  T
     SCC iter.                  ...        0 min,  0.019 sec
     gradient                   ...        0 min,  0.014 sec
 * total energy  :   -46.4675259 Eh     change       -0.6656888E-05 Eh
   gradient norm :     0.0010147 Eh/α   predicted    -0.2533065E-05 ( -61.95%)
   displ. norm   :     0.0641405 α      lambda       -0.8691095E-05
   maximum displ.:     0.0500260 α      in ANC's #6, #2, #1, ...

........................................................................
.............................. CYCLE   25 ..............................
........................................................................

 iter      E             dE          RMSdq      gap      omega  full diag
   1    -47.1207459 -0.471207E+02  0.185E-02    4.08       0.0  T
   2    -47.1207460 -0.789907E-07  0.110E-02    4.08       1.8  T
   3    -47.1207458  0.155202E-06  0.240E-03    4.08       8.2  T
   4    -47.1207460 -0.187363E-06  0.402E-04    4.08      48.8  T
   5    -47.1207460 -0.924885E-09  0.216E-04    4.08      90.7  T
     SCC iter.                  ...        0 min,  0.018 sec
     gradient                   ...        0 min,  0.014 sec
 * total energy  :   -46.4675364 Eh     change       -0.1048878E-04 Eh
   gradient norm :     0.0007257 Eh/α   predicted    -0.4353661E-05 ( -58.49%)
   displ. norm   :     0.0634141 α      lambda       -0.6142886E-05
   maximum displ.:     0.0483850 α      in ANC's #6, #2, #1, ...

........................................................................
.............................. CYCLE   26 ..............................
........................................................................

 iter      E             dE          RMSdq      gap      omega  full diag
   1    -47.1206682 -0.471207E+02  0.183E-02    4.08       0.0  T
   2    -47.1206683 -0.410921E-07  0.109E-02    4.08       1.8  T
   3    -47.1206682  0.954265E-07  0.188E-03    4.08      10.4  T
   4    -47.1206683 -0.116356E-06  0.331E-04    4.08      59.3  T
   5    -47.1206683 -0.187093E-09  0.157E-04    4.08     124.7  T
     SCC iter.                  ...        0 min,  0.018 sec
     gradient                   ...        0 min,  0.014 sec
 * total energy  :   -46.4675440 Eh     change       -0.7614033E-05 Eh
   gradient norm :     0.0009455 Eh/α   predicted    -0.3077466E-05 ( -59.58%)
   displ. norm   :     0.0632098 α      lambda       -0.5258844E-05
   maximum displ.:     0.0481155 α      in ANC's #6, #2, #1, ...

........................................................................
.............................. CYCLE   27 ..............................
........................................................................

 iter      E             dE          RMSdq      gap      omega  full diag
   1    -47.1207280 -0.471207E+02  0.184E-02    4.08       0.0  T
   2    -47.1207280 -0.289030E-07  0.109E-02    4.08       1.8  T
   3    -47.1207280  0.619454E-07  0.156E-03    4.08      12.6  T
   4    -47.1207281 -0.777872E-07  0.317E-04    4.08      61.8  T
   5    -47.1207281 -0.779394E-10  0.127E-04    4.08     154.8  T
     SCC iter.                  ...        0 min,  0.019 sec
     gradient                   ...        0 min,  0.014 sec
 * total energy  :   -46.4675504 Eh     change       -0.6352332E-05 Eh
   gradient norm :     0.0008411 Eh/α   predicted    -0.2637645E-05 ( -58.48%)
   displ. norm   :     0.0590166 α      lambda       -0.4100402E-05
   maximum displ.:     0.0469359 α      in ANC's #6, #2, #1, ...

........................................................................
.............................. CYCLE   28 ..............................
........................................................................

 iter      E             dE          RMSdq      gap      omega  full diag
   1    -47.1208375 -0.471208E+02  0.170E-02    4.08       0.0  T
   2    -47.1208376 -0.239310E-07  0.101E-02    4.08       1.9  T
   3    -47.1208375  0.463576E-07  0.135E-03    4.08      14.5  T
   4    -47.1208376 -0.584737E-07  0.299E-04    4.08      65.5  T
   5    -47.1208376 -0.167468E-09  0.144E-04    4.08     136.3  T
     SCC iter.                  ...        0 min,  0.018 sec
     gradient                   ...        0 min,  0.013 sec
 * total energy  :   -46.4675551 Eh     change       -0.4718691E-05 Eh
   gradient norm :     0.0005598 Eh/α   predicted    -0.2055054E-05 ( -56.45%)
   displ. norm   :     0.0523754 α      lambda       -0.2907045E-05
   maximum displ.:     0.0431032 α      in ANC's #6, #3, #1, ...

   *** GEOMETRY OPTIMIZATION CONVERGED AFTER 28 ITERATIONS ***

------------------------------------------------------------------------
 total energy gain   :        -0.0202587 Eh      -12.7126 kcal/mol
 total RMSD          :         0.4452001 a0        0.2356 Å
 total power (kW/mol):        -1.8996187 (step)  -42.7361 (real)
------------------------------------------------------------------------

 ANCopt (total)                0 d,  0 h,  0 min,  1.245 sec
 optimizer setup                ...        0 min,  0.000 sec (  0.018%)
 model hessian                  ...        0 min,  0.030 sec (  2.445%)
 ANC generation                 ...        0 min,  0.004 sec (  0.353%)
 coordinate transformation      ...        0 min,  0.000 sec (  0.028%)
 single point calculation       ...        0 min,  1.191 sec ( 95.722%)
 optimization log               ...        0 min,  0.004 sec (  0.349%)
 hessian update                 ...        0 min,  0.009 sec (  0.730%)
 rational function              ...        0 min,  0.003 sec (  0.239%)

================
 final structure:
================
26
 xtb: 6.6.1 (8d0f1dd)
C           -1.01741585552921       -1.49339191682513        1.39798160650594
C           -1.52311493104324       -0.38725933747565        0.52424226109466
C           -2.87171642683610       -0.06165826211135        0.47890785570807
C           -3.33734898667333        0.95432334776362       -0.33793906475015
C           -2.45846126988440        1.67194797158695       -1.12870447686021
C           -1.11602007986780        1.34715343653687       -1.08188640533581
F           -0.24782486441854        2.05163642998141       -1.83902106530170
C           -0.62513887982996        0.33162002065400       -0.27061936037969
C            0.82540214898203        0.01315523075537       -0.26870804389921
C            1.68708296569829        0.58303224792917        0.67241062670420
O            1.23121047555181        1.43883736570610        1.62094874678330
C            3.04209634226063        0.26892899999755        0.65770074105797
C            3.54430628758872       -0.60235614394720       -0.28851613263982
C            2.70954558084446       -1.17686988788469       -1.23223363378339
C            1.36653384770408       -0.85751012621478       -1.20428769635570
F            0.53903176061239       -1.42456603144418       -2.10888356133356
H           -0.30639459160728       -1.11396473189421        2.13213050080951
H           -0.50017301006939       -2.24077349189364        0.79703676286783
H           -1.83789824355312       -1.97460202749418        1.92374288403051
H           -3.56789938778265       -0.61778674735954        1.08876020263732
H           -4.39070486390833        1.18709975808546       -0.36197436779663
H           -2.79236049025331        2.46618817408319       -1.77651448677603
H            0.28932575747676        1.60825649118137        1.48221750106602
H            3.68080579053013        0.72441379543702        1.39677206126542
H            4.59703111920963       -0.83739168767263       -0.29341656860688
H            3.08009880479788       -1.85846287748100       -1.98014788671187
 
 Bond Distances (Angstroems)
 ---------------------------
C1-C2=1.4976         C1-H17=1.0902        C1-H18=1.0896        C1-H19=1.0868        C2-C1=1.4976         C2-C3=1.3881         
C2-C8=1.3982         C3-C2=1.3881         C3-C4=1.3843         C3-H20=1.0798        C4-C3=1.3843         C4-C5=1.3830         
C4-H21=1.0790        C5-C4=1.3830         C5-C6=1.3820         C5-H22=1.0779        C6-C5=1.3820         C6-F7=1.3503         
C6-C8=1.3894         F7-C6=1.3503         C8-C2=1.3982         C8-C6=1.3894         C8-C9=1.4851         C9-C8=1.4851         
C9-C10=1.3975        C9-C15=1.3879        C10-C9=1.3975        C10-O11=1.3564       C10-C12=1.3910       O11-C10=1.3564       
O11-H23=0.9670       C12-C10=1.3910       C12-C13=1.3808       C12-H24=1.0778       C13-C12=1.3808       C13-C14=1.3847       
C13-H25=1.0787       C14-C13=1.3847       C14-C15=1.3807       C14-H26=1.0776       C15-C9=1.3879        C15-C14=1.3807       
C15-F16=1.3508       F16-C15=1.3508       H17-C1=1.0902        H18-C1=1.0896        H19-C1=1.0868        H20-C3=1.0798        
H21-C4=1.0790        H22-C5=1.0779        H23-O11=0.9670       H24-C12=1.0778       H25-C13=1.0787       H26-C14=1.0776       
 C  H  Rav=1.0819 sigma=0.0050  Rmin=1.0776  Rmax=1.0902     9
 C  C  Rav=1.4022 sigma=0.0369  Rmin=1.3807  Rmax=1.4976    14
 O  H  Rav=0.9670 sigma=0.0000  Rmin=0.9670  Rmax=0.9670     1
 O  C  Rav=1.3564 sigma=0.0000  Rmin=1.3564  Rmax=1.3564     1
 F  C  Rav=1.3505 sigma=0.0002  Rmin=1.3503  Rmax=1.3508     2
 
 selected bond angles (degree)
 --------------------
H17-C1-C2=110.86               H18-C1-C2=110.19               H18-C1-H17=107.49              H19-C1-C2=110.75               
H19-C1-H17=108.71              H19-C1-H18=108.75              C3-C2-C1=121.36                C8-C2-C1=119.64                
C8-C2-C3=119.00                C4-C3-C2=121.21                H20-C3-C2=119.15               H20-C3-C4=119.63               
C5-C4-C3=120.30                H21-C4-C3=119.99               H21-C4-C5=119.72               C6-C5-C4=118.42                
H22-C5-C4=121.94               H22-C5-C6=119.63               F7-C6-C5=118.88                C8-C6-C5=122.33                
C8-C6-F7=118.79                C6-C8-C2=118.74                C9-C8-C2=121.09                C9-C8-C6=120.17                
C10-C9-C8=121.04               C15-C9-C8=120.96               C15-C9-C10=117.99              O11-C10-C9=121.40              
C12-C10-C9=120.09              C12-C10-O11=118.51             
 
 selected dihedral angles (degree)
 ---------------------------------
C3-C2-C1-H17=240.85           C3-C2-C1-H18=121.98           C3-C2-C1-H19=  1.61           C8-C2-C1-H17= 61.21           
C8-C2-C1-H18=302.35           C8-C2-C1-H19=181.97           C4-C3-C2-C1=180.53            C4-C3-C2-C8=  0.16            
H20-C3-C2-C1=  0.12           H20-C3-C2-C8=179.76           C5-C4-C3-C2=359.85            C5-C4-C3-H20=180.25           
H21-C4-C3-C2=179.65           H21-C4-C3-H20=  0.05          C6-C5-C4-C3=  0.11            C6-C5-C4-H21=180.31           
H22-C5-C4-C3=179.82           H22-C5-C4-H21=  0.00          F7-C6-C5-C4=180.72            F7-C6-C5-H22=  1.01           
C8-C6-C5-C4=359.92            C8-C6-C5-H22=180.20           C6-C8-C2-C1=179.51            C6-C8-C2-C3=359.87            
C9-C8-C2-C1=  0.27            C9-C8-C2-C3=180.63            C2-C8-C6-C5=  0.10            C2-C8-C6-F7=179.29            
C9-C8-C6-C5=179.34            C9-C8-C6-F7=358.53            C10-C9-C8-C2=273.39           C10-C9-C8-C6= 94.17           
C15-C9-C8-C2= 93.55           C15-C9-C8-C6=274.32           O11-C10-C9-C8=  0.41          O11-C10-C9-C15=180.26         
C12-C10-C9-C8=179.88          C12-C10-C9-C15=359.73         
           -------------------------------------------------
          |                Final Singlepoint                |
           -------------------------------------------------

          ...................................................
          :                      SETUP                      :
          :.................................................:
          :  # basis functions                  74          :
          :  # atomic orbitals                  74          :
          :  # shells                           42          :
          :  # electrons                        82          :
          :  max. iterations                   250          :
          :  Hamiltonian                  GFN2-xTB          :
          :  restarted?                      false          :
          :  GBSA solvation                  false          :
          :  PC potential                    false          :
          :  electronic temp.          298.1500000     K    :
          :  accuracy                    1.0000000          :
          :  -> integral cutoff          0.2500000E+02      :
          :  -> integral neglect         0.1000000E-07      :
          :  -> SCF convergence          0.1000000E-05 Eh   :
          :  -> wf. convergence          0.1000000E-03 e    :
          :  Broyden damping             0.4000000          :
          ...................................................

 iter      E             dE          RMSdq      gap      omega  full diag
   1    -47.1208376 -0.471208E+02  0.525E-05    4.08       0.0  T
   2    -47.1208376 -0.237677E-10  0.374E-05    4.08     524.4  T
   3    -47.1208376 -0.363229E-10  0.161E-05    4.08    1216.2  T

   *** convergence criteria satisfied after 3 iterations ***

         #    Occupation            Energy/Eh            Energy/eV
      -------------------------------------------------------------
         1        2.0000           -0.8181711             -22.2636
       ...           ...                  ...                  ...
        35        2.0000           -0.4561473             -12.4124
        36        2.0000           -0.4518897             -12.2965
        37        2.0000           -0.4339739             -11.8090
        38        2.0000           -0.4161593             -11.3243
        39        2.0000           -0.4128441             -11.2341
        40        2.0000           -0.4102411             -11.1632
        41        2.0000           -0.3963799             -10.7860 (HOMO)
        42                         -0.2463895              -6.7046 (LUMO)
        43                         -0.2392066              -6.5091
        44                         -0.2371930              -6.4543
        45                         -0.2283908              -6.2148
        46                         -0.1154248              -3.1409
       ...                                ...                  ...
        74                          0.6647264              18.0881
      -------------------------------------------------------------
                  HL-Gap            0.1499904 Eh            4.0814 eV
             Fermi-level           -0.3213847 Eh           -8.7453 eV

 SCC (total)                   0 d,  0 h,  0 min,  0.032 sec
 SCC setup                      ...        0 min,  0.000 sec (  0.490%)
 Dispersion                     ...        0 min,  0.000 sec (  0.536%)
 classical contributions        ...        0 min,  0.000 sec (  0.157%)
 integral evaluation            ...        0 min,  0.004 sec ( 13.654%)
 iterations                     ...        0 min,  0.012 sec ( 35.630%)
 molecular gradient             ...        0 min,  0.016 sec ( 48.458%)
 printout                       ...        0 min,  0.000 sec (  1.011%)

         :::::::::::::::::::::::::::::::::::::::::::::::::::::
         ::                     SUMMARY                     ::
         :::::::::::::::::::::::::::::::::::::::::::::::::::::
         :: total energy             -46.467555109896 Eh    ::
         :: gradient norm              0.000560036103 Eh/a0 ::
         :: HOMO-LUMO gap              4.081446339219 eV    ::
         ::.................................................::
         :: SCC energy               -47.120837566813 Eh    ::
         :: -> isotropic ES            0.045230350093 Eh    ::
         :: -> anisotropic ES          0.002223102898 Eh    ::
         :: -> anisotropic XC          0.007801075871 Eh    ::
         :: -> dispersion             -0.027573885219 Eh    ::
         :: repulsion energy           0.653033534148 Eh    ::
         :: add. restraining           0.000000000000 Eh    ::
         :: total charge              -0.000000000000 e     ::
         :::::::::::::::::::::::::::::::::::::::::::::::::::::

           -------------------------------------------------
          |                Property Printout                |
           -------------------------------------------------

    * Orbital Energies and Occupations

         #    Occupation            Energy/Eh            Energy/eV
      -------------------------------------------------------------
         1        2.0000           -0.8181711             -22.2636
       ...           ...                  ...                  ...
        29        2.0000           -0.4916605             -13.3788
        30        2.0000           -0.4754880             -12.9387
        31        2.0000           -0.4733027             -12.8792
        32        2.0000           -0.4696064             -12.7786
        33        2.0000           -0.4659047             -12.6779
        34        2.0000           -0.4591182             -12.4932
        35        2.0000           -0.4561473             -12.4124
        36        2.0000           -0.4518897             -12.2965
        37        2.0000           -0.4339739             -11.8090
        38        2.0000           -0.4161593             -11.3243
        39        2.0000           -0.4128441             -11.2341
        40        2.0000           -0.4102411             -11.1632
        41        2.0000           -0.3963799             -10.7860 (HOMO)
        42                         -0.2463895              -6.7046 (LUMO)
        43                         -0.2392066              -6.5091
        44                         -0.2371930              -6.4543
        45                         -0.2283908              -6.2148
        46                         -0.1154248              -3.1409
        47                         -0.1048455              -2.8530
        48                          0.0359480               0.9782
        49                          0.0455681               1.2400
        50                          0.0689786               1.8770
        51                          0.0831327               2.2622
        52                          0.1110049               3.0206
       ...                                ...                  ...
        74                          0.6647264              18.0881
      -------------------------------------------------------------
                  HL-Gap            0.1499904 Eh            4.0814 eV
             Fermi-level           -0.3213847 Eh           -8.7453 eV

     #   Z          covCN         q      C6AA      α(0)
     1   6 C        3.758    -0.110    22.660     6.787
     2   6 C        2.971     0.015    27.665     8.628
     3   6 C        2.922    -0.046    29.142     8.853
     4   6 C        2.923    -0.031    28.770     8.796
     5   6 C        2.916    -0.054    29.349     8.884
     6   6 C        2.788     0.163    24.463     8.102
     7   9 F        0.787    -0.226    11.507     4.007
     8   6 C        2.979    -0.011    28.292     8.725
     9   6 C        2.973    -0.034    28.845     8.810
    10   6 C        2.853     0.146    24.821     8.166
    11   8 O        1.660    -0.383    20.526     6.116
    12   6 C        2.917    -0.060    29.500     8.907
    13   6 C        2.925    -0.030    28.761     8.795
    14   6 C        2.916    -0.062    29.544     8.913
    15   6 C        2.790     0.167    24.399     8.091
    16   9 F        0.787    -0.226    11.506     4.007
    17   1 H        0.925     0.052     2.290     2.366
    18   1 H        0.925     0.057     2.233     2.337
    19   1 H        0.925     0.048     2.345     2.394
    20   1 H        0.926     0.044     2.396     2.421
    21   1 H        0.926     0.046     2.369     2.407
    22   1 H        0.926     0.058     2.218     2.329
    23   1 H        0.805     0.305     0.706     1.320
    24   1 H        0.926     0.062     2.180     2.309
    25   1 H        0.926     0.051     2.308     2.376
    26   1 H        0.926     0.060     2.202     2.320

 Mol. C6AA /au·bohr⁶  :       8726.847397
 Mol. C8AA /au·bohr⁸  :     214240.296390
 Mol. α(0) /au        :        147.162976


Wiberg/Mayer (AO) data.
largest (>0.10) Wiberg bond orders for each atom

 ---------------------------------------------------------------------------
     #   Z sym  total        # sym  WBO       # sym  WBO       # sym  WBO
 ---------------------------------------------------------------------------
     1   6 C    3.995 --     2 C    1.030    19 H    0.985    17 H    0.969
                            18 H    0.969
     2   6 C    3.988 --     3 C    1.416     8 C    1.368     1 C    1.030
                             5 C    0.106
     3   6 C    3.990 --     4 C    1.440     2 C    1.416    20 H    0.967
     4   6 C    3.990 --     3 C    1.440     5 C    1.439    21 H    0.970
                             8 C    0.106
     5   6 C    3.989 --     4 C    1.439     6 C    1.396    22 H    0.966
                             2 C    0.106
     6   6 C    3.885 --     5 C    1.396     8 C    1.369     7 F    0.958
     7   9 F    1.090 --     6 C    0.958
     8   6 C    3.987 --     6 C    1.369     2 C    1.368     9 C    1.004
                             4 C    0.106
     9   6 C    3.983 --    15 C    1.369    10 C    1.337     8 C    1.004
                            13 C    0.102
    10   6 C    3.941 --    12 C    1.364     9 C    1.337    11 O    1.085
    11   8 O    2.135 --    10 C    1.085    23 H    0.879
    12   6 C    3.986 --    13 C    1.457    10 C    1.364    24 H    0.966
    13   6 C    3.990 --    12 C    1.457    14 C    1.426    25 H    0.970
                             9 C    0.102
    14   6 C    3.987 --    13 C    1.426    15 C    1.399    26 H    0.966
    15   6 C    3.885 --    14 C    1.399     9 C    1.369    16 F    0.958
    16   9 F    1.089 --    15 C    0.958
    17   1 H    0.997 --     1 C    0.969
    18   1 H    0.997 --     1 C    0.969
    19   1 H    0.997 --     1 C    0.985
    20   1 H    0.997 --     3 C    0.967
    21   1 H    0.997 --     4 C    0.970
    22   1 H    0.995 --     5 C    0.966
    23   1 H    0.907 --    11 O    0.879
    24   1 H    0.995 --    12 C    0.966
    25   1 H    0.997 --    13 C    0.970
    26   1 H    0.995 --    14 C    0.966
 ---------------------------------------------------------------------------

Topologies differ in total number of bonds
Writing topology from bond orders to xtbtopo.mol

molecular dipole:
                 x           y           z       tot (Debye)
 q only:       -0.362      -0.277       1.011
   full:       -0.573      -0.282       0.923       2.852
molecular quadrupole (traceless):
                xx          xy          yy          xz          yz          zz
 q only:       10.360      -4.489      -3.165      -2.128      -0.992      -7.196
  q+dip:       13.178      -7.185      -4.086      -2.880      -1.903      -9.092
   full:       10.955      -6.225      -2.927      -2.953      -1.694      -8.028

           -------------------------------------------------
          |                Geometry Summary                 |
           -------------------------------------------------

      molecular mass/u    :      220.2151854
   center of mass at/Å    :        0.1188859       0.1787138      -0.3161827
  moments of inertia/u·Å² :        0.5656628E+03   0.1197529E+04   0.1231956E+04
rotational constants/cm⁻¹ :        0.2980156E-01   0.1407701E-01   0.1368364E-01

 * 23 selected distances

     #   Z          #   Z                                           value/Å
     2   6 C        3   6 C                                       1.3880914
     3   6 C        4   6 C                                       1.3842946
     4   6 C        5   6 C                                       1.3830181
     5   6 C        6   6 C                                       1.3819668
     2   6 C        8   6 C                                       1.3981967 (max)
     6   6 C        8   6 C                                       1.3893981
     9   6 C       10   6 C                                       1.3974829
    10   6 C       11   8 O                                       1.3564465
    10   6 C       12   6 C                                       1.3910208
    12   6 C       13   6 C                                       1.3808256
    13   6 C       14   6 C                                       1.3847363
     9   6 C       15   6 C                                       1.3878729
    14   6 C       15   6 C                                       1.3807435
     1   6 C       17   1 H                                       1.0901794
     1   6 C       18   1 H                                       1.0896120
     1   6 C       19   1 H                                       1.0868209
     3   6 C       20   1 H                                       1.0797545
     4   6 C       21   1 H                                       1.0790372
     5   6 C       22   1 H                                       1.0779444
    11   8 O       23   1 H                                       0.9670037 (min)
    12   6 C       24   1 H                                       1.0777953
    13   6 C       25   1 H                                       1.0786545
    14   6 C       26   1 H                                       1.0776153

 * 4 distinct bonds (by element types)

   Z      Z             #   av. dist./Å        max./Å        min./Å
   1 H    6 C           9     1.0819348     1.0901794     1.0776153
   6 C    6 C          12     1.3873040     1.3981967     1.3807435
   1 H    8 O           1     0.9670037     0.9670037     0.9670037
   6 C    8 O           1     1.3564465     1.3564465     1.3564465


optimized geometry written to: xtbopt.xyz


           -------------------------------------------------
          | TOTAL ENERGY              -46.467555109896 Eh   |
          | GRADIENT NORM               0.000560036103 Eh/α |
          | HOMO-LUMO GAP               4.081446339219 eV   |
           -------------------------------------------------

------------------------------------------------------------------------
 * finished run on 2025/08/28 at 10:02:14.276     
------------------------------------------------------------------------
 total:
 * wall-time:     0 d,  0 h,  0 min,  1.411 sec
 *  cpu-time:     0 d,  0 h,  0 min,  2.792 sec
 * ratio c/w:     1.979 speedup
 SCF:
 * wall-time:     0 d,  0 h,  0 min,  0.100 sec
 *  cpu-time:     0 d,  0 h,  0 min,  0.199 sec
 * ratio c/w:     1.999 speedup
 ANC optimizer:
 * wall-time:     0 d,  0 h,  0 min,  1.283 sec
 *  cpu-time:     0 d,  0 h,  0 min,  2.554 sec
 * ratio c/w:     1.991 speedup

