 Entering Gaussian System, Link 0=g16
 Initial command:
 /path/to/gaussian "/path/to/scratch/inp" -scrdir="/path/to/scratch/"
 Entering Link 1 = /path/to/gaussian PID=   3633868.
  
 Copyright (c) 1988-2021, Gaussian, Inc.  All Rights Reserved.
  
 This is part of the Gaussian(R) 16 program.  It is based on
 the Gaussian(R) 09 system (copyright 2009, Gaussian, Inc.),
 the Gaussian(R) 03 system (copyright 2003, Gaussian, Inc.),
 the Gaussian(R) 98 system (copyright 1998, Gaussian, Inc.),
 the Gaussian(R) 94 system (copyright 1995, Gaussian, Inc.),
 the Gaussian 92(TM) system (copyright 1992, Gaussian, Inc.),
 the Gaussian 90(TM) system (copyright 1990, Gaussian, Inc.),
 the Gaussian 88(TM) system (copyright 1988, Gaussian, Inc.),
 the Gaussian 86(TM) system (copyright 1986, Carnegie Mellon
 University), and the Gaussian 82(TM) system (copyright 1983,
 Carnegie Mellon University). Gaussian is a federally registered
 trademark of Gaussian, Inc.
  
 This software contains proprietary and confidential information,
 including trade secrets, belonging to Gaussian, Inc.
  
 This software is provided under written license and may be
 used, copied, transmitted, or stored only in accord with that
 written license.
  
 The following legend is applicable only to US Government
 contracts under FAR:
  
                    RESTRICTED RIGHTS LEGEND
  
 Use, reproduction and disclosure by the US Government is
 subject to restrictions as set forth in subparagraphs (a)
 and (c) of the Commercial Computer Software - Restricted
 Rights clause in FAR 52.227-19.
  
 Gaussian, Inc.
 340 Quinnipiac St., Bldg. 40, Wallingford CT 06492
  
  
 ---------------------------------------------------------------
 Warning -- This program may not be used in any manner that
 competes with the business of Gaussian, Inc. or will provide
 assistance to any competitor of Gaussian, Inc.  The licensee
 of this program is prohibited from giving any competitor of
 Gaussian, Inc. access to this program.  By using this program,
 the user acknowledges that Gaussian, Inc. is engaged in the
 business of creating and licensing software in the field of
 computational chemistry and represents and warrants to the
 licensee that it is not a competitor of Gaussian, Inc. and that
 it will not use this program in any manner prohibited above.
 ---------------------------------------------------------------
  

 Cite this work as:
 Gaussian 16, Revision C.02,
 M. J. Frisch, G. W. Trucks, H. B. Schlegel, G. E. Scuseria, 
 M. A. Robb, J. R. Cheeseman, G. Scalmani, V. Barone, 
 G. A. Petersson, H. Nakatsuji, X. Li, M. Caricato, A. V. Marenich, 
 J. Bloino, B. G. Janesko, R. Gomperts, B. Mennucci, H. P. Hratchian, 
 J. V. Ortiz, A. F. Izmaylov, J. L. Sonnenberg, D. Williams-Young, 
 F. Ding, F. Lipparini, F. Egidi, J. Goings, B. Peng, A. Petrone, 
 T. Henderson, D. Ranasinghe, V. G. Zakrzewski, J. Gao, N. Rega, 
 G. Zheng, W. Liang, M. Hada, M. Ehara, K. Toyota, R. Fukuda, 
 J. Hasegawa, M. Ishida, T. Nakajima, Y. Honda, O. Kitao, H. Nakai, 
 T. Vreven, K. Throssell, J. A. Montgomery, Jr., J. E. Peralta, 
 F. Ogliaro, M. J. Bearpark, J. J. Heyd, E. N. Brothers, K. N. Kudin, 
 V. N. Staroverov, T. A. Keith, R. Kobayashi, J. Normand, 
 K. Raghavachari, A. P. Rendell, J. C. Burant, S. S. Iyengar, 
 J. Tomasi, M. Cossi, J. M. Millam, M. Klene, C. Adamo, R. Cammi, 
 J. W. Ochterski, R. L. Martin, K. Morokuma, O. Farkas, 
 J. B. Foresman, and D. J. Fox, Gaussian, Inc., Wallingford CT, 2019.
 
 ******************************************
 Gaussian 16:  ES64L-G16RevC.02  7-Dec-2021
                 2-Dec-2025 
 ******************************************
 %mem=6000MB
 %nprocshared=4
 Will use up to    4 processors via shared memory.
 ---------------------------------------------
 # bp86/def2svp/auto empiricaldispersion=GD3BJ
 ---------------------------------------------
 1/38=1,172=1/1;
 2/12=2,17=6,18=5,40=1/2;
 3/5=43,7=101,11=2,25=1,30=1,74=404,82=28,124=41/1,2,3;
 4//1;
 5/5=2,38=5/2;
 6/7=2,8=2,9=2,10=2,28=1/1;
 99/5=1,9=1/99;
 -------
 example
 -------
 Symbolic Z-matrix:
 Charge =  0 Multiplicity = 1
 C                     1.24607   2.64234   0.5712 
 C                     1.57682   1.24413   0.07252 
 C                     2.92159   1.12311  -0.27616 
 C                     3.55502  -0.08645  -0.46572 
 C                     2.86053  -1.22427  -0.11006 
 C                     1.51805  -1.12672   0.19614 
 F                     1.01693  -2.26071   0.7466 
 C                     0.76238   0.06827   0.0748 
 C                    -0.73598   0.00186  -0.03377 
 C                    -1.50842  -1.20954  -0.17912 
 O                    -1.03009  -2.42681  -0.59672 
 C                    -2.88934  -1.17727   0.02727 
 C                    -3.59919  -0.01172   0.2118 
 C                    -2.91763   1.1778    0.07647 
 C                    -1.54447   1.15632  -0.07629 
 F                    -1.02969   2.37811  -0.34531 
 H                     0.44184   2.63276   1.29942 
 H                     2.13664   3.02611   1.06567 
 H                     0.99435   3.32363  -0.23656 
 H                     3.49819   2.03199  -0.36948 
 H                     4.58681  -0.13541  -0.77544 
 H                     3.33547  -2.18955  -0.03733 
 H                    -1.73612  -3.07959  -0.55728 
 H                    -3.42346  -2.11909   0.004 
 H                    -4.66303  -0.03213   0.38346 
 H                    -3.42001   2.13136   0.07011 
 
                          Input orientation:                          
 ---------------------------------------------------------------------
 Center     Atomic      Atomic             Coordinates (Angstroms)
 Number     Number       Type             X           Y           Z
 ---------------------------------------------------------------------
      1          6           0        1.246067    2.642344    0.571202
      2          6           0        1.576815    1.244126    0.072518
      3          6           0        2.921590    1.123106   -0.276164
      4          6           0        3.555018   -0.086448   -0.465716
      5          6           0        2.860525   -1.224275   -0.110061
      6          6           0        1.518053   -1.126718    0.196145
      7          9           0        1.016928   -2.260707    0.746602
      8          6           0        0.762378    0.068271    0.074802
      9          6           0       -0.735979    0.001865   -0.033765
     10          6           0       -1.508421   -1.209539   -0.179123
     11          8           0       -1.030095   -2.426807   -0.596720
     12          6           0       -2.889335   -1.177267    0.027270
     13          6           0       -3.599191   -0.011718    0.211801
     14          6           0       -2.917628    1.177797    0.076467
     15          6           0       -1.544469    1.156323   -0.076290
     16          9           0       -1.029685    2.378110   -0.345310
     17          1           0        0.441841    2.632756    1.299416
     18          1           0        2.136638    3.026111    1.065674
     19          1           0        0.994347    3.323634   -0.236561
     20          1           0        3.498186    2.031990   -0.369482
     21          1           0        4.586808   -0.135408   -0.775444
     22          1           0        3.335466   -2.189554   -0.037327
     23          1           0       -1.736118   -3.079590   -0.557276
     24          1           0       -3.423463   -2.119091    0.003995
     25          1           0       -4.663035   -0.032129    0.383464
     26          1           0       -3.420006    2.131360    0.070111
 ---------------------------------------------------------------------
                    Distance matrix (angstroms):
                    1          2          3          4          5
     1  C    0.000000
     2  C    1.520885   0.000000
     3  C    2.415262   1.394505   0.000000
     4  C    3.721929   2.444056   1.378471   0.000000
     5  C    4.245154   2.788234   2.354042   1.379660   0.000000
     6  C    3.797429   2.374792   2.693454   2.381061   1.380402
     7  F    4.911535   3.612717   4.015468   3.555141   2.281867
     8  C    2.665749   1.430367   2.428590   2.848673   2.471249
     9  C    3.356579   2.627456   3.833242   4.313587   3.800537
    10  C    4.794497   3.949998   5.007559   5.194410   4.369517
    11  O    5.678138   4.551880   5.321696   5.149535   4.101200
    12  C    5.655691   5.080521   6.257047   6.554587   5.751692
    13  C    5.536220   5.328000   6.636755   7.186607   6.580411
    14  C    4.441399   4.494935   5.850112   6.617207   6.260335
    15  C    3.227166   3.126063   4.470653   5.263165   5.007230
    16  F    2.467563   2.873037   4.146371   5.206539   5.307189
    17  H    1.084973   2.172957   3.303127   4.494623   4.765852
    18  H    1.088529   2.115474   2.457256   3.747663   4.469020
    19  H    1.086279   2.181548   2.925433   4.270622   4.917530
    20  H    2.515841   2.123148   1.080389   2.121384   3.328238
    21  H    4.548616   3.417925   2.146180   1.078387   2.146723
    22  H    5.299352   3.859414   3.346947   2.157493   1.078250
    23  H    6.550375   5.483310   6.279802   6.079754   4.977080
    24  H    6.693094   6.026501   7.130921   7.283644   6.348403
    25  H    6.488878   6.376617   7.700403   8.261989   7.633396
    26  H    4.720640   5.074979   6.430577   7.338716   7.123049
                    6          7          8          9         10
     6  C    0.000000
     7  F    1.356489   0.000000
     8  C    1.419073   2.437264   0.000000
     9  C    2.531248   2.966629   1.503751   0.000000
    10  C    3.050776   2.887786   2.617977   1.444055   0.000000
    11  O    2.968489   2.454059   3.144728   2.510352   1.372925
    12  C    4.410912   4.117059   3.858579   2.455814   1.396626
    13  C    5.237332   5.162607   4.364452   2.873755   2.441089
    14  C    5.000038   5.268123   3.843630   2.480839   2.783983
    15  C    3.829561   4.349023   2.555039   1.410049   2.368370
    16  F    4.366687   5.186475   2.953529   2.414511   3.623262
    17  H    4.063137   4.958056   2.859897   3.175882   4.555528
    18  H    4.287740   5.413502   3.408700   4.313555   5.725095
    19  H    4.501904   5.670273   3.278436   3.750908   5.178495
    20  H    3.770715   5.082276   3.396796   4.707681   5.967400
    21  H    3.368076   4.424655   3.923095   5.375964   6.217811
    22  H    2.118282   2.448515   3.425074   4.623742   4.944065
    23  H    3.869235   3.154350   4.068296   3.281723   1.921441
    24  H    5.043839   4.504286   4.723434   3.423807   2.127958
    25  H    6.280053   6.112316   5.435113   3.949304   3.413852
    26  H    5.917380   6.279672   4.663549   3.427761   3.857186
                   11         12         13         14         15
    11  O    0.000000
    12  C    2.325401   0.000000
    13  C    3.617543   1.377117   0.000000
    14  C    4.124213   2.355747   1.377602   0.000000
    15  C    3.657082   2.695372   2.381007   1.381797   0.000000
    16  F    4.811490   4.029617   3.553028   2.276615   1.352826
    17  H    5.600099   5.218369   4.950362   3.859864   2.831582
    18  H    6.521201   6.633783   6.546543   5.471782   4.283776
    19  H    6.107017   5.950690   5.694400   4.472824   3.341933
    20  H    6.359075   7.159411   7.408602   6.487772   5.126512
    21  H    6.068942   7.590951   8.246243   7.665952   6.304756
    22  H    4.407645   6.306905   7.272860   7.103041   5.916940
    23  H    0.962367   2.300095   3.670744   4.463512   4.267438
    24  H    2.486717   1.082990   2.124874   3.336254   3.776957
    25  H    4.460213   2.141081   1.077798   2.145836   3.368864
    26  H    5.189723   3.351188   2.155218   1.077825   2.118908
                   16         17         18         19         20
    16  F    0.000000
    17  H    2.221567   0.000000
    18  H    3.526526   1.755477   0.000000
    19  H    2.236638   1.772513   1.757602   0.000000
    20  H    4.541145   3.533749   2.213992   2.820500   0.000000
    21  H    6.168289   5.398938   4.403209   5.016089   2.459170
    22  H    6.325579   5.780539   5.464152   5.992978   4.237716
    23  H    5.507310   6.389187   7.410249   6.968470   7.318569
    24  H    5.106565   6.260891   7.649509   7.014142   8.079615
    25  H    4.420587   5.830981   7.486908   6.606932   8.451807
    26  H    2.438666   4.083682   5.715595   4.582803   6.932856
                   21         22         23         24         25
    21  H    0.000000
    22  H    2.515987   0.000000
    23  H    6.978194   5.175275   0.000000
    24  H    8.288967   6.759423   2.021068   0.000000
    25  H    9.322732   8.295033   4.328840   2.456817   0.000000
    26  H    8.364346   8.019866   5.512086   4.250967   2.514755
                   26
    26  H    0.000000
 Stoichiometry    C13H10F2O
 Framework group  C1[X(C13H10F2O)]
 Deg. of freedom    72
 Full point group                 C1      NOp   1
 Largest Abelian subgroup         C1      NOp   1
 Largest concise Abelian subgroup C1      NOp   1
                         Standard orientation:                         
 ---------------------------------------------------------------------
 Center     Atomic      Atomic             Coordinates (Angstroms)
 Number     Number       Type             X           Y           Z
 ---------------------------------------------------------------------
      1          6           0        1.357115    2.567396    0.531016
      2          6           0        1.624060    1.147206    0.056788
      3          6           0        2.962875    0.958027   -0.284431
      4          6           0        3.539944   -0.282648   -0.451463
      5          6           0        2.792099   -1.380886   -0.079897
      6          6           0        1.454631   -1.215957    0.219247
      7          9           0        0.899488   -2.316106    0.786302
      8          6           0        0.755783    0.010674    0.075176
      9          6           0       -0.743679    0.012176   -0.038316
     10          6           0       -1.571180   -1.164273   -0.166794
     11          8           0       -1.148660   -2.409242   -0.562335
     12          6           0       -2.949761   -1.064424    0.033474
     13          6           0       -3.605206    0.135768    0.195904
     14          6           0       -2.868590    1.289902    0.043723
     15          6           0       -1.497427    1.202092   -0.103126
     16          9           0       -0.925471    2.393984   -0.390176
     17          1           0        0.550946    2.607326    1.256044
     18          1           0        2.262964    2.917542    1.022677
     19          1           0        1.140004    3.246100   -0.288877
     20          1           0        3.581442    1.837451   -0.390397
     21          1           0        4.569341   -0.384659   -0.756182
     22          1           0        3.221366   -2.365850    0.010653
     23          1           0       -1.884421   -3.027759   -0.514979
     24          1           0       -3.527060   -1.980664    0.023579
     25          1           0       -4.669401    0.167683    0.363592
     26          1           0       -3.326026    2.265545    0.019623
 ---------------------------------------------------------------------
 Rotational constants (GHZ):           0.8375440           0.4843678           0.3192654
 Standard basis: def2SVP (5D, 7F)
 There are   290 symmetry adapted cartesian basis functions of A   symmetry.
 There are   274 symmetry adapted basis functions of A   symmetry.
   274 basis functions,   470 primitive gaussians,   290 cartesian basis functions
    57 alpha electrons       57 beta electrons
       nuclear repulsion energy      1076.6842990485 Hartrees.
 NAtoms=   26 NActive=   26 NUniq=   26 SFac= 1.00D+00 NAtFMM=   60 NAOKFM=F Big=F
 Integral buffers will be    131072 words long.
 Raffenetti 2 integral format.
 Two-electron integral symmetry is turned on.
 Nuclear repulsion after empirical dispersion term =     1076.6327008650 Hartrees.
 Standard density basis: Auto (5D, 7F)
  1490 Density fitting functions
 There are  1490 symmetry adapted density basis functions of A   symmetry.
 One-electron integrals computed using PRISM.
   1 Symmetry operations used in ECPInt.
 ECPInt:  NShTT=    8001 NPrTT=   29641 LenC2=    7608 LenP2D=   20325.
 LDataN:  DoStor=T MaxTD1= 4 Len=   56
 NBasis=   274 RedAO= T EigKep=  2.71D-04  NBF=   274
 NBsUse=   274 1.00D-06 EigRej= -1.00D+00 NBFU=   274
 NBasis=      274 NBas6D=      290 NTT=       37675   NTT6D=    42195
 NDBShl=      236 NDBF=       1490 NDBF6D=     1748  NNucDB=        0
 IDenFi=        2 ISolve=        0 FullAP=F BlkAPC=T NucTyp=        0
 TolInv= 1.00D-06 TolIt=  1.00D-10 IR12=0.
 FoFCou: FMM=F IPFlag=           0 FMFlag=           0 FMFlg1=           0
         NFxFlg=           0 DoJE=F BraDBF=T KetDBF=T FulRan=T
         wScrn=  0.000000 ICntrl=       600 IOpCl=  3 I1Cent=           6 NGrid=           0
         NMat0=    1 NMatS0=   1748 NMatT0=    0 NMatD0=    1 NMtDS0=    0 NMtDT0=    0
 Petite list used in FoFCou.
 DBF EigKep=  1.12D-06 EigRej=  9.77D-07
 NDBF=   1490  NBFD=  1490
 NRank=  1487 NBFDU=  1487
 S*AI*S=  9.30107109592    
 ExpMin= 1.22D-01 ExpMax= 2.89D+03 ExpMxC= 4.35D+02 IAcc=3 IRadAn=         5 AccDes= 0.00D+00
 Harris functional with IExCor=  404 and IRadAn=       5 diagonalized for initial guess.
 HarFok:  IExCor=  404 AccDes= 0.00D+00 IRadAn=         5 IDoV= 1 UseB2=F ITyADJ=14
 ICtDFT=  3500011 ScaDFX=  1.000000  1.000000  1.000000  1.000000
 FoFCou: FMM=F IPFlag=           0 FMFlag=      100000 FMFlg1=           0
         NFxFlg=           0 DoJE=T BraDBF=F KetDBF=T FulRan=T
         wScrn=  0.000000 ICntrl=       500 IOpCl=  0 I1Cent=   200000004 NGrid=           0
         NMat0=    1 NMatS0=      1 NMatT0=    0 NMatD0=    1 NMtDS0=    0 NMtDT0=    0
 Petite list used in FoFCou.
 Requested convergence on RMS density matrix=1.00D-08 within 128 cycles.
 Requested convergence on MAX density matrix=1.00D-06.
 Requested convergence on             energy=1.00D-06.
 No special actions if energy rises.
 FoFCou: FMM=F IPFlag=           0 FMFlag=      100000 FMFlg1=           0
         NFxFlg=           0 DoJE=T BraDBF=T KetDBF=F FulRan=T
         wScrn=  0.000000 ICntrl=       500 IOpCl=  0 I1Cent=           5 NGrid=           0
         NMat0=    1 NMatS0=      1 NMatT0=    0 NMatD0=    1 NMtDS0=    0 NMtDT0=    0
 Symmetry not used in FoFCou.
 Initial convergence to 1.0D-05 achieved.  Increase integral accuracy.
 SCF Done:  E(RB-P86) =  -775.736128714     A.U. after   17 cycles
            NFock= 17  Conv=0.39D-08     -V/T= 2.0095

 **********************************************************************

            Population analysis using the SCF Density.

 **********************************************************************

 Orbital symmetries:
       Occupied  (A) (A) (A) (A) (A) (A) (A) (A) (A) (A) (A) (A)
                 (A) (A) (A) (A) (A) (A) (A) (A) (A) (A) (A) (A)
                 (A) (A) (A) (A) (A) (A) (A) (A) (A) (A) (A) (A)
                 (A) (A) (A) (A) (A) (A) (A) (A) (A) (A) (A) (A)
                 (A) (A) (A) (A) (A) (A) (A) (A) (A)
       Virtual   (A) (A) (A) (A) (A) (A) (A) (A) (A) (A) (A) (A)
                 (A) (A) (A) (A) (A) (A) (A) (A) (A) (A) (A) (A)
                 (A) (A) (A) (A) (A) (A) (A) (A) (A) (A) (A) (A)
                 (A) (A) (A) (A) (A) (A) (A) (A) (A) (A) (A) (A)
                 (A) (A) (A) (A) (A) (A) (A) (A) (A) (A) (A) (A)
                 (A) (A) (A) (A) (A) (A) (A) (A) (A) (A) (A) (A)
                 (A) (A) (A) (A) (A) (A) (A) (A) (A) (A) (A) (A)
                 (A) (A) (A) (A) (A) (A) (A) (A) (A) (A) (A) (A)
                 (A) (A) (A) (A) (A) (A) (A) (A) (A) (A) (A) (A)
                 (A) (A) (A) (A) (A) (A) (A) (A) (A) (A) (A) (A)
                 (A) (A) (A) (A) (A) (A) (A) (A) (A) (A) (A) (A)
                 (A) (A) (A) (A) (A) (A) (A) (A) (A) (A) (A) (A)
                 (A) (A) (A) (A) (A) (A) (A) (A) (A) (A) (A) (A)
                 (A) (A) (A) (A) (A) (A) (A) (A) (A) (A) (A) (A)
                 (A) (A) (A) (A) (A) (A) (A) (A) (A) (A) (A) (A)
                 (A) (A) (A) (A) (A) (A) (A) (A) (A) (A) (A) (A)
                 (A) (A) (A) (A) (A) (A) (A) (A) (A) (A) (A) (A)
                 (A) (A) (A) (A) (A) (A) (A) (A) (A) (A) (A) (A)
                 (A)
 The electronic state is 1-A.
 Alpha  occ. eigenvalues --  -24.30088 -24.28704 -18.81597  -9.99872  -9.99163
 Alpha  occ. eigenvalues --   -9.98887  -9.94706  -9.94149  -9.93005  -9.92389
 Alpha  occ. eigenvalues --   -9.91688  -9.91241  -9.91232  -9.90666  -9.90433
 Alpha  occ. eigenvalues --   -9.90363  -1.11067  -1.09385  -0.97174  -0.79270
 Alpha  occ. eigenvalues --   -0.77888  -0.71256  -0.69411  -0.67118  -0.65985
 Alpha  occ. eigenvalues --   -0.61691  -0.57849  -0.57492  -0.53720  -0.52945
 Alpha  occ. eigenvalues --   -0.51656  -0.47739  -0.46535  -0.45656  -0.44626
 Alpha  occ. eigenvalues --   -0.42865  -0.42406  -0.41719  -0.40460  -0.39651
 Alpha  occ. eigenvalues --   -0.37831  -0.37369  -0.36972  -0.36877  -0.35295
 Alpha  occ. eigenvalues --   -0.34884  -0.33046  -0.32009  -0.31858  -0.30987
 Alpha  occ. eigenvalues --   -0.30550  -0.29379  -0.28491  -0.26233  -0.21043
 Alpha  occ. eigenvalues --   -0.20552  -0.19456
 Alpha virt. eigenvalues --   -0.08114  -0.03277  -0.02874  -0.01752   0.02120
 Alpha virt. eigenvalues --    0.03617   0.05389   0.05956   0.07624   0.09160
 Alpha virt. eigenvalues --    0.09826   0.10297   0.11644   0.12452   0.13039
 Alpha virt. eigenvalues --    0.13719   0.14718   0.16635   0.19191   0.19381
 Alpha virt. eigenvalues --    0.20523   0.21722   0.25384   0.25751   0.27030
 Alpha virt. eigenvalues --    0.27782   0.29176   0.30227   0.30373   0.31177
 Alpha virt. eigenvalues --    0.33315   0.35490   0.36895   0.37720   0.38477
 Alpha virt. eigenvalues --    0.39800   0.40592   0.41439   0.42792   0.43238
 Alpha virt. eigenvalues --    0.43655   0.44013   0.44916   0.45343   0.46283
 Alpha virt. eigenvalues --    0.47043   0.48293   0.49428   0.50606   0.52095
 Alpha virt. eigenvalues --    0.53270   0.53849   0.54882   0.56201   0.56537
 Alpha virt. eigenvalues --    0.57232   0.58522   0.59736   0.60323   0.60873
 Alpha virt. eigenvalues --    0.61866   0.62201   0.62898   0.63186   0.63715
 Alpha virt. eigenvalues --    0.65074   0.65701   0.66809   0.67041   0.67705
 Alpha virt. eigenvalues --    0.68755   0.69678   0.71333   0.72927   0.73472
 Alpha virt. eigenvalues --    0.73840   0.75171   0.76030   0.77679   0.78700
 Alpha virt. eigenvalues --    0.80331   0.82031   0.84451   0.89029   0.91611
 Alpha virt. eigenvalues --    0.94124   0.94571   0.96805   0.99479   1.02044
 Alpha virt. eigenvalues --    1.03048   1.05612   1.08328   1.09838   1.11430
 Alpha virt. eigenvalues --    1.14244   1.15949   1.16843   1.18990   1.21001
 Alpha virt. eigenvalues --    1.22144   1.22962   1.24057   1.25773   1.27226
 Alpha virt. eigenvalues --    1.29586   1.31386   1.31730   1.33814   1.36694
 Alpha virt. eigenvalues --    1.37670   1.40927   1.42418   1.44186   1.46322
 Alpha virt. eigenvalues --    1.50691   1.53599   1.55470   1.57098   1.58011
 Alpha virt. eigenvalues --    1.59624   1.61290   1.61934   1.63076   1.64449
 Alpha virt. eigenvalues --    1.65337   1.65873   1.66497   1.67652   1.67766
 Alpha virt. eigenvalues --    1.69606   1.70653   1.72591   1.73249   1.74018
 Alpha virt. eigenvalues --    1.74582   1.75330   1.77825   1.78570   1.79353
 Alpha virt. eigenvalues --    1.81691   1.81925   1.83718   1.85680   1.87424
 Alpha virt. eigenvalues --    1.89036   1.89833   1.92375   1.94865   1.95816
 Alpha virt. eigenvalues --    1.96915   1.97221   2.00703   2.00999   2.01735
 Alpha virt. eigenvalues --    2.02954   2.04632   2.05564   2.09378   2.10088
 Alpha virt. eigenvalues --    2.11664   2.11930   2.13903   2.17123   2.19202
 Alpha virt. eigenvalues --    2.20772   2.21159   2.21846   2.22664   2.24694
 Alpha virt. eigenvalues --    2.26719   2.28144   2.29795   2.36462   2.39481
 Alpha virt. eigenvalues --    2.39817   2.40767   2.46291   2.47952   2.49262
 Alpha virt. eigenvalues --    2.50599   2.51526   2.55896   2.58101   2.60017
 Alpha virt. eigenvalues --    2.62296   2.65609   2.67792   2.70064   2.72574
 Alpha virt. eigenvalues --    2.73107   2.80012   2.81659   2.82393   2.85403
 Alpha virt. eigenvalues --    2.88125   2.88146   2.91055   2.92859   2.95967
 Alpha virt. eigenvalues --    2.96438   3.00409   3.02240   3.03337   3.06568
 Alpha virt. eigenvalues --    3.07858   3.15620   3.20547   3.21333   3.23395
 Alpha virt. eigenvalues --    3.37746   3.43898   3.48364   3.50325   3.68017
 Alpha virt. eigenvalues --    3.75844   3.78897
          Condensed to atoms (all electrons):
               1          2          3          4          5          6
     1  C    4.529225   0.436488  -0.077629   0.015562  -0.000315   0.009566
     2  C    0.436488   5.280571   0.325092   0.068259  -0.134402   0.027121
     3  C   -0.077629   0.325092   5.144173   0.255944   0.112074  -0.151465
     4  C    0.015562   0.068259   0.255944   5.124629   0.181580   0.106596
     5  C   -0.000315  -0.134402   0.112074   0.181580   5.306772   0.282772
     6  C    0.009566   0.027121  -0.151465   0.106596   0.282772   5.123664
     7  F   -0.000018   0.001458   0.000018   0.006511  -0.069319   0.378684
     8  C   -0.066993   0.278559   0.052376  -0.100057  -0.006657   0.192014
     9  C   -0.021652  -0.050929   0.016743  -0.000244   0.016562  -0.053493
    10  C   -0.000407   0.011838   0.000284  -0.000293   0.001261  -0.044235
    11  O   -0.000001   0.000129  -0.000005   0.000004  -0.001939   0.002531
    12  C    0.000005   0.000040  -0.000006   0.000003  -0.000077   0.000554
    13  C   -0.000026  -0.000135   0.000002  -0.000000   0.000004  -0.000151
    14  C   -0.000067   0.000522  -0.000032   0.000002  -0.000005   0.000024
    15  C    0.000133  -0.028447   0.000051  -0.000064  -0.000226   0.015728
    16  F    0.005100  -0.003962  -0.000215   0.000003  -0.000002   0.000215
    17  H    0.368436  -0.002244   0.008668  -0.001093   0.000256  -0.000797
    18  H    0.378694  -0.020263  -0.020097   0.002551  -0.000099   0.000039
    19  H    0.357847   0.000316   0.000742  -0.000185  -0.000027  -0.000308
    20  H   -0.020365  -0.075391   0.434690  -0.072788   0.015493  -0.000287
    21  H   -0.000511   0.018071  -0.075834   0.442060  -0.079214   0.016008
    22  H    0.000029  -0.000788   0.014553  -0.075287   0.420716  -0.062970
    23  H    0.000000   0.000023  -0.000000  -0.000001   0.000045  -0.000479
    24  H    0.000000  -0.000000  -0.000000   0.000000   0.000000   0.000060
    25  H    0.000001  -0.000000  -0.000000   0.000000  -0.000000   0.000001
    26  H   -0.000006   0.000041  -0.000001   0.000000  -0.000000   0.000002
               7          8          9         10         11         12
     1  C   -0.000018  -0.066993  -0.021652  -0.000407  -0.000001   0.000005
     2  C    0.001458   0.278559  -0.050929   0.011838   0.000129   0.000040
     3  C    0.000018   0.052376   0.016743   0.000284  -0.000005  -0.000006
     4  C    0.006511  -0.100057  -0.000244  -0.000293   0.000004   0.000003
     5  C   -0.069319  -0.006657   0.016562   0.001261  -0.001939  -0.000077
     6  C    0.378684   0.192014  -0.053493  -0.044235   0.002531   0.000554
     7  F    8.922628  -0.076426   0.003306   0.002505  -0.007671  -0.001011
     8  C   -0.076426   5.578005   0.156096  -0.051355   0.005840   0.015169
     9  C    0.003306   0.156096   5.729639   0.166082  -0.073426   0.039419
    10  C    0.002505  -0.051355   0.166082   5.229449   0.439134   0.240257
    11  O   -0.007671   0.005840  -0.073426   0.439134   7.544828  -0.085121
    12  C   -0.001011   0.015169   0.039419   0.240257  -0.085121   5.361218
    13  C    0.000003  -0.000757  -0.105151   0.106520   0.006496   0.192925
    14  C   -0.000001   0.016173   0.011080  -0.149866   0.000160   0.120726
    15  C    0.000194  -0.051795   0.154715   0.062520   0.000873  -0.170712
    16  F   -0.000000  -0.002963  -0.072888   0.002647  -0.000001  -0.000077
    17  H   -0.000004  -0.008369   0.004404   0.000084   0.000000  -0.000010
    18  H    0.000002   0.006270  -0.000585   0.000010  -0.000000   0.000000
    19  H    0.000000  -0.000704   0.004000   0.000033   0.000000  -0.000003
    20  H    0.000005   0.017613  -0.000318   0.000003   0.000000  -0.000000
    21  H   -0.000098  -0.002205   0.000025   0.000001   0.000000  -0.000000
    22  H    0.001780   0.021044  -0.000480   0.000068   0.000050   0.000000
    23  H    0.001477  -0.000506   0.011876  -0.005214   0.320281  -0.029466
    24  H    0.000000  -0.000416   0.018445  -0.084060  -0.009686   0.415273
    25  H    0.000000   0.000011  -0.002737   0.017712  -0.000127  -0.069915
    26  H   -0.000000  -0.000288   0.022028  -0.001315   0.000007   0.016804
              13         14         15         16         17         18
     1  C   -0.000026  -0.000067   0.000133   0.005100   0.368436   0.378694
     2  C   -0.000135   0.000522  -0.028447  -0.003962  -0.002244  -0.020263
     3  C    0.000002  -0.000032   0.000051  -0.000215   0.008668  -0.020097
     4  C   -0.000000   0.000002  -0.000064   0.000003  -0.001093   0.002551
     5  C    0.000004  -0.000005  -0.000226  -0.000002   0.000256  -0.000099
     6  C   -0.000151   0.000024   0.015728   0.000215  -0.000797   0.000039
     7  F    0.000003  -0.000001   0.000194  -0.000000  -0.000004   0.000002
     8  C   -0.000757   0.016173  -0.051795  -0.002963  -0.008369   0.006270
     9  C   -0.105151   0.011080   0.154715  -0.072888   0.004404  -0.000585
    10  C    0.106520  -0.149866   0.062520   0.002647   0.000084   0.000010
    11  O    0.006496   0.000160   0.000873  -0.000001   0.000000  -0.000000
    12  C    0.192925   0.120726  -0.170712  -0.000077  -0.000010   0.000000
    13  C    5.158388   0.161860   0.130835   0.006339   0.000106  -0.000002
    14  C    0.161860   5.303774   0.281766  -0.065331  -0.001398   0.000044
    15  C    0.130835   0.281766   5.143631   0.364040   0.002301   0.000094
    16  F    0.006339  -0.065331   0.364040   8.927872  -0.001930   0.001749
    17  H    0.000106  -0.001398   0.002301  -0.001930   0.653663  -0.028749
    18  H   -0.000002   0.000044   0.000094   0.001749  -0.028749   0.674541
    19  H    0.000002  -0.000151  -0.002237   0.003509  -0.016971  -0.023083
    20  H    0.000000  -0.000000   0.000032  -0.000014   0.000769   0.004271
    21  H   -0.000000   0.000000   0.000000   0.000000   0.000014  -0.000013
    22  H    0.000000  -0.000000   0.000003  -0.000000  -0.000001  -0.000003
    23  H    0.000845  -0.000155   0.000322   0.000001  -0.000000  -0.000000
    24  H   -0.052878   0.016151  -0.000391   0.000004  -0.000000  -0.000000
    25  H    0.440327  -0.078558   0.016624  -0.000098  -0.000002   0.000000
    26  H   -0.079642   0.428893  -0.068111   0.001648   0.000053  -0.000002
              19         20         21         22         23         24
     1  C    0.357847  -0.020365  -0.000511   0.000029   0.000000   0.000000
     2  C    0.000316  -0.075391   0.018071  -0.000788   0.000023  -0.000000
     3  C    0.000742   0.434690  -0.075834   0.014553  -0.000000  -0.000000
     4  C   -0.000185  -0.072788   0.442060  -0.075287  -0.000001   0.000000
     5  C   -0.000027   0.015493  -0.079214   0.420716   0.000045   0.000000
     6  C   -0.000308  -0.000287   0.016008  -0.062970  -0.000479   0.000060
     7  F    0.000000   0.000005  -0.000098   0.001780   0.001477   0.000000
     8  C   -0.000704   0.017613  -0.002205   0.021044  -0.000506  -0.000416
     9  C    0.004000  -0.000318   0.000025  -0.000480   0.011876   0.018445
    10  C    0.000033   0.000003   0.000001   0.000068  -0.005214  -0.084060
    11  O    0.000000   0.000000   0.000000   0.000050   0.320281  -0.009686
    12  C   -0.000003  -0.000000  -0.000000   0.000000  -0.029466   0.415273
    13  C    0.000002   0.000000  -0.000000   0.000000   0.000845  -0.052878
    14  C   -0.000151  -0.000000   0.000000  -0.000000  -0.000155   0.016151
    15  C   -0.002237   0.000032   0.000000   0.000003   0.000322  -0.000391
    16  F    0.003509  -0.000014   0.000000  -0.000000   0.000001   0.000004
    17  H   -0.016971   0.000769   0.000014  -0.000001  -0.000000  -0.000000
    18  H   -0.023083   0.004271  -0.000013  -0.000003  -0.000000  -0.000000
    19  H    0.633497   0.002382   0.000016  -0.000001  -0.000000  -0.000000
    20  H    0.002382   0.727954  -0.014708  -0.000472   0.000000   0.000000
    21  H    0.000016  -0.014708   0.719805  -0.014057   0.000000  -0.000000
    22  H   -0.000001  -0.000472  -0.014057   0.699984  -0.000002  -0.000000
    23  H   -0.000000   0.000000   0.000000  -0.000002   0.513911   0.011500
    24  H   -0.000000   0.000000  -0.000000  -0.000000   0.011500   0.732900
    25  H    0.000000  -0.000000   0.000000  -0.000000  -0.000050  -0.016409
    26  H    0.000021  -0.000000  -0.000000   0.000000  -0.000006  -0.000436
              25         26
     1  C    0.000001  -0.000006
     2  C   -0.000000   0.000041
     3  C   -0.000000  -0.000001
     4  C    0.000000   0.000000
     5  C   -0.000000  -0.000000
     6  C    0.000001   0.000002
     7  F    0.000000  -0.000000
     8  C    0.000011  -0.000288
     9  C   -0.002737   0.022028
    10  C    0.017712  -0.001315
    11  O   -0.000127   0.000007
    12  C   -0.069915   0.016804
    13  C    0.440327  -0.079642
    14  C   -0.078558   0.428893
    15  C    0.016624  -0.068111
    16  F   -0.000098   0.001648
    17  H   -0.000002   0.000053
    18  H    0.000000  -0.000002
    19  H    0.000000   0.000021
    20  H   -0.000000  -0.000000
    21  H    0.000000  -0.000000
    22  H   -0.000000   0.000000
    23  H   -0.000050  -0.000006
    24  H   -0.016409  -0.000436
    25  H    0.711508  -0.014164
    26  H   -0.014164   0.699440
 Mulliken charges:
               1
     1  C    0.086906
     2  C   -0.131968
     3  C   -0.040126
     4  C    0.046308
     5  C   -0.045254
     6  C    0.158607
     7  F   -0.164020
     8  C    0.030320
     9  C    0.027480
    10  C    0.056336
    11  O   -0.142357
    12  C   -0.045995
    13  C    0.034089
    14  C   -0.045610
    15  C    0.148124
    16  F   -0.165645
    17  H    0.022814
    18  H    0.024632
    19  H    0.041305
    20  H   -0.018869
    21  H   -0.009360
    22  H   -0.004168
    23  H    0.175598
    24  H   -0.030056
    25  H   -0.004122
    26  H   -0.004966
 Sum of Mulliken charges =  -0.00000
 Mulliken charges with hydrogens summed into heavy atoms:
               1
     1  C    0.175657
     2  C   -0.131968
     3  C   -0.058996
     4  C    0.036948
     5  C   -0.049422
     6  C    0.158607
     7  F   -0.164020
     8  C    0.030320
     9  C    0.027480
    10  C    0.056336
    11  O    0.033241
    12  C   -0.076051
    13  C    0.029966
    14  C   -0.050577
    15  C    0.148124
    16  F   -0.165645
 Electronic spatial extent (au):  <R**2>=           3326.4417
 Charge=             -0.0000 electrons
 Dipole moment (field-independent basis, Debye):
    X=             -1.4436    Y=             -0.5475    Z=             -0.0061  Tot=              1.5439
 Quadrupole moment (field-independent basis, Debye-Ang):
   XX=            -76.2904   YY=            -83.6040   ZZ=            -94.6275
   XY=              5.8637   XZ=             -0.9143   YZ=              1.9399
 Traceless Quadrupole moment (field-independent basis, Debye-Ang):
   XX=              8.5502   YY=              1.2366   ZZ=             -9.7868
   XY=              5.8637   XZ=             -0.9143   YZ=              1.9399
 Octapole moment (field-independent basis, Debye-Ang**2):
  XXX=            -18.1164  YYY=            -29.0767  ZZZ=              1.7538  XYY=            -18.0460
  XXY=            -16.6282  XXZ=             -4.0483  XZZ=             -0.8543  YZZ=             -1.4850
  YYZ=             -2.8388  XYZ=             -2.2570
 Hexadecapole moment (field-independent basis, Debye-Ang**3):
 XXXX=          -2549.5472 YYYY=          -1274.2163 ZZZZ=           -167.0647 XXXY=             -9.3128
 XXXZ=            -31.6447 YYYX=             53.7599 YYYZ=              0.7701 ZZZX=             17.1460
 ZZZY=            -15.2906 XXYY=           -597.7068 XXZZ=           -530.2195 YYZZ=           -259.9842
 XXYZ=              4.0196 YYXZ=             11.1839 ZZXY=             -2.3995
 N-N= 1.076632700865D+03 E-N=-3.965653289163D+03  KE= 7.684260145731D+02
 Unable to Open any file for archive entry.
 1\1\GINC-SEMLSCPN085\SP\RBP86\def2SVP/Auto\C13H10F2O1\KTVF206\02-Dec-2
 025\0\\# bp86/def2svp/auto empiricaldispersion=GD3BJ\\example\\0,1\C,0
 ,1.2460674535,2.642343629,0.5712022998\C,0,1.5768154172,1.2441263589,0
 .0725175661\C,0,2.9215899136,1.1231057317,-0.2761636871\C,0,3.55501836
 91,-0.0864478386,-0.4657163048\C,0,2.8605250683,-1.2242746018,-0.11006
 07399\C,0,1.5180529713,-1.1267176284,0.1961448922\F,0,1.0169277269,-2.
 260707485,0.7466018711\C,0,0.7623775029,0.0682713946,0.0748016188\C,0,
 -0.7359787219,0.0018645436,-0.0337650382\C,0,-1.5084212826,-1.20953921
 9,-0.1791229782\O,0,-1.0300949296,-2.4268071017,-0.5967198245\C,0,-2.8
 893354334,-1.1772668559,0.0272697067\C,0,-3.5991905342,-0.0117176154,0
 .2118013697\C,0,-2.9176282696,1.1777968071,0.0764667505\C,0,-1.5444691
 616,1.1563225184,-0.0762904822\F,0,-1.0296852556,2.3781096472,-0.34531
 00528\H,0,0.4418411909,2.6327564245,1.299416263\H,0,2.1366380571,3.026
 1107479,1.0656737345\H,0,0.9943471841,3.32363446,-0.2365613966\H,0,3.4
 981857205,2.0319898285,-0.3694818838\H,0,4.5868081839,-0.1354081437,-0
 .7754443521\H,0,3.33546599,-2.1895541918,-0.0373268019\H,0,-1.73611782
 47,-3.0795898345,-0.5572761198\H,0,-3.4234633186,-2.1190913832,0.00399
 5155\H,0,-4.6630348669,-0.032128569,0.3834640208\H,0,-3.4200062827,2.1
 313601078,0.0701105502\\Version=ES64L-G16RevC.02\State=1-A\HF=-775.736
 1287\RMSD=3.930e-09\Dipole=-0.5573189,-0.2415119,-0.0041347\Quadrupole
 =5.9341181,1.287747,-7.2218651,4.6113121,-0.7233476,1.5316929\PG=C01 [
 X(C13H10F2O1)]\\@
 The archive entry for this job was punched.


 The hours that make us happy make us wise.
                         -- John Masefield
 Job cpu time:       0 days  0 hours  1 minutes 56.8 seconds.
 Elapsed time:       0 days  0 hours  0 minutes 31.6 seconds.
 File lengths (MBytes):  RWF=     63 Int=      0 D2E=      0 Chk=     23 Scr=      1
 Normal termination of Gaussian 16 at Tue Dec  2 16:19:54 2025.
