26
 energy: -46.466832575531 gnorm: 0.000734402280 xtb: 6.6.1 (8d0f1dd)
C           -1.18291753160539        1.95179541299797       -0.50624172093957
C           -1.56257695008906        0.55404987441657       -0.12225128172944
C           -2.90525531337638        0.19719128531053       -0.05605571793576
C           -3.29336303812006       -1.08342424514044        0.28947060849329
C           -2.34064807891422       -2.04634923546482        0.57471881727345
C           -1.00851364138627       -1.69059823408733        0.50879722479268
F           -0.07054825932258       -2.62595594932283        0.77421369933740
C           -0.59222044077778       -0.40708433163797        0.16636983669375
C            0.86014067851660       -0.09435984241733        0.13489669437208
C            1.61755559398214       -0.29910476159073       -1.02219941649891
O            1.05602839835389       -0.77043370031214       -2.16169067829764
C            2.97701011862249       -0.00254216786953       -1.02588857501166
C            3.58650853212129        0.48734808799448        0.11201032987111
C            2.85685198809432        0.69180943825444        1.27121370666406
C            1.50819519674481        0.39572116712980        1.26072942875363
F            0.78303268450368        0.60161390523021        2.38119344131667
H           -1.52749757801497        2.16946396892227       -1.51681040133836
H           -1.65613246301849        2.66425916066388        0.16725668307824
H           -0.10659234303363        2.09763105079276       -0.46654205776317
H           -3.65347005354015        0.94399265733450       -0.27640999245905
H           -4.34110940697985       -1.33647794332575        0.33936521728658
H           -2.61139529768532       -3.05324761785449        0.84860331919791
H            0.11972990913232       -0.96132136799286       -2.01011031002796
H            3.53320724189763       -0.16766373179239       -1.93410190228739
H            4.64129569346627        0.71275653123937        0.09840929875711
H            3.31268336042854        1.07092958852189        2.17105074840097
