26
 energy: -46.467129451182 gnorm: 0.000218471036 xtb: 6.6.1 (8d0f1dd)
C           -1.40090392320919        1.95610063148079        0.11869389841073
C           -1.67702788021835        0.49811058905068       -0.08294121584453
C           -2.96777259651777        0.04783143112905       -0.32760213360118
C           -3.23705242658619       -1.29485847409801       -0.52215628249609
C           -2.21196476816667       -2.22256781176758       -0.47826396904892
C           -0.92948674481366       -1.77305562848879       -0.23556660483656
F            0.07347241174218       -2.67752819034303       -0.17777789323996
C           -0.63577285195403       -0.43033284405757       -0.03059678626868
C            0.76642996936746       -0.03289229297663        0.22225210346781
C            1.72654907901820       -0.16552158660274       -0.78842450947016
O            1.30598942429766       -0.59495177928037       -2.00343147871734
C            3.05364957351525        0.16087453967149       -0.53691507661222
C            3.44001526764310        0.61728822952403        0.71012471099466
C            2.50871661462301        0.75954008450443        1.72212128548735
C            1.19233316232364        0.42974093007974        1.45839726750938
F            0.28560655058226        0.55452973508715        2.45190557847984
H           -2.24481853027273        2.55559552864228       -0.21260037282906
H           -0.51132763646763        2.25968374040827       -0.43068833136138
H           -1.22963250024626        2.16227670961652        1.17476701370205
H           -3.77460457426023        0.76471558876123       -0.36870958743113
H           -4.24808384481779       -1.62199592108373       -0.71136791282470
H           -2.38955247321592       -3.27568297914624       -0.62661341744521
H            2.06011888248825       -0.69910838157712       -2.59576512265474
H            3.78560114212048        0.05060579360588       -1.32542859751237
H            4.47447318246166        0.86244408158302        0.89328029662294
H            2.78504649056234        1.10915527627712        2.70330713751981
