      -----------------------------------------------------------      
     |                   =====================                   |     
     |                           x T B                           |     
     |                   =====================                   |     
     |                         S. Grimme                         |     
     |          Mulliken Center for Theoretical Chemistry        |     
     |                    University of Bonn                     |     
      -----------------------------------------------------------      

   * xtb version 6.6.1 (8d0f1dd) compiled by 'stahn@M-Bot' on 2023-08-01

   xtb is free software: you can redistribute it and/or modify it under
   the terms of the GNU Lesser General Public License as published by
   the Free Software Foundation, either version 3 of the License, or
   (at your option) any later version.
   
   xtb is distributed in the hope that it will be useful,
   but WITHOUT ANY WARRANTY; without even the implied warranty of
   MERCHANTABILITY or FITNESS FOR A PARTICULAR PURPOSE.  See the
   GNU Lesser General Public License for more details.
   
   Cite this work as:
   * C. Bannwarth, E. Caldeweyher, S. Ehlert, A. Hansen, P. Pracht,
     J. Seibert, S. Spicher, S. Grimme, WIREs Comput. Mol. Sci., 2020, 11,
     e01493. DOI: 10.1002/wcms.1493
   
   for GFN2-xTB:
   * C. Bannwarth, S. Ehlert and S. Grimme., J. Chem. Theory Comput., 2019,
     15, 1652-1671. DOI: 10.1021/acs.jctc.8b01176
   for GFN1-xTB:
   * S. Grimme, C. Bannwarth, P. Shushkov, J. Chem. Theory Comput., 2017,
     13, 1989-2009. DOI: 10.1021/acs.jctc.7b00118
   for GFN0-xTB:
   * P. Pracht, E. Caldeweyher, S. Ehlert, S. Grimme, ChemRxiv, 2019, preprint.
     DOI: 10.26434/chemrxiv.8326202.v1
   for GFN-FF:
   * S. Spicher and S. Grimme, Angew. Chem. Int. Ed., 2020, 59, 15665-15673.
     DOI: 10.1002/anie.202004239
   
   for ALPB and GBSA implicit solvation:
   * S. Ehlert, M. Stahn, S. Spicher, S. Grimme, J. Chem. Theory Comput.,
     2021, 17, 4250-4261. DOI: 10.1021/acs.jctc.1c00471
   
   for DFT-D4:
   * E. Caldeweyher, C. Bannwarth and S. Grimme, J. Chem. Phys., 2017,
     147, 034112. DOI: 10.1063/1.4993215
   * E. Caldeweyher, S. Ehlert, A. Hansen, H. Neugebauer, S. Spicher,
     C. Bannwarth and S. Grimme, J. Chem. Phys., 2019, 150, 154122.
     DOI: 10.1063/1.5090222
   * E. Caldeweyher, J.-M. Mewes, S. Ehlert and S. Grimme, Phys. Chem. Chem. Phys.
     2020, 22, 8499-8512. DOI: 10.1039/D0CP00502A
   
   for sTDA-xTB:
   * S. Grimme and C. Bannwarth, J. Chem. Phys., 2016, 145, 054103.
     DOI: 10.1063/1.4959605
   
   in the mass-spec context:
   * V. Asgeirsson, C. Bauer and S. Grimme, Chem. Sci., 2017, 8, 4879.
     DOI: 10.1039/c7sc00601b
   * J. Koopman and S. Grimme, ACS Omega 2019, 4, 12, 15120-15133.
     DOI: 10.1021/acsomega.9b02011
   
   for metadynamics refer to:
   * S. Grimme, J. Chem. Theory Comput., 2019, 155, 2847-2862
     DOI: 10.1021/acs.jctc.9b00143
   
   for SPH calculations refer to:
   * S. Spicher and S. Grimme, J. Chem. Theory Comput., 2021, 17, 1701-1714
     DOI: 10.1021/acs.jctc.0c01306
   
   with help from (in alphabetical order)
   P. Atkinson, C. Bannwarth, F. Bohle, G. Brandenburg, E. Caldeweyher
   M. Checinski, S. Dohm, S. Ehlert, S. Ehrlich, I. Gerasimov, C. Hölzer
   A. Katbashev, J. Koopman, C. Lavigne, S. Lehtola, F. März, M. Müller,
   F. Musil, H. Neugebauer, J. Pisarek, C. Plett, P. Pracht, F. Pultar,
   J. Seibert, P. Shushkov, S. Spicher, M. Stahn, M. Steiner, T. Strunk,
   J. Stückrath, T. Rose, and J. Unsleber
   
 * started run on 2026/07/23 at 12:55:31.487     

           -------------------------------------------------
          |                Calculation Setup                |
           -------------------------------------------------

          program call               : /path/to/xtb /path/to/atropisomers_workflow/example/reactant_censo/confs/12.xyz --opt --etemp 298.15 --chrg 0 --uhf 0 -P 4
          hostname                   : node
          coordinate file            : /path/to/atropisomers_workflow/example/reactant_censo/confs/12.xyz
          omp threads                :                     4

   ID    Z sym.   atoms
    1    6 C      1-6, 8-10, 12-15
    2    9 F      7, 16
    3    8 O      11
    4    1 H      17-26

           -------------------------------------------------
          |                 G F N 2 - x T B                 |
           -------------------------------------------------

        Reference                      10.1021/acs.jctc.8b01176
      * Hamiltonian:
        H0-scaling (s, p, d)           1.850000    2.230000    2.230000
        zeta-weighting                 0.500000
      * Dispersion:
        s8                             2.700000
        a1                             0.520000
        a2                             5.000000
        s9                             5.000000
      * Repulsion:
        kExp                           1.500000    1.000000
        rExp                           1.000000
      * Coulomb:
        alpha                          2.000000
        third order                    shell-resolved
        anisotropic                    true
        a3                             3.000000
        a5                             4.000000
        cn-shift                       1.200000
        cn-exp                         4.000000
        max-rad                        5.000000


          ...................................................
          :                      SETUP                      :
          :.................................................:
          :  # basis functions                  74          :
          :  # atomic orbitals                  74          :
          :  # shells                           42          :
          :  # electrons                        82          :
          :  max. iterations                   250          :
          :  Hamiltonian                  GFN2-xTB          :
          :  restarted?                      false          :
          :  GBSA solvation                  false          :
          :  PC potential                    false          :
          :  electronic temp.          298.1500000     K    :
          :  accuracy                    1.0000000          :
          :  -> integral cutoff          0.2500000E+02      :
          :  -> integral neglect         0.1000000E-07      :
          :  -> SCF convergence          0.1000000E-05 Eh   :
          :  -> wf. convergence          0.1000000E-03 e    :
          :  Broyden damping             0.4000000          :
          ...................................................

 iter      E             dE          RMSdq      gap      omega  full diag
   1    -47.0558167 -0.470558E+02  0.451E+00    4.42       0.0  T
   2    -47.0944574 -0.386407E-01  0.275E+00    4.36       1.0  T
   3    -47.0855059  0.895146E-02  0.147E+00    4.20       1.0  T
   4    -47.1078056 -0.222996E-01  0.257E-01    4.23       1.0  T
   5    -47.1082170 -0.411451E-03  0.117E-01    4.20       1.0  T
   6    -47.1085363 -0.319309E-03  0.462E-02    4.21       1.0  T
   7    -47.1085497 -0.133863E-04  0.186E-02    4.21       1.1  T
   8    -47.1085521 -0.238499E-05  0.799E-03    4.21       2.5  T
   9    -47.1085525 -0.409142E-06  0.207E-03    4.21       9.5  T
  10    -47.1085525 -0.242514E-07  0.875E-04    4.21      22.4  T
  11    -47.1085525 -0.622452E-08  0.413E-04    4.21      47.5  T

   *** convergence criteria satisfied after 11 iterations ***

         #    Occupation            Energy/Eh            Energy/eV
      -------------------------------------------------------------
         1        2.0000           -0.8159365             -22.2028
       ...           ...                  ...                  ...
        35        2.0000           -0.4466373             -12.1536
        36        2.0000           -0.4420242             -12.0281
        37        2.0000           -0.4267881             -11.6135
        38        2.0000           -0.4121925             -11.2163
        39        2.0000           -0.4106759             -11.1751
        40        2.0000           -0.4057118             -11.0400
        41        2.0000           -0.4002219             -10.8906 (HOMO)
        42                         -0.2455016              -6.6804 (LUMO)
        43                         -0.2358160              -6.4169
        44                         -0.2302862              -6.2664
        45                         -0.2270144              -6.1774
        46                         -0.1132950              -3.0829
       ...                                ...                  ...
        74                          0.6993796              19.0311
      -------------------------------------------------------------
                  HL-Gap            0.1547203 Eh            4.2102 eV
             Fermi-level           -0.3228617 Eh           -8.7855 eV

 SCC (total)                   0 d,  0 h,  0 min,  0.039 sec
 SCC setup                      ...        0 min,  0.000 sec (  0.526%)
 Dispersion                     ...        0 min,  0.000 sec (  0.641%)
 classical contributions        ...        0 min,  0.000 sec (  0.054%)
 integral evaluation            ...        0 min,  0.002 sec (  4.419%)
 iterations                     ...        0 min,  0.032 sec ( 82.202%)
 molecular gradient             ...        0 min,  0.004 sec ( 11.596%)
 printout                       ...        0 min,  0.000 sec (  0.500%)

         :::::::::::::::::::::::::::::::::::::::::::::::::::::
         ::                     SUMMARY                     ::
         :::::::::::::::::::::::::::::::::::::::::::::::::::::
         :: total energy             -46.448788740154 Eh    ::
         :: gradient norm              0.096526312821 Eh/a0 ::
         :: HOMO-LUMO gap              4.210153904327 eV    ::
         ::.................................................::
         :: SCC energy               -47.108552547222 Eh    ::
         :: -> isotropic ES            0.049123623826 Eh    ::
         :: -> anisotropic ES          0.002371422987 Eh    ::
         :: -> anisotropic XC          0.007882303049 Eh    ::
         :: -> dispersion             -0.027712538417 Eh    ::
         :: repulsion energy           0.659511657158 Eh    ::
         :: add. restraining           0.000000000000 Eh    ::
         :: total charge              -0.000000000000 e     ::
         :::::::::::::::::::::::::::::::::::::::::::::::::::::

      ----------------------------------------------------------- 
     |                   =====================                   |
     |                        A N C O P T                        |
     |                   =====================                   |
     |               Approximate Normal Coordinate               |
     |                Rational Function Optimizer                |
      ----------------------------------------------------------- 

          ...................................................
          :                      SETUP                      :
          :.................................................:
          :   optimization level            normal          :
          :   max. optcycles                   200          :
          :   ANC micro-cycles                  20          :
          :   degrees of freedom                72          :
          :.................................................:
          :   RF solver                   davidson          :
          :   write xtbopt.log                true          :
          :   linear?                        false          :
          :   energy convergence         0.5000000E-05 Eh   :
          :   grad. convergence          0.1000000E-02 Eh/α :
          :   maxmium RF displ.          1.0000000          :
          :   Hlow (freq-cutoff)         0.1000000E-01      :
          :   Hmax (freq-cutoff)         5.0000000          :
          :   S6 in model hess.         20.0000000          :
          ...................................................

generating ANC from model Hessian ...
Using Lindh-Hessian (1995)
 Shifting diagonal of input Hessian by   8.627335432478192E-003
 Lowest  eigenvalues of input Hessian
    0.000000    0.000000    0.000000    0.000000    0.000000    0.000000
    0.010000    0.010566    0.010905    0.013863    0.015392    0.017090
    0.020881    0.021749    0.025014    0.028986    0.030302    0.031704
 Highest eigenvalues
    1.934247    1.935945    2.067816    2.115940    2.120374    2.194321
 

........................................................................
.............................. CYCLE    1 ..............................
........................................................................

 iter      E             dE          RMSdq      gap      omega  full diag
   1    -47.1085525 -0.471086E+02  0.125E-04    4.21       0.0  T
   2    -47.1085525 -0.524452E-10  0.751E-05    4.21     261.1  T
   3    -47.1085525 -0.407852E-11  0.481E-05    4.21     407.7  T
     SCC iter.                  ...        0 min,  0.004 sec
     gradient                   ...        0 min,  0.004 sec
 * total energy  :   -46.4487887 Eh     change       -0.1745036E-08 Eh
   gradient norm :     0.0965279 Eh/α   predicted     0.0000000E+00 (-100.00%)
   displ. norm   :     0.2493405 α      lambda       -0.1410928E-01
   maximum displ.:     0.0719789 α      in ANC's #17, #40, #30, ...

........................................................................
.............................. CYCLE    2 ..............................
........................................................................

 iter      E             dE          RMSdq      gap      omega  full diag
   1    -47.1124266 -0.471124E+02  0.245E-01    4.27       0.0  T
   2    -47.1124938 -0.672260E-04  0.152E-01    4.30       1.0  T
   3    -47.1124174  0.763779E-04  0.722E-02    4.29       1.0  T
   4    -47.1125216 -0.104139E-03  0.136E-02    4.29       1.4  T
   5    -47.1125242 -0.261763E-05  0.589E-03    4.29       3.3  T
   6    -47.1125246 -0.401116E-06  0.302E-03    4.29       6.5  T
   7    -47.1125247 -0.746801E-07  0.102E-03    4.29      19.2  T
   8    -47.1125247 -0.496500E-08  0.452E-04    4.29      43.4  T
   9    -47.1125247 -0.167581E-08  0.199E-04    4.29      98.7  T
     SCC iter.                  ...        0 min,  0.012 sec
     gradient                   ...        0 min,  0.004 sec
 * total energy  :   -46.4583885 Eh     change       -0.9599750E-02 Eh
   gradient norm :     0.0387018 Eh/α   predicted    -0.7494504E-02 ( -21.93%)
   displ. norm   :     0.1947166 α      lambda       -0.3562127E-02
   maximum displ.:     0.0709898 α      in ANC's #7, #3, #10, ...

........................................................................
.............................. CYCLE    3 ..............................
........................................................................

 iter      E             dE          RMSdq      gap      omega  full diag
   1    -47.1147795 -0.471148E+02  0.147E-01    4.32       0.0  T
   2    -47.1148135 -0.340350E-04  0.914E-02    4.35       1.0  T
   3    -47.1148005  0.130505E-04  0.475E-02    4.34       1.0  T
   4    -47.1148250 -0.245618E-04  0.898E-03    4.34       2.2  T
   5    -47.1148258 -0.792708E-06  0.374E-03    4.34       5.2  T
   6    -47.1148260 -0.167827E-06  0.201E-03    4.34       9.8  T
   7    -47.1148260 -0.453244E-07  0.675E-04    4.34      29.1  T
   8    -47.1148260 -0.144095E-08  0.255E-04    4.34      76.9  T
     SCC iter.                  ...        0 min,  0.010 sec
     gradient                   ...        0 min,  0.004 sec
 * total energy  :   -46.4604595 Eh     change       -0.2071016E-02 Eh
   gradient norm :     0.0100025 Eh/α   predicted    -0.1848917E-02 ( -10.72%)
   displ. norm   :     0.2329271 α      lambda       -0.1132842E-02
   maximum displ.:     0.1122390 α      in ANC's #7, #10, #3, ...

........................................................................
.............................. CYCLE    4 ..............................
........................................................................

 iter      E             dE          RMSdq      gap      omega  full diag
   1    -47.1127278 -0.471127E+02  0.116E-01    4.35       0.0  T
   2    -47.1127689 -0.410787E-04  0.670E-02    4.36       1.0  T
   3    -47.1127686  0.279050E-06  0.401E-02    4.36       1.0  T
   4    -47.1127810 -0.124408E-04  0.954E-03    4.36       2.1  T
   5    -47.1127816 -0.610734E-06  0.317E-03    4.36       6.2  T
   6    -47.1127818 -0.131862E-06  0.160E-03    4.36      12.3  T
   7    -47.1127818 -0.287144E-07  0.684E-04    4.36      28.7  T
   8    -47.1127818 -0.148552E-08  0.244E-04    4.36      80.5  T
     SCC iter.                  ...        0 min,  0.010 sec
     gradient                   ...        0 min,  0.004 sec
 * total energy  :   -46.4614308 Eh     change       -0.9713316E-03 Eh
   gradient norm :     0.0162559 Eh/α   predicted    -0.5971609E-03 ( -38.52%)
   displ. norm   :     0.5305715 α      lambda       -0.2095968E-02
   maximum displ.:     0.2456891 α      in ANC's #7, #3, #10, ...

........................................................................
.............................. CYCLE    5 ..............................
........................................................................

 iter      E             dE          RMSdq      gap      omega  full diag
   1    -47.1040024 -0.471040E+02  0.249E-01    4.33       0.0  T
   2    -47.1042462 -0.243755E-03  0.137E-01    4.37       1.0  T
   3    -47.1042650 -0.187977E-04  0.846E-02    4.37       1.0  T
   4    -47.1043214 -0.563835E-04  0.227E-02    4.37       1.0  T
   5    -47.1043242 -0.286245E-05  0.772E-03    4.37       2.5  T
   6    -47.1043252 -0.943980E-06  0.375E-03    4.37       5.2  T
   7    -47.1043253 -0.113103E-06  0.172E-03    4.37      11.4  T
   8    -47.1043253 -0.999856E-08  0.624E-04    4.37      31.4  T
   9    -47.1043253 -0.586123E-08  0.140E-04    4.37     140.4  T
     SCC iter.                  ...        0 min,  0.012 sec
     gradient                   ...        0 min,  0.004 sec
 * total energy  :   -46.4608859 Eh     change        0.5449611E-03 Eh
   gradient norm :     0.0637322 Eh/α   predicted    -0.1343004E-02 (-346.44%)
   displ. norm   :     0.2087298 α      lambda       -0.4221271E-02
   maximum displ.:     0.1004816 α      in ANC's #7, #10, #9, ...

........................................................................
.............................. CYCLE    6 ..............................
........................................................................

 iter      E             dE          RMSdq      gap      omega  full diag
   1    -47.1128850 -0.471129E+02  0.135E-01    4.38       0.0  T
   2    -47.1129407 -0.557141E-04  0.735E-02    4.37       1.0  T
   3    -47.1129360  0.462964E-05  0.424E-02    4.37       1.0  T
   4    -47.1129556 -0.195566E-04  0.134E-02    4.37       1.5  T
   5    -47.1129566 -0.105404E-05  0.522E-03    4.37       3.8  T
   6    -47.1129570 -0.334777E-06  0.278E-03    4.37       7.1  T
   7    -47.1129570 -0.562552E-07  0.111E-03    4.37      17.7  T
   8    -47.1129570 -0.403389E-08  0.354E-04    4.37      55.4  T
   9    -47.1129570 -0.176014E-08  0.118E-04    4.37     166.6  T
     SCC iter.                  ...        0 min,  0.012 sec
     gradient                   ...        0 min,  0.004 sec
 * total energy  :   -46.4628422 Eh     change       -0.1956359E-02 Eh
   gradient norm :     0.0193140 Eh/α   predicted    -0.2202579E-02 (  12.59%)
   displ. norm   :     0.2046308 α      lambda       -0.7471199E-03
   maximum displ.:     0.1386059 α      in ANC's #3, #2, #7, ...

........................................................................
.............................. CYCLE    7 ..............................
........................................................................

 iter      E             dE          RMSdq      gap      omega  full diag
   1    -47.1145599 -0.471146E+02  0.739E-02    4.36       0.0  T
   2    -47.1145669 -0.704403E-05  0.442E-02    4.36       1.0  T
   3    -47.1145625  0.440190E-05  0.239E-02    4.36       1.0  T
   4    -47.1145709 -0.832822E-05  0.292E-03    4.36       6.7  T
   5    -47.1145710 -0.920260E-07  0.157E-03    4.36      12.5  T
   6    -47.1145710 -0.366458E-07  0.705E-04    4.36      27.8  T
   7    -47.1145710 -0.150854E-08  0.336E-04    4.36      58.4  T
     SCC iter.                  ...        0 min,  0.009 sec
     gradient                   ...        0 min,  0.004 sec
 * total energy  :   -46.4635309 Eh     change       -0.6886566E-03 Eh
   gradient norm :     0.0159201 Eh/α   predicted    -0.3892303E-03 ( -43.48%)
   displ. norm   :     0.6254416 α      lambda       -0.2344030E-02
   maximum displ.:     0.4005856 α      in ANC's #3, #2, #7, ...

........................................................................
.............................. CYCLE    8 ..............................
........................................................................

 iter      E             dE          RMSdq      gap      omega  full diag
   1    -47.1145412 -0.471145E+02  0.229E-01    4.27       0.0  T
   2    -47.1146372 -0.959870E-04  0.135E-01    4.30       1.0  T
   3    -47.1146033  0.339857E-04  0.743E-02    4.30       1.0  T
   4    -47.1146799 -0.766634E-04  0.124E-02    4.30       1.6  T
   5    -47.1146816 -0.169874E-05  0.596E-03    4.30       3.3  T
   6    -47.1146823 -0.709788E-06  0.244E-03    4.30       8.0  T
   7    -47.1146823 -0.167639E-07  0.118E-03    4.30      16.6  T
   8    -47.1146823 -0.996720E-08  0.323E-04    4.30      60.7  T
   9    -47.1146824 -0.115769E-08  0.656E-05    4.30     299.1  T
     SCC iter.                  ...        0 min,  0.012 sec
     gradient                   ...        0 min,  0.004 sec
 * total energy  :   -46.4650558 Eh     change       -0.1524921E-02 Eh
   gradient norm :     0.0274467 Eh/α   predicted    -0.1630625E-02 (   6.93%)
   displ. norm   :     0.2860563 α      lambda       -0.1005723E-02
   maximum displ.:     0.2072881 α      in ANC's #3, #2, #1, ...

........................................................................
.............................. CYCLE    9 ..............................
........................................................................

 iter      E             dE          RMSdq      gap      omega  full diag
   1    -47.1172835 -0.471173E+02  0.968E-02    4.27       0.0  T
   2    -47.1172871 -0.352441E-05  0.575E-02    4.27       1.0  T
   3    -47.1172807  0.640184E-05  0.182E-02    4.27       1.1  T
   4    -47.1172888 -0.811691E-05  0.270E-03    4.27       7.3  T
   5    -47.1172888 -0.397758E-07  0.152E-03    4.27      12.9  T
   6    -47.1172888 -0.158292E-07  0.678E-04    4.27      28.9  T
   7    -47.1172888 -0.200024E-08  0.246E-04    4.27      79.7  T
     SCC iter.                  ...        0 min,  0.009 sec
     gradient                   ...        0 min,  0.004 sec
 * total energy  :   -46.4658150 Eh     change       -0.7592002E-03 Eh
   gradient norm :     0.0140409 Eh/α   predicted    -0.5440167E-03 ( -28.34%)
   displ. norm   :     0.3621150 α      lambda       -0.7331715E-03
   maximum displ.:     0.2559004 α      in ANC's #3, #2, #1, ...

........................................................................
.............................. CYCLE   10 ..............................
........................................................................

 iter      E             dE          RMSdq      gap      omega  full diag
   1    -47.1186027 -0.471186E+02  0.116E-01    4.22       0.0  T
   2    -47.1186097 -0.704439E-05  0.685E-02    4.23       1.0  T
   3    -47.1186000  0.969956E-05  0.249E-02    4.22       1.0  T
   4    -47.1186127 -0.126644E-04  0.352E-03    4.23       5.6  T
   5    -47.1186128 -0.841346E-07  0.180E-03    4.23      10.9  T
   6    -47.1186128 -0.173286E-07  0.910E-04    4.23      21.6  T
   7    -47.1186128 -0.303013E-08  0.236E-04    4.23      83.0  T
     SCC iter.                  ...        0 min,  0.009 sec
     gradient                   ...        0 min,  0.004 sec
 * total energy  :   -46.4663215 Eh     change       -0.5065119E-03 Eh
   gradient norm :     0.0109988 Eh/α   predicted    -0.4146627E-03 ( -18.13%)
   displ. norm   :     0.1999024 α      lambda       -0.4378498E-03
   maximum displ.:     0.1339728 α      in ANC's #3, #1, #5, ...

........................................................................
.............................. CYCLE   11 ..............................
........................................................................

 iter      E             dE          RMSdq      gap      omega  full diag
   1    -47.1238707 -0.471239E+02  0.701E-02    4.21       0.0  T
   2    -47.1238725 -0.185149E-05  0.419E-02    4.21       1.0  T
   3    -47.1238681  0.448160E-05  0.135E-02    4.21       1.5  T
   4    -47.1238736 -0.555299E-05  0.268E-03    4.21       7.3  T
   5    -47.1238737 -0.310387E-07  0.145E-03    4.21      13.5  T
   6    -47.1238737 -0.196150E-07  0.757E-04    4.21      25.9  T
   7    -47.1238737 -0.454998E-08  0.169E-04    4.21     115.8  T
     SCC iter.                  ...        0 min,  0.009 sec
     gradient                   ...        0 min,  0.004 sec
 * total energy  :   -46.4664809 Eh     change       -0.1593432E-03 Eh
   gradient norm :     0.0117714 Eh/α   predicted    -0.2276747E-03 (  42.88%)
   displ. norm   :     0.3049058 α      lambda       -0.4025923E-03
   maximum displ.:     0.2074162 α      in ANC's #3, #1, #5, ...

........................................................................
.............................. CYCLE   12 ..............................
........................................................................

 iter      E             dE          RMSdq      gap      omega  full diag
   1    -47.1199974 -0.471200E+02  0.104E-01    4.16       0.0  T
   2    -47.1200041 -0.671859E-05  0.616E-02    4.17       1.0  T
   3    -47.1199977  0.638681E-05  0.196E-02    4.17       1.0  T
   4    -47.1200064 -0.869728E-05  0.426E-03    4.17       4.6  T
   5    -47.1200066 -0.145390E-06  0.208E-03    4.17       9.4  T
   6    -47.1200066 -0.196283E-07  0.121E-03    4.17      16.2  T
   7    -47.1200066 -0.128393E-07  0.360E-04    4.17      54.5  T
   8    -47.1200066 -0.149435E-08  0.132E-04    4.17     148.1  T
     SCC iter.                  ...        0 min,  0.010 sec
     gradient                   ...        0 min,  0.004 sec
 * total energy  :   -46.4666002 Eh     change       -0.1193567E-03 Eh
   gradient norm :     0.0089385 Eh/α   predicted    -0.2200121E-03 (  84.33%)
   displ. norm   :     0.1194291 α      lambda       -0.1514834E-03
   maximum displ.:     0.0759462 α      in ANC's #3, #2, #7, ...

........................................................................
.............................. CYCLE   13 ..............................
........................................................................

 iter      E             dE          RMSdq      gap      omega  full diag
   1    -47.1217110 -0.471217E+02  0.390E-02    4.19       0.0  T
   2    -47.1217120 -0.999223E-06  0.230E-02    4.18       1.0  T
   3    -47.1217111  0.877799E-06  0.701E-03    4.19       2.8  T
   4    -47.1217123 -0.122304E-05  0.170E-03    4.18      11.5  T
   5    -47.1217124 -0.213473E-07  0.804E-04    4.18      24.4  T
   6    -47.1217124 -0.369714E-08  0.438E-04    4.18      44.8  T
     SCC iter.                  ...        0 min,  0.008 sec
     gradient                   ...        0 min,  0.004 sec
 * total energy  :   -46.4666853 Eh     change       -0.8505836E-04 Eh
   gradient norm :     0.0024277 Eh/α   predicted    -0.7682234E-04 (  -9.68%)
   displ. norm   :     0.0948865 α      lambda       -0.6359981E-04
   maximum displ.:     0.0709296 α      in ANC's #2, #1, #5, ...

........................................................................
.............................. CYCLE   14 ..............................
........................................................................

 iter      E             dE          RMSdq      gap      omega  full diag
   1    -47.1221144 -0.471221E+02  0.308E-02    4.18       0.0  T
   2    -47.1221145 -0.132409E-06  0.182E-02    4.18       1.1  T
   3    -47.1221142  0.275685E-06  0.385E-03    4.18       5.1  T
   4    -47.1221146 -0.343587E-06  0.557E-04    4.18      35.2  T
   5    -47.1221146 -0.917609E-09  0.264E-04    4.18      74.3  T
     SCC iter.                  ...        0 min,  0.007 sec
     gradient                   ...        0 min,  0.004 sec
 * total energy  :   -46.4667410 Eh     change       -0.5574333E-04 Eh
   gradient norm :     0.0024999 Eh/α   predicted    -0.3209393E-04 ( -42.43%)
   displ. norm   :     0.2699522 α      lambda       -0.1506251E-03
   maximum displ.:     0.1940070 α      in ANC's #2, #1, #5, ...

........................................................................
.............................. CYCLE   15 ..............................
........................................................................

 iter      E             dE          RMSdq      gap      omega  full diag
   1    -47.1216360 -0.471216E+02  0.868E-02    4.16       0.0  T
   2    -47.1216371 -0.103806E-05  0.512E-02    4.16       1.0  T
   3    -47.1216356  0.141814E-05  0.931E-03    4.16       2.1  T
   4    -47.1216375 -0.184996E-05  0.164E-03    4.16      12.0  T
   5    -47.1216375 -0.114522E-07  0.790E-04    4.16      24.8  T
   6    -47.1216375 -0.627992E-09  0.376E-04    4.16      52.1  T
     SCC iter.                  ...        0 min,  0.008 sec
     gradient                   ...        0 min,  0.004 sec
 * total energy  :   -46.4668532 Eh     change       -0.1121611E-03 Eh
   gradient norm :     0.0038131 Eh/α   predicted    -0.8080543E-04 ( -27.96%)
   displ. norm   :     0.1889567 α      lambda       -0.6952104E-04
   maximum displ.:     0.1283579 α      in ANC's #1, #2, #5, ...

........................................................................
.............................. CYCLE   16 ..............................
........................................................................

 iter      E             dE          RMSdq      gap      omega  full diag
   1    -47.1211823 -0.471212E+02  0.594E-02    4.14       0.0  T
   2    -47.1211827 -0.323786E-06  0.350E-02    4.14       1.0  T
   3    -47.1211826  0.624686E-07  0.302E-03    4.14       6.5  T
   4    -47.1211828 -0.189073E-06  0.111E-03    4.14      17.7  T
   5    -47.1211828 -0.696978E-08  0.533E-04    4.14      36.8  T
   6    -47.1211828 -0.247212E-09  0.203E-04    4.14      96.4  T
     SCC iter.                  ...        0 min,  0.008 sec
     gradient                   ...        0 min,  0.004 sec
 * total energy  :   -46.4669069 Eh     change       -0.5369584E-04 Eh
   gradient norm :     0.0031890 Eh/α   predicted    -0.3600689E-04 ( -32.94%)
   displ. norm   :     0.1643631 α      lambda       -0.5114515E-04
   maximum displ.:     0.1161073 α      in ANC's #2, #1, #6, ...

........................................................................
.............................. CYCLE   17 ..............................
........................................................................

 iter      E             dE          RMSdq      gap      omega  full diag
   1    -47.1211785 -0.471212E+02  0.501E-02    4.12       0.0  T
   2    -47.1211787 -0.213831E-06  0.295E-02    4.12       1.0  T
   3    -47.1211785  0.142329E-06  0.313E-03    4.12       6.3  T
   4    -47.1211788 -0.231364E-06  0.828E-04    4.12      23.7  T
   5    -47.1211788 -0.296635E-08  0.421E-04    4.12      46.6  T
     SCC iter.                  ...        0 min,  0.007 sec
     gradient                   ...        0 min,  0.004 sec
 * total energy  :   -46.4669462 Eh     change       -0.3931844E-04 Eh
   gradient norm :     0.0025666 Eh/α   predicted    -0.2626686E-04 ( -33.19%)
   displ. norm   :     0.1540709 α      lambda       -0.3900014E-04
   maximum displ.:     0.1061686 α      in ANC's #2, #1, #6, ...

........................................................................
.............................. CYCLE   18 ..............................
........................................................................

 iter      E             dE          RMSdq      gap      omega  full diag
   1    -47.1212822 -0.471213E+02  0.460E-02    4.11       0.0  T
   2    -47.1212825 -0.348608E-06  0.271E-02    4.11       1.0  T
   3    -47.1212819  0.639394E-06  0.520E-03    4.11       3.8  T
   4    -47.1212827 -0.791030E-06  0.830E-04    4.11      23.6  T
   5    -47.1212827 -0.350950E-08  0.429E-04    4.11      45.7  T
     SCC iter.                  ...        0 min,  0.007 sec
     gradient                   ...        0 min,  0.004 sec
 * total energy  :   -46.4669735 Eh     change       -0.2732287E-04 Eh
   gradient norm :     0.0016899 Eh/α   predicted    -0.1996434E-04 ( -26.93%)
   displ. norm   :     0.1234365 α      lambda       -0.1713619E-04
   maximum displ.:     0.0906137 α      in ANC's #1, #2, #6, ...

........................................................................
.............................. CYCLE   19 ..............................
........................................................................

 iter      E             dE          RMSdq      gap      omega  full diag
   1    -47.1213120 -0.471213E+02  0.339E-02    4.10       0.0  T
   2    -47.1213122 -0.277245E-06  0.199E-02    4.10       1.0  T
   3    -47.1213117  0.557840E-06  0.487E-03    4.10       4.0  T
   4    -47.1213124 -0.687530E-06  0.706E-04    4.10      27.8  T
   5    -47.1213124 -0.257469E-08  0.377E-04    4.10      52.1  T
     SCC iter.                  ...        0 min,  0.007 sec
     gradient                   ...        0 min,  0.004 sec
 * total energy  :   -46.4669889 Eh     change       -0.1538776E-04 Eh
   gradient norm :     0.0015656 Eh/α   predicted    -0.8629258E-05 ( -43.92%)
   displ. norm   :     0.0439916 α      lambda       -0.8451238E-05
   maximum displ.:     0.0347235 α      in ANC's #1, #6, #5, ...

........................................................................
.............................. CYCLE   20 ..............................
........................................................................

 iter      E             dE          RMSdq      gap      omega  full diag
   1    -47.1214317 -0.471214E+02  0.107E-02    4.10       0.0  T
   2    -47.1214321 -0.419267E-06  0.678E-03    4.10       2.9  T
   3    -47.1214321 -0.377388E-07  0.359E-03    4.10       5.5  T
   4    -47.1214322 -0.121033E-06  0.751E-04    4.10      26.1  T
   5    -47.1214322 -0.474565E-08  0.271E-04    4.10      72.2  T
     SCC iter.                  ...        0 min,  0.007 sec
     gradient                   ...        0 min,  0.004 sec
 * total energy  :   -46.4669983 Eh     change       -0.9417091E-05 Eh
   gradient norm :     0.0016109 Eh/α   predicted    -0.4230526E-05 ( -55.08%)
   displ. norm   :     0.0885827 α      lambda       -0.1436332E-04
   maximum displ.:     0.0606919 α      in ANC's #1, #6, #2, ...
 * RMSD in coord.:     0.5230853 α      energy gain  -0.1820959E-01 Eh

generating ANC from model Hessian ...
Using Lindh-Hessian (1995)
 Shifting diagonal of input Hessian by   8.713791613682298E-003
 Lowest  eigenvalues of input Hessian
    0.000000    0.000000    0.000000    0.000000    0.000000    0.000000
    0.010000    0.010559    0.010869    0.013959    0.015714    0.017809
    0.021303    0.022284    0.025048    0.030022    0.031364    0.033573
 Highest eigenvalues
    1.891999    1.913539    2.030447    2.073703    2.115296    2.137108
 

........................................................................
.............................. CYCLE   21 ..............................
........................................................................

 iter      E             dE          RMSdq      gap      omega  full diag
   1    -47.1212868 -0.471213E+02  0.228E-02    4.09       0.0  T
   2    -47.1212870 -0.230123E-06  0.135E-02    4.10       1.5  T
   3    -47.1212866  0.459944E-06  0.503E-03    4.09       3.9  T
   4    -47.1212872 -0.577079E-06  0.501E-04    4.10      39.1  T
   5    -47.1212872 -0.199534E-08  0.258E-04    4.10      75.9  T
     SCC iter.                  ...        0 min,  0.007 sec
     gradient                   ...        0 min,  0.004 sec
 * total energy  :   -46.4670139 Eh     change       -0.1553857E-04 Eh
   gradient norm :     0.0019149 Eh/α   predicted     0.0000000E+00 (-100.00%)
   displ. norm   :     0.0375872 α      lambda       -0.1334965E-04
   maximum displ.:     0.0203114 α      in ANC's #2, #1, #5, ...

........................................................................
.............................. CYCLE   22 ..............................
........................................................................

 iter      E             dE          RMSdq      gap      omega  full diag
   1    -47.1214817 -0.471215E+02  0.133E-02    4.10       0.0  T
   2    -47.1214819 -0.212391E-06  0.810E-03    4.09       2.4  T
   3    -47.1214817  0.161912E-06  0.362E-03    4.10       5.4  T
   4    -47.1214820 -0.250692E-06  0.642E-04    4.10      30.5  T
   5    -47.1214820 -0.273772E-08  0.323E-04    4.10      60.7  T
     SCC iter.                  ...        0 min,  0.007 sec
     gradient                   ...        0 min,  0.004 sec
 * total energy  :   -46.4670295 Eh     change       -0.1565036E-04 Eh
   gradient norm :     0.0007614 Eh/α   predicted    -0.7455947E-05 ( -52.36%)
   displ. norm   :     0.0637841 α      lambda       -0.1253748E-04
   maximum displ.:     0.0402303 α      in ANC's #2, #1, #6, ...

........................................................................
.............................. CYCLE   23 ..............................
........................................................................

 iter      E             dE          RMSdq      gap      omega  full diag
   1    -47.1214527 -0.471215E+02  0.221E-02    4.09       0.0  T
   2    -47.1214529 -0.220683E-06  0.131E-02    4.09       1.5  T
   3    -47.1214527  0.259020E-06  0.380E-03    4.09       5.2  T
   4    -47.1214530 -0.337776E-06  0.735E-04    4.09      26.7  T
   5    -47.1214530 -0.355698E-08  0.372E-04    4.09      52.7  T
     SCC iter.                  ...        0 min,  0.007 sec
     gradient                   ...        0 min,  0.004 sec
 * total energy  :   -46.4670432 Eh     change       -0.1363732E-04 Eh
   gradient norm :     0.0009384 Eh/α   predicted    -0.6290595E-05 ( -53.87%)
   displ. norm   :     0.0739684 α      lambda       -0.9424429E-05
   maximum displ.:     0.0467042 α      in ANC's #1, #2, #6, ...

........................................................................
.............................. CYCLE   24 ..............................
........................................................................

 iter      E             dE          RMSdq      gap      omega  full diag
   1    -47.1213836 -0.471214E+02  0.229E-02    4.08       0.0  T
   2    -47.1213836 -0.529838E-07  0.135E-02    4.08       1.5  T
   3    -47.1213836  0.638513E-07  0.185E-03    4.08      10.6  T
   4    -47.1213837 -0.902645E-07  0.478E-04    4.08      41.0  T
   5    -47.1213837 -0.530179E-09  0.269E-04    4.08      72.9  T
     SCC iter.                  ...        0 min,  0.007 sec
     gradient                   ...        0 min,  0.004 sec
 * total energy  :   -46.4670552 Eh     change       -0.1203146E-04 Eh
   gradient norm :     0.0012309 Eh/α   predicted    -0.4724138E-05 ( -60.74%)
   displ. norm   :     0.1210383 α      lambda       -0.1455960E-04
   maximum displ.:     0.0764699 α      in ANC's #1, #2, #6, ...

........................................................................
.............................. CYCLE   25 ..............................
........................................................................

 iter      E             dE          RMSdq      gap      omega  full diag
   1    -47.1212895 -0.471213E+02  0.352E-02    4.07       0.0  T
   2    -47.1212896 -0.126676E-06  0.208E-02    4.07       1.0  T
   3    -47.1212892  0.359021E-06  0.372E-03    4.07       5.3  T
   4    -47.1212897 -0.439276E-06  0.607E-04    4.07      32.3  T
   5    -47.1212897 -0.242039E-09  0.356E-04    4.07      55.1  T
     SCC iter.                  ...        0 min,  0.007 sec
     gradient                   ...        0 min,  0.004 sec
 * total energy  :   -46.4670742 Eh     change       -0.1896148E-04 Eh
   gradient norm :     0.0011230 Eh/α   predicted    -0.7346735E-05 ( -61.25%)
   displ. norm   :     0.2138122 α      lambda       -0.2266820E-04
   maximum displ.:     0.1355492 α      in ANC's #1, #2, #6, ...

........................................................................
.............................. CYCLE   26 ..............................
........................................................................

 iter      E             dE          RMSdq      gap      omega  full diag
   1    -47.1209030 -0.471209E+02  0.603E-02    4.05       0.0  T
   2    -47.1209035 -0.522286E-06  0.356E-02    4.05       1.0  T
   3    -47.1209021  0.148749E-05  0.759E-03    4.05       2.6  T
   4    -47.1209038 -0.178813E-05  0.104E-03    4.05      18.9  T
   5    -47.1209038 -0.297860E-08  0.589E-04    4.05      33.3  T
   6    -47.1209038 -0.232608E-08  0.254E-04    4.05      77.1  T
     SCC iter.                  ...        0 min,  0.008 sec
     gradient                   ...        0 min,  0.004 sec
 * total energy  :   -46.4670999 Eh     change       -0.2570074E-04 Eh
   gradient norm :     0.0009653 Eh/α   predicted    -0.1156668E-04 ( -54.99%)
   displ. norm   :     0.1665226 α      lambda       -0.1347625E-04
   maximum displ.:     0.1104215 α      in ANC's #1, #2, #6, ...

........................................................................
.............................. CYCLE   27 ..............................
........................................................................

 iter      E             dE          RMSdq      gap      omega  full diag
   1    -47.1209931 -0.471210E+02  0.464E-02    4.03       0.0  T
   2    -47.1209935 -0.367822E-06  0.273E-02    4.03       1.0  T
   3    -47.1209924  0.106300E-05  0.666E-03    4.03       2.9  T
   4    -47.1209937 -0.127351E-05  0.815E-04    4.03      24.1  T
   5    -47.1209937 -0.234940E-08  0.466E-04    4.03      42.1  T
   6    -47.1209937 -0.180368E-08  0.207E-04    4.03      94.9  T
     SCC iter.                  ...        0 min,  0.008 sec
     gradient                   ...        0 min,  0.004 sec
 * total energy  :   -46.4671140 Eh     change       -0.1414641E-04 Eh
   gradient norm :     0.0008405 Eh/α   predicted    -0.6821840E-05 ( -51.78%)
   displ. norm   :     0.0742822 α      lambda       -0.6025951E-05
   maximum displ.:     0.0549472 α      in ANC's #1, #6, #3, ...

........................................................................
.............................. CYCLE   28 ..............................
........................................................................

 iter      E             dE          RMSdq      gap      omega  full diag
   1    -47.1213448 -0.471213E+02  0.212E-02    4.02       0.0  T
   2    -47.1213449 -0.106519E-06  0.125E-02    4.02       1.6  T
   3    -47.1213447  0.235453E-06  0.358E-03    4.02       5.5  T
   4    -47.1213449 -0.287084E-06  0.395E-04    4.02      49.7  T
   5    -47.1213449 -0.768431E-09  0.215E-04    4.02      91.0  T
     SCC iter.                  ...        0 min,  0.007 sec
     gradient                   ...        0 min,  0.004 sec
 * total energy  :   -46.4671211 Eh     change       -0.7072943E-05 Eh
   gradient norm :     0.0005487 Eh/α   predicted    -0.3026155E-05 ( -57.22%)
   displ. norm   :     0.0593264 α      lambda       -0.4961033E-05
   maximum displ.:     0.0454356 α      in ANC's #1, #6, #3, ...

........................................................................
.............................. CYCLE   29 ..............................
........................................................................

 iter      E             dE          RMSdq      gap      omega  full diag
   1    -47.1213651 -0.471214E+02  0.170E-02    4.02       0.0  T
   2    -47.1213652 -0.619832E-07  0.998E-03    4.02       2.0  T
   3    -47.1213651  0.102910E-06  0.255E-03    4.02       7.7  T
   4    -47.1213652 -0.129301E-06  0.341E-04    4.02      57.5  T
   5    -47.1213652 -0.479965E-09  0.177E-04    4.02     110.8  T
     SCC iter.                  ...        0 min,  0.007 sec
     gradient                   ...        0 min,  0.004 sec
 * total energy  :   -46.4671271 Eh     change       -0.6029679E-05 Eh
   gradient norm :     0.0003425 Eh/α   predicted    -0.2489522E-05 ( -58.71%)
   displ. norm   :     0.0593900 α      lambda       -0.4119860E-05
   maximum displ.:     0.0446643 α      in ANC's #1, #6, #3, ...

........................................................................
.............................. CYCLE   30 ..............................
........................................................................

 iter      E             dE          RMSdq      gap      omega  full diag
   1    -47.1212211 -0.471212E+02  0.175E-02    4.01       0.0  T
   2    -47.1212211 -0.423877E-07  0.103E-02    4.01       1.9  T
   3    -47.1212211  0.510159E-07  0.192E-03    4.01      10.2  T
   4    -47.1212211 -0.676726E-07  0.326E-04    4.01      60.1  T
   5    -47.1212211 -0.363301E-09  0.169E-04    4.01     116.2  T
     SCC iter.                  ...        0 min,  0.007 sec
     gradient                   ...        0 min,  0.004 sec
 * total energy  :   -46.4671319 Eh     change       -0.4843912E-05 Eh
   gradient norm :     0.0003484 Eh/α   predicted    -0.2066851E-05 ( -57.33%)
   displ. norm   :     0.0507909 α      lambda       -0.2759627E-05
   maximum displ.:     0.0383164 α      in ANC's #1, #6, #3, ...

   *** GEOMETRY OPTIMIZATION CONVERGED AFTER 30 ITERATIONS ***

------------------------------------------------------------------------
 total energy gain   :        -0.0183432 Eh      -11.5105 kcal/mol
 total RMSD          :         0.6350547 a0        0.3361 Å
 total power (kW/mol):        -1.6053358 (step) -106.7772 (real)
------------------------------------------------------------------------

 ANCopt (total)                0 d,  0 h,  0 min,  0.451 sec
 optimizer setup                ...        0 min,  0.000 sec (  0.039%)
 model hessian                  ...        0 min,  0.014 sec (  3.165%)
 ANC generation                 ...        0 min,  0.002 sec (  0.378%)
 coordinate transformation      ...        0 min,  0.000 sec (  0.068%)
 single point calculation       ...        0 min,  0.426 sec ( 94.507%)
 optimization log               ...        0 min,  0.004 sec (  0.852%)
 hessian update                 ...        0 min,  0.000 sec (  0.080%)
 rational function              ...        0 min,  0.003 sec (  0.581%)

================
 final structure:
================
26
 xtb: 6.6.1 (8d0f1dd)
C            1.20521986364892        1.98722448116890        0.64460558535362
C            1.61997738060980        0.66267341867454        0.08223792670542
C            2.94902568516240        0.41313091710853       -0.23457580788743
C            3.34805625925233       -0.80251059829769       -0.75983008742372
C            2.41753975615423       -1.80110093637240       -0.98466523313917
C            1.09703537535506       -1.55131314973701       -0.66938120773754
F            0.18694547770075       -2.52989405803831       -0.87235045462466
C            0.67373563195131       -0.34086766046082       -0.13322588548252
C           -0.75956971466900       -0.15881420145469        0.18345568860818
C           -1.71046179805753       -0.12703677089240       -0.84400139320818
O           -1.26050685462560       -0.19162580389302       -2.12095647083019
C           -3.06134811432537       -0.00837189479652       -0.54033624230181
C           -3.48088614024655        0.07805558416016        0.77467279887616
C           -2.55968288567530        0.05254607827646        1.80526622398380
C           -1.21931440190254       -0.06770201975839        1.48889813881677
F           -0.32137192421029       -0.10854626355033        2.49709481765350
H            0.27931844008461        2.32927777839507        0.18539392779448
H            1.03622558270981        1.90133939866066        1.71754060050456
H            1.97951618008041        2.73236550802004        0.48093546097989
H            3.68233453135277        1.18831607712541       -0.06780276027417
H            4.38669163216088       -0.97433934926083       -0.99795480081285
H            2.69696627086582       -2.75886252688194       -1.39354882625364
H           -2.00627825571859       -0.21345057996029       -2.73256560701152
H           -3.78554569240273        0.01117091359960       -1.34334022478871
H           -4.53317074038589        0.16442471586456        0.99616272181738
H           -2.86045154486993        0.11390894230032        2.83826811068208
 
 Bond Distances (Angstroems)
 ---------------------------
C1-C2=1.4976         C1-H17=1.0887        C1-H18=1.0896        C1-H19=1.0870        C2-C1=1.4976         C2-C3=1.3889         
C2-C8=1.3960         C3-C2=1.3889         C3-C4=1.3831         C3-H20=1.0800        C4-C3=1.3831         C4-C5=1.3833         
C4-H21=1.0793        C5-C4=1.3833         C5-C6=1.3804         C5-H22=1.0782        C6-C5=1.3804         C6-F7=1.3517         
C6-C8=1.3899         F7-C6=1.3517         C8-C2=1.3960         C8-C6=1.3899         C8-C9=1.4791         C9-C8=1.4791         
C9-C10=1.4003        C9-C15=1.3870        C10-C9=1.4003        C10-O11=1.3555       C10-C12=1.3897       O11-C10=1.3555       
O11-H23=0.9647       C12-C10=1.3897       C12-C13=1.3830       C12-H24=1.0815       C13-C12=1.3830       C13-C14=1.3825       
C13-H25=1.0788       C14-C13=1.3825       C14-C15=1.3824       C14-H26=1.0776       C15-C9=1.3870        C15-C14=1.3824       
C15-F16=1.3507       F16-C15=1.3507       H17-C1=1.0887        H18-C1=1.0896        H19-C1=1.0870        H20-C3=1.0800        
H21-C4=1.0793        H22-C5=1.0782        H23-O11=0.9647       H24-C12=1.0815       H25-C13=1.0788       H26-C14=1.0776       
 C  H  Rav=1.0823 sigma=0.0045  Rmin=1.0776  Rmax=1.0896     9
 C  C  Rav=1.4017 sigma=0.0360  Rmin=1.3804  Rmax=1.4976    14
 O  H  Rav=0.9647 sigma=0.0000  Rmin=0.9647  Rmax=0.9647     1
 O  C  Rav=1.3555 sigma=0.0000  Rmin=1.3555  Rmax=1.3555     1
 F  C  Rav=1.3512 sigma=0.0005  Rmin=1.3507  Rmax=1.3517     2
 
 selected bond angles (degree)
 --------------------
H17-C1-C2=110.80               H18-C1-C2=110.06               H18-C1-H17=107.95              H19-C1-C2=110.64               
H19-C1-H17=109.08              H19-C1-H18=108.23              C3-C2-C1=120.64                C8-C2-C1=120.40                
C8-C2-C3=118.96                C4-C3-C2=121.37                H20-C3-C2=119.05               H20-C3-C4=119.58               
C5-C4-C3=120.14                H21-C4-C3=120.09               H21-C4-C5=119.77               C6-C5-C4=118.41                
H22-C5-C4=121.91               H22-C5-C6=119.69               F7-C6-C5=118.61                C8-C6-C5=122.48                
C8-C6-F7=118.91                C6-C8-C2=118.63                C9-C8-C2=122.36                C9-C8-C6=119.01                
C10-C9-C8=120.25               C15-C9-C8=122.06               C15-C9-C10=117.65              O11-C10-C9=117.69              
C12-C10-C9=120.11              C12-C10-O11=122.18             
 
 selected dihedral angles (degree)
 ---------------------------------
C3-C2-C1-H17=137.51           C3-C2-C1-H18=256.83           C3-C2-C1-H19= 16.40           C8-C2-C1-H17=317.60           
C8-C2-C1-H18= 76.92           C8-C2-C1-H19=196.48           C4-C3-C2-C1=180.27            C4-C3-C2-C8=  0.19            
H20-C3-C2-C1=  0.12           H20-C3-C2-C8=180.04           C5-C4-C3-C2=  0.19            C5-C4-C3-H20=180.34           
H21-C4-C3-C2=180.04           H21-C4-C3-H20=  0.19          C6-C5-C4-C3=359.83            C6-C5-C4-H21=179.97           
H22-C5-C4-C3=179.95           H22-C5-C4-H21=  0.10          F7-C6-C5-C4=180.79            F7-C6-C5-H22=  0.66           
C8-C6-C5-C4=359.78            C8-C6-C5-H22=179.65           C6-C8-C2-C1=179.35            C6-C8-C2-C3=359.44            
C9-C8-C2-C1=359.60            C9-C8-C2-C3=179.68            C2-C8-C6-C5=  0.59            C2-C8-C6-F7=179.58            
C9-C8-C6-C5=180.36            C9-C8-C6-F7=359.35            C10-C9-C8-C2=113.21           C10-C9-C8-C6=293.46           
C15-C9-C8-C2=290.61           C15-C9-C8-C6=110.85           O11-C10-C9-C8=356.34          O11-C10-C9-C15=178.83         
C12-C10-C9-C8=177.48          C12-C10-C9-C15=359.97         
           -------------------------------------------------
          |                Final Singlepoint                |
           -------------------------------------------------

          ...................................................
          :                      SETUP                      :
          :.................................................:
          :  # basis functions                  74          :
          :  # atomic orbitals                  74          :
          :  # shells                           42          :
          :  # electrons                        82          :
          :  max. iterations                   250          :
          :  Hamiltonian                  GFN2-xTB          :
          :  restarted?                      false          :
          :  GBSA solvation                  false          :
          :  PC potential                    false          :
          :  electronic temp.          298.1500000     K    :
          :  accuracy                    1.0000000          :
          :  -> integral cutoff          0.2500000E+02      :
          :  -> integral neglect         0.1000000E-07      :
          :  -> SCF convergence          0.1000000E-05 Eh   :
          :  -> wf. convergence          0.1000000E-03 e    :
          :  Broyden damping             0.4000000          :
          ...................................................

 iter      E             dE          RMSdq      gap      omega  full diag
   1    -47.1212211 -0.471212E+02  0.823E-05    4.01       0.0  T
   2    -47.1212211 -0.433076E-10  0.547E-05    4.01     358.8  T
   3    -47.1212211 -0.417018E-10  0.318E-05    4.01     617.5  T

   *** convergence criteria satisfied after 3 iterations ***

         #    Occupation            Energy/Eh            Energy/eV
      -------------------------------------------------------------
         1        2.0000           -0.8146372             -22.1674
       ...           ...                  ...                  ...
        35        2.0000           -0.4504117             -12.2563
        36        2.0000           -0.4430669             -12.0565
        37        2.0000           -0.4253327             -11.5739
        38        2.0000           -0.4128616             -11.2345
        39        2.0000           -0.4017869             -10.9332
        40        2.0000           -0.3981555             -10.8344
        41        2.0000           -0.3930024             -10.6941 (HOMO)
        42                         -0.2456067              -6.6833 (LUMO)
        43                         -0.2291897              -6.2366
        44                         -0.2246126              -6.1120
        45                         -0.2209433              -6.0122
        46                         -0.1090919              -2.9685
       ...                                ...                  ...
        74                          0.6742406              18.3470
      -------------------------------------------------------------
                  HL-Gap            0.1473957 Eh            4.0108 eV
             Fermi-level           -0.3193045 Eh           -8.6887 eV

 SCC (total)                   0 d,  0 h,  0 min,  0.010 sec
 SCC setup                      ...        0 min,  0.000 sec (  0.949%)
 Dispersion                     ...        0 min,  0.000 sec (  0.970%)
 classical contributions        ...        0 min,  0.000 sec (  0.176%)
 integral evaluation            ...        0 min,  0.002 sec ( 15.104%)
 iterations                     ...        0 min,  0.004 sec ( 39.218%)
 molecular gradient             ...        0 min,  0.004 sec ( 42.124%)
 printout                       ...        0 min,  0.000 sec (  1.280%)

         :::::::::::::::::::::::::::::::::::::::::::::::::::::
         ::                     SUMMARY                     ::
         :::::::::::::::::::::::::::::::::::::::::::::::::::::
         :: total energy             -46.467131944105 Eh    ::
         :: gradient norm              0.000347678317 Eh/a0 ::
         :: HOMO-LUMO gap              4.010841478628 eV    ::
         ::.................................................::
         :: SCC energy               -47.121221124437 Eh    ::
         :: -> isotropic ES            0.045246344122 Eh    ::
         :: -> anisotropic ES          0.002422117308 Eh    ::
         :: -> anisotropic XC          0.007531414985 Eh    ::
         :: -> dispersion             -0.027399556738 Eh    ::
         :: repulsion energy           0.653856029179 Eh    ::
         :: add. restraining           0.000000000000 Eh    ::
         :: total charge               0.000000000000 e     ::
         :::::::::::::::::::::::::::::::::::::::::::::::::::::

           -------------------------------------------------
          |                Property Printout                |
           -------------------------------------------------

    * Orbital Energies and Occupations

         #    Occupation            Energy/Eh            Energy/eV
      -------------------------------------------------------------
         1        2.0000           -0.8146372             -22.1674
       ...           ...                  ...                  ...
        29        2.0000           -0.4790925             -13.0368
        30        2.0000           -0.4741252             -12.9016
        31        2.0000           -0.4662558             -12.6875
        32        2.0000           -0.4638130             -12.6210
        33        2.0000           -0.4582962             -12.4709
        34        2.0000           -0.4564573             -12.4208
        35        2.0000           -0.4504117             -12.2563
        36        2.0000           -0.4430669             -12.0565
        37        2.0000           -0.4253327             -11.5739
        38        2.0000           -0.4128616             -11.2345
        39        2.0000           -0.4017869             -10.9332
        40        2.0000           -0.3981555             -10.8344
        41        2.0000           -0.3930024             -10.6941 (HOMO)
        42                         -0.2456067              -6.6833 (LUMO)
        43                         -0.2291897              -6.2366
        44                         -0.2246126              -6.1120
        45                         -0.2209433              -6.0122
        46                         -0.1090919              -2.9685
        47                         -0.0940331              -2.5588
        48                          0.0344664               0.9379
        49                          0.0545116               1.4833
        50                          0.0768201               2.0904
        51                          0.0991529               2.6981
        52                          0.1227060               3.3390
       ...                                ...                  ...
        74                          0.6742406              18.3470
      -------------------------------------------------------------
                  HL-Gap            0.1473957 Eh            4.0108 eV
             Fermi-level           -0.3193045 Eh           -8.6887 eV

     #   Z          covCN         q      C6AA      α(0)
     1   6 C        3.758    -0.109    22.636     6.783
     2   6 C        2.971     0.022    27.510     8.603
     3   6 C        2.924    -0.045    29.125     8.850
     4   6 C        2.923    -0.032    28.788     8.799
     5   6 C        2.917    -0.054    29.340     8.882
     6   6 C        2.791     0.169    24.354     8.084
     7   9 F        0.787    -0.229    11.536     4.012
     8   6 C        2.979     0.003    27.941     8.671
     9   6 C        2.974    -0.013    28.344     8.733
    10   6 C        2.853     0.149    24.763     8.156
    11   8 O        1.660    -0.377    20.401     6.097
    12   6 C        2.917    -0.077    29.923     8.970
    13   6 C        2.924    -0.031    28.773     8.797
    14   6 C        2.916    -0.062    29.548     8.914
    15   6 C        2.791     0.165    24.433     8.097
    16   9 F        0.787    -0.224    11.490     4.004
    17   1 H        0.925     0.046     2.373     2.409
    18   1 H        0.925     0.063     2.159     2.298
    19   1 H        0.925     0.045     2.380     2.412
    20   1 H        0.926     0.042     2.425     2.435
    21   1 H        0.926     0.043     2.413     2.429
    22   1 H        0.926     0.055     2.257     2.349
    23   1 H        0.805     0.305     0.705     1.319
    24   1 H        0.925     0.038     2.475     2.460
    25   1 H        0.926     0.048     2.346     2.395
    26   1 H        0.926     0.059     2.206     2.323

 Mol. C6AA /au·bohr⁶  :       8741.166310
 Mol. C8AA /au·bohr⁸  :     214349.694813
 Mol. α(0) /au        :        147.280649


Wiberg/Mayer (AO) data.
largest (>0.10) Wiberg bond orders for each atom

 ---------------------------------------------------------------------------
     #   Z sym  total        # sym  WBO       # sym  WBO       # sym  WBO
 ---------------------------------------------------------------------------
     1   6 C    3.996 --     2 C    1.029    19 H    0.984    17 H    0.976
                            18 H    0.964
     2   6 C    3.988 --     3 C    1.412     8 C    1.373     1 C    1.029
                             5 C    0.105
     3   6 C    3.990 --     4 C    1.444     2 C    1.412    20 H    0.968
     4   6 C    3.990 --     3 C    1.444     5 C    1.433    21 H    0.970
                             8 C    0.106
     5   6 C    3.988 --     4 C    1.433     6 C    1.402    22 H    0.967
                             2 C    0.105
     6   6 C    3.885 --     5 C    1.402     8 C    1.363     7 F    0.956
     7   9 F    1.086 --     6 C    0.956
     8   6 C    3.988 --     2 C    1.373     6 C    1.363     9 C    1.016
                             4 C    0.106
     9   6 C    3.986 --    15 C    1.376    10 C    1.323     8 C    1.016
                            13 C    0.103
    10   6 C    3.942 --    12 C    1.374     9 C    1.323    11 O    1.088
    11   8 O    2.141 --    10 C    1.088    23 H    0.885
    12   6 C    3.985 --    13 C    1.443    10 C    1.374    24 H    0.965
    13   6 C    3.989 --    12 C    1.443    14 C    1.435    25 H    0.970
                             9 C    0.103
    14   6 C    3.987 --    13 C    1.435    15 C    1.392    26 H    0.967
    15   6 C    3.886 --    14 C    1.392     9 C    1.376    16 F    0.959
    16   9 F    1.090 --    15 C    0.959
    17   1 H    0.998 --     1 C    0.976
    18   1 H    0.996 --     1 C    0.964
    19   1 H    0.998 --     1 C    0.984
    20   1 H    0.997 --     3 C    0.968
    21   1 H    0.998 --     4 C    0.970
    22   1 H    0.996 --     5 C    0.967
    23   1 H    0.906 --    11 O    0.885
    24   1 H    0.998 --    12 C    0.965
    25   1 H    0.997 --    13 C    0.970
    26   1 H    0.996 --    14 C    0.967
 ---------------------------------------------------------------------------

Topologies differ in total number of bonds
Writing topology from bond orders to xtbtopo.mol

molecular dipole:
                 x           y           z       tot (Debye)
 q only:       -0.382       0.827      -0.540
   full:       -0.625       0.820      -0.651       3.098
molecular quadrupole (traceless):
                xx          xy          yy          xz          yz          zz
 q only:       10.590      -0.688      -6.595       1.760       0.334      -3.995
  q+dip:       14.581      -1.581      -9.111       1.910       1.596      -5.470
   full:       12.280      -1.244      -7.769       2.765       0.424      -4.511

           -------------------------------------------------
          |                Geometry Summary                 |
           -------------------------------------------------

      molecular mass/u    :      220.2151854
   center of mass at/Å    :       -0.0708452      -0.3117366       0.0289728
  moments of inertia/u·Å² :        0.5680126E+03   0.1111576E+04   0.1319823E+04
rotational constants/cm⁻¹ :        0.2967827E-01   0.1516553E-01   0.1277264E-01

 * 23 selected distances

     #   Z          #   Z                                           value/Å
     2   6 C        3   6 C                                       1.3888888
     3   6 C        4   6 C                                       1.3830770
     4   6 C        5   6 C                                       1.3833274
     5   6 C        6   6 C                                       1.3804094
     2   6 C        8   6 C                                       1.3960276
     6   6 C        8   6 C                                       1.3899007
     9   6 C       10   6 C                                       1.4003121 (max)
    10   6 C       11   8 O                                       1.3554504
    10   6 C       12   6 C                                       1.3896719
    12   6 C       13   6 C                                       1.3830152
    13   6 C       14   6 C                                       1.3825300
     9   6 C       15   6 C                                       1.3870281
    14   6 C       15   6 C                                       1.3824386
     1   6 C       17   1 H                                       1.0886549
     1   6 C       18   1 H                                       1.0895527
     1   6 C       19   1 H                                       1.0869950
     3   6 C       20   1 H                                       1.0800312
     4   6 C       21   1 H                                       1.0793480
     5   6 C       22   1 H                                       1.0782265
    11   8 O       23   1 H                                       0.9647369 (min)
    12   6 C       24   1 H                                       1.0815081
    13   6 C       25   1 H                                       1.0788051
    14   6 C       26   1 H                                       1.0776457

 * 4 distinct bonds (by element types)

   Z      Z             #   av. dist./Å        max./Å        min./Å
   1 H    6 C           9     1.0823075     1.0895527     1.0776457
   6 C    6 C          12     1.3872189     1.4003121     1.3804094
   1 H    8 O           1     0.9647369     0.9647369     0.9647369
   6 C    8 O           1     1.3554504     1.3554504     1.3554504


optimized geometry written to: xtbopt.xyz


           -------------------------------------------------
          | TOTAL ENERGY              -46.467131944105 Eh   |
          | GRADIENT NORM               0.000347678317 Eh/α |
          | HOMO-LUMO GAP               4.010841478628 eV   |
           -------------------------------------------------

------------------------------------------------------------------------
 * finished run on 2026/07/23 at 12:55:32.009     
------------------------------------------------------------------------
 total:
 * wall-time:     0 d,  0 h,  0 min,  0.521 sec
 *  cpu-time:     0 d,  0 h,  0 min,  2.044 sec
 * ratio c/w:     3.923 speedup
 SCF:
 * wall-time:     0 d,  0 h,  0 min,  0.039 sec
 *  cpu-time:     0 d,  0 h,  0 min,  0.141 sec
 * ratio c/w:     3.640 speedup
 ANC optimizer:
 * wall-time:     0 d,  0 h,  0 min,  0.466 sec
 *  cpu-time:     0 d,  0 h,  0 min,  1.852 sec
 * ratio c/w:     3.975 speedup

