%mem=12000MB
%nprocshared=8
# opt=(ts,noeigen,recalcfc=15) bp86 empiricaldispersion=GD3BJ def2svp  freq IOP(1/8=2) nosymm

example

0 1
C -1.0920640000 2.5179850000 -1.2344490000
C -1.5068650000 1.2086660000 -0.5790660000
C -2.8825700000 1.1697620000 -0.2569360000
C -3.5830870000 -0.0079100000 0.0224780000
C -2.9042970000 -1.2129220000 -0.1743300000
C -1.5423540000 -1.1621420000 -0.4618300000
F -1.0283120000 -2.3803010000 -0.8709320000
C -0.7047980000 -0.0019320000 -0.4470180000
C 0.7912460000 -0.1128200000 -0.3177420000
C 1.5126300000 -1.3287240000 0.0490150000
O 0.9720760000 -2.4624170000 0.5497620000
C 2.9274690000 -1.3926040000 0.0148860000
C 3.7139840000 -0.2700750000 -0.2214830000
C 3.0733530000 0.9654740000 -0.3712320000
C 1.6790930000 1.0135670000 -0.3574000000
F 1.1851300000 2.2693230000 -0.3105990000
H -1.9781450000 2.9142250000 -1.7700450000
H -0.7631350000 3.2940870000 -0.5175210000
H -0.2880400000 2.3823850000 -1.9774720000
H -3.4356080000 2.1216890000 -0.3000440000
H -4.6522800000 0.0089420000 0.2802360000
H -3.4015080000 -2.1934610000 -0.1612330000
H 0.0793890000 -2.6267400000 0.1816070000
H 3.3686560000 -2.3746160000 0.2367560000
H 4.8118110000 -0.3430720000 -0.2392880000
H 3.6180550000 1.9169480000 -0.4468280000

