26
 energy: -46.467131944105 gnorm: 0.000347678317 xtb: 6.6.1 (8d0f1dd)
C            1.20521986364892        1.98722448116890        0.64460558535362
C            1.61997738060980        0.66267341867454        0.08223792670542
C            2.94902568516240        0.41313091710853       -0.23457580788743
C            3.34805625925233       -0.80251059829769       -0.75983008742372
C            2.41753975615423       -1.80110093637240       -0.98466523313917
C            1.09703537535506       -1.55131314973701       -0.66938120773754
F            0.18694547770075       -2.52989405803831       -0.87235045462466
C            0.67373563195131       -0.34086766046082       -0.13322588548252
C           -0.75956971466900       -0.15881420145469        0.18345568860818
C           -1.71046179805753       -0.12703677089240       -0.84400139320818
O           -1.26050685462560       -0.19162580389302       -2.12095647083019
C           -3.06134811432537       -0.00837189479652       -0.54033624230181
C           -3.48088614024655        0.07805558416016        0.77467279887616
C           -2.55968288567530        0.05254607827646        1.80526622398380
C           -1.21931440190254       -0.06770201975839        1.48889813881677
F           -0.32137192421029       -0.10854626355033        2.49709481765350
H            0.27931844008461        2.32927777839507        0.18539392779448
H            1.03622558270981        1.90133939866066        1.71754060050456
H            1.97951618008041        2.73236550802004        0.48093546097989
H            3.68233453135277        1.18831607712541       -0.06780276027417
H            4.38669163216088       -0.97433934926083       -0.99795480081285
H            2.69696627086582       -2.75886252688194       -1.39354882625364
H           -2.00627825571859       -0.21345057996029       -2.73256560701152
H           -3.78554569240273        0.01117091359960       -1.34334022478871
H           -4.53317074038589        0.16442471586456        0.99616272181738
H           -2.86045154486993        0.11390894230032        2.83826811068208
