%mem=12000MB
%nprocshared=8
# opt=(TS,recalcFC=15,noeigentest) freq bp86 def2svp empiricaldispersion=GD3BJ

 g_opt_ts_confs.log

0  1
C           1.31492         2.58751         0.53485
C           1.62115         1.18453         0.03555
C           2.97591         1.01836        -0.33122
C           3.59170        -0.22716        -0.48846
C           2.85121        -1.35196        -0.11725
C           1.50943        -1.17860         0.21398
F           0.94522        -2.30365         0.78852
C           0.74153         0.02287         0.08920
C          -0.75971        -0.00015         0.02229
C          -1.58036        -1.19769        -0.13785
O          -1.14577        -2.42611        -0.49422
C          -2.99291        -1.15299        -0.03575
C          -3.69053         0.04509         0.07201
C          -2.96160         1.23877         0.01813
C          -1.56982         1.18180        -0.05933
F          -0.99748         2.37970        -0.30076
H           0.52740         2.60019         1.30730
H           2.24154         2.98268         0.99804
H           1.01713         3.29293        -0.26406
H           3.58533         1.93108        -0.42851
H           4.64687        -0.31155        -0.78739
H           3.28687        -2.35750        -0.02799
H          -0.24141        -2.59856        -0.15971
H          -3.50816        -2.12197        -0.09750
H          -4.78837         0.05555         0.14597
H          -3.43614         2.22928        -0.01916

