      -----------------------------------------------------------      
     |                   =====================                   |     
     |                           x T B                           |     
     |                   =====================                   |     
     |                         S. Grimme                         |     
     |          Mulliken Center for Theoretical Chemistry        |     
     |                    University of Bonn                     |     
      -----------------------------------------------------------      

   * xtb version 6.6.1 (8d0f1dd) compiled by 'stahn@M-Bot' on 2023-08-01

   xtb is free software: you can redistribute it and/or modify it under
   the terms of the GNU Lesser General Public License as published by
   the Free Software Foundation, either version 3 of the License, or
   (at your option) any later version.
   
   xtb is distributed in the hope that it will be useful,
   but WITHOUT ANY WARRANTY; without even the implied warranty of
   MERCHANTABILITY or FITNESS FOR A PARTICULAR PURPOSE.  See the
   GNU Lesser General Public License for more details.
   
   Cite this work as:
   * C. Bannwarth, E. Caldeweyher, S. Ehlert, A. Hansen, P. Pracht,
     J. Seibert, S. Spicher, S. Grimme, WIREs Comput. Mol. Sci., 2020, 11,
     e01493. DOI: 10.1002/wcms.1493
   
   for GFN2-xTB:
   * C. Bannwarth, S. Ehlert and S. Grimme., J. Chem. Theory Comput., 2019,
     15, 1652-1671. DOI: 10.1021/acs.jctc.8b01176
   for GFN1-xTB:
   * S. Grimme, C. Bannwarth, P. Shushkov, J. Chem. Theory Comput., 2017,
     13, 1989-2009. DOI: 10.1021/acs.jctc.7b00118
   for GFN0-xTB:
   * P. Pracht, E. Caldeweyher, S. Ehlert, S. Grimme, ChemRxiv, 2019, preprint.
     DOI: 10.26434/chemrxiv.8326202.v1
   for GFN-FF:
   * S. Spicher and S. Grimme, Angew. Chem. Int. Ed., 2020, 59, 15665-15673.
     DOI: 10.1002/anie.202004239
   
   for ALPB and GBSA implicit solvation:
   * S. Ehlert, M. Stahn, S. Spicher, S. Grimme, J. Chem. Theory Comput.,
     2021, 17, 4250-4261. DOI: 10.1021/acs.jctc.1c00471
   
   for DFT-D4:
   * E. Caldeweyher, C. Bannwarth and S. Grimme, J. Chem. Phys., 2017,
     147, 034112. DOI: 10.1063/1.4993215
   * E. Caldeweyher, S. Ehlert, A. Hansen, H. Neugebauer, S. Spicher,
     C. Bannwarth and S. Grimme, J. Chem. Phys., 2019, 150, 154122.
     DOI: 10.1063/1.5090222
   * E. Caldeweyher, J.-M. Mewes, S. Ehlert and S. Grimme, Phys. Chem. Chem. Phys.
     2020, 22, 8499-8512. DOI: 10.1039/D0CP00502A
   
   for sTDA-xTB:
   * S. Grimme and C. Bannwarth, J. Chem. Phys., 2016, 145, 054103.
     DOI: 10.1063/1.4959605
   
   in the mass-spec context:
   * V. Asgeirsson, C. Bauer and S. Grimme, Chem. Sci., 2017, 8, 4879.
     DOI: 10.1039/c7sc00601b
   * J. Koopman and S. Grimme, ACS Omega 2019, 4, 12, 15120-15133.
     DOI: 10.1021/acsomega.9b02011
   
   for metadynamics refer to:
   * S. Grimme, J. Chem. Theory Comput., 2019, 155, 2847-2862
     DOI: 10.1021/acs.jctc.9b00143
   
   for SPH calculations refer to:
   * S. Spicher and S. Grimme, J. Chem. Theory Comput., 2021, 17, 1701-1714
     DOI: 10.1021/acs.jctc.0c01306
   
   with help from (in alphabetical order)
   P. Atkinson, C. Bannwarth, F. Bohle, G. Brandenburg, E. Caldeweyher
   M. Checinski, S. Dohm, S. Ehlert, S. Ehrlich, I. Gerasimov, C. Hölzer
   A. Katbashev, J. Koopman, C. Lavigne, S. Lehtola, F. März, M. Müller,
   F. Musil, H. Neugebauer, J. Pisarek, C. Plett, P. Pracht, F. Pultar,
   J. Seibert, P. Shushkov, S. Spicher, M. Stahn, M. Steiner, T. Strunk,
   J. Stückrath, T. Rose, and J. Unsleber
   
 * started run on 2025/08/28 at 10:02:08.125     

           -------------------------------------------------
          |                Calculation Setup                |
           -------------------------------------------------

          program call               : /path/to/xtb /path/to/15.xyz --opt --etemp 298.15 --chrg 0 --uhf 0 -P 4
          hostname                   : semlscpn101
          coordinate file            : /path/to/15.xyz
          omp threads                :                     4

   ID    Z sym.   atoms
    1    6 C      1-6, 8-10, 12-15
    2    9 F      7, 16
    3    8 O      11
    4    1 H      17-26

           -------------------------------------------------
          |                 G F N 2 - x T B                 |
           -------------------------------------------------

        Reference                      10.1021/acs.jctc.8b01176
      * Hamiltonian:
        H0-scaling (s, p, d)           1.850000    2.230000    2.230000
        zeta-weighting                 0.500000
      * Dispersion:
        s8                             2.700000
        a1                             0.520000
        a2                             5.000000
        s9                             5.000000
      * Repulsion:
        kExp                           1.500000    1.000000
        rExp                           1.000000
      * Coulomb:
        alpha                          2.000000
        third order                    shell-resolved
        anisotropic                    true
        a3                             3.000000
        a5                             4.000000
        cn-shift                       1.200000
        cn-exp                         4.000000
        max-rad                        5.000000


          ...................................................
          :                      SETUP                      :
          :.................................................:
          :  # basis functions                  74          :
          :  # atomic orbitals                  74          :
          :  # shells                           42          :
          :  # electrons                        82          :
          :  max. iterations                   250          :
          :  Hamiltonian                  GFN2-xTB          :
          :  restarted?                      false          :
          :  GBSA solvation                  false          :
          :  PC potential                    false          :
          :  electronic temp.          298.1500000     K    :
          :  accuracy                    1.0000000          :
          :  -> integral cutoff          0.2500000E+02      :
          :  -> integral neglect         0.1000000E-07      :
          :  -> SCF convergence          0.1000000E-05 Eh   :
          :  -> wf. convergence          0.1000000E-03 e    :
          :  Broyden damping             0.4000000          :
          ...................................................

 iter      E             dE          RMSdq      gap      omega  full diag
   1    -47.0435948 -0.470436E+02  0.443E+00    4.46       0.0  T
   2    -47.0824614 -0.388666E-01  0.268E+00    4.45       1.0  T
   3    -47.0766041  0.585728E-02  0.143E+00    4.43       1.0  T
   4    -47.0951492 -0.185451E-01  0.242E-01    4.47       1.0  T
   5    -47.0954777 -0.328494E-03  0.101E-01    4.45       1.0  T
   6    -47.0956527 -0.175048E-03  0.466E-02    4.45       1.0  T
   7    -47.0956674 -0.146344E-04  0.182E-02    4.45       1.1  T
   8    -47.0956706 -0.325166E-05  0.764E-03    4.45       2.6  T
   9    -47.0956711 -0.456652E-06  0.181E-03    4.45      10.8  T
  10    -47.0956711 -0.154879E-07  0.759E-04    4.45      25.8  T
  11    -47.0956711 -0.160017E-08  0.432E-04    4.45      45.4  T

   *** convergence criteria satisfied after 11 iterations ***

         #    Occupation            Energy/Eh            Energy/eV
      -------------------------------------------------------------
         1        2.0000           -0.8162039             -22.2100
       ...           ...                  ...                  ...
        35        2.0000           -0.4507797             -12.2663
        36        2.0000           -0.4448018             -12.1037
        37        2.0000           -0.4219999             -11.4832
        38        2.0000           -0.4097728             -11.1505
        39        2.0000           -0.4045551             -11.0085
        40        2.0000           -0.4017009             -10.9308
        41        2.0000           -0.4007037             -10.9037 (HOMO)
        42                         -0.2371469              -6.4531 (LUMO)
        43                         -0.2322923              -6.3210
        44                         -0.2289889              -6.2311
        45                         -0.2261712              -6.1544
        46                         -0.1047733              -2.8510
       ...                                ...                  ...
        74                          0.6812082              18.5366
      -------------------------------------------------------------
                  HL-Gap            0.1635569 Eh            4.4506 eV
             Fermi-level           -0.3189253 Eh           -8.6784 eV

 SCC (total)                   0 d,  0 h,  0 min,  0.110 sec
 SCC setup                      ...        0 min,  0.000 sec (  0.305%)
 Dispersion                     ...        0 min,  0.001 sec (  0.457%)
 classical contributions        ...        0 min,  0.000 sec (  0.124%)
 integral evaluation            ...        0 min,  0.005 sec (  4.978%)
 iterations                     ...        0 min,  0.088 sec ( 80.592%)
 molecular gradient             ...        0 min,  0.015 sec ( 13.230%)
 printout                       ...        0 min,  0.000 sec (  0.292%)

         :::::::::::::::::::::::::::::::::::::::::::::::::::::
         ::                     SUMMARY                     ::
         :::::::::::::::::::::::::::::::::::::::::::::::::::::
         :: total energy             -46.448635160979 Eh    ::
         :: gradient norm              0.089067849848 Eh/a0 ::
         :: HOMO-LUMO gap              4.450608549010 eV    ::
         ::.................................................::
         :: SCC energy               -47.095671083692 Eh    ::
         :: -> isotropic ES            0.047833546484 Eh    ::
         :: -> anisotropic ES          0.003178573501 Eh    ::
         :: -> anisotropic XC          0.007946580582 Eh    ::
         :: -> dispersion             -0.027636865519 Eh    ::
         :: repulsion energy           0.646767308040 Eh    ::
         :: add. restraining           0.000000000000 Eh    ::
         :: total charge               0.000000000000 e     ::
         :::::::::::::::::::::::::::::::::::::::::::::::::::::

      ----------------------------------------------------------- 
     |                   =====================                   |
     |                        A N C O P T                        |
     |                   =====================                   |
     |               Approximate Normal Coordinate               |
     |                Rational Function Optimizer                |
      ----------------------------------------------------------- 

          ...................................................
          :                      SETUP                      :
          :.................................................:
          :   optimization level            normal          :
          :   max. optcycles                   200          :
          :   ANC micro-cycles                  20          :
          :   degrees of freedom                72          :
          :.................................................:
          :   RF solver                   davidson          :
          :   write xtbopt.log                true          :
          :   linear?                        false          :
          :   energy convergence         0.5000000E-05 Eh   :
          :   grad. convergence          0.1000000E-02 Eh/α :
          :   maxmium RF displ.          1.0000000          :
          :   Hlow (freq-cutoff)         0.1000000E-01      :
          :   Hmax (freq-cutoff)         5.0000000          :
          :   S6 in model hess.         20.0000000          :
          ...................................................

generating ANC from model Hessian ...
Using Lindh-Hessian (1995)
 Shifting diagonal of input Hessian by   8.726482974943821E-003
 Lowest  eigenvalues of input Hessian
    0.000000    0.000000    0.000000    0.000000    0.000000    0.000000
    0.010000    0.010551    0.010768    0.014097    0.015344    0.017220
    0.021015    0.022114    0.025103    0.029070    0.030328    0.030858
 Highest eigenvalues
    1.919040    1.931914    2.038824    2.121227    2.139371    2.154080
 

........................................................................
.............................. CYCLE    1 ..............................
........................................................................

 iter      E             dE          RMSdq      gap      omega  full diag
   1    -47.0956711 -0.470957E+02  0.131E-04    4.45       0.0  T
   2    -47.0956711 -0.357829E-10  0.814E-05    4.45     241.0  T
   3    -47.0956711 -0.130029E-11  0.512E-05    4.45     382.9  T
     SCC iter.                  ...        0 min,  0.012 sec
     gradient                   ...        0 min,  0.014 sec
 * total energy  :   -46.4486352 Eh     change       -0.1500062E-08 Eh
   gradient norm :     0.0890675 Eh/α   predicted     0.0000000E+00 (-100.00%)
   displ. norm   :     0.3301152 α      lambda       -0.1704636E-01
   maximum displ.:     0.1003709 α      in ANC's #10, #26, #15, ...

........................................................................
.............................. CYCLE    2 ..............................
........................................................................

 iter      E             dE          RMSdq      gap      omega  full diag
   1    -47.1138399 -0.471138E+02  0.290E-01    4.37       0.0  T
   2    -47.1140172 -0.177238E-03  0.178E-01    4.41       1.0  T
   3    -47.1139824  0.347986E-04  0.756E-02    4.41       1.0  T
   4    -47.1140382 -0.558881E-04  0.185E-02    4.41       1.1  T
   5    -47.1140426 -0.438805E-05  0.383E-03    4.41       5.1  T
   6    -47.1140427 -0.795963E-07  0.209E-03    4.41       9.4  T
   7    -47.1140427 -0.263897E-07  0.978E-04    4.41      20.1  T
   8    -47.1140427 -0.487742E-08  0.349E-04    4.41      56.2  T
     SCC iter.                  ...        0 min,  0.030 sec
     gradient                   ...        0 min,  0.014 sec
 * total energy  :   -46.4608810 Eh     change       -0.1224585E-01 Eh
   gradient norm :     0.0386179 Eh/α   predicted    -0.9452021E-02 ( -22.81%)
   displ. norm   :     0.3130094 α      lambda       -0.6393150E-02
   maximum displ.:     0.1350877 α      in ANC's #10, #26, #12, ...

........................................................................
.............................. CYCLE    3 ..............................
........................................................................

 iter      E             dE          RMSdq      gap      omega  full diag
   1    -47.1207052 -0.471207E+02  0.255E-01    4.31       0.0  T
   2    -47.1208243 -0.119106E-03  0.154E-01    4.34       1.0  T
   3    -47.1207935  0.307270E-04  0.687E-02    4.34       1.0  T
   4    -47.1208444 -0.508310E-04  0.136E-02    4.35       1.4  T
   5    -47.1208468 -0.246040E-05  0.413E-03    4.35       4.8  T
   6    -47.1208469 -0.119286E-06  0.235E-03    4.35       8.3  T
   7    -47.1208470 -0.376369E-07  0.116E-03    4.35      16.8  T
   8    -47.1208470 -0.780609E-08  0.448E-04    4.35      43.8  T
   9    -47.1208470 -0.377079E-08  0.121E-04    4.35     161.5  T
     SCC iter.                  ...        0 min,  0.033 sec
     gradient                   ...        0 min,  0.013 sec
 * total energy  :   -46.4646503 Eh     change       -0.3769293E-02 Eh
   gradient norm :     0.0159291 Eh/α   predicted    -0.3510069E-02 (  -6.88%)
   displ. norm   :     0.1785382 α      lambda       -0.9427788E-03
   maximum displ.:     0.0988501 α      in ANC's #10, #5, #12, ...

........................................................................
.............................. CYCLE    4 ..............................
........................................................................

 iter      E             dE          RMSdq      gap      omega  full diag
   1    -47.1187210 -0.471187E+02  0.955E-02    4.32       0.0  T
   2    -47.1187279 -0.685456E-05  0.560E-02    4.32       1.0  T
   3    -47.1187228  0.500128E-05  0.204E-02    4.32       1.0  T
   4    -47.1187298 -0.691783E-05  0.391E-03    4.32       5.0  T
   5    -47.1187299 -0.149988E-06  0.202E-03    4.32       9.7  T
   6    -47.1187299 -0.257995E-07  0.119E-03    4.32      16.5  T
   7    -47.1187300 -0.135720E-07  0.378E-04    4.32      51.9  T
   8    -47.1187300 -0.108199E-08  0.147E-04    4.32     133.4  T
     SCC iter.                  ...        0 min,  0.030 sec
     gradient                   ...        0 min,  0.015 sec
 * total energy  :   -46.4652975 Eh     change       -0.6472000E-03 Eh
   gradient norm :     0.0198748 Eh/α   predicted    -0.4864192E-03 ( -24.84%)
   displ. norm   :     0.1642670 α      lambda       -0.7731182E-03
   maximum displ.:     0.0810966 α      in ANC's #5, #10, #8, ...

........................................................................
.............................. CYCLE    5 ..............................
........................................................................

 iter      E             dE          RMSdq      gap      omega  full diag
   1    -47.1182731 -0.471183E+02  0.859E-02    4.31       0.0  T
   2    -47.1182747 -0.159207E-05  0.506E-02    4.31       1.0  T
   3    -47.1182720  0.266018E-05  0.108E-02    4.31       1.8  T
   4    -47.1182754 -0.334191E-05  0.207E-03    4.31       9.5  T
   5    -47.1182754 -0.156237E-07  0.102E-03    4.31      19.2  T
   6    -47.1182754 -0.547819E-08  0.501E-04    4.31      39.2  T
   7    -47.1182754 -0.240931E-08  0.140E-04    4.31     140.5  T
     SCC iter.                  ...        0 min,  0.026 sec
     gradient                   ...        0 min,  0.014 sec
 * total energy  :   -46.4657993 Eh     change       -0.5018067E-03 Eh
   gradient norm :     0.0107292 Eh/α   predicted    -0.3969941E-03 ( -20.89%)
   displ. norm   :     0.1310442 α      lambda       -0.3639536E-03
   maximum displ.:     0.0748112 α      in ANC's #5, #10, #6, ...

........................................................................
.............................. CYCLE    6 ..............................
........................................................................

 iter      E             dE          RMSdq      gap      omega  full diag
   1    -47.1182715 -0.471183E+02  0.506E-02    4.31       0.0  T
   2    -47.1182733 -0.180649E-05  0.311E-02    4.31       1.0  T
   3    -47.1182707  0.259727E-05  0.125E-02    4.31       1.6  T
   4    -47.1182741 -0.344651E-05  0.184E-03    4.31      10.7  T
   5    -47.1182741 -0.154976E-07  0.974E-04    4.31      20.1  T
   6    -47.1182742 -0.471499E-08  0.509E-04    4.31      38.5  T
     SCC iter.                  ...        0 min,  0.022 sec
     gradient                   ...        0 min,  0.014 sec
 * total energy  :   -46.4660471 Eh     change       -0.2478156E-03 Eh
   gradient norm :     0.0115527 Eh/α   predicted    -0.1851028E-03 ( -25.31%)
   displ. norm   :     0.1235119 α      lambda       -0.3768290E-03
   maximum displ.:     0.0664003 α      in ANC's #6, #5, #1, ...

........................................................................
.............................. CYCLE    7 ..............................
........................................................................

 iter      E             dE          RMSdq      gap      omega  full diag
   1    -47.1207643 -0.471208E+02  0.546E-02    4.32       0.0  T
   2    -47.1207680 -0.371288E-05  0.327E-02    4.32       1.0  T
   3    -47.1207657  0.226234E-05  0.137E-02    4.32       1.4  T
   4    -47.1207691 -0.336742E-05  0.278E-03    4.32       7.1  T
   5    -47.1207692 -0.694240E-07  0.126E-03    4.32      15.6  T
   6    -47.1207692 -0.111162E-07  0.740E-04    4.32      26.5  T
   7    -47.1207692 -0.401392E-08  0.272E-04    4.32      72.1  T
     SCC iter.                  ...        0 min,  0.026 sec
     gradient                   ...        0 min,  0.014 sec
 * total energy  :   -46.4662427 Eh     change       -0.1955788E-03 Eh
   gradient norm :     0.0073307 Eh/α   predicted    -0.1912921E-03 (  -2.19%)
   displ. norm   :     0.1190794 α      lambda       -0.1719051E-03
   maximum displ.:     0.0601518 α      in ANC's #6, #5, #15, ...

........................................................................
.............................. CYCLE    8 ..............................
........................................................................

 iter      E             dE          RMSdq      gap      omega  full diag
   1    -47.1201633 -0.471202E+02  0.482E-02    4.32       0.0  T
   2    -47.1201644 -0.106465E-05  0.291E-02    4.32       1.0  T
   3    -47.1201636  0.793440E-06  0.683E-03    4.32       2.9  T
   4    -47.1201648 -0.120895E-05  0.209E-03    4.32       9.4  T
   5    -47.1201648 -0.344098E-07  0.103E-03    4.32      19.1  T
   6    -47.1201648 -0.120710E-08  0.521E-04    4.32      37.7  T
   7    -47.1201649 -0.458882E-08  0.140E-04    4.32     140.3  T
     SCC iter.                  ...        0 min,  0.025 sec
     gradient                   ...        0 min,  0.014 sec
 * total energy  :   -46.4663157 Eh     change       -0.7300451E-04 Eh
   gradient norm :     0.0067255 Eh/α   predicted    -0.8717651E-04 (  19.41%)
   displ. norm   :     0.0377196 α      lambda       -0.7444803E-04
   maximum displ.:     0.0169327 α      in ANC's #6, #9, #12, ...

........................................................................
.............................. CYCLE    9 ..............................
........................................................................

 iter      E             dE          RMSdq      gap      omega  full diag
   1    -47.1210454 -0.471210E+02  0.185E-02    4.32       0.0  T
   2    -47.1210459 -0.499540E-06  0.113E-02    4.32       1.7  T
   3    -47.1210457  0.212290E-06  0.597E-03    4.32       3.3  T
   4    -47.1210461 -0.426502E-06  0.938E-04    4.32      20.9  T
   5    -47.1210461 -0.602908E-08  0.501E-04    4.32      39.2  T
     SCC iter.                  ...        0 min,  0.018 sec
     gradient                   ...        0 min,  0.014 sec
 * total energy  :   -46.4663648 Eh     change       -0.4904593E-04 Eh
   gradient norm :     0.0020917 Eh/α   predicted    -0.3728440E-04 ( -23.98%)
   displ. norm   :     0.0612068 α      lambda       -0.3183213E-04
   maximum displ.:     0.0419988 α      in ANC's #6, #2, #3, ...

........................................................................
.............................. CYCLE   10 ..............................
........................................................................

 iter      E             dE          RMSdq      gap      omega  full diag
   1    -47.1211529 -0.471212E+02  0.215E-02    4.32       0.0  T
   2    -47.1211531 -0.276655E-06  0.129E-02    4.32       1.5  T
   3    -47.1211528  0.354410E-06  0.550E-03    4.32       3.6  T
   4    -47.1211533 -0.473082E-06  0.717E-04    4.32      27.4  T
   5    -47.1211533 -0.326322E-08  0.376E-04    4.32      52.2  T
     SCC iter.                  ...        0 min,  0.018 sec
     gradient                   ...        0 min,  0.014 sec
 * total energy  :   -46.4663864 Eh     change       -0.2159358E-04 Eh
   gradient norm :     0.0015557 Eh/α   predicted    -0.1598251E-04 ( -25.98%)
   displ. norm   :     0.0941902 α      lambda       -0.1832821E-04
   maximum displ.:     0.0663967 α      in ANC's #6, #2, #3, ...

........................................................................
.............................. CYCLE   11 ..............................
........................................................................

 iter      E             dE          RMSdq      gap      omega  full diag
   1    -47.1209944 -0.471210E+02  0.289E-02    4.32       0.0  T
   2    -47.1209946 -0.165299E-06  0.173E-02    4.32       1.1  T
   3    -47.1209943  0.322722E-06  0.454E-03    4.32       4.3  T
   4    -47.1209947 -0.405371E-06  0.769E-04    4.32      25.5  T
   5    -47.1209947 -0.208878E-08  0.424E-04    4.32      46.3  T
     SCC iter.                  ...        0 min,  0.018 sec
     gradient                   ...        0 min,  0.014 sec
 * total energy  :   -46.4664037 Eh     change       -0.1734753E-04 Eh
   gradient norm :     0.0024079 Eh/α   predicted    -0.9201241E-05 ( -46.96%)
   displ. norm   :     0.0497191 α      lambda       -0.1296269E-04
   maximum displ.:     0.0352138 α      in ANC's #6, #2, #3, ...

........................................................................
.............................. CYCLE   12 ..............................
........................................................................

 iter      E             dE          RMSdq      gap      omega  full diag
   1    -47.1210309 -0.471210E+02  0.149E-02    4.32       0.0  T
   2    -47.1210310 -0.606643E-07  0.885E-03    4.32       2.2  T
   3    -47.1210309  0.617154E-07  0.178E-03    4.32      11.0  T
   4    -47.1210310 -0.778597E-07  0.382E-04    4.32      51.3  T
   5    -47.1210310 -0.132443E-08  0.170E-04    4.32     115.3  T
     SCC iter.                  ...        0 min,  0.018 sec
     gradient                   ...        0 min,  0.014 sec
 * total energy  :   -46.4664148 Eh     change       -0.1105576E-04 Eh
   gradient norm :     0.0018562 Eh/α   predicted    -0.6505992E-05 ( -41.15%)
   displ. norm   :     0.1676253 α      lambda       -0.2557719E-04
   maximum displ.:     0.1217396 α      in ANC's #6, #2, #3, ...

........................................................................
.............................. CYCLE   13 ..............................
........................................................................

 iter      E             dE          RMSdq      gap      omega  full diag
   1    -47.1209085 -0.471209E+02  0.492E-02    4.32       0.0  T
   2    -47.1209090 -0.505200E-06  0.292E-02    4.32       1.0  T
   3    -47.1209084  0.599240E-06  0.582E-03    4.32       3.4  T
   4    -47.1209091 -0.753733E-06  0.113E-03    4.32      17.3  T
   5    -47.1209092 -0.845053E-08  0.520E-04    4.32      37.7  T
   6    -47.1209092 -0.110816E-09  0.266E-04    4.32      73.8  T
     SCC iter.                  ...        0 min,  0.021 sec
     gradient                   ...        0 min,  0.014 sec
 * total energy  :   -46.4664354 Eh     change       -0.2064000E-04 Eh
   gradient norm :     0.0019388 Eh/α   predicted    -0.1295073E-04 ( -37.25%)
   displ. norm   :     0.0375718 α      lambda       -0.8015782E-05
   maximum displ.:     0.0255984 α      in ANC's #6, #2, #3, ...

........................................................................
.............................. CYCLE   14 ..............................
........................................................................

 iter      E             dE          RMSdq      gap      omega  full diag
   1    -47.1213331 -0.471213E+02  0.121E-02    4.32       0.0  T
   2    -47.1213332 -0.674446E-07  0.716E-03    4.32       2.7  T
   3    -47.1213332  0.549556E-07  0.179E-03    4.32      10.9  T
   4    -47.1213332 -0.708601E-07  0.396E-04    4.32      49.5  T
   5    -47.1213332 -0.175258E-08  0.182E-04    4.32     107.7  T
     SCC iter.                  ...        0 min,  0.018 sec
     gradient                   ...        0 min,  0.014 sec
 * total energy  :   -46.4664445 Eh     change       -0.9092960E-05 Eh
   gradient norm :     0.0012368 Eh/α   predicted    -0.4018658E-05 ( -55.80%)
   displ. norm   :     0.1152170 α      lambda       -0.1452874E-04
   maximum displ.:     0.0976923 α      in ANC's #6, #2, #1, ...

........................................................................
.............................. CYCLE   15 ..............................
........................................................................

 iter      E             dE          RMSdq      gap      omega  full diag
   1    -47.1209699 -0.471210E+02  0.314E-02    4.32       0.0  T
   2    -47.1209702 -0.265232E-06  0.187E-02    4.32       1.1  T
   3    -47.1209700  0.180605E-06  0.317E-03    4.32       6.2  T
   4    -47.1209702 -0.232999E-06  0.861E-04    4.32      22.8  T
   5    -47.1209702 -0.104747E-07  0.398E-04    4.32      49.3  T
     SCC iter.                  ...        0 min,  0.018 sec
     gradient                   ...        0 min,  0.014 sec
 * total energy  :   -46.4664539 Eh     change       -0.9440759E-05 Eh
   gradient norm :     0.0016433 Eh/α   predicted    -0.7317302E-05 ( -22.49%)
   displ. norm   :     0.0236300 α      lambda       -0.5468823E-05
   maximum displ.:     0.0176844 α      in ANC's #1, #2, #3, ...

........................................................................
.............................. CYCLE   16 ..............................
........................................................................

 iter      E             dE          RMSdq      gap      omega  full diag
   1    -47.1212233 -0.471212E+02  0.897E-03    4.32       0.0  T
   2    -47.1212233 -0.564826E-07  0.526E-03    4.32       3.7  T
   3    -47.1212233  0.153574E-07  0.115E-03    4.32      17.1  T
   4    -47.1212233 -0.210171E-07  0.414E-04    4.32      47.4  T
   5    -47.1212233 -0.313560E-08  0.165E-04    4.32     119.0  T
     SCC iter.                  ...        0 min,  0.018 sec
     gradient                   ...        0 min,  0.015 sec
 * total energy  :   -46.4664596 Eh     change       -0.5684215E-05 Eh
   gradient norm :     0.0006692 Eh/α   predicted    -0.2736414E-05 ( -51.86%)
   displ. norm   :     0.0593189 α      lambda       -0.6201797E-05
   maximum displ.:     0.0459811 α      in ANC's #6, #1, #2, ...

........................................................................
.............................. CYCLE   17 ..............................
........................................................................

 iter      E             dE          RMSdq      gap      omega  full diag
   1    -47.1212285 -0.471212E+02  0.137E-02    4.32       0.0  T
   2    -47.1212285 -0.190316E-07  0.818E-03    4.32       2.4  T
   3    -47.1212285  0.124877E-07  0.929E-04    4.32      21.1  T
   4    -47.1212285 -0.179103E-07  0.268E-04    4.32      73.2  T
     SCC iter.                  ...        0 min,  0.014 sec
     gradient                   ...        0 min,  0.013 sec
 * total energy  :   -46.4664677 Eh     change       -0.8107152E-05 Eh
   gradient norm :     0.0006363 Eh/α   predicted    -0.3108862E-05 ( -61.65%)
   displ. norm   :     0.1946514 α      lambda       -0.1659258E-04
   maximum displ.:     0.1604570 α      in ANC's #6, #1, #8, ...

........................................................................
.............................. CYCLE   18 ..............................
........................................................................

 iter      E             dE          RMSdq      gap      omega  full diag
   1    -47.1206117 -0.471206E+02  0.433E-02    4.33       0.0  T
   2    -47.1206119 -0.195789E-06  0.259E-02    4.33       1.0  T
   3    -47.1206119  0.159235E-07  0.205E-03    4.33       9.6  T
   4    -47.1206120 -0.597486E-07  0.831E-04    4.33      23.6  T
   5    -47.1206120 -0.520417E-08  0.418E-04    4.33      46.9  T
     SCC iter.                  ...        0 min,  0.018 sec
     gradient                   ...        0 min,  0.014 sec
 * total energy  :   -46.4664841 Eh     change       -0.1640915E-04 Eh
   gradient norm :     0.0018623 Eh/α   predicted    -0.8438196E-05 ( -48.58%)
   displ. norm   :     0.0899479 α      lambda       -0.1020869E-04
   maximum displ.:     0.0664352 α      in ANC's #1, #6, #2, ...

........................................................................
.............................. CYCLE   19 ..............................
........................................................................

 iter      E             dE          RMSdq      gap      omega  full diag
   1    -47.1209406 -0.471209E+02  0.234E-02    4.33       0.0  T
   2    -47.1209406 -0.436297E-07  0.139E-02    4.33       1.4  T
   3    -47.1209405  0.109077E-06  0.190E-03    4.33      10.3  T
   4    -47.1209407 -0.129876E-06  0.443E-04    4.33      44.2  T
   5    -47.1209407 -0.199239E-08  0.222E-04    4.33      88.1  T
     SCC iter.                  ...        0 min,  0.018 sec
     gradient                   ...        0 min,  0.015 sec
 * total energy  :   -46.4664951 Eh     change       -0.1097652E-04 Eh
   gradient norm :     0.0012478 Eh/α   predicted    -0.5124865E-05 ( -53.31%)
   displ. norm   :     0.0961055 α      lambda       -0.8362954E-05
   maximum displ.:     0.0747674 α      in ANC's #1, #6, #2, ...

........................................................................
.............................. CYCLE   20 ..............................
........................................................................

 iter      E             dE          RMSdq      gap      omega  full diag
   1    -47.1212298 -0.471212E+02  0.254E-02    4.33       0.0  T
   2    -47.1212299 -0.645239E-07  0.151E-02    4.33       1.3  T
   3    -47.1212297  0.197422E-06  0.273E-03    4.33       7.2  T
   4    -47.1212299 -0.234661E-06  0.462E-04    4.33      42.5  T
   5    -47.1212299 -0.815859E-09  0.265E-04    4.33      74.1  T
     SCC iter.                  ...        0 min,  0.018 sec
     gradient                   ...        0 min,  0.014 sec
 * total energy  :   -46.4665043 Eh     change       -0.9187708E-05 Eh
   gradient norm :     0.0006532 Eh/α   predicted    -0.4201451E-05 ( -54.27%)
   displ. norm   :     0.1046007 α      lambda       -0.6111192E-05
   maximum displ.:     0.0777739 α      in ANC's #1, #6, #5, ...
 * RMSD in coord.:     0.2963750 α      energy gain  -0.1786913E-01 Eh

generating ANC from model Hessian ...
Using Lindh-Hessian (1995)
 Shifting diagonal of input Hessian by   8.784462212251286E-003
 Lowest  eigenvalues of input Hessian
    0.000000    0.000000    0.000000    0.000000    0.000000    0.000000
    0.010000    0.010579    0.010818    0.013889    0.015489    0.017766
    0.021160    0.022328    0.024951    0.030113    0.031337    0.033261
 Highest eigenvalues
    1.894572    1.912758    2.031063    2.077565    2.113369    2.136967
 

........................................................................
.............................. CYCLE   21 ..............................
........................................................................

 iter      E             dE          RMSdq      gap      omega  full diag
   1    -47.1211004 -0.471211E+02  0.286E-02    4.32       0.0  T
   2    -47.1211004 -0.888831E-07  0.170E-02    4.32       1.2  T
   3    -47.1211002  0.194301E-06  0.272E-03    4.32       7.2  T
   4    -47.1211005 -0.240512E-06  0.513E-04    4.32      38.2  T
   5    -47.1211005 -0.332093E-09  0.239E-04    4.32      82.1  T
     SCC iter.                  ...        0 min,  0.018 sec
     gradient                   ...        0 min,  0.014 sec
 * total energy  :   -46.4665113 Eh     change       -0.7015325E-05 Eh
   gradient norm :     0.0007392 Eh/α   predicted     0.0000000E+00 (-100.00%)
   displ. norm   :     0.0196718 α      lambda       -0.6070407E-06
   maximum displ.:     0.0146797 α      in ANC's #1, #3, #2, ...

........................................................................
.............................. CYCLE   22 ..............................
........................................................................

 iter      E             dE          RMSdq      gap      omega  full diag
   1    -47.1213978 -0.471214E+02  0.670E-03    4.32       0.0  T
   2    -47.1213978 -0.220734E-07  0.391E-03    4.32       5.0  T
   3    -47.1213978  0.252689E-07  0.123E-03    4.32      16.0  T
   4    -47.1213978 -0.304048E-07  0.267E-04    4.32      73.5  T
   5    -47.1213978 -0.113474E-08  0.105E-04    4.32     186.5  T
     SCC iter.                  ...        0 min,  0.018 sec
     gradient                   ...        0 min,  0.014 sec
 * total energy  :   -46.4665146 Eh     change       -0.3304334E-05 Eh
   gradient norm :     0.0002427 Eh/α   predicted    -0.1437905E-05 ( -56.48%)
   displ. norm   :     0.0375530 α      lambda       -0.3301039E-05
   maximum displ.:     0.0263911 α      in ANC's #1, #3, #2, ...

   *** GEOMETRY OPTIMIZATION CONVERGED AFTER 22 ITERATIONS ***

------------------------------------------------------------------------
 total energy gain   :        -0.0178795 Eh      -11.2195 kcal/mol
 total RMSD          :         0.2972930 a0        0.1573 Å
 total power (kW/mol):        -2.1337498 (step)  -50.5454 (real)
------------------------------------------------------------------------

 ANCopt (total)                0 d,  0 h,  0 min,  0.929 sec
 optimizer setup                ...        0 min,  0.000 sec (  0.023%)
 model hessian                  ...        0 min,  0.023 sec (  2.480%)
 ANC generation                 ...        0 min,  0.005 sec (  0.502%)
 coordinate transformation      ...        0 min,  0.000 sec (  0.026%)
 single point calculation       ...        0 min,  0.890 sec ( 95.801%)
 optimization log               ...        0 min,  0.004 sec (  0.387%)
 hessian update                 ...        0 min,  0.004 sec (  0.419%)
 rational function              ...        0 min,  0.002 sec (  0.237%)

================
 final structure:
================
26
 xtb: 6.6.1 (8d0f1dd)
C            0.97072771769779        1.95268142750894       -0.81754263966042
C            1.55208869483127        0.67267547315978       -0.30208910809004
C            2.92326271881654        0.50335358016880       -0.17114298520945
C            3.45736354405433       -0.68196994144081        0.30310936411173
C            2.62512595692941       -1.72676151840555        0.66075503577698
C            1.26064853539099       -1.55440192155279        0.53047057441835
F            0.43967571623384       -2.56977893532997        0.88093284397635
C            0.70369272531911       -0.37640096099639        0.05394454898371
C           -0.76816376200361       -0.25662730499097       -0.06688279640056
C           -1.53569777533845        0.20690043027891        1.00610509326983
O           -0.88046546479757        0.57760106395900        2.13586587455295
C           -2.91804224658878        0.28679244315546        0.89029831094006
C           -3.54626459491131       -0.09042300718035       -0.28291460248582
C           -2.80669405336758       -0.54745110130148       -1.35772000732745
C           -1.43207796758621       -0.62257859377916       -1.22735468731834
F           -0.70376945695666       -1.06104241971649       -2.27564488370921
H            1.75249551395662        2.68112960846749       -1.01386604960381
H            0.27481325692689        2.37028325816792       -0.09153963586660
H            0.42054372642186        1.77379760999050       -1.74054252397479
H            3.58258812968882        1.31333139805849       -0.44642516375324
H            4.52695256755719       -0.79370283048794        0.39553981043355
H            3.01229073409516       -2.66142191136758        1.03370139756034
H           -1.51586997558726        0.83455671241416        2.81483636718681
H           -3.50160722688986        0.64353698866714        1.72812958868529
H           -4.62053557325177       -0.02649976972062       -0.35839950059358
H           -3.27308244064077       -0.84757977772655       -2.28162522590268
 
 Bond Distances (Angstroems)
 ---------------------------
C1-C2=1.4974         C1-H17=1.0864        C1-H18=1.0889        C1-H19=1.0893        C2-C1=1.4974         C2-C3=1.3878         
C2-C8=1.3954         C3-C2=1.3878         C3-C4=1.3839         C3-H20=1.0801        C4-C3=1.3839         C4-C5=1.3828         
C4-H21=1.0794        C5-C4=1.3828         C5-C6=1.3815         C5-H22=1.0782        C6-C5=1.3815         C6-F7=1.3520         
C6-C8=1.3874         F7-C6=1.3520         C8-C2=1.3954         C8-C6=1.3874         C8-C9=1.4817         C9-C8=1.4817         
C9-C10=1.3983        C9-C15=1.3861        C10-C9=1.3983        C10-O11=1.3576       C10-C12=1.3895       O11-C10=1.3576       
O11-H23=0.9648       C12-C10=1.3895       C12-C13=1.3833       C12-H24=1.0816       C13-C12=1.3833       C13-C14=1.3824       
C13-H25=1.0788       C14-C13=1.3824       C14-C15=1.3828       C14-H26=1.0776       C15-C9=1.3861        C15-C14=1.3828       
C15-F16=1.3497       F16-C15=1.3497       H17-C1=1.0864        H18-C1=1.0889        H19-C1=1.0893        H20-C3=1.0801        
H21-C4=1.0794        H22-C5=1.0782        H23-O11=0.9648       H24-C12=1.0816       H25-C13=1.0788       H26-C14=1.0776       
 C  H  Rav=1.0823 sigma=0.0044  Rmin=1.0776  Rmax=1.0893     9
 C  C  Rav=1.4014 sigma=0.0364  Rmin=1.3815  Rmax=1.4974    14
 O  H  Rav=0.9648 sigma=0.0000  Rmin=0.9648  Rmax=0.9648     1
 O  C  Rav=1.3576 sigma=0.0000  Rmin=1.3576  Rmax=1.3576     1
 F  C  Rav=1.3508 sigma=0.0012  Rmin=1.3497  Rmax=1.3520     2
 
 selected bond angles (degree)
 --------------------
H17-C1-C2=110.85               H18-C1-C2=110.27               H18-C1-H17=108.86              H19-C1-C2=110.33               
H19-C1-H17=108.69              H19-C1-H18=107.76              C3-C2-C1=121.36                C8-C2-C1=119.63                
C8-C2-C3=119.01                C4-C3-C2=121.21                H20-C3-C2=119.18               H20-C3-C4=119.61               
C5-C4-C3=120.23                H21-C4-C3=120.03               H21-C4-C5=119.74               C6-C5-C4=118.41                
H22-C5-C4=121.89               H22-C5-C6=119.70               F7-C6-C5=118.79                C8-C6-C5=122.33                
C8-C6-F7=118.88                C6-C8-C2=118.81                C9-C8-C2=121.49                C9-C8-C6=119.70                
C10-C9-C8=120.63               C15-C9-C8=121.52               C15-C9-C10=117.84              O11-C10-C9=117.66              
C12-C10-C9=120.08              C12-C10-O11=122.26             
 
 selected dihedral angles (degree)
 ---------------------------------
C3-C2-C1-H17=357.73           C3-C2-C1-H18=237.11           C3-C2-C1-H19=118.18           C8-C2-C1-H17=177.83           
C8-C2-C1-H18= 57.20           C8-C2-C1-H19=298.28           C4-C3-C2-C1=180.13            C4-C3-C2-C8=  0.03            
H20-C3-C2-C1=  0.06           H20-C3-C2-C8=179.97           C5-C4-C3-C2=359.86            C5-C4-C3-H20=179.92           
H21-C4-C3-C2=179.88           H21-C4-C3-H20=359.95          C6-C5-C4-C3=  0.07            C6-C5-C4-H21=180.05           
H22-C5-C4-C3=180.03           H22-C5-C4-H21=  0.00          F7-C6-C5-C4=180.16            F7-C6-C5-H22=  0.20           
C8-C6-C5-C4=  0.11            C8-C6-C5-H22=180.15           C6-C8-C2-C1=180.05            C6-C8-C2-C3=  0.14            
C9-C8-C2-C1=  0.06            C9-C8-C2-C3=180.16            C2-C8-C6-C5=359.79            C2-C8-C6-F7=179.74            
C9-C8-C6-C5=179.77            C9-C8-C6-F7=359.72            C10-C9-C8-C2=268.90           C10-C9-C8-C6= 88.91           
C15-C9-C8-C2= 90.24           C15-C9-C8-C6=270.26           O11-C10-C9-C8=  1.97          O11-C10-C9-C15=180.68         
C12-C10-C9-C8=181.42          C12-C10-C9-C15=  0.13         
           -------------------------------------------------
          |                Final Singlepoint                |
           -------------------------------------------------

          ...................................................
          :                      SETUP                      :
          :.................................................:
          :  # basis functions                  74          :
          :  # atomic orbitals                  74          :
          :  # shells                           42          :
          :  # electrons                        82          :
          :  max. iterations                   250          :
          :  Hamiltonian                  GFN2-xTB          :
          :  restarted?                      false          :
          :  GBSA solvation                  false          :
          :  PC potential                    false          :
          :  electronic temp.          298.1500000     K    :
          :  accuracy                    1.0000000          :
          :  -> integral cutoff          0.2500000E+02      :
          :  -> integral neglect         0.1000000E-07      :
          :  -> SCF convergence          0.1000000E-05 Eh   :
          :  -> wf. convergence          0.1000000E-03 e    :
          :  Broyden damping             0.4000000          :
          ...................................................

 iter      E             dE          RMSdq      gap      omega  full diag
   1    -47.1213978 -0.471214E+02  0.598E-05    4.32       0.0  T
   2    -47.1213978 -0.248974E-10  0.393E-05    4.32     498.4  T
   3    -47.1213978 -0.315623E-10  0.208E-05    4.32     945.1  T

   *** convergence criteria satisfied after 3 iterations ***

         #    Occupation            Energy/Eh            Energy/eV
      -------------------------------------------------------------
         1        2.0000           -0.8138689             -22.1465
       ...           ...                  ...                  ...
        35        2.0000           -0.4513591             -12.2821
        36        2.0000           -0.4439316             -12.0800
        37        2.0000           -0.4257879             -11.5863
        38        2.0000           -0.4092723             -11.1369
        39        2.0000           -0.4020942             -10.9415
        40        2.0000           -0.3992905             -10.8652
        41        2.0000           -0.3974117             -10.8141 (HOMO)
        42                         -0.2385009              -6.4899 (LUMO)
        43                         -0.2307795              -6.2798
        44                         -0.2293892              -6.2420
        45                         -0.2246882              -6.1141
        46                         -0.1059266              -2.8824
       ...                                ...                  ...
        74                          0.6734816              18.3264
      -------------------------------------------------------------
                  HL-Gap            0.1589108 Eh            4.3242 eV
             Fermi-level           -0.3179563 Eh           -8.6520 eV

 SCC (total)                   0 d,  0 h,  0 min,  0.031 sec
 SCC setup                      ...        0 min,  0.000 sec (  0.563%)
 Dispersion                     ...        0 min,  0.000 sec (  0.573%)
 classical contributions        ...        0 min,  0.000 sec (  0.200%)
 integral evaluation            ...        0 min,  0.005 sec ( 16.523%)
 iterations                     ...        0 min,  0.011 sec ( 36.017%)
 molecular gradient             ...        0 min,  0.014 sec ( 45.392%)
 printout                       ...        0 min,  0.000 sec (  0.684%)

         :::::::::::::::::::::::::::::::::::::::::::::::::::::
         ::                     SUMMARY                     ::
         :::::::::::::::::::::::::::::::::::::::::::::::::::::
         :: total energy             -46.466514613107 Eh    ::
         :: gradient norm              0.000242576953 Eh/a0 ::
         :: HOMO-LUMO gap              4.324184101831 eV    ::
         ::.................................................::
         :: SCC energy               -47.121397822962 Eh    ::
         :: -> isotropic ES            0.045723151985 Eh    ::
         :: -> anisotropic ES          0.002504993088 Eh    ::
         :: -> anisotropic XC          0.007554943715 Eh    ::
         :: -> dispersion             -0.027411423543 Eh    ::
         :: repulsion energy           0.654630769878 Eh    ::
         :: add. restraining           0.000000000000 Eh    ::
         :: total charge               0.000000000000 e     ::
         :::::::::::::::::::::::::::::::::::::::::::::::::::::

           -------------------------------------------------
          |                Property Printout                |
           -------------------------------------------------

    * Orbital Energies and Occupations

         #    Occupation            Energy/Eh            Energy/eV
      -------------------------------------------------------------
         1        2.0000           -0.8138689             -22.1465
       ...           ...                  ...                  ...
        29        2.0000           -0.4801049             -13.0643
        30        2.0000           -0.4739688             -12.8973
        31        2.0000           -0.4668756             -12.7043
        32        2.0000           -0.4644281             -12.6377
        33        2.0000           -0.4589821             -12.4895
        34        2.0000           -0.4581668             -12.4674
        35        2.0000           -0.4513591             -12.2821
        36        2.0000           -0.4439316             -12.0800
        37        2.0000           -0.4257879             -11.5863
        38        2.0000           -0.4092723             -11.1369
        39        2.0000           -0.4020942             -10.9415
        40        2.0000           -0.3992905             -10.8652
        41        2.0000           -0.3974117             -10.8141 (HOMO)
        42                         -0.2385009              -6.4899 (LUMO)
        43                         -0.2307795              -6.2798
        44                         -0.2293892              -6.2420
        45                         -0.2246882              -6.1141
        46                         -0.1059266              -2.8824
        47                         -0.1003379              -2.7303
        48                          0.0336643               0.9161
        49                          0.0536681               1.4604
        50                          0.0755812               2.0567
        51                          0.0977326               2.6594
        52                          0.1212911               3.3005
       ...                                ...                  ...
        74                          0.6734816              18.3264
      -------------------------------------------------------------
                  HL-Gap            0.1589108 Eh            4.3242 eV
             Fermi-level           -0.3179563 Eh           -8.6520 eV

     #   Z          covCN         q      C6AA      α(0)
     1   6 C        3.758    -0.109    22.626     6.782
     2   6 C        2.972     0.022    27.504     8.602
     3   6 C        2.923    -0.045    29.108     8.848
     4   6 C        2.923    -0.031    28.782     8.798
     5   6 C        2.917    -0.053    29.323     8.880
     6   6 C        2.790     0.168    24.362     8.085
     7   9 F        0.787    -0.229    11.541     4.013
     8   6 C        2.980     0.005    27.907     8.665
     9   6 C        2.974    -0.012    28.309     8.728
    10   6 C        2.853     0.147    24.810     8.164
    11   8 O        1.660    -0.382    20.497     6.112
    12   6 C        2.917    -0.077    29.921     8.970
    13   6 C        2.924    -0.031    28.771     8.796
    14   6 C        2.916    -0.062    29.531     8.911
    15   6 C        2.791     0.167    24.400     8.092
    16   9 F        0.787    -0.223    11.471     4.001
    17   1 H        0.925     0.046     2.367     2.406
    18   1 H        0.925     0.051     2.302     2.373
    19   1 H        0.925     0.054     2.274     2.358
    20   1 H        0.926     0.042     2.423     2.434
    21   1 H        0.926     0.043     2.405     2.425
    22   1 H        0.926     0.056     2.247     2.344
    23   1 H        0.805     0.305     0.707     1.320
    24   1 H        0.925     0.038     2.477     2.461
    25   1 H        0.926     0.048     2.341     2.393
    26   1 H        0.926     0.060     2.196     2.317

 Mol. C6AA /au·bohr⁶  :       8741.046067
 Mol. C8AA /au·bohr⁸  :     214336.120965
 Mol. α(0) /au        :        147.277513


Wiberg/Mayer (AO) data.
largest (>0.10) Wiberg bond orders for each atom

 ---------------------------------------------------------------------------
     #   Z sym  total        # sym  WBO       # sym  WBO       # sym  WBO
 ---------------------------------------------------------------------------
     1   6 C    3.996 --     2 C    1.029    17 H    0.985    18 H    0.971
                            19 H    0.969
     2   6 C    3.988 --     3 C    1.415     8 C    1.373     1 C    1.029
                             5 C    0.106
     3   6 C    3.990 --     4 C    1.440     2 C    1.415    20 H    0.968
     4   6 C    3.991 --     3 C    1.440     5 C    1.438    21 H    0.970
                             8 C    0.108
     5   6 C    3.988 --     4 C    1.438     6 C    1.397    22 H    0.967
                             2 C    0.106
     6   6 C    3.885 --     5 C    1.397     8 C    1.373     7 F    0.955
     7   9 F    1.085 --     6 C    0.955
     8   6 C    3.988 --     6 C    1.373     2 C    1.373     9 C    1.006
                             4 C    0.108
     9   6 C    3.986 --    15 C    1.380    10 C    1.329     8 C    1.006
                            13 C    0.105
    10   6 C    3.941 --    12 C    1.375     9 C    1.329    11 O    1.082
    11   8 O    2.134 --    10 C    1.082    23 H    0.886
    12   6 C    3.985 --    13 C    1.443    10 C    1.375    24 H    0.965
    13   6 C    3.990 --    12 C    1.443    14 C    1.438    25 H    0.970
                             9 C    0.105
    14   6 C    3.987 --    13 C    1.438    15 C    1.389    26 H    0.966
    15   6 C    3.886 --    14 C    1.389     9 C    1.380    16 F    0.961
    16   9 F    1.092 --    15 C    0.961
    17   1 H    0.998 --     1 C    0.985
    18   1 H    0.997 --     1 C    0.971
    19   1 H    0.997 --     1 C    0.969
    20   1 H    0.997 --     3 C    0.968
    21   1 H    0.998 --     4 C    0.970
    22   1 H    0.995 --     5 C    0.967
    23   1 H    0.907 --    11 O    0.886
    24   1 H    0.998 --    12 C    0.965
    25   1 H    0.997 --    13 C    0.970
    26   1 H    0.995 --    14 C    0.966
 ---------------------------------------------------------------------------

Topologies differ in total number of bonds
Writing topology from bond orders to xtbtopo.mol

molecular dipole:
                 x           y           z       tot (Debye)
 q only:       -0.324       1.169       0.513
   full:       -0.550       1.222       0.654       3.790
molecular quadrupole (traceless):
                xx          xy          yy          xz          yz          zz
 q only:       10.169      -1.777      -6.969      -3.107       0.445      -3.200
  q+dip:       13.987      -3.220      -9.196      -3.780       0.517      -4.790
   full:       11.480      -2.847      -8.114      -4.279       0.739      -3.366

           -------------------------------------------------
          |                Geometry Summary                 |
           -------------------------------------------------

      molecular mass/u    :      220.2151854
   center of mass at/Å    :       -0.0572332      -0.3689284      -0.0075587
  moments of inertia/u·Å² :        0.5665939E+03   0.1211097E+04   0.1216212E+04
rotational constants/cm⁻¹ :        0.2975259E-01   0.1391930E-01   0.1386077E-01

 * 23 selected distances

     #   Z          #   Z                                           value/Å
     2   6 C        3   6 C                                       1.3877807
     3   6 C        4   6 C                                       1.3838971
     4   6 C        5   6 C                                       1.3827941
     5   6 C        6   6 C                                       1.3814778
     2   6 C        8   6 C                                       1.3953843
     6   6 C        8   6 C                                       1.3874305
     9   6 C       10   6 C                                       1.3983096 (max)
    10   6 C       11   8 O                                       1.3576112
    10   6 C       12   6 C                                       1.3894857
    12   6 C       13   6 C                                       1.3832511
    13   6 C       14   6 C                                       1.3824060
     9   6 C       15   6 C                                       1.3861449
    14   6 C       15   6 C                                       1.3828265
     1   6 C       17   1 H                                       1.0864349
     1   6 C       18   1 H                                       1.0889301
     1   6 C       19   1 H                                       1.0893259
     3   6 C       20   1 H                                       1.0800716
     4   6 C       21   1 H                                       1.0793741
     5   6 C       22   1 H                                       1.0782281
    11   8 O       23   1 H                                       0.9647623 (min)
    12   6 C       24   1 H                                       1.0815619
    13   6 C       25   1 H                                       1.0788153
    14   6 C       26   1 H                                       1.0775882

 * 4 distinct bonds (by element types)

   Z      Z             #   av. dist./Å        max./Å        min./Å
   1 H    6 C           9     1.0822589     1.0893259     1.0775882
   6 C    6 C          12     1.3867657     1.3983096     1.3814778
   1 H    8 O           1     0.9647623     0.9647623     0.9647623
   6 C    8 O           1     1.3576112     1.3576112     1.3576112


optimized geometry written to: xtbopt.xyz


           -------------------------------------------------
          | TOTAL ENERGY              -46.466514613107 Eh   |
          | GRADIENT NORM               0.000242576953 Eh/α |
          | HOMO-LUMO GAP               4.324184101831 eV   |
           -------------------------------------------------

------------------------------------------------------------------------
 * finished run on 2025/08/28 at 10:02:09.232     
------------------------------------------------------------------------
 total:
 * wall-time:     0 d,  0 h,  0 min,  1.107 sec
 *  cpu-time:     0 d,  0 h,  0 min,  2.162 sec
 * ratio c/w:     1.954 speedup
 SCF:
 * wall-time:     0 d,  0 h,  0 min,  0.110 sec
 *  cpu-time:     0 d,  0 h,  0 min,  0.207 sec
 * ratio c/w:     1.883 speedup
 ANC optimizer:
 * wall-time:     0 d,  0 h,  0 min,  0.965 sec
 *  cpu-time:     0 d,  0 h,  0 min,  1.924 sec
 * ratio c/w:     1.993 speedup

