 Entering Gaussian System, Link 0=/path/to/g16
 Initial command:
 /path/to/g16 "path/to/scratch/gaussian_tmp/Gau-2280005.inp" -scrdir="path/to/scratch/gaussian_tmp/"
 Entering Link 1 = /path/to/g16 PID=   2280007.
  
 Copyright (c) 1988-2021, Gaussian, Inc.  All Rights Reserved.
  
 This is part of the Gaussian(R) 16 program.  It is based on
 the Gaussian(R) 09 system (copyright 2009, Gaussian, Inc.),
 the Gaussian(R) 03 system (copyright 2003, Gaussian, Inc.),
 the Gaussian(R) 98 system (copyright 1998, Gaussian, Inc.),
 the Gaussian(R) 94 system (copyright 1995, Gaussian, Inc.),
 the Gaussian 92(TM) system (copyright 1992, Gaussian, Inc.),
 the Gaussian 90(TM) system (copyright 1990, Gaussian, Inc.),
 the Gaussian 88(TM) system (copyright 1988, Gaussian, Inc.),
 the Gaussian 86(TM) system (copyright 1986, Carnegie Mellon
 University), and the Gaussian 82(TM) system (copyright 1983,
 Carnegie Mellon University). Gaussian is a federally registered
 trademark of Gaussian, Inc.
  
 This software contains proprietary and confidential information,
 including trade secrets, belonging to Gaussian, Inc.
  
 This software is provided under written license and may be
 used, copied, transmitted, or stored only in accord with that
 written license.
  
 The following legend is applicable only to US Government
 contracts under FAR:
  
                    RESTRICTED RIGHTS LEGEND
  
 Use, reproduction and disclosure by the US Government is
 subject to restrictions as set forth in subparagraphs (a)
 and (c) of the Commercial Computer Software - Restricted
 Rights clause in FAR 52.227-19.
  
 Gaussian, Inc.
 340 Quinnipiac St., Bldg. 40, Wallingford CT 06492
  
  
 ---------------------------------------------------------------
 Warning -- This program may not be used in any manner that
 competes with the business of Gaussian, Inc. or will provide
 assistance to any competitor of Gaussian, Inc.  The licensee
 of this program is prohibited from giving any competitor of
 Gaussian, Inc. access to this program.  By using this program,
 the user acknowledges that Gaussian, Inc. is engaged in the
 business of creating and licensing software in the field of
 computational chemistry and represents and warrants to the
 licensee that it is not a competitor of Gaussian, Inc. and that
 it will not use this program in any manner prohibited above.
 ---------------------------------------------------------------
  

 Cite this work as:
 Gaussian 16, Revision C.02,
 M. J. Frisch, G. W. Trucks, H. B. Schlegel, G. E. Scuseria, 
 M. A. Robb, J. R. Cheeseman, G. Scalmani, V. Barone, 
 G. A. Petersson, H. Nakatsuji, X. Li, M. Caricato, A. V. Marenich, 
 J. Bloino, B. G. Janesko, R. Gomperts, B. Mennucci, H. P. Hratchian, 
 J. V. Ortiz, A. F. Izmaylov, J. L. Sonnenberg, D. Williams-Young, 
 F. Ding, F. Lipparini, F. Egidi, J. Goings, B. Peng, A. Petrone, 
 T. Henderson, D. Ranasinghe, V. G. Zakrzewski, J. Gao, N. Rega, 
 G. Zheng, W. Liang, M. Hada, M. Ehara, K. Toyota, R. Fukuda, 
 J. Hasegawa, M. Ishida, T. Nakajima, Y. Honda, O. Kitao, H. Nakai, 
 T. Vreven, K. Throssell, J. A. Montgomery, Jr., J. E. Peralta, 
 F. Ogliaro, M. J. Bearpark, J. J. Heyd, E. N. Brothers, K. N. Kudin, 
 V. N. Staroverov, T. A. Keith, R. Kobayashi, J. Normand, 
 K. Raghavachari, A. P. Rendell, J. C. Burant, S. S. Iyengar, 
 J. Tomasi, M. Cossi, J. M. Millam, M. Klene, C. Adamo, R. Cammi, 
 J. W. Ochterski, R. L. Martin, K. Morokuma, O. Farkas, 
 J. B. Foresman, and D. J. Fox, Gaussian, Inc., Wallingford CT, 2019.
 
 ******************************************
 Gaussian 16:  ES64L-G16RevC.02  7-Dec-2021
                23-Jul-2026 
 ******************************************
 %mem=12000MB
 %nprocshared=8
 Will use up to    8 processors via shared memory.
 ----------------------------------------------------------------------
 # opt=(ts,noeigen,recalcfc=15) bp86 empiricaldispersion=GD3BJ def2svp 
 freq IOP(1/8=2) nosymm
 ----------------------------------------------------------------------
 1/5=1,8=2,10=4,11=1,18=20,26=3,38=1,71=15/1,3;
 2/9=110,12=2,15=1,17=6,18=5,40=1/2;
 3/5=43,7=101,11=2,25=1,30=1,71=2,74=404,124=41,140=1/1,2,3;
 4//1;
 5/5=2,38=5/2;
 8/6=4,10=90,11=11/1;
 11/6=1,8=1,9=11,15=111,16=1,31=1/1,2,10;
 10/6=1,13=1,31=1/2;
 6/7=2,8=2,9=2,10=2,28=1/1;
 7/10=1,25=1,30=1/1,2,3,16;
 1/5=1,8=2,10=4,11=1,18=20,26=3,71=15/3(3);
 2/9=110,15=1/2;
 7/9=1,25=1,30=1,44=-1/16;
 99//99;
 2/9=110,15=1/2;
 3/5=43,7=101,11=2,25=1,30=1,71=2,74=404,124=41,140=1/1,2,3;
 4/5=5,16=3,69=1/1;
 5/5=2,38=5/2;
 8/6=4,10=90,11=11/1;
 11/6=1,8=1,9=11,15=111,16=1,31=1/1,2,10;
 10/6=1,13=1,31=1/2;
 7/10=1,25=1,30=1/1,2,3,16;
 1/5=1,8=2,11=1,18=20,26=3,71=15/3(-8);
 2/9=110,15=1/2;
 6/7=2,8=2,9=2,10=2,19=2,28=1/1;
 7/9=1,25=1,30=1,44=-1/16;
 99/9=1/99;
 -------
 example
 -------
 Symbolic Z-matrix:
 Charge =  0 Multiplicity = 1
 C                    -1.03363   2.45711  -1.29593 
 C                    -1.48977   1.18866  -0.59153 
 C                    -2.86617   1.19584  -0.27223 
 C                    -3.59242   0.04269   0.0407 
 C                    -2.94103  -1.18394  -0.12011 
 C                    -1.57833  -1.1761   -0.40633 
 F                    -1.09519  -2.41455  -0.79181 
 C                    -0.71618  -0.03426  -0.42111 
 C                     0.77728  -0.1374   -0.2898 
 C                     1.53393  -1.35226  -0.00498 
 O                     1.03239  -2.52241   0.44562 
 C                     2.94897  -1.37588  -0.07491 
 C                     3.70038  -0.21835  -0.25041 
 C                     3.02663   1.00855  -0.29467 
 C                     1.63234   1.01609  -0.25308 
 F                     1.1006    2.24685  -0.09008 
 H                    -1.87173   2.7922   -1.94098 
 H                    -0.79293   3.28884  -0.60699 
 H                    -0.16051   2.29296  -1.95053 
 H                    -3.39632   2.15892  -0.34769 
 H                    -4.66144   0.08999   0.29549 
 H                    -3.46261  -2.15109  -0.08168 
 H                     0.1093   -2.658     0.14533 
 H                     3.42099  -2.35724   0.07515 
 H                     4.79906  -0.26077  -0.29518 
 H                     3.54622   1.97686  -0.30299 
 

 GradGradGradGradGradGradGradGradGradGradGradGradGradGradGradGradGradGrad
 Berny optimization.
 Initialization pass.
                           ----------------------------
                           !    Initial Parameters    !
                           ! (Angstroms and Degrees)  !
 --------------------------                            --------------------------
 ! Name  Definition              Value          Derivative Info.                !
 --------------------------------------------------------------------------------
 ! R1    R(1,2)                  1.5209         calculate D2E/DX2 analytically  !
 ! R2    R(1,17)                 1.1094         calculate D2E/DX2 analytically  !
 ! R3    R(1,18)                 1.1065         calculate D2E/DX2 analytically  !
 ! R4    R(1,19)                 1.1035         calculate D2E/DX2 analytically  !
 ! R5    R(2,3)                  1.413          calculate D2E/DX2 analytically  !
 ! R6    R(2,8)                  1.4571         calculate D2E/DX2 analytically  !
 ! R7    R(3,4)                  1.3983         calculate D2E/DX2 analytically  !
 ! R8    R(3,20)                 1.1019         calculate D2E/DX2 analytically  !
 ! R9    R(4,5)                  1.3981         calculate D2E/DX2 analytically  !
 ! R10   R(4,21)                 1.1            calculate D2E/DX2 analytically  !
 ! R11   R(5,6)                  1.3925         calculate D2E/DX2 analytically  !
 ! R12   R(5,22)                 1.0995         calculate D2E/DX2 analytically  !
 ! R13   R(6,7)                  1.3841         calculate D2E/DX2 analytically  !
 ! R14   R(6,8)                  1.4308         calculate D2E/DX2 analytically  !
 ! R15   R(8,9)                  1.5028         calculate D2E/DX2 analytically  !
 ! R16   R(9,10)                 1.4593         calculate D2E/DX2 analytically  !
 ! R17   R(9,15)                 1.4363         calculate D2E/DX2 analytically  !
 ! R18   R(10,11)                1.3505         calculate D2E/DX2 analytically  !
 ! R19   R(10,12)                1.417          calculate D2E/DX2 analytically  !
 ! R20   R(11,23)                0.9801         calculate D2E/DX2 analytically  !
 ! R21   R(12,13)                1.3911         calculate D2E/DX2 analytically  !
 ! R22   R(12,24)                1.0993         calculate D2E/DX2 analytically  !
 ! R23   R(13,14)                1.4004         calculate D2E/DX2 analytically  !
 ! R24   R(13,25)                1.1004         calculate D2E/DX2 analytically  !
 ! R25   R(14,15)                1.3949         calculate D2E/DX2 analytically  !
 ! R26   R(14,26)                1.0989         calculate D2E/DX2 analytically  !
 ! R27   R(15,16)                1.3506         calculate D2E/DX2 analytically  !
 ! A1    A(2,1,17)             107.135          calculate D2E/DX2 analytically  !
 ! A2    A(2,1,18)             113.814          calculate D2E/DX2 analytically  !
 ! A3    A(2,1,19)             112.8276         calculate D2E/DX2 analytically  !
 ! A4    A(17,1,18)            107.4163         calculate D2E/DX2 analytically  !
 ! A5    A(17,1,19)            107.3219         calculate D2E/DX2 analytically  !
 ! A6    A(18,1,19)            108.0015         calculate D2E/DX2 analytically  !
 ! A7    A(1,2,3)              113.1145         calculate D2E/DX2 analytically  !
 ! A8    A(1,2,8)              126.5072         calculate D2E/DX2 analytically  !
 ! A9    A(3,2,8)              119.671          calculate D2E/DX2 analytically  !
 ! A10   A(2,3,4)              123.5274         calculate D2E/DX2 analytically  !
 ! A11   A(2,3,20)             117.2337         calculate D2E/DX2 analytically  !
 ! A12   A(4,3,20)             119.0926         calculate D2E/DX2 analytically  !
 ! A13   A(3,4,5)              117.1171         calculate D2E/DX2 analytically  !
 ! A14   A(3,4,21)             121.4097         calculate D2E/DX2 analytically  !
 ! A15   A(5,4,21)             121.1416         calculate D2E/DX2 analytically  !
 ! A16   A(4,5,6)              118.3365         calculate D2E/DX2 analytically  !
 ! A17   A(4,5,22)             123.1405         calculate D2E/DX2 analytically  !
 ! A18   A(6,5,22)             118.4487         calculate D2E/DX2 analytically  !
 ! A19   A(5,6,7)              113.1917         calculate D2E/DX2 analytically  !
 ! A20   A(5,6,8)              126.6043         calculate D2E/DX2 analytically  !
 ! A21   A(7,6,8)              120.0551         calculate D2E/DX2 analytically  !
 ! A22   A(2,8,6)              110.5536         calculate D2E/DX2 analytically  !
 ! A23   A(2,8,9)              126.5456         calculate D2E/DX2 analytically  !
 ! A24   A(6,8,9)              122.8978         calculate D2E/DX2 analytically  !
 ! A25   A(8,9,10)             126.1205         calculate D2E/DX2 analytically  !
 ! A26   A(8,9,15)             122.5979         calculate D2E/DX2 analytically  !
 ! A27   A(10,9,15)            110.788          calculate D2E/DX2 analytically  !
 ! A28   A(9,10,11)            126.4337         calculate D2E/DX2 analytically  !
 ! A29   A(9,10,12)            121.4697         calculate D2E/DX2 analytically  !
 ! A30   A(11,10,12)           111.894          calculate D2E/DX2 analytically  !
 ! A31   A(10,11,23)           111.5556         calculate D2E/DX2 analytically  !
 ! A32   A(10,12,13)           122.1244         calculate D2E/DX2 analytically  !
 ! A33   A(10,12,24)           115.9098         calculate D2E/DX2 analytically  !
 ! A34   A(13,12,24)           121.8779         calculate D2E/DX2 analytically  !
 ! A35   A(12,13,14)           118.2352         calculate D2E/DX2 analytically  !
 ! A36   A(12,13,25)           120.8205         calculate D2E/DX2 analytically  !
 ! A37   A(14,13,25)           120.8526         calculate D2E/DX2 analytically  !
 ! A38   A(13,14,15)           118.9914         calculate D2E/DX2 analytically  !
 ! A39   A(13,14,26)           123.0056         calculate D2E/DX2 analytically  !
 ! A40   A(15,14,26)           117.9081         calculate D2E/DX2 analytically  !
 ! A41   A(9,15,14)            126.1522         calculate D2E/DX2 analytically  !
 ! A42   A(9,15,16)            120.0362         calculate D2E/DX2 analytically  !
 ! A43   A(14,15,16)           113.7064         calculate D2E/DX2 analytically  !
 ! D1    D(17,1,2,3)           -34.801          calculate D2E/DX2 analytically  !
 ! D2    D(17,1,2,8)           135.444          calculate D2E/DX2 analytically  !
 ! D3    D(18,1,2,3)            83.7822         calculate D2E/DX2 analytically  !
 ! D4    D(18,1,2,8)          -105.9728         calculate D2E/DX2 analytically  !
 ! D5    D(19,1,2,3)          -152.694          calculate D2E/DX2 analytically  !
 ! D6    D(19,1,2,8)            17.551          calculate D2E/DX2 analytically  !
 ! D7    D(1,2,3,4)            162.2981         calculate D2E/DX2 analytically  !
 ! D8    D(1,2,3,20)           -13.2562         calculate D2E/DX2 analytically  !
 ! D9    D(8,2,3,4)             -8.6842         calculate D2E/DX2 analytically  !
 ! D10   D(8,2,3,20)           175.7616         calculate D2E/DX2 analytically  !
 ! D11   D(1,2,8,6)           -148.5674         calculate D2E/DX2 analytically  !
 ! D12   D(1,2,8,9)             30.8115         calculate D2E/DX2 analytically  !
 ! D13   D(3,2,8,6)             21.1007         calculate D2E/DX2 analytically  !
 ! D14   D(3,2,8,9)           -159.5203         calculate D2E/DX2 analytically  !
 ! D15   D(2,3,4,5)             -7.2495         calculate D2E/DX2 analytically  !
 ! D16   D(2,3,4,21)           179.2918         calculate D2E/DX2 analytically  !
 ! D17   D(20,3,4,5)           168.2267         calculate D2E/DX2 analytically  !
 ! D18   D(20,3,4,21)           -5.232          calculate D2E/DX2 analytically  !
 ! D19   D(3,4,5,6)              8.2622         calculate D2E/DX2 analytically  !
 ! D20   D(3,4,5,22)          -168.5497         calculate D2E/DX2 analytically  !
 ! D21   D(21,4,5,6)          -178.2605         calculate D2E/DX2 analytically  !
 ! D22   D(21,4,5,22)            4.9277         calculate D2E/DX2 analytically  !
 ! D23   D(4,5,6,7)           -168.4743         calculate D2E/DX2 analytically  !
 ! D24   D(4,5,6,8)              7.0528         calculate D2E/DX2 analytically  !
 ! D25   D(22,5,6,7)             8.4897         calculate D2E/DX2 analytically  !
 ! D26   D(22,5,6,8)          -175.9832         calculate D2E/DX2 analytically  !
 ! D27   D(5,6,8,2)            -21.3351         calculate D2E/DX2 analytically  !
 ! D28   D(5,6,8,9)            159.2591         calculate D2E/DX2 analytically  !
 ! D29   D(7,6,8,2)            153.9141         calculate D2E/DX2 analytically  !
 ! D30   D(7,6,8,9)            -25.4917         calculate D2E/DX2 analytically  !
 ! D31   D(2,8,9,10)           174.3692         calculate D2E/DX2 analytically  !
 ! D32   D(2,8,9,15)             3.186          calculate D2E/DX2 analytically  !
 ! D33   D(6,8,9,10)            -6.3234         calculate D2E/DX2 analytically  !
 ! D34   D(6,8,9,15)          -177.5065         calculate D2E/DX2 analytically  !
 ! D35   D(8,9,10,11)          -14.0163         calculate D2E/DX2 analytically  !
 ! D36   D(8,9,10,12)          171.5861         calculate D2E/DX2 analytically  !
 ! D37   D(15,9,10,11)         158.0445         calculate D2E/DX2 analytically  !
 ! D38   D(15,9,10,12)         -16.3531         calculate D2E/DX2 analytically  !
 ! D39   D(8,9,15,14)         -171.7977         calculate D2E/DX2 analytically  !
 ! D40   D(8,9,15,16)           12.1748         calculate D2E/DX2 analytically  !
 ! D41   D(10,9,15,14)          15.8126         calculate D2E/DX2 analytically  !
 ! D42   D(10,9,15,16)        -160.2149         calculate D2E/DX2 analytically  !
 ! D43   D(9,10,11,23)          29.5173         calculate D2E/DX2 analytically  !
 ! D44   D(12,10,11,23)       -155.6313         calculate D2E/DX2 analytically  !
 ! D45   D(9,10,12,13)           8.2481         calculate D2E/DX2 analytically  !
 ! D46   D(9,10,12,24)        -175.1021         calculate D2E/DX2 analytically  !
 ! D47   D(11,10,12,13)       -166.896          calculate D2E/DX2 analytically  !
 ! D48   D(11,10,12,24)          9.7537         calculate D2E/DX2 analytically  !
 ! D49   D(10,12,13,14)          3.0506         calculate D2E/DX2 analytically  !
 ! D50   D(10,12,13,25)        179.5989         calculate D2E/DX2 analytically  !
 ! D51   D(24,12,13,14)       -173.4004         calculate D2E/DX2 analytically  !
 ! D52   D(24,12,13,25)          3.1478         calculate D2E/DX2 analytically  !
 ! D53   D(12,13,14,15)         -4.2953         calculate D2E/DX2 analytically  !
 ! D54   D(12,13,14,26)        172.0855         calculate D2E/DX2 analytically  !
 ! D55   D(25,13,14,15)        179.1575         calculate D2E/DX2 analytically  !
 ! D56   D(25,13,14,26)         -4.4616         calculate D2E/DX2 analytically  !
 ! D57   D(13,14,15,9)          -6.0853         calculate D2E/DX2 analytically  !
 ! D58   D(13,14,15,16)        170.159          calculate D2E/DX2 analytically  !
 ! D59   D(26,14,15,9)         177.349          calculate D2E/DX2 analytically  !
 ! D60   D(26,14,15,16)         -6.4067         calculate D2E/DX2 analytically  !
 --------------------------------------------------------------------------------
 Trust Radius=2.00D-02 FncErr=1.00D-07 GrdErr=1.00D-06 EigMax=2.50D+02 EigMin=1.00D-04
 Number of steps in this run=    140 maximum allowed number of steps=    156.
 Search for a saddle point of order  1.
 GradGradGradGradGradGradGradGradGradGradGradGradGradGradGradGradGradGrad

                          Input orientation:                          
 ---------------------------------------------------------------------
 Center     Atomic      Atomic             Coordinates (Angstroms)
 Number     Number       Type             X           Y           Z
 ---------------------------------------------------------------------
      1          6           0       -1.033625    2.457110   -1.295929
      2          6           0       -1.489768    1.188657   -0.591531
      3          6           0       -2.866172    1.195840   -0.272228
      4          6           0       -3.592423    0.042688    0.040700
      5          6           0       -2.941029   -1.183935   -0.120105
      6          6           0       -1.578329   -1.176096   -0.406326
      7          9           0       -1.095189   -2.414554   -0.791814
      8          6           0       -0.716181   -0.034259   -0.421106
      9          6           0        0.777284   -0.137399   -0.289803
     10          6           0        1.533931   -1.352255   -0.004984
     11          8           0        1.032392   -2.522408    0.445620
     12          6           0        2.948969   -1.375875   -0.074906
     13          6           0        3.700377   -0.218352   -0.250405
     14          6           0        3.026626    1.008547   -0.294670
     15          6           0        1.632335    1.016088   -0.253076
     16          9           0        1.100599    2.246852   -0.090076
     17          1           0       -1.871727    2.792204   -1.940981
     18          1           0       -0.792930    3.288837   -0.606985
     19          1           0       -0.160513    2.292958   -1.950528
     20          1           0       -3.396322    2.158919   -0.347693
     21          1           0       -4.661441    0.089987    0.295486
     22          1           0       -3.462605   -2.151092   -0.081680
     23          1           0        0.109302   -2.658004    0.145326
     24          1           0        3.420988   -2.357240    0.075154
     25          1           0        4.799062   -0.260766   -0.295177
     26          1           0        3.546217    1.976862   -0.302986
 ---------------------------------------------------------------------
                    Distance matrix (angstroms):
                    1          2          3          4          5
     1  C    0.000000
     2  C    1.520926   0.000000
     3  C    2.448876   1.412973   0.000000
     4  C    3.763437   2.476715   1.398257   0.000000
     5  C    4.275273   2.820921   2.385807   1.398133   0.000000
     6  C    3.779984   2.373647   2.702333   2.396214   1.392457
     7  F    4.898064   3.630280   4.054787   3.601013   2.317917
     8  C    2.659512   1.457054   2.481485   2.914096   2.522361
     9  C    3.320114   2.643670   3.879769   4.385887   3.866508
    10  C    4.771807   3.992872   5.091671   5.312952   4.479604
    11  O    5.665423   4.605320   5.435023   5.304017   4.230795
    12  C    5.660718   5.152292   6.361487   6.694438   5.893298
    13  C    5.537327   5.388288   6.717141   7.303274   6.712496
    14  C    4.425663   4.529722   5.895816   6.697549   6.360059
    15  C    3.204907   3.145133   4.502138   5.322773   5.076755
    16  F    2.460326   2.842751   4.107685   5.186511   5.301505
    17  H    1.109412   2.130322   2.514366   3.801012   4.502075
    18  H    1.106502   2.212821   2.964967   4.335221   4.985687
    19  H    1.103526   2.198470   3.367633   4.561437   4.813575
    20  H    2.563280   2.153094   1.101942   2.160495   3.381384
    21  H    4.614859   3.471798   2.183621   1.099978   2.180690
    22  H    5.348820   3.912283   3.404996   2.201023   1.099505
    23  H    5.435797   4.230459   4.886708   4.583389   3.398213
    24  H    6.700852   6.093716   7.230037   7.412744   6.472251
    25  H    6.512188   6.460498   7.802438   8.403685   7.796916
    26  H    4.710788   5.105455   6.459851   7.404008   7.218618
                    6          7          8          9         10
     6  C    0.000000
     7  F    1.384126   0.000000
     8  C    1.430842   2.438622   0.000000
     9  C    2.577088   2.990586   1.502769   0.000000
    10  C    3.142971   2.942763   2.640696   1.459285   0.000000
    11  O    3.058469   2.463631   3.162216   2.508823   1.350497
    12  C    4.543807   4.236511   3.918305   2.509227   1.416961
    13  C    5.367152   5.302252   4.423688   2.924479   2.457530
    14  C    5.098112   5.380904   3.887420   2.524432   2.808103
    15  C    3.890697   4.415759   2.578176   1.436312   2.383334
    16  F    4.358124   5.200253   2.934917   2.414348   3.626098
    17  H    4.264816   5.388314   3.410894   4.280914   5.702906
    18  H    4.537923   5.714385   3.329175   3.782231   5.226511
    19  H    4.053282   4.937297   2.839690   3.089354   4.465855
    20  H    3.798797   5.138980   3.463896   4.763970   6.062441
    21  H    3.406037   4.491447   4.011735   5.474851   6.368122
    22  H    2.146278   2.485631   3.484112   4.698397   5.060573
    23  H    2.312676   1.545412   2.808257   2.643669   1.938335
    24  H    5.159467   4.598997   4.770606   3.471319   2.139486
    25  H    6.443702   6.295049   5.521329   4.023673   3.454944
    26  H    6.017707   6.408287   4.714509   3.483858   3.901425
                   11         12         13         14         15
    11  O    0.000000
    12  C    2.293197   0.000000
    13  C    3.593225   1.391141   0.000000
    14  C    4.122213   2.395787   1.400422   0.000000
    15  C    3.656373   2.736194   2.408453   1.394932   0.000000
    16  F    4.799736   4.067045   3.586333   2.298878   1.350590
    17  H    6.509598   6.640349   6.555138   5.466775   4.275753
    18  H    6.181452   6.003703   5.711159   4.459403   3.342536
    19  H    5.509292   5.162090   4.909538   3.814372   2.779576
    20  H    6.492894   7.268556   7.484919   6.525368   5.157752
    21  H    6.266329   7.759142   8.385289   7.765205   6.385155
    22  H    4.541026   6.458273   7.421069   7.220720   6.001568
    23  H    0.980132   3.123470   4.359395   4.706163   3.997162
    24  H    2.422791   1.099271   2.181488   3.408931   3.832278
    25  H    4.455514   2.171366   1.100415   2.180065   3.414716
    26  H    5.207990   3.413147   2.201248   1.098944   2.142084
                   16         17         18         19         20
    16  F    0.000000
    17  H    3.543724   0.000000
    18  H    2.222247   1.786055   0.000000
    19  H    2.248068   1.782580   1.787969   0.000000
    20  H    4.505152   2.294342   2.849842   3.613517   0.000000
    21  H    6.164562   4.481770   5.100242   5.491449   2.508921
    22  H    6.337572   5.515802   6.082429   5.843457   4.318721
    23  H    5.009560   6.162947   6.061758   5.383069   5.977894
    24  H    5.158408   7.654698   7.078178   6.209257   8.188419
    25  H    4.473125   7.518559   6.630783   5.818855   8.545288
    26  H    2.469671   5.718560   4.543335   4.068680   6.945070
                   21         22         23         24         25
    21  H    0.000000
    22  H    2.569416   0.000000
    23  H    5.507630   3.614832   0.000000
    24  H    8.447670   6.888465   3.326056   0.000000
    25  H    9.485411   8.477857   5.285323   2.536028   0.000000
    26  H    8.442992   8.137110   5.787517   4.352369   2.564500
                   26
    26  H    0.000000
 Symmetry turned off by external request.
 Stoichiometry    C13H10F2O
 Framework group  C1[X(C13H10F2O)]
 Deg. of freedom    72
 Full point group                 C1      NOp   1
 Rotational constants (GHZ):           0.8401167           0.4715376           0.3134130
 Standard basis: def2SVP (5D, 7F)
   274 basis functions,   470 primitive gaussians,   290 cartesian basis functions
    57 alpha electrons       57 beta electrons
       nuclear repulsion energy      1070.0565858383 Hartrees.
 NAtoms=   26 NActive=   26 NUniq=   26 SFac= 1.00D+00 NAtFMM=   60 NAOKFM=F Big=F
 Integral buffers will be    131072 words long.
 Raffenetti 2 integral format.
 Two-electron integral symmetry is turned off.
 Nuclear repulsion after empirical dispersion term =     1070.0049425097 Hartrees.
 One-electron integrals computed using PRISM.
   1 Symmetry operations used in ECPInt.
 ECPInt:  NShTT=    8001 NPrTT=   29641 LenC2=    7591 LenP2D=   20293.
 LDataN:  DoStor=T MaxTD1= 4 Len=   56
 NBasis=   274 RedAO= T EigKep=  3.22D-04  NBF=   274
 NBsUse=   274 1.00D-06 EigRej= -1.00D+00 NBFU=   274
 ExpMin= 1.22D-01 ExpMax= 2.89D+03 ExpMxC= 4.35D+02 IAcc=3 IRadAn=         5 AccDes= 0.00D+00
 Harris functional with IExCor=  404 and IRadAn=       5 diagonalized for initial guess.
 HarFok:  IExCor=  404 AccDes= 0.00D+00 IRadAn=         5 IDoV= 1 UseB2=F ITyADJ=14
 ICtDFT=  3500011 ScaDFX=  1.000000  1.000000  1.000000  1.000000
 FoFCou: FMM=F IPFlag=           0 FMFlag=      100000 FMFlg1=           0
         NFxFlg=           0 DoJE=T BraDBF=F KetDBF=T FulRan=T
         wScrn=  0.000000 ICntrl=       500 IOpCl=  0 I1Cent=   200000004 NGrid=           0
         NMat0=    1 NMatS0=      1 NMatT0=    0 NMatD0=    1 NMtDS0=    0 NMtDT0=    0
 Symmetry not used in FoFCou.
 Requested convergence on RMS density matrix=1.00D-08 within 128 cycles.
 Requested convergence on MAX density matrix=1.00D-06.
 Requested convergence on             energy=1.00D-06.
 No special actions if energy rises.
 Integral accuracy reduced to 1.0D-05 until final iterations.
 Initial convergence to 1.0D-05 achieved.  Increase integral accuracy.
 SCF Done:  E(RB-P86) =  -775.751513570     A.U. after   16 cycles
            NFock= 16  Conv=0.45D-08     -V/T= 2.0104
 DoSCS=F DFT=T ScalE2(SS,OS)=  1.000000  1.000000
 Range of M.O.s used for correlation:     1   274
 NBasis=   274 NAE=    57 NBE=    57 NFC=     0 NFV=     0
 NROrb=    274 NOA=    57 NOB=    57 NVA=   217 NVB=   217
   1 Symmetry operations used in ECPInt.
 ECPInt:  NShTT=    8001 NPrTT=   29641 LenC2=    7591 LenP2D=   20293.
 LDataN:  DoStor=T MaxTD1= 5 Len=  102
 Symmetrizing basis deriv contribution to polar:
 IMax=3 JMax=2 DiffMx= 0.00D+00
 G2DrvN: will do    27 centers at a time, making    1 passes.
 Calling FoFCou, ICntrl=  3507 FMM=F I1Cent=   0 AccDes= 0.00D+00.
 End of G2Drv F.D. properties file   721 does not exist.
 End of G2Drv F.D. properties file   722 does not exist.
 End of G2Drv F.D. properties file   788 does not exist.
          IDoAtm=11111111111111111111111111
          Differentiating once with respect to nuclear coordinates.
 Keep J ints in memory in canonical form, NReq=722055376.
          There are    81 degrees of freedom in the 1st order CPHF.  IDoFFX=6 NUNeed=     0.
     75 vectors produced by pass  0 Test12= 1.53D-14 1.23D-09 XBig12= 2.12D-01 2.33D-01.
 AX will form    75 AO Fock derivatives at one time.
     75 vectors produced by pass  1 Test12= 1.53D-14 1.23D-09 XBig12= 7.04D-02 5.94D-02.
     75 vectors produced by pass  2 Test12= 1.53D-14 1.23D-09 XBig12= 3.33D-04 1.46D-03.
     75 vectors produced by pass  3 Test12= 1.53D-14 1.23D-09 XBig12= 5.08D-07 5.10D-05.
     75 vectors produced by pass  4 Test12= 1.53D-14 1.23D-09 XBig12= 4.32D-10 1.83D-06.
     32 vectors produced by pass  5 Test12= 1.53D-14 1.23D-09 XBig12= 8.01D-14 2.68D-08.
 InvSVY:  IOpt=1 It=  1 EMax= 3.33D-16
 Solved reduced A of dimension   407 with    81 vectors.
 End of Minotr F.D. properties file   721 does not exist.
 End of Minotr F.D. properties file   722 does not exist.
 End of Minotr F.D. properties file   788 does not exist.

 **********************************************************************

            Population analysis using the SCF Density.

 **********************************************************************

 Alpha  occ. eigenvalues --  -24.33367 -24.30352 -18.80181 -10.01182 -10.00329
 Alpha  occ. eigenvalues --   -9.98938  -9.96201  -9.95107  -9.94760  -9.93308
 Alpha  occ. eigenvalues --   -9.93228  -9.92721  -9.92460  -9.91807  -9.91664
 Alpha  occ. eigenvalues --   -9.91208  -1.13506  -1.11340  -0.96171  -0.79532
 Alpha  occ. eigenvalues --   -0.77247  -0.71581  -0.70128  -0.66813  -0.66210
 Alpha  occ. eigenvalues --   -0.62581  -0.58998  -0.56138  -0.54945  -0.53640
 Alpha  occ. eigenvalues --   -0.51852  -0.48540  -0.47862  -0.46206  -0.44157
 Alpha  occ. eigenvalues --   -0.43568  -0.42977  -0.42349  -0.41757  -0.40400
 Alpha  occ. eigenvalues --   -0.38658  -0.38313  -0.38101  -0.36578  -0.35930
 Alpha  occ. eigenvalues --   -0.34272  -0.33931  -0.33102  -0.32982  -0.31133
 Alpha  occ. eigenvalues --   -0.30603  -0.30258  -0.28803  -0.26733  -0.22433
 Alpha  occ. eigenvalues --   -0.20876  -0.19635
 Alpha virt. eigenvalues --   -0.09130  -0.05008  -0.03032  -0.02571   0.02440
 Alpha virt. eigenvalues --    0.03855   0.04669   0.06478   0.07545   0.08182
 Alpha virt. eigenvalues --    0.09608   0.09972   0.11020   0.11192   0.12220
 Alpha virt. eigenvalues --    0.12703   0.13679   0.15687   0.17162   0.18944
 Alpha virt. eigenvalues --    0.19997   0.21927   0.23695   0.25072   0.25615
 Alpha virt. eigenvalues --    0.26503   0.27795   0.28570   0.29820   0.30645
 Alpha virt. eigenvalues --    0.32723   0.34893   0.35926   0.36660   0.37341
 Alpha virt. eigenvalues --    0.38761   0.39514   0.40439   0.41599   0.41645
 Alpha virt. eigenvalues --    0.42359   0.42976   0.43861   0.44366   0.45959
 Alpha virt. eigenvalues --    0.46740   0.47054   0.48732   0.49905   0.51175
 Alpha virt. eigenvalues --    0.51832   0.52341   0.53258   0.53789   0.55374
 Alpha virt. eigenvalues --    0.55774   0.56788   0.58424   0.59103   0.59820
 Alpha virt. eigenvalues --    0.60500   0.61052   0.61541   0.62045   0.62683
 Alpha virt. eigenvalues --    0.63678   0.64808   0.65058   0.65656   0.65913
 Alpha virt. eigenvalues --    0.67509   0.68401   0.70312   0.71261   0.71756
 Alpha virt. eigenvalues --    0.72728   0.73803   0.75025   0.76065   0.78046
 Alpha virt. eigenvalues --    0.80345   0.81455   0.82293   0.88466   0.92133
 Alpha virt. eigenvalues --    0.94625   0.95249   0.96721   0.97719   1.00764
 Alpha virt. eigenvalues --    1.04617   1.04931   1.07689   1.09061   1.10357
 Alpha virt. eigenvalues --    1.12106   1.13899   1.15612   1.17365   1.19716
 Alpha virt. eigenvalues --    1.20763   1.22250   1.23604   1.25024   1.27254
 Alpha virt. eigenvalues --    1.28219   1.30897   1.31712   1.34164   1.36193
 Alpha virt. eigenvalues --    1.37415   1.38286   1.41546   1.43724   1.47228
 Alpha virt. eigenvalues --    1.49110   1.52115   1.55286   1.56635   1.57255
 Alpha virt. eigenvalues --    1.58671   1.59180   1.61827   1.62027   1.62568
 Alpha virt. eigenvalues --    1.62790   1.64053   1.64460   1.65414   1.65726
 Alpha virt. eigenvalues --    1.66951   1.67397   1.70658   1.71904   1.72112
 Alpha virt. eigenvalues --    1.72603   1.73427   1.74706   1.75942   1.77785
 Alpha virt. eigenvalues --    1.78178   1.81229   1.82993   1.84321   1.85348
 Alpha virt. eigenvalues --    1.86111   1.87416   1.90448   1.90996   1.92635
 Alpha virt. eigenvalues --    1.93884   1.95410   1.96799   1.97217   1.98967
 Alpha virt. eigenvalues --    1.99720   2.01676   2.04490   2.05508   2.08928
 Alpha virt. eigenvalues --    2.09171   2.09811   2.13785   2.15101   2.17317
 Alpha virt. eigenvalues --    2.17773   2.18712   2.19770   2.20417   2.23429
 Alpha virt. eigenvalues --    2.23538   2.28362   2.30801   2.33473   2.35885
 Alpha virt. eigenvalues --    2.36457   2.37798   2.43628   2.45489   2.47070
 Alpha virt. eigenvalues --    2.48142   2.48544   2.52011   2.54722   2.55411
 Alpha virt. eigenvalues --    2.59612   2.61514   2.62771   2.65367   2.67671
 Alpha virt. eigenvalues --    2.69275   2.75712   2.77580   2.81083   2.81387
 Alpha virt. eigenvalues --    2.83964   2.86184   2.88479   2.90183   2.93071
 Alpha virt. eigenvalues --    2.93565   2.98218   3.00729   3.02960   3.06435
 Alpha virt. eigenvalues --    3.09730   3.12312   3.15826   3.20277   3.29661
 Alpha virt. eigenvalues --    3.32013   3.38487   3.43004   3.47941   3.67968
 Alpha virt. eigenvalues --    3.74592   3.79496
          Condensed to atoms (all electrons):
               1          2          3          4          5          6
     1  C    4.558967   0.434653  -0.071236   0.012762   0.000189   0.009272
     2  C    0.434653   5.209421   0.355927   0.058150  -0.118655   0.036736
     3  C   -0.071236   0.355927   5.086647   0.296237   0.082941  -0.133770
     4  C    0.012762   0.058150   0.296237   5.064711   0.243809   0.086932
     5  C    0.000189  -0.118655   0.082941   0.243809   5.181312   0.334877
     6  C    0.009272   0.036736  -0.133770   0.086932   0.334877   5.195680
     7  F   -0.000014   0.001745   0.000025   0.004890  -0.058616   0.299510
     8  C   -0.062901   0.304686   0.035744  -0.089149  -0.004467   0.202768
     9  C   -0.019091  -0.048405   0.014108   0.000050   0.010482  -0.064054
    10  C   -0.000274   0.008437   0.000201  -0.000216   0.001156  -0.026211
    11  O   -0.000002  -0.000007   0.000002   0.000001  -0.000711   0.006438
    12  C   -0.000007   0.000134  -0.000001   0.000000  -0.000025   0.001394
    13  C   -0.000009  -0.000114   0.000001  -0.000000   0.000001  -0.000253
    14  C   -0.000426   0.000690  -0.000023   0.000001  -0.000002   0.000110
    15  C   -0.002537  -0.023049   0.000279  -0.000086   0.000015   0.011061
    16  F    0.004806  -0.002324  -0.000506   0.000003  -0.000004   0.000292
    17  H    0.376554  -0.022454  -0.018142   0.001772  -0.000017  -0.000020
    18  H    0.360197  -0.002260  -0.000715  -0.000079  -0.000058  -0.000249
    19  H    0.372749  -0.003225   0.008474  -0.000827   0.000184  -0.000860
    20  H   -0.016665  -0.066572   0.425569  -0.066153   0.013663  -0.000502
    21  H   -0.000412   0.014441  -0.065484   0.432721  -0.070677   0.013686
    22  H    0.000016  -0.000862   0.012434  -0.064247   0.414217  -0.057320
    23  H   -0.000002   0.000431  -0.000071   0.000184  -0.001720  -0.015518
    24  H    0.000000   0.000001  -0.000000   0.000000   0.000000   0.000011
    25  H    0.000000  -0.000000  -0.000000   0.000000   0.000000   0.000001
    26  H   -0.000008   0.000025  -0.000000   0.000000  -0.000000   0.000002
               7          8          9         10         11         12
     1  C   -0.000014  -0.062901  -0.019091  -0.000274  -0.000002  -0.000007
     2  C    0.001745   0.304686  -0.048405   0.008437  -0.000007   0.000134
     3  C    0.000025   0.035744   0.014108   0.000201   0.000002  -0.000001
     4  C    0.004890  -0.089149   0.000050  -0.000216   0.000001   0.000000
     5  C   -0.058616  -0.004467   0.010482   0.001156  -0.000711  -0.000025
     6  C    0.299510   0.202768  -0.064054  -0.026211   0.006438   0.001394
     7  F    8.988946  -0.067618  -0.000299   0.001504  -0.026396  -0.000300
     8  C   -0.067618   5.460398   0.227113  -0.064058  -0.004704   0.008595
     9  C   -0.000299   0.227113   5.757096   0.132662  -0.074680   0.005241
    10  C    0.001504  -0.064058   0.132662   5.173885   0.459524   0.294529
    11  O   -0.026396  -0.004704  -0.074680   0.459524   7.552186  -0.089622
    12  C   -0.000300   0.008595   0.005241   0.294529  -0.089622   5.245226
    13  C   -0.000000   0.000247  -0.101437   0.110713   0.005609   0.223506
    14  C    0.000002   0.013314   0.002815  -0.138433   0.000163   0.106252
    15  C    0.000159  -0.054951   0.175807   0.088104   0.001254  -0.136153
    16  F   -0.000000  -0.000904  -0.073926   0.001672  -0.000001   0.000038
    17  H    0.000002   0.005888  -0.000700   0.000006   0.000000   0.000000
    18  H    0.000000   0.000005   0.003511   0.000028   0.000000  -0.000003
    19  H   -0.000004  -0.012168   0.005850   0.000174   0.000001  -0.000014
    20  H    0.000004   0.015044  -0.000252   0.000001   0.000000  -0.000000
    21  H   -0.000073  -0.001354   0.000015   0.000000  -0.000000   0.000000
    22  H    0.000829   0.017299  -0.000260   0.000052   0.000009  -0.000000
    23  H    0.051434   0.005549  -0.012582  -0.023202   0.337837   0.005138
    24  H    0.000015  -0.000192   0.019804  -0.055665   0.003465   0.414425
    25  H   -0.000000   0.000009  -0.001934   0.014484  -0.000109  -0.069412
    26  H   -0.000000  -0.000244   0.018844  -0.001247   0.000007   0.013293
              13         14         15         16         17         18
     1  C   -0.000009  -0.000426  -0.002537   0.004806   0.376554   0.360197
     2  C   -0.000114   0.000690  -0.023049  -0.002324  -0.022454  -0.002260
     3  C    0.000001  -0.000023   0.000279  -0.000506  -0.018142  -0.000715
     4  C   -0.000000   0.000001  -0.000086   0.000003   0.001772  -0.000079
     5  C    0.000001  -0.000002   0.000015  -0.000004  -0.000017  -0.000058
     6  C   -0.000253   0.000110   0.011061   0.000292  -0.000020  -0.000249
     7  F   -0.000000   0.000002   0.000159  -0.000000   0.000002   0.000000
     8  C    0.000247   0.013314  -0.054951  -0.000904   0.005888   0.000005
     9  C   -0.101437   0.002815   0.175807  -0.073926  -0.000700   0.003511
    10  C    0.110713  -0.138433   0.088104   0.001672   0.000006   0.000028
    11  O    0.005609   0.000163   0.001254  -0.000001   0.000000   0.000000
    12  C    0.223506   0.106252  -0.136153   0.000038   0.000000  -0.000003
    13  C    5.161367   0.170762   0.112033   0.005209  -0.000002   0.000002
    14  C    0.170762   5.280117   0.314683  -0.061103   0.000044  -0.000158
    15  C    0.112033   0.314683   5.059200   0.359477   0.000188  -0.002209
    16  F    0.005209  -0.061103   0.359477   8.928348   0.001748   0.003186
    17  H   -0.000002   0.000044   0.000188   0.001748   0.667458  -0.023241
    18  H    0.000002  -0.000158  -0.002209   0.003186  -0.023241   0.624033
    19  H    0.000095  -0.001449   0.003477  -0.003546  -0.028411  -0.017867
    20  H    0.000000   0.000000   0.000030  -0.000014   0.004124   0.002273
    21  H   -0.000000   0.000000   0.000000   0.000000  -0.000015   0.000013
    22  H    0.000000  -0.000000   0.000001  -0.000000  -0.000002  -0.000001
    23  H   -0.000014  -0.000153   0.000183   0.000001  -0.000001   0.000000
    24  H   -0.072474   0.014120  -0.001440   0.000004  -0.000000  -0.000000
    25  H    0.436021  -0.070528   0.014077  -0.000084   0.000000   0.000000
    26  H   -0.068886   0.415975  -0.059179   0.001703  -0.000002   0.000031
              19         20         21         22         23         24
     1  C    0.372749  -0.016665  -0.000412   0.000016  -0.000002   0.000000
     2  C   -0.003225  -0.066572   0.014441  -0.000862   0.000431   0.000001
     3  C    0.008474   0.425569  -0.065484   0.012434  -0.000071  -0.000000
     4  C   -0.000827  -0.066153   0.432721  -0.064247   0.000184   0.000000
     5  C    0.000184   0.013663  -0.070677   0.414217  -0.001720   0.000000
     6  C   -0.000860  -0.000502   0.013686  -0.057320  -0.015518   0.000011
     7  F   -0.000004   0.000004  -0.000073   0.000829   0.051434   0.000015
     8  C   -0.012168   0.015044  -0.001354   0.017299   0.005549  -0.000192
     9  C    0.005850  -0.000252   0.000015  -0.000260  -0.012582   0.019804
    10  C    0.000174   0.000001   0.000000   0.000052  -0.023202  -0.055665
    11  O    0.000001   0.000000  -0.000000   0.000009   0.337837   0.003465
    12  C   -0.000014  -0.000000   0.000000  -0.000000   0.005138   0.414425
    13  C    0.000095   0.000000  -0.000000   0.000000  -0.000014  -0.072474
    14  C   -0.001449   0.000000   0.000000  -0.000000  -0.000153   0.014120
    15  C    0.003477   0.000030   0.000000   0.000001   0.000183  -0.001440
    16  F   -0.003546  -0.000014   0.000000  -0.000000   0.000001   0.000004
    17  H   -0.028411   0.004124  -0.000015  -0.000002  -0.000001  -0.000000
    18  H   -0.017867   0.002273   0.000013  -0.000001   0.000000  -0.000000
    19  H    0.642213   0.000479   0.000010  -0.000001   0.000002  -0.000000
    20  H    0.000479   0.700404  -0.012334  -0.000363  -0.000001   0.000000
    21  H    0.000010  -0.012334   0.688846  -0.011790   0.000003  -0.000000
    22  H   -0.000001  -0.000363  -0.011790   0.673768   0.000110  -0.000000
    23  H    0.000002  -0.000001   0.000003   0.000110   0.468302  -0.000026
    24  H   -0.000000   0.000000  -0.000000  -0.000000  -0.000026   0.685684
    25  H   -0.000002  -0.000000   0.000000  -0.000000   0.000013  -0.013182
    26  H    0.000047  -0.000000  -0.000000   0.000000  -0.000002  -0.000306
              25         26
     1  C    0.000000  -0.000008
     2  C   -0.000000   0.000025
     3  C   -0.000000  -0.000000
     4  C    0.000000   0.000000
     5  C    0.000000  -0.000000
     6  C    0.000001   0.000002
     7  F   -0.000000  -0.000000
     8  C    0.000009  -0.000244
     9  C   -0.001934   0.018844
    10  C    0.014484  -0.001247
    11  O   -0.000109   0.000007
    12  C   -0.069412   0.013293
    13  C    0.436021  -0.068886
    14  C   -0.070528   0.415975
    15  C    0.014077  -0.059179
    16  F   -0.000084   0.001703
    17  H    0.000000  -0.000002
    18  H    0.000000   0.000031
    19  H   -0.000002   0.000047
    20  H   -0.000000  -0.000000
    21  H    0.000000  -0.000000
    22  H   -0.000000   0.000000
    23  H    0.000013  -0.000002
    24  H   -0.013182  -0.000306
    25  H    0.691560  -0.012287
    26  H   -0.012287   0.685048
 Mulliken charges:
               1
     1  C    0.043417
     2  C   -0.137548
     3  C   -0.028640
     4  C    0.018535
     5  C   -0.027897
     6  C    0.099986
     7  F   -0.195744
     8  C    0.066051
     9  C    0.024218
    10  C    0.022171
    11  O   -0.170264
    12  C   -0.022233
    13  C    0.017620
    14  C   -0.046772
    15  C    0.139575
    16  F   -0.164075
    17  H    0.035222
    18  H    0.053558
    19  H    0.034621
    20  H    0.001266
    21  H    0.012404
    22  H    0.016112
    23  H    0.184105
    24  H    0.005756
    25  H    0.011371
    26  H    0.007186
 Sum of Mulliken charges =  -0.00000
 Mulliken charges with hydrogens summed into heavy atoms:
               1
     1  C    0.166818
     2  C   -0.137548
     3  C   -0.027374
     4  C    0.030939
     5  C   -0.011785
     6  C    0.099986
     7  F   -0.195744
     8  C    0.066051
     9  C    0.024218
    10  C    0.022171
    11  O    0.013841
    12  C   -0.016477
    13  C    0.028991
    14  C   -0.039587
    15  C    0.139575
    16  F   -0.164075
 APT charges:
               1
     1  C   -0.625901
     2  C   -0.605591
     3  C   -0.520872
     4  C   -0.423337
     5  C   -0.429270
     6  C   -0.354174
     7  F    0.069735
     8  C   -0.416762
     9  C   -0.386212
    10  C   -0.577382
    11  O    0.181263
    12  C   -0.547836
    13  C   -0.292465
    14  C   -0.454067
    15  C   -0.391813
    16  F    0.088234
    17  H    0.587534
    18  H    0.364834
    19  H    0.144271
    20  H    0.650354
    21  H    0.866719
    22  H    0.687094
    23  H    0.150635
    24  H    0.676304
    25  H    0.902772
    26  H    0.655932
 Sum of APT charges =  -0.00000
 APT charges with hydrogens summed into heavy atoms:
               1
     1  C    0.470738
     2  C   -0.605591
     3  C    0.129482
     4  C    0.443382
     5  C    0.257825
     6  C   -0.354174
     7  F    0.069735
     8  C   -0.416762
     9  C   -0.386212
    10  C   -0.577382
    11  O    0.331898
    12  C    0.128468
    13  C    0.610308
    14  C    0.201865
    15  C   -0.391813
    16  F    0.088234
 Electronic spatial extent (au):  <R**2>=           3417.2475
 Charge=             -0.0000 electrons
 Dipole moment (field-independent basis, Debye):
    X=             -1.3797    Y=              0.6806    Z=             -0.5330  Tot=              1.6282
 Quadrupole moment (field-independent basis, Debye-Ang):
   XX=            -78.9625   YY=            -88.9118   ZZ=            -94.8988
   XY=              1.6698   XZ=             -1.0668   YZ=             -1.2466
 Traceless Quadrupole moment (field-independent basis, Debye-Ang):
   XX=              8.6285   YY=             -1.3207   ZZ=             -7.3078
   XY=              1.6698   XZ=             -1.0668   YZ=             -1.2466
 Octapole moment (field-independent basis, Debye-Ang**2):
  XXX=             -2.4908  YYY=             15.5736  ZZZ=             84.9949  XYY=            -13.3784
  XXY=              4.3220  XXZ=             29.4698  XZZ=             -2.3953  YZZ=              7.0190
  YYZ=             23.5328  XYZ=              3.5319
 Hexadecapole moment (field-independent basis, Debye-Ang**3):
 XXXX=          -2563.2960 YYYY=          -1348.0393 ZZZZ=           -245.0040 XXXY=             71.9746
 XXXZ=            -72.0791 YYYX=             79.4968 YYYZ=             82.5471 ZZZX=            -43.2722
 ZZZY=             83.0539 XXYY=           -657.8162 XXZZ=           -563.5038 YYZZ=           -273.2479
 XXYZ=             19.7440 YYXZ=            -17.7145 ZZXY=             23.0729
 N-N= 1.070004942510D+03 E-N=-3.951068134700D+03  KE= 7.677380902256D+02
  Exact polarizability:       0.000       0.000       0.000       0.000       0.000       0.000
 Approx polarizability:     474.180      -4.706     374.380     -17.417     -27.580     130.166
   1 Symmetry operations used in ECPInt.
 ECPInt:  NShTT=    8001 NPrTT=   29641 LenC2=    7591 LenP2D=   20293.
 LDataN:  DoStor=T MaxTD1= 6 Len=  172
 Calling FoFJK, ICntrl=    100527 FMM=F ISym2X=0 I1Cent= 0 IOpClX= 0 NMat=1 NMatS=1 NMatT=0.
 -------------------------------------------------------------------
 Center     Atomic                   Forces (Hartrees/Bohr)
 Number     Number              X              Y              Z
 -------------------------------------------------------------------
      1        6           0.000083670   -0.000423645   -0.001245285
      2        6          -0.000016252   -0.000008329    0.000000067
      3        6           0.000000947   -0.000003055    0.000007295
      4        6           0.000001950    0.000009509   -0.000001639
      5        6          -0.000001505   -0.000005924   -0.000001507
      6        6           0.000002077    0.000004705   -0.000004063
      7        9          -0.000127696   -0.000194152    0.001338295
      8        6           0.000059187    0.000669841   -0.000104343
      9        6           0.000044676    0.000440021   -0.000118336
     10        6          -0.000000275   -0.000009803   -0.000002833
     11        8           0.000092136   -0.000381780   -0.001277542
     12        6          -0.000002189   -0.000000123    0.000004580
     13        6          -0.000002186    0.000003899   -0.000003089
     14        6           0.000000076   -0.000002627   -0.000001200
     15        6           0.000001849   -0.000003287    0.000005677
     16        9          -0.000130917   -0.000097545    0.001400705
     17        1          -0.000000130   -0.000001005    0.000001912
     18        1           0.000000041    0.000001858   -0.000000065
     19        1          -0.000000537    0.000000966    0.000002495
     20        1          -0.000000147    0.000000335   -0.000000284
     21        1          -0.000000112    0.000000078    0.000001044
     22        1          -0.000000008    0.000001666   -0.000000611
     23        1          -0.000003081   -0.000003313   -0.000002103
     24        1           0.000000032    0.000000206   -0.000000403
     25        1          -0.000000907    0.000001108    0.000000686
     26        1          -0.000000699    0.000000397    0.000000547
 -------------------------------------------------------------------
 Cartesian Forces:  Max     0.001400705 RMS     0.000320872
 FormGI is forming the generalized inverse of G from B-inverse, IUseBI=4.

 GradGradGradGradGradGradGradGradGradGradGradGradGradGradGradGradGradGrad
 Berny optimization.
 Internal  Forces:  Max     0.003182654 RMS     0.000629954
 Search for a saddle point.
 Step number   1 out of a maximum of  140
 All quantities printed in internal units (Hartrees-Bohrs-Radians)
 Swapping is turned off.
 Second derivative matrix not updated -- analytic derivatives used.
 ITU=  0
     Eigenvalues ---   -0.02475   0.00357   0.00758   0.01134   0.01473
     Eigenvalues ---    0.01556   0.01579   0.01629   0.01719   0.01752
     Eigenvalues ---    0.01898   0.02119   0.02151   0.02249   0.02326
     Eigenvalues ---    0.02602   0.02857   0.02923   0.03102   0.03843
     Eigenvalues ---    0.04931   0.05246   0.05513   0.09848   0.09888
     Eigenvalues ---    0.10586   0.10807   0.10966   0.11138   0.11563
     Eigenvalues ---    0.13202   0.14194   0.14620   0.16339   0.16485
     Eigenvalues ---    0.17079   0.17713   0.17885   0.18151   0.18685
     Eigenvalues ---    0.19504   0.19869   0.22924   0.25447   0.26870
     Eigenvalues ---    0.27406   0.29400   0.31580   0.32202   0.32678
     Eigenvalues ---    0.33036   0.33573   0.34021   0.34335   0.34481
     Eigenvalues ---    0.34507   0.34796   0.34896   0.34982   0.35780
     Eigenvalues ---    0.39812   0.40443   0.43464   0.44407   0.45735
     Eigenvalues ---    0.46199   0.47384   0.49024   0.49397   0.51413
     Eigenvalues ---    0.84945   2.23938
 Eigenvectors required to have negative eigenvalues:
                          D31       D32       D33       D34       D43
   1                   -0.47042  -0.45093  -0.41063  -0.39114   0.19813
                          D44       D40       D2        D4        D6
   1                    0.16293  -0.13206   0.13066   0.12311   0.12284
 RFO step:  Lambda0=1.390243231D-03 Lambda=-3.84341505D-04.
 Linear search not attempted -- option 19 set.
 Maximum step size (   0.020) exceeded in Quadratic search.
    -- Step size scaled by   0.415
 Iteration  1 RMS(Cart)=  0.03163780 RMS(Int)=  0.00028783
 Iteration  2 RMS(Cart)=  0.00039349 RMS(Int)=  0.00000401
 Iteration  3 RMS(Cart)=  0.00000010 RMS(Int)=  0.00000401
 Variable       Old X    -DE/DX   Delta X   Delta X   Delta X     New X
                                 (Linear)    (Quad)   (Total)
    R1        2.87413   0.00025   0.00000   0.00071   0.00071   2.87484
    R2        2.09648  -0.00000   0.00000  -0.00044  -0.00044   2.09604
    R3        2.09099   0.00000   0.00000   0.00009   0.00009   2.09107
    R4        2.08536  -0.00000   0.00000  -0.00034  -0.00034   2.08502
    R5        2.67013  -0.00015   0.00000   0.00026   0.00026   2.67040
    R6        2.75343  -0.00026   0.00000   0.00082   0.00082   2.75425
    R7        2.64232  -0.00010   0.00000   0.00013   0.00013   2.64245
    R8        2.08237   0.00000   0.00000  -0.00006  -0.00006   2.08231
    R9        2.64209   0.00011   0.00000  -0.00062  -0.00062   2.64147
   R10        2.07866   0.00000   0.00000  -0.00002  -0.00002   2.07864
   R11        2.63136   0.00014   0.00000   0.00020   0.00020   2.63156
   R12        2.07776  -0.00000   0.00000  -0.00001  -0.00001   2.07775
   R13        2.61562  -0.00024   0.00000  -0.00001  -0.00001   2.61560
   R14        2.70390   0.00025   0.00000   0.00036   0.00036   2.70426
   R15        2.83982   0.00000   0.00000   0.00156   0.00156   2.84138
   R16        2.75765   0.00011   0.00000   0.00102   0.00102   2.75867
   R17        2.71424  -0.00011   0.00000  -0.00083  -0.00084   2.71340
   R18        2.55207  -0.00013   0.00000   0.00100   0.00100   2.55307
   R19        2.67767   0.00007   0.00000  -0.00019  -0.00019   2.67748
   R20        1.85218   0.00000   0.00000  -0.00038  -0.00038   1.85180
   R21        2.62888   0.00005   0.00000  -0.00017  -0.00017   2.62870
   R22        2.07732  -0.00000   0.00000  -0.00005  -0.00005   2.07727
   R23        2.64641  -0.00005   0.00000  -0.00044  -0.00043   2.64598
   R24        2.07948  -0.00000   0.00000  -0.00002  -0.00002   2.07947
   R25        2.63604  -0.00007   0.00000   0.00014   0.00014   2.63618
   R26        2.07670  -0.00000   0.00000   0.00002   0.00002   2.07672
   R27        2.55224   0.00013   0.00000  -0.00032  -0.00032   2.55192
    A1        1.86986  -0.00000   0.00000   0.00064   0.00064   1.87049
    A2        1.98643   0.00000   0.00000   0.00071   0.00071   1.98714
    A3        1.96921   0.00000   0.00000  -0.00138  -0.00138   1.96784
    A4        1.87477  -0.00000   0.00000   0.00011   0.00011   1.87487
    A5        1.87312   0.00000   0.00000   0.00100   0.00100   1.87412
    A6        1.88498  -0.00000   0.00000  -0.00095  -0.00095   1.88403
    A7        1.97422   0.00035   0.00000  -0.00216  -0.00216   1.97206
    A8        2.20797  -0.00084   0.00000   0.00352   0.00352   2.21148
    A9        2.08865   0.00041   0.00000  -0.00125  -0.00126   2.08740
   A10        2.15596  -0.00023   0.00000   0.00157   0.00157   2.15753
   A11        2.04611   0.00012   0.00000  -0.00077  -0.00077   2.04534
   A12        2.07856   0.00010   0.00000  -0.00080  -0.00080   2.07776
   A13        2.04408  -0.00000   0.00000  -0.00055  -0.00055   2.04353
   A14        2.11900   0.00002   0.00000  -0.00004  -0.00004   2.11895
   A15        2.11432  -0.00001   0.00000   0.00057   0.00057   2.11489
   A16        2.06536   0.00019   0.00000  -0.00070  -0.00070   2.06466
   A17        2.14921  -0.00008   0.00000   0.00044   0.00044   2.14965
   A18        2.06732  -0.00010   0.00000   0.00029   0.00029   2.06761
   A19        1.97557  -0.00032   0.00000  -0.00044  -0.00045   1.97512
   A20        2.20966  -0.00031   0.00000   0.00134   0.00135   2.21101
   A21        2.09536   0.00069   0.00000  -0.00071  -0.00071   2.09465
   A22        1.92952  -0.00009   0.00000  -0.00072  -0.00073   1.92880
   A23        2.20864   0.00026   0.00000   0.00878   0.00878   2.21741
   A24        2.14497  -0.00018   0.00000  -0.00802  -0.00802   2.13695
   A25        2.20122   0.00010   0.00000  -0.00639  -0.00638   2.19484
   A26        2.13974  -0.00012   0.00000   0.00650   0.00651   2.14624
   A27        1.93361   0.00002   0.00000  -0.00020  -0.00021   1.93341
   A28        2.20668   0.00037   0.00000  -0.00006  -0.00006   2.20663
   A29        2.12005  -0.00020   0.00000   0.00114   0.00113   2.12118
   A30        1.95292  -0.00012   0.00000  -0.00111  -0.00111   1.95181
   A31        1.94701   0.00000   0.00000  -0.00018  -0.00018   1.94683
   A32        2.13147   0.00011   0.00000   0.00036   0.00035   2.13183
   A33        2.02301  -0.00006   0.00000  -0.00035  -0.00035   2.02266
   A34        2.12717  -0.00004   0.00000   0.00011   0.00011   2.12728
   A35        2.06359  -0.00000   0.00000  -0.00062  -0.00063   2.06297
   A36        2.10872  -0.00001   0.00000   0.00046   0.00046   2.10917
   A37        2.10928   0.00001   0.00000   0.00028   0.00028   2.10956
   A38        2.07679  -0.00010   0.00000   0.00088   0.00088   2.07767
   A39        2.14685   0.00003   0.00000  -0.00000  -0.00000   2.14685
   A40        2.05788   0.00006   0.00000  -0.00081  -0.00081   2.05708
   A41        2.20177   0.00017   0.00000   0.00078   0.00077   2.20254
   A42        2.09503  -0.00034   0.00000   0.00091   0.00092   2.09594
   A43        1.98455   0.00012   0.00000  -0.00164  -0.00164   1.98292
    D1       -0.60739   0.00025   0.00000   0.03137   0.03137  -0.57602
    D2        2.36394  -0.00025   0.00000   0.03185   0.03185   2.39579
    D3        1.46227   0.00025   0.00000   0.03236   0.03235   1.49463
    D4       -1.84957  -0.00025   0.00000   0.03283   0.03283  -1.81675
    D5       -2.66501   0.00025   0.00000   0.03052   0.03052  -2.63449
    D6        0.30632  -0.00025   0.00000   0.03099   0.03100   0.33732
    D7        2.83264  -0.00056   0.00000   0.00031   0.00031   2.83295
    D8       -0.23136  -0.00046   0.00000   0.00034   0.00035  -0.23102
    D9       -0.15157   0.00003   0.00000  -0.00065  -0.00065  -0.15222
   D10        3.06762   0.00014   0.00000  -0.00062  -0.00062   3.06700
   D11       -2.59299   0.00062   0.00000   0.00016   0.00016  -2.59283
   D12        0.53776   0.00060   0.00000   0.00406   0.00408   0.54184
   D13        0.36828   0.00008   0.00000   0.00062   0.00062   0.36890
   D14       -2.78416   0.00006   0.00000   0.00453   0.00455  -2.77961
   D15       -0.12653  -0.00005   0.00000  -0.00014  -0.00015  -0.12667
   D16        3.12923  -0.00006   0.00000   0.00004   0.00003   3.12927
   D17        2.93611  -0.00016   0.00000  -0.00018  -0.00018   2.93593
   D18       -0.09132  -0.00017   0.00000   0.00000   0.00001  -0.09131
   D19        0.14420  -0.00007   0.00000   0.00055   0.00055   0.14476
   D20       -2.94175  -0.00018   0.00000  -0.00009  -0.00009  -2.94184
   D21       -3.11123  -0.00006   0.00000   0.00033   0.00033  -3.11090
   D22        0.08600  -0.00017   0.00000  -0.00032  -0.00032   0.08569
   D23       -2.94043  -0.00072   0.00000  -0.00300  -0.00299  -2.94342
   D24        0.12309   0.00015   0.00000  -0.00012  -0.00012   0.12298
   D25        0.14817  -0.00062   0.00000  -0.00237  -0.00237   0.14580
   D26       -3.07149   0.00026   0.00000   0.00050   0.00050  -3.07098
   D27       -0.37237  -0.00007   0.00000  -0.00070  -0.00071  -0.37308
   D28        2.77960  -0.00006   0.00000  -0.00456  -0.00454   2.77506
   D29        2.68631   0.00081   0.00000   0.00237   0.00236   2.68867
   D30       -0.44491   0.00083   0.00000  -0.00149  -0.00147  -0.44638
   D31        3.04332   0.00318   0.00000  -0.03542  -0.03542   3.00789
   D32        0.05561   0.00317   0.00000  -0.03471  -0.03471   0.02089
   D33       -0.11036   0.00316   0.00000  -0.03101  -0.03101  -0.14137
   D34       -3.09807   0.00315   0.00000  -0.03030  -0.03030  -3.12837
   D35       -0.24463   0.00073   0.00000   0.00837   0.00837  -0.23626
   D36        2.99474  -0.00003   0.00000   0.00893   0.00893   3.00367
   D37        2.75840   0.00073   0.00000   0.00832   0.00832   2.76672
   D38       -0.28542  -0.00003   0.00000   0.00889   0.00889  -0.27653
   D39       -2.99844  -0.00003   0.00000  -0.00874  -0.00874  -3.00717
   D40        0.21249   0.00089   0.00000  -0.00966  -0.00966   0.20283
   D41        0.27598  -0.00005   0.00000  -0.00752  -0.00752   0.26847
   D42       -2.79628   0.00087   0.00000  -0.00844  -0.00844  -2.80472
   D43        0.51517  -0.00034   0.00000   0.02810   0.02810   0.54328
   D44       -2.71628   0.00035   0.00000   0.02769   0.02769  -2.68859
   D45        0.14396   0.00011   0.00000  -0.00516  -0.00516   0.13880
   D46       -3.05611   0.00019   0.00000  -0.00289  -0.00289  -3.05900
   D47       -2.91289  -0.00058   0.00000  -0.00471  -0.00471  -2.91759
   D48        0.17023  -0.00050   0.00000  -0.00244  -0.00244   0.16779
   D49        0.05324  -0.00005   0.00000  -0.00126  -0.00126   0.05198
   D50        3.13459  -0.00007   0.00000   0.00087   0.00087   3.13546
   D51       -3.02641  -0.00013   0.00000  -0.00365  -0.00365  -3.03006
   D52        0.05494  -0.00016   0.00000  -0.00152  -0.00152   0.05342
   D53       -0.07497  -0.00009   0.00000   0.00294   0.00294  -0.07202
   D54        3.00346  -0.00020   0.00000   0.00426   0.00426   3.00772
   D55        3.12689  -0.00006   0.00000   0.00081   0.00081   3.12770
   D56       -0.07787  -0.00017   0.00000   0.00213   0.00213  -0.07574
   D57       -0.10621   0.00014   0.00000   0.00173   0.00173  -0.10448
   D58        2.96983  -0.00075   0.00000   0.00269   0.00269   2.97252
   D59        3.09532   0.00025   0.00000   0.00045   0.00045   3.09578
   D60       -0.11182  -0.00064   0.00000   0.00141   0.00141  -0.11041
         Item               Value     Threshold  Converged?
 Maximum Force            0.003183     0.000450     NO 
 RMS     Force            0.000630     0.000300     NO 
 Maximum Displacement     0.132395     0.001800     NO 
 RMS     Displacement     0.031601     0.001200     NO 
 Predicted change in Energy= 3.365642D-04
 GradGradGradGradGradGradGradGradGradGradGradGradGradGradGradGradGradGrad

                          Input orientation:                          
 ---------------------------------------------------------------------
 Center     Atomic      Atomic             Coordinates (Angstroms)
 Number     Number       Type             X           Y           Z
 ---------------------------------------------------------------------
      1          6           0       -1.055148    2.477449   -1.279634
      2          6           0       -1.495357    1.195909   -0.588098
      3          6           0       -2.870977    1.187672   -0.264848
      4          6           0       -3.588146    0.026080    0.037948
      5          6           0       -2.928012   -1.193437   -0.137735
      6          6           0       -1.566001   -1.171128   -0.426961
      7          9           0       -1.073336   -2.402289   -0.823577
      8          6           0       -0.711778   -0.023025   -0.431644
      9          6           0        0.782185   -0.128769   -0.298644
     10          6           0        1.526832   -1.345037    0.013260
     11          8           0        1.011920   -2.503463    0.480370
     12          6           0        2.942032   -1.382726   -0.044075
     13          6           0        3.705656   -0.236452   -0.238897
     14          6           0        3.043041    0.994512   -0.317688
     15          6           0        1.648561    1.016202   -0.286078
     16          9           0        1.129589    2.256540   -0.160136
     17          1           0       -1.910253    2.829361   -1.892195
     18          1           0       -0.789309    3.293969   -0.581725
     19          1           0       -0.202330    2.322584   -1.962339
     20          1           0       -3.408948    2.147214   -0.328697
     21          1           0       -4.656778    0.063086    0.295984
     22          1           0       -3.441633   -2.165149   -0.108211
     23          1           0        0.099221   -2.648829    0.154614
     24          1           0        3.403446   -2.365194    0.129673
     25          1           0        4.804212   -0.289575   -0.274195
     26          1           0        3.571136    1.957810   -0.347176
 ---------------------------------------------------------------------
                    Distance matrix (angstroms):
                    1          2          3          4          5
     1  C    0.000000
     2  C    1.521299   0.000000
     3  C    2.447560   1.413113   0.000000
     4  C    3.763152   2.477943   1.398325   0.000000
     5  C    4.276326   2.822110   2.385182   1.397806   0.000000
     6  C    3.781552   2.373566   2.700589   2.395519   1.392560
     7  F    4.901037   3.630506   4.053580   3.600482   2.317656
     8  C    2.662585   1.457488   2.481078   2.914862   2.523478
     9  C    3.336241   2.650613   3.883266   4.386008   3.863285
    10  C    4.790574   3.993953   5.082586   5.295618   4.459980
    11  O    5.672731   4.594933   5.408948   5.268295   4.197772
    12  C    5.692540   5.160982   6.359777   6.680919   5.873842
    13  C    5.577961   5.405935   6.729108   7.303773   6.703104
    14  C    4.463138   4.550905   5.917407   6.710959   6.361838
    15  C    3.229928   3.163499   4.522839   5.339328   5.084243
    16  F    2.464782   2.863290   4.142218   5.222185   5.326066
    17  H    1.109179   2.130956   2.503276   3.794623   4.505205
    18  H    1.106549   2.213685   2.978294   4.347019   4.990790
    19  H    1.103345   2.197693   3.360235   4.553990   4.808423
    20  H    2.560021   2.152696   1.101912   2.160035   3.380490
    21  H    4.613400   3.472675   2.183646   1.099967   2.180733
    22  H    5.349884   3.913437   3.404642   2.200979   1.099500
    23  H    5.446868   4.228038   4.869986   4.556909   3.371613
    24  H    6.731746   6.098764   7.221280   7.389788   6.444524
    25  H    6.557396   6.479951   7.816065   8.404091   7.786070
    26  H    4.747842   5.129121   6.488505   7.425309   7.225867
                    6          7          8          9         10
     6  C    0.000000
     7  F    1.384118   0.000000
     8  C    1.431034   2.438285   0.000000
     9  C    2.572344   2.981175   1.503594   0.000000
    10  C    3.128843   2.928985   2.637618   1.459826   0.000000
    11  O    3.040402   2.461464   3.155230   2.509744   1.351028
    12  C    4.529209   4.215484   3.917821   2.510409   1.416862
    13  C    5.357178   5.279343   4.426785   2.926063   2.457604
    14  C    5.093644   5.360852   3.891919   2.524597   2.807473
    15  C    3.890715   4.402693   2.583095   1.435870   2.383248
    16  F    4.368788   5.195933   2.942918   2.414451   3.627564
    17  H    4.274264   5.404862   3.421353   4.305713   5.733229
    18  H    4.534786   5.708460   3.321292   3.776885   5.219089
    19  H    4.052531   4.937595   2.846831   3.121903   4.510480
    20  H    3.797038   5.137895   3.463417   4.769339   6.055962
    21  H    3.405706   4.491386   4.012466   5.474734   6.348211
    22  H    2.146549   2.485320   3.485027   4.692946   5.037160
    23  H    2.301042   1.546780   2.810030   2.650017   1.938538
    24  H    5.141113   4.577296   4.768218   3.472184   2.139148
    25  H    6.432736   6.269844   5.524671   4.025315   3.455119
    26  H    6.015546   6.388156   4.719554   3.483448   3.901011
                   11         12         13         14         15
    11  O    0.000000
    12  C    2.292689   0.000000
    13  C    3.593452   1.391051   0.000000
    14  C    4.122884   2.395063   1.400192   0.000000
    15  C    3.657977   2.736145   2.408944   1.395007   0.000000
    16  F    4.804344   4.067269   3.585712   2.297571   1.350418
    17  H    6.527417   6.685948   6.608407   5.511884   4.304917
    18  H    6.163010   6.006950   5.725916   4.477067   3.349453
    19  H    5.543641   5.224564   4.979083   3.873124   2.818205
    20  H    6.467415   7.271618   7.503833   6.554159   5.182605
    21  H    6.225376   7.742605   8.384874   7.780190   6.403477
    22  H    4.504999   6.431755   7.404099   7.216532   6.005223
    23  H    0.979933   3.118344   4.356695   4.707768   4.003389
    24  H    2.421054   1.099243   2.181449   3.408467   3.832273
    25  H    4.455575   2.171555   1.100407   2.180022   3.415163
    26  H    5.209354   3.412744   2.201046   1.098952   2.141647
                   16         17         18         19         20
    16  F    0.000000
    17  H    3.545249   0.000000
    18  H    2.221749   1.785975   0.000000
    19  H    2.241943   1.782904   1.787241   0.000000
    20  H    4.542982   2.270669   2.870814   3.603046   0.000000
    21  H    6.204944   4.470325   5.115299   5.481556   2.508165
    22  H    6.360039   5.520222   6.087774   5.837004   4.318119
    23  H    5.022288   6.183687   6.053803   5.411781   5.961784
    24  H    5.158957   7.701088   7.078941   6.273229   8.184170
    25  H    4.471976   7.578241   6.650101   5.893952   8.567200
    26  H    2.466855   5.761277   4.566597   4.120783   6.982677
                   21         22         23         24         25
    21  H    0.000000
    22  H    2.570016   0.000000
    23  H    5.476677   3.583388   0.000000
    24  H    8.419704   6.852132   3.316470   0.000000
    25  H    9.484715   8.458090   5.280805   2.536424   0.000000
    26  H    8.467715   8.138477   5.790260   4.352456   2.564478
                   26
    26  H    0.000000
 Symmetry turned off by external request.
 Stoichiometry    C13H10F2O
 Framework group  C1[X(C13H10F2O)]
 Deg. of freedom    72
 Full point group                 C1      NOp   1
 Rotational constants (GHZ):           0.8396686           0.4712300           0.3132005
 Standard basis: def2SVP (5D, 7F)
   274 basis functions,   470 primitive gaussians,   290 cartesian basis functions
    57 alpha electrons       57 beta electrons
       nuclear repulsion energy      1069.8376540590 Hartrees.
 NAtoms=   26 NActive=   26 NUniq=   26 SFac= 1.00D+00 NAtFMM=   60 NAOKFM=F Big=F
 Integral buffers will be    131072 words long.
 Raffenetti 2 integral format.
 Two-electron integral symmetry is turned off.
 Nuclear repulsion after empirical dispersion term =     1069.7860503708 Hartrees.
 One-electron integrals computed using PRISM.
   1 Symmetry operations used in ECPInt.
 ECPInt:  NShTT=    8001 NPrTT=   29641 LenC2=    7589 LenP2D=   20288.
 LDataN:  DoStor=T MaxTD1= 4 Len=   56
 NBasis=   274 RedAO= T EigKep=  3.19D-04  NBF=   274
 NBsUse=   274 1.00D-06 EigRej= -1.00D+00 NBFU=   274
 Initial guess from the checkpoint file:  "path/to/scratch/gaussian_tmp/Gau-2280007.chk"
 B after Tr=     0.006682    0.006414   -0.012426
         Rot=    0.999998    0.002085    0.000276    0.000272 Ang=   0.24 deg.
 ExpMin= 1.22D-01 ExpMax= 2.89D+03 ExpMxC= 4.35D+02 IAcc=3 IRadAn=         5 AccDes= 0.00D+00
 Harris functional with IExCor=  404 and IRadAn=       5 diagonalized for initial guess.
 HarFok:  IExCor=  404 AccDes= 0.00D+00 IRadAn=         5 IDoV= 1 UseB2=F ITyADJ=14
 ICtDFT=  3500011 ScaDFX=  1.000000  1.000000  1.000000  1.000000
 FoFCou: FMM=F IPFlag=           0 FMFlag=      100000 FMFlg1=           0
         NFxFlg=           0 DoJE=T BraDBF=F KetDBF=T FulRan=T
         wScrn=  0.000000 ICntrl=       500 IOpCl=  0 I1Cent=   200000004 NGrid=           0
         NMat0=    1 NMatS0=      1 NMatT0=    0 NMatD0=    1 NMtDS0=    0 NMtDT0=    0
 Symmetry not used in FoFCou.
 Requested convergence on RMS density matrix=1.00D-08 within 128 cycles.
 Requested convergence on MAX density matrix=1.00D-06.
 Requested convergence on             energy=1.00D-06.
 No special actions if energy rises.
 Integral accuracy reduced to 1.0D-05 until final iterations.
 Initial convergence to 1.0D-05 achieved.  Increase integral accuracy.
 SCF Done:  E(RB-P86) =  -775.751178400     A.U. after   12 cycles
            NFock= 12  Conv=0.59D-08     -V/T= 2.0104
 DoSCS=F DFT=T ScalE2(SS,OS)=  1.000000  1.000000
 Range of M.O.s used for correlation:     1   274
 NBasis=   274 NAE=    57 NBE=    57 NFC=     0 NFV=     0
 NROrb=    274 NOA=    57 NOB=    57 NVA=   217 NVB=   217
 Symmetrizing basis deriv contribution to polar:
 IMax=3 JMax=2 DiffMx= 0.00D+00
   1 Symmetry operations used in ECPInt.
 ECPInt:  NShTT=    8001 NPrTT=   29641 LenC2=    7589 LenP2D=   20288.
 LDataN:  DoStor=T MaxTD1= 5 Len=  102
 Calling FoFJK, ICntrl=      2527 FMM=F ISym2X=0 I1Cent= 0 IOpClX= 0 NMat=1 NMatS=1 NMatT=0.
 -------------------------------------------------------------------
 Center     Atomic                   Forces (Hartrees/Bohr)
 Number     Number              X              Y              Z
 -------------------------------------------------------------------
      1        6           0.000117181   -0.000256477   -0.000678576
      2        6           0.000015521   -0.000000588   -0.000037120
      3        6          -0.000005156    0.000005323   -0.000004600
      4        6           0.000003641   -0.000000946   -0.000006409
      5        6          -0.000011503    0.000002347   -0.000000781
      6        6           0.000024408   -0.000017400   -0.000002010
      7        9           0.000018333   -0.000118982    0.000872877
      8        6          -0.000017738    0.000353870    0.000043052
      9        6           0.000065563    0.000256578   -0.000166740
     10        6          -0.000003361    0.000030548   -0.000023476
     11        8          -0.000026406   -0.000290896   -0.000805443
     12        6          -0.000006184   -0.000000165    0.000008958
     13        6          -0.000001066    0.000006752   -0.000002182
     14        6           0.000003072   -0.000001206   -0.000003501
     15        6          -0.000004734   -0.000004119    0.000038394
     16        9          -0.000218452    0.000013181    0.000740435
     17        1           0.000014306    0.000005675    0.000001341
     18        1           0.000029241    0.000001738    0.000021137
     19        1           0.000032816   -0.000010244    0.000010786
     20        1          -0.000000918   -0.000002192    0.000002968
     21        1          -0.000000061    0.000000151    0.000002322
     22        1           0.000001056    0.000000347    0.000002637
     23        1          -0.000031031    0.000026290   -0.000012631
     24        1           0.000001563   -0.000000013   -0.000000345
     25        1          -0.000000562    0.000000270   -0.000000875
     26        1           0.000000469    0.000000156   -0.000000219
 -------------------------------------------------------------------
 Cartesian Forces:  Max     0.000872877 RMS     0.000192240

 GradGradGradGradGradGradGradGradGradGradGradGradGradGradGradGradGradGrad
 Berny optimization.
 FormGI is forming the generalized inverse of G from B-inverse, IUseBI=4.
 Internal  Forces:  Max     0.001905456 RMS     0.000381334
 Search for a saddle point.
 Step number   2 out of a maximum of  140
 All quantities printed in internal units (Hartrees-Bohrs-Radians)
 Swapping is turned off.
 Update second derivatives using D2CorX and points    1    2
 ITU=  0  0
     Eigenvalues ---   -0.02493   0.00352   0.00749   0.01134   0.01473
     Eigenvalues ---    0.01556   0.01579   0.01630   0.01719   0.01752
     Eigenvalues ---    0.01904   0.02119   0.02151   0.02249   0.02327
     Eigenvalues ---    0.02604   0.02857   0.02924   0.03109   0.03846
     Eigenvalues ---    0.04913   0.05242   0.05513   0.09848   0.09888
     Eigenvalues ---    0.10586   0.10807   0.10966   0.11138   0.11563
     Eigenvalues ---    0.13202   0.14194   0.14620   0.16339   0.16485
     Eigenvalues ---    0.17079   0.17713   0.17885   0.18150   0.18685
     Eigenvalues ---    0.19504   0.19869   0.22924   0.25446   0.26870
     Eigenvalues ---    0.27406   0.29400   0.31581   0.32202   0.32678
     Eigenvalues ---    0.33036   0.33573   0.34021   0.34335   0.34481
     Eigenvalues ---    0.34507   0.34796   0.34896   0.34982   0.35780
     Eigenvalues ---    0.39812   0.40443   0.43463   0.44407   0.45735
     Eigenvalues ---    0.46199   0.47384   0.49024   0.49397   0.51413
     Eigenvalues ---    0.84929   2.23937
 Eigenvectors required to have negative eigenvalues:
                          D31       D32       D33       D34       D43
   1                   -0.46953  -0.45036  -0.40940  -0.39023   0.19627
                          D44       D40       D2        D4        D6
   1                    0.16216  -0.13551   0.13286   0.12564   0.12464
 RFO step:  Lambda0=5.166629818D-04 Lambda=-1.48410665D-04.
 Linear search not attempted -- option 19 set.
 Maximum step size (   0.020) exceeded in Quadratic search.
    -- Step size scaled by   0.671
 Iteration  1 RMS(Cart)=  0.03143134 RMS(Int)=  0.00029418
 Iteration  2 RMS(Cart)=  0.00040174 RMS(Int)=  0.00000339
 Iteration  3 RMS(Cart)=  0.00000011 RMS(Int)=  0.00000339
 Variable       Old X    -DE/DX   Delta X   Delta X   Delta X     New X
                                 (Linear)    (Quad)   (Total)
    R1        2.87484   0.00013   0.00000   0.00062   0.00062   2.87546
    R2        2.09604  -0.00001   0.00000  -0.00048  -0.00048   2.09556
    R3        2.09107   0.00002   0.00000   0.00006   0.00006   2.09113
    R4        2.08502   0.00002   0.00000  -0.00029  -0.00029   2.08473
    R5        2.67040  -0.00009   0.00000   0.00032   0.00033   2.67072
    R6        2.75425  -0.00032   0.00000   0.00086   0.00086   2.75512
    R7        2.64245   0.00000   0.00000   0.00009   0.00009   2.64255
    R8        2.08231  -0.00000   0.00000  -0.00009  -0.00009   2.08222
    R9        2.64147   0.00012   0.00000  -0.00072  -0.00072   2.64075
   R10        2.07864   0.00000   0.00000  -0.00002  -0.00002   2.07862
   R11        2.63156   0.00009   0.00000   0.00022   0.00022   2.63178
   R12        2.07775  -0.00000   0.00000  -0.00001  -0.00001   2.07774
   R13        2.61560  -0.00014   0.00000  -0.00004  -0.00004   2.61556
   R14        2.70426   0.00004   0.00000   0.00024   0.00024   2.70450
   R15        2.84138  -0.00024   0.00000   0.00190   0.00190   2.84328
   R16        2.75867  -0.00009   0.00000   0.00094   0.00093   2.75960
   R17        2.71340  -0.00017   0.00000  -0.00087  -0.00087   2.71253
   R18        2.55307  -0.00003   0.00000   0.00096   0.00096   2.55404
   R19        2.67748   0.00004   0.00000  -0.00015  -0.00015   2.67733
   R20        1.85180   0.00003   0.00000  -0.00041  -0.00041   1.85139
   R21        2.62870   0.00009   0.00000  -0.00020  -0.00020   2.62850
   R22        2.07727   0.00000   0.00000  -0.00005  -0.00005   2.07722
   R23        2.64598   0.00003   0.00000  -0.00043  -0.00042   2.64556
   R24        2.07947  -0.00000   0.00000  -0.00001  -0.00001   2.07945
   R25        2.63618  -0.00004   0.00000   0.00014   0.00014   2.63633
   R26        2.07672   0.00000   0.00000   0.00001   0.00001   2.07673
   R27        2.55192   0.00016   0.00000  -0.00029  -0.00029   2.55163
    A1        1.87049   0.00003   0.00000   0.00088   0.00088   1.87138
    A2        1.98714  -0.00002   0.00000   0.00063   0.00063   1.98777
    A3        1.96784  -0.00003   0.00000  -0.00155  -0.00155   1.96629
    A4        1.87487   0.00001   0.00000   0.00016   0.00016   1.87503
    A5        1.87412   0.00001   0.00000   0.00106   0.00106   1.87518
    A6        1.88403  -0.00001   0.00000  -0.00103  -0.00103   1.88300
    A7        1.97206   0.00045   0.00000  -0.00235  -0.00235   1.96971
    A8        2.21148  -0.00069   0.00000   0.00383   0.00383   2.21531
    A9        2.08740   0.00020   0.00000  -0.00119  -0.00119   2.08620
   A10        2.15753  -0.00019   0.00000   0.00167   0.00167   2.15920
   A11        2.04534   0.00010   0.00000  -0.00076  -0.00076   2.04458
   A12        2.07776   0.00008   0.00000  -0.00086  -0.00087   2.07690
   A13        2.04353   0.00004   0.00000  -0.00050  -0.00050   2.04303
   A14        2.11895  -0.00001   0.00000  -0.00006  -0.00006   2.11889
   A15        2.11489  -0.00003   0.00000   0.00059   0.00059   2.11549
   A16        2.06466   0.00009   0.00000  -0.00067  -0.00067   2.06399
   A17        2.14965  -0.00003   0.00000   0.00047   0.00047   2.15012
   A18        2.06761  -0.00005   0.00000   0.00023   0.00023   2.06784
   A19        1.97512  -0.00005   0.00000  -0.00072  -0.00072   1.97440
   A20        2.21101  -0.00027   0.00000   0.00150   0.00150   2.21251
   A21        2.09465   0.00035   0.00000  -0.00058  -0.00059   2.09406
   A22        1.92880   0.00013   0.00000  -0.00051  -0.00051   1.92828
   A23        2.21741  -0.00010   0.00000   0.00839   0.00839   2.22581
   A24        2.13695  -0.00004   0.00000  -0.00786  -0.00786   2.12909
   A25        2.19484   0.00004   0.00000  -0.00620  -0.00620   2.18864
   A26        2.14624  -0.00023   0.00000   0.00631   0.00632   2.15256
   A27        1.93341   0.00019   0.00000  -0.00014  -0.00015   1.93325
   A28        2.20663   0.00010   0.00000   0.00002   0.00003   2.20665
   A29        2.12118  -0.00018   0.00000   0.00112   0.00111   2.12229
   A30        1.95181   0.00011   0.00000  -0.00115  -0.00114   1.95067
   A31        1.94683  -0.00005   0.00000  -0.00034  -0.00034   1.94649
   A32        2.13183   0.00003   0.00000   0.00035   0.00034   2.13217
   A33        2.02266  -0.00002   0.00000  -0.00034  -0.00034   2.02232
   A34        2.12728  -0.00001   0.00000   0.00011   0.00011   2.12739
   A35        2.06297   0.00004   0.00000  -0.00059  -0.00059   2.06237
   A36        2.10917  -0.00002   0.00000   0.00043   0.00043   2.10961
   A37        2.10956  -0.00001   0.00000   0.00028   0.00028   2.10983
   A38        2.07767  -0.00009   0.00000   0.00085   0.00084   2.07851
   A39        2.14685   0.00004   0.00000   0.00001   0.00001   2.14686
   A40        2.05708   0.00005   0.00000  -0.00077  -0.00077   2.05630
   A41        2.20254   0.00002   0.00000   0.00079   0.00078   2.20333
   A42        2.09594  -0.00029   0.00000   0.00094   0.00094   2.09688
   A43        1.98292   0.00024   0.00000  -0.00164  -0.00164   1.98128
    D1       -0.57602   0.00013   0.00000   0.03400   0.03399  -0.54203
    D2        2.39579  -0.00013   0.00000   0.03577   0.03578   2.43157
    D3        1.49463   0.00015   0.00000   0.03516   0.03516   1.52979
    D4       -1.81675  -0.00011   0.00000   0.03694   0.03694  -1.77980
    D5       -2.63449   0.00011   0.00000   0.03302   0.03302  -2.60147
    D6        0.33732  -0.00015   0.00000   0.03480   0.03480   0.37212
    D7        2.83295  -0.00028   0.00000   0.00241   0.00241   2.83536
    D8       -0.23102  -0.00024   0.00000   0.00177   0.00177  -0.22925
    D9       -0.15222   0.00007   0.00000   0.00021   0.00022  -0.15200
   D10        3.06700   0.00010   0.00000  -0.00042  -0.00042   3.06658
   D11       -2.59283   0.00027   0.00000  -0.00284  -0.00284  -2.59568
   D12        0.54184   0.00026   0.00000   0.00023   0.00025   0.54209
   D13        0.36890   0.00000   0.00000  -0.00101  -0.00101   0.36789
   D14       -2.77961  -0.00000   0.00000   0.00206   0.00208  -2.77753
   D15       -0.12667  -0.00001   0.00000   0.00027   0.00026  -0.12641
   D16        3.12927  -0.00005   0.00000  -0.00009  -0.00009   3.12918
   D17        2.93593  -0.00004   0.00000   0.00092   0.00092   2.93685
   D18       -0.09131  -0.00009   0.00000   0.00056   0.00057  -0.09074
   D19        0.14476  -0.00008   0.00000  -0.00016  -0.00016   0.14460
   D20       -2.94184  -0.00015   0.00000  -0.00093  -0.00093  -2.94276
   D21       -3.11090  -0.00003   0.00000   0.00015   0.00015  -3.11075
   D22        0.08569  -0.00011   0.00000  -0.00062  -0.00062   0.08507
   D23       -2.94342  -0.00047   0.00000  -0.00340  -0.00340  -2.94682
   D24        0.12298   0.00006   0.00000  -0.00037  -0.00036   0.12261
   D25        0.14580  -0.00040   0.00000  -0.00266  -0.00266   0.14314
   D26       -3.07098   0.00013   0.00000   0.00038   0.00038  -3.07061
   D27       -0.37308   0.00001   0.00000   0.00068   0.00068  -0.37240
   D28        2.77506   0.00001   0.00000  -0.00230  -0.00229   2.77277
   D29        2.68867   0.00055   0.00000   0.00390   0.00390   2.69257
   D30       -0.44638   0.00056   0.00000   0.00092   0.00094  -0.44545
   D31        3.00789   0.00191   0.00000  -0.03384  -0.03385   2.97405
   D32        0.02089   0.00187   0.00000  -0.03360  -0.03359  -0.01270
   D33       -0.14137   0.00190   0.00000  -0.03040  -0.03040  -0.17177
   D34       -3.12837   0.00186   0.00000  -0.03015  -0.03015   3.12467
   D35       -0.23626   0.00048   0.00000   0.00878   0.00878  -0.22748
   D36        3.00367   0.00001   0.00000   0.00891   0.00891   3.01258
   D37        2.76672   0.00049   0.00000   0.00914   0.00914   2.77586
   D38       -0.27653   0.00001   0.00000   0.00926   0.00926  -0.26726
   D39       -3.00717  -0.00003   0.00000  -0.00873  -0.00873  -3.01590
   D40        0.20283   0.00047   0.00000  -0.01042  -0.01042   0.19241
   D41        0.26847  -0.00006   0.00000  -0.00792  -0.00792   0.26055
   D42       -2.80472   0.00044   0.00000  -0.00961  -0.00961  -2.81433
   D43        0.54328  -0.00022   0.00000   0.02451   0.02451   0.56779
   D44       -2.68859   0.00020   0.00000   0.02450   0.02450  -2.66409
   D45        0.13880   0.00004   0.00000  -0.00527  -0.00527   0.13352
   D46       -3.05900   0.00010   0.00000  -0.00296  -0.00296  -3.06196
   D47       -2.91759  -0.00038   0.00000  -0.00520  -0.00521  -2.92280
   D48        0.16779  -0.00032   0.00000  -0.00289  -0.00289   0.16490
   D49        0.05198  -0.00005   0.00000  -0.00146  -0.00146   0.05052
   D50        3.13546  -0.00003   0.00000   0.00083   0.00083   3.13629
   D51       -3.03006  -0.00011   0.00000  -0.00389  -0.00390  -3.03395
   D52        0.05342  -0.00010   0.00000  -0.00160  -0.00160   0.05182
   D53       -0.07202  -0.00003   0.00000   0.00313   0.00313  -0.06889
   D54        3.00772  -0.00008   0.00000   0.00468   0.00468   3.01240
   D55        3.12770  -0.00004   0.00000   0.00083   0.00083   3.12853
   D56       -0.07574  -0.00009   0.00000   0.00238   0.00238  -0.07336
   D57       -0.10448   0.00011   0.00000   0.00188   0.00188  -0.10260
   D58        2.97252  -0.00039   0.00000   0.00356   0.00356   2.97608
   D59        3.09578   0.00016   0.00000   0.00038   0.00039   3.09616
   D60       -0.11041  -0.00034   0.00000   0.00207   0.00207  -0.10834
         Item               Value     Threshold  Converged?
 Maximum Force            0.001905     0.000450     NO 
 RMS     Force            0.000381     0.000300     NO 
 Maximum Displacement     0.135000     0.001800     NO 
 RMS     Displacement     0.031394     0.001200     NO 
 Predicted change in Energy= 1.661705D-04
 GradGradGradGradGradGradGradGradGradGradGradGradGradGradGradGradGradGrad

                          Input orientation:                          
 ---------------------------------------------------------------------
 Center     Atomic      Atomic             Coordinates (Angstroms)
 Number     Number       Type             X           Y           Z
 ---------------------------------------------------------------------
      1          6           0       -1.075325    2.497541   -1.260982
      2          6           0       -1.500910    1.202566   -0.584769
      3          6           0       -2.876142    1.179162   -0.259860
      4          6           0       -3.584769    0.009643    0.032588
      5          6           0       -2.915746   -1.202752   -0.155319
      6          6           0       -1.554159   -1.166380   -0.445685
      7          9           0       -1.051774   -2.390919   -0.850451
      8          6           0       -0.707797   -0.012314   -0.441083
      9          6           0        0.786923   -0.120619   -0.307271
     10          6           0        1.519992   -1.337453    0.031047
     11          8           0        0.992443   -2.484230    0.514006
     12          6           0        2.935133   -1.388377   -0.014218
     13          6           0        3.710443   -0.253583   -0.228380
     14          6           0        3.058758    0.980284   -0.341472
     15          6           0        1.664291    1.015375   -0.319374
     16          9           0        1.158040    2.264058   -0.231575
     17          1           0       -1.946361    2.867863   -1.838799
     18          1           0       -0.782322    3.296945   -0.554144
     19          1           0       -0.244367    2.352582   -1.971983
     20          1           0       -3.421638    2.135040   -0.313124
     21          1           0       -4.653309    0.036697    0.292189
     22          1           0       -3.421352   -2.178863   -0.133926
     23          1           0        0.089694   -2.639049    0.166274
     24          1           0        3.386255   -2.371206    0.182793
     25          1           0        4.808712   -0.316800   -0.254577
     26          1           0        3.595115    1.938103   -0.392607
 ---------------------------------------------------------------------
                    Distance matrix (angstroms):
                    1          2          3          4          5
     1  C    0.000000
     2  C    1.521627   0.000000
     3  C    2.446080   1.413286   0.000000
     4  C    3.763013   2.479246   1.398375   0.000000
     5  C    4.278061   2.823427   2.384535   1.397426   0.000000
     6  C    3.783954   2.373623   2.698840   2.394817   1.392678
     7  F    4.905724   3.631176   4.052479   3.599793   2.317184
     8  C    2.665836   1.457945   2.480761   2.915786   2.524647
     9  C    3.351462   2.657442   3.887122   4.386816   3.860551
    10  C    4.807514   3.994593   5.073851   5.279512   4.441694
    11  O    5.678406   4.584384   5.383796   5.234695   4.167028
    12  C    5.721762   5.168848   6.357948   6.668265   5.855523
    13  C    5.615918   5.422691   6.740686   7.304622   6.694224
    14  C    4.498690   4.571561   5.938792   6.724471   6.363568
    15  C    3.254065   3.181818   4.543775   5.356118   5.091535
    16  F    2.470246   2.884705   4.177610   5.257985   5.349796
    17  H    1.108925   2.131721   2.491837   3.788917   4.510401
    18  H    1.106580   2.214437   2.992606   4.359394   4.995781
    19  H    1.103190   2.196770   3.351793   4.545982   4.803845
    20  H    2.556369   2.152324   1.101865   2.159501   3.379598
    21  H    4.611947   3.473604   2.183645   1.099956   2.180738
    22  H    5.351901   3.914769   3.404326   2.200906   1.099494
    23  H    5.457003   4.225173   4.853504   4.531569   3.346497
    24  H    6.759799   6.102898   7.212396   7.367914   6.418318
    25  H    6.599642   6.498371   7.829107   8.404734   7.775733
    26  H    4.783310   5.152417   6.516961   7.446507   7.232743
                    6          7          8          9         10
     6  C    0.000000
     7  F    1.384096   0.000000
     8  C    1.431160   2.437963   0.000000
     9  C    2.567770   2.971550   1.504601   0.000000
    10  C    3.115597   2.915615   2.634757   1.460320   0.000000
    11  O    3.023726   2.459527   3.148552   2.510656   1.351538
    12  C    4.515439   4.195212   3.917487   2.511553   1.416780
    13  C    5.347565   5.256794   4.429932   2.927605   2.457672
    14  C    5.089011   5.340462   3.896423   2.524756   2.806862
    15  C    3.890299   4.388836   2.588003   1.435410   2.383152
    16  F    4.378330   5.189903   2.950781   2.414569   3.629168
    17  H    4.285990   5.425118   3.432648   4.329832   5.761650
    18  H    4.530868   5.701947   3.312028   3.768716   5.207758
    19  H    4.053176   4.940702   2.855023   3.154607   4.554278
    20  H    3.795316   5.137050   3.463009   4.774936   6.049493
    21  H    3.405375   4.491101   4.013371   5.475420   6.329781
    22  H    2.146793   2.484607   3.485923   4.687856   5.015183
    23  H    2.290306   1.548627   2.811514   2.655722   1.938605
    24  H    5.123893   4.556762   4.766010   3.473014   2.138833
    25  H    6.422184   6.245185   5.528053   4.026916   3.455285
    26  H    6.012957   6.367387   4.724566   3.483039   3.900626
                   11         12         13         14         15
    11  O    0.000000
    12  C    2.292151   0.000000
    13  C    3.593667   1.390945   0.000000
    14  C    4.123634   2.394354   1.399968   0.000000
    15  C    3.659663   2.736089   2.409414   1.395084   0.000000
    16  F    4.809320   4.067627   3.585149   2.296276   1.350263
    17  H    6.543483   6.728570   6.658552   5.554832   4.333263
    18  H    6.141068   6.005267   5.735618   4.490662   3.353594
    19  H    5.577149   5.285531   5.047055   3.930954   2.856958
    20  H    6.442508   7.274087   7.521920   6.582537   5.207721
    21  H    6.186985   7.727171   8.384962   7.795374   6.422140
    22  H    4.471538   6.406566   7.387700   7.212150   6.008436
    23  H    0.979715   3.113403   4.353851   4.708791   4.008743
    24  H    2.419258   1.099216   2.181395   3.408018   3.832266
    25  H    4.455601   2.171716   1.100399   2.179981   3.415593
    26  H    5.210842   3.412363   2.200854   1.098959   2.141231
                   16         17         18         19         20
    16  F    0.000000
    17  H    3.547542   0.000000
    18  H    2.221691   1.785899   0.000000
    19  H    2.236873   1.783266   1.786473   0.000000
    20  H    4.582220   2.245252   2.893804   3.590848   0.000000
    21  H    6.245578   4.459168   5.131280   5.470701   2.507282
    22  H    6.381215   5.527353   6.093072   5.831438   4.317623
    23  H    5.033896   6.204186   6.042800   5.440599   5.945688
    24  H    5.159682   7.744125   7.074464   6.335506   8.179217
    25  H    4.470880   7.634321   6.663975   5.967302   8.587993
    26  H    2.464044   5.802058   4.586338   4.172270   7.019966
                   21         22         23         24         25
    21  H    0.000000
    22  H    2.570602   0.000000
    23  H    5.447159   3.553777   0.000000
    24  H    8.393125   6.817684   3.307465   0.000000
    25  H    9.484396   8.438945   5.276276   2.536782   0.000000
    26  H    8.492395   8.139233   5.792291   4.352568   2.564461
                   26
    26  H    0.000000
 Symmetry turned off by external request.
 Stoichiometry    C13H10F2O
 Framework group  C1[X(C13H10F2O)]
 Deg. of freedom    72
 Full point group                 C1      NOp   1
 Rotational constants (GHZ):           0.8393394           0.4708549           0.3129871
 Standard basis: def2SVP (5D, 7F)
   274 basis functions,   470 primitive gaussians,   290 cartesian basis functions
    57 alpha electrons       57 beta electrons
       nuclear repulsion energy      1069.6158334011 Hartrees.
 NAtoms=   26 NActive=   26 NUniq=   26 SFac= 1.00D+00 NAtFMM=   60 NAOKFM=F Big=F
 Integral buffers will be    131072 words long.
 Raffenetti 2 integral format.
 Two-electron integral symmetry is turned off.
 Nuclear repulsion after empirical dispersion term =     1069.5642680351 Hartrees.
 One-electron integrals computed using PRISM.
   1 Symmetry operations used in ECPInt.
 ECPInt:  NShTT=    8001 NPrTT=   29641 LenC2=    7589 LenP2D=   20280.
 LDataN:  DoStor=T MaxTD1= 4 Len=   56
 NBasis=   274 RedAO= T EigKep=  3.17D-04  NBF=   274
 NBsUse=   274 1.00D-06 EigRej= -1.00D+00 NBFU=   274
 Initial guess from the checkpoint file:  "path/to/scratch/gaussian_tmp/Gau-2280007.chk"
 B after Tr=     0.006484    0.006219   -0.012356
         Rot=    0.999997    0.002238    0.000221    0.000260 Ang=   0.26 deg.
 ExpMin= 1.22D-01 ExpMax= 2.89D+03 ExpMxC= 4.35D+02 IAcc=3 IRadAn=         5 AccDes= 0.00D+00
 Harris functional with IExCor=  404 and IRadAn=       5 diagonalized for initial guess.
 HarFok:  IExCor=  404 AccDes= 0.00D+00 IRadAn=         5 IDoV= 1 UseB2=F ITyADJ=14
 ICtDFT=  3500011 ScaDFX=  1.000000  1.000000  1.000000  1.000000
 FoFCou: FMM=F IPFlag=           0 FMFlag=      100000 FMFlg1=           0
         NFxFlg=           0 DoJE=T BraDBF=F KetDBF=T FulRan=T
         wScrn=  0.000000 ICntrl=       500 IOpCl=  0 I1Cent=   200000004 NGrid=           0
         NMat0=    1 NMatS0=      1 NMatT0=    0 NMatD0=    1 NMtDS0=    0 NMtDT0=    0
 Symmetry not used in FoFCou.
 Requested convergence on RMS density matrix=1.00D-08 within 128 cycles.
 Requested convergence on MAX density matrix=1.00D-06.
 Requested convergence on             energy=1.00D-06.
 No special actions if energy rises.
 Integral accuracy reduced to 1.0D-05 until final iterations.
 Initial convergence to 1.0D-05 achieved.  Increase integral accuracy.
 SCF Done:  E(RB-P86) =  -775.751015814     A.U. after   12 cycles
            NFock= 12  Conv=0.70D-08     -V/T= 2.0104
 DoSCS=F DFT=T ScalE2(SS,OS)=  1.000000  1.000000
 Range of M.O.s used for correlation:     1   274
 NBasis=   274 NAE=    57 NBE=    57 NFC=     0 NFV=     0
 NROrb=    274 NOA=    57 NOB=    57 NVA=   217 NVB=   217
 Symmetrizing basis deriv contribution to polar:
 IMax=3 JMax=2 DiffMx= 0.00D+00
   1 Symmetry operations used in ECPInt.
 ECPInt:  NShTT=    8001 NPrTT=   29641 LenC2=    7589 LenP2D=   20280.
 LDataN:  DoStor=T MaxTD1= 5 Len=  102
 Calling FoFJK, ICntrl=      2527 FMM=F ISym2X=0 I1Cent= 0 IOpClX= 0 NMat=1 NMatS=1 NMatT=0.
 -------------------------------------------------------------------
 Center     Atomic                   Forces (Hartrees/Bohr)
 Number     Number              X              Y              Z
 -------------------------------------------------------------------
      1        6           0.000193144   -0.000113368   -0.000096890
      2        6           0.000017252   -0.000010939   -0.000037683
      3        6          -0.000012870    0.000018340   -0.000010067
      4        6           0.000005700   -0.000010595   -0.000012027
      5        6          -0.000022509    0.000008065    0.000000472
      6        6           0.000061478   -0.000054840   -0.000033033
      7        9           0.000167524   -0.000032654    0.000441262
      8        6          -0.000079453    0.000078486    0.000079413
      9        6           0.000077485    0.000070582   -0.000104091
     10        6           0.000001562    0.000079984   -0.000027895
     11        8          -0.000166108   -0.000176688   -0.000337363
     12        6          -0.000012433   -0.000005086    0.000011441
     13        6           0.000000776    0.000010261    0.000000587
     14        6           0.000007816   -0.000000817    0.000003389
     15        6          -0.000022428   -0.000000243    0.000037539
     16        9          -0.000350919    0.000110037    0.000049360
     17        1           0.000031270    0.000016463    0.000003150
     18        1           0.000074221   -0.000001607    0.000051373
     19        1           0.000074170   -0.000023103    0.000014013
     20        1          -0.000001360   -0.000006498    0.000008299
     21        1          -0.000000082    0.000000684    0.000004080
     22        1           0.000001416   -0.000000624    0.000004318
     23        1          -0.000050084    0.000045370   -0.000044034
     24        1           0.000003641   -0.000000263   -0.000000519
     25        1          -0.000000465   -0.000000571   -0.000003147
     26        1           0.000001256   -0.000000377   -0.000001947
 -------------------------------------------------------------------
 Cartesian Forces:  Max     0.000441262 RMS     0.000093190

 GradGradGradGradGradGradGradGradGradGradGradGradGradGradGradGradGradGrad
 Berny optimization.
 FormGI is forming the generalized inverse of G from B-inverse, IUseBI=4.
 Internal  Forces:  Max     0.000643109 RMS     0.000203251
 Search for a saddle point.
 Step number   3 out of a maximum of  140
 All quantities printed in internal units (Hartrees-Bohrs-Radians)
 Swapping is turned off.
 Update second derivatives using D2CorX and points    1    2    3
 ITU=  0  0  0
     Eigenvalues ---   -0.02505   0.00336   0.00732   0.01135   0.01473
     Eigenvalues ---    0.01556   0.01579   0.01631   0.01719   0.01752
     Eigenvalues ---    0.01912   0.02119   0.02149   0.02249   0.02329
     Eigenvalues ---    0.02606   0.02857   0.02926   0.03120   0.03850
     Eigenvalues ---    0.04883   0.05238   0.05514   0.09848   0.09888
     Eigenvalues ---    0.10586   0.10807   0.10966   0.11138   0.11563
     Eigenvalues ---    0.13202   0.14194   0.14620   0.16339   0.16485
     Eigenvalues ---    0.17079   0.17712   0.17885   0.18150   0.18685
     Eigenvalues ---    0.19504   0.19869   0.22923   0.25447   0.26870
     Eigenvalues ---    0.27405   0.29401   0.31581   0.32202   0.32678
     Eigenvalues ---    0.33036   0.33573   0.34021   0.34335   0.34481
     Eigenvalues ---    0.34507   0.34796   0.34896   0.34982   0.35780
     Eigenvalues ---    0.39812   0.40443   0.43463   0.44407   0.45735
     Eigenvalues ---    0.46199   0.47384   0.49023   0.49397   0.51413
     Eigenvalues ---    0.84917   2.23935
 Eigenvectors required to have negative eigenvalues:
                          D31       D32       D33       D34       D43
   1                   -0.46795  -0.44908  -0.40756  -0.38869   0.19271
                          D44       D40       D2        D4        D6
   1                    0.16048  -0.14121   0.13661   0.13001   0.12781
 RFO step:  Lambda0=5.654747515D-05 Lambda=-3.09137276D-05.
 Linear search not attempted -- option 19 set.
 Iteration  1 RMS(Cart)=  0.01531708 RMS(Int)=  0.00009378
 Iteration  2 RMS(Cart)=  0.00011924 RMS(Int)=  0.00000086
 Iteration  3 RMS(Cart)=  0.00000001 RMS(Int)=  0.00000086
 Variable       Old X    -DE/DX   Delta X   Delta X   Delta X     New X
                                 (Linear)    (Quad)   (Total)
    R1        2.87546   0.00001   0.00000   0.00018   0.00018   2.87564
    R2        2.09556  -0.00002   0.00000  -0.00032  -0.00032   2.09524
    R3        2.09113   0.00005   0.00000  -0.00008  -0.00008   2.09105
    R4        2.08473   0.00005   0.00000   0.00006   0.00006   2.08479
    R5        2.67072  -0.00003   0.00000   0.00021   0.00021   2.67093
    R6        2.75512  -0.00045   0.00000   0.00053   0.00053   2.75564
    R7        2.64255   0.00012   0.00000  -0.00001  -0.00001   2.64254
    R8        2.08222  -0.00001   0.00000  -0.00011  -0.00011   2.08211
    R9        2.64075   0.00016   0.00000  -0.00055  -0.00055   2.64020
   R10        2.07862   0.00000   0.00000  -0.00001  -0.00001   2.07861
   R11        2.63178   0.00005   0.00000   0.00021   0.00021   2.63199
   R12        2.07774  -0.00000   0.00000  -0.00001  -0.00001   2.07773
   R13        2.61556  -0.00004   0.00000  -0.00006  -0.00006   2.61550
   R14        2.70450  -0.00018   0.00000  -0.00008  -0.00008   2.70442
   R15        2.84328  -0.00055   0.00000   0.00154   0.00154   2.84483
   R16        2.75960  -0.00030   0.00000   0.00031   0.00031   2.75991
   R17        2.71253  -0.00027   0.00000  -0.00049  -0.00049   2.71204
   R18        2.55404   0.00006   0.00000   0.00034   0.00034   2.55438
   R19        2.67733   0.00001   0.00000   0.00001   0.00001   2.67734
   R20        1.85139   0.00005   0.00000  -0.00021  -0.00021   1.85118
   R21        2.62850   0.00016   0.00000  -0.00015  -0.00015   2.62835
   R22        2.07722   0.00000   0.00000  -0.00002  -0.00002   2.07720
   R23        2.64556   0.00013   0.00000  -0.00020  -0.00020   2.64536
   R24        2.07945  -0.00000   0.00000  -0.00000  -0.00000   2.07945
   R25        2.63633  -0.00001   0.00000   0.00006   0.00006   2.63638
   R26        2.07673   0.00000   0.00000  -0.00000  -0.00000   2.07673
   R27        2.55163   0.00024   0.00000  -0.00008  -0.00008   2.55155
    A1        1.87138   0.00008   0.00000   0.00096   0.00096   1.87234
    A2        1.98777  -0.00005   0.00000   0.00037   0.00037   1.98814
    A3        1.96629  -0.00005   0.00000  -0.00136  -0.00136   1.96493
    A4        1.87503   0.00002   0.00000   0.00015   0.00015   1.87518
    A5        1.87518   0.00002   0.00000   0.00068   0.00068   1.87586
    A6        1.88300  -0.00001   0.00000  -0.00068  -0.00068   1.88232
    A7        1.96971   0.00064   0.00000  -0.00126  -0.00127   1.96845
    A8        2.21531  -0.00064   0.00000   0.00203   0.00203   2.21734
    A9        2.08620   0.00000   0.00000  -0.00034  -0.00034   2.08586
   A10        2.15920  -0.00017   0.00000   0.00092   0.00092   2.16012
   A11        2.04458   0.00009   0.00000  -0.00031  -0.00031   2.04427
   A12        2.07690   0.00008   0.00000  -0.00051  -0.00051   2.07638
   A13        2.04303   0.00010   0.00000  -0.00017  -0.00017   2.04286
   A14        2.11889  -0.00004   0.00000  -0.00005  -0.00005   2.11884
   A15        2.11549  -0.00005   0.00000   0.00033   0.00033   2.11582
   A16        2.06399  -0.00002   0.00000  -0.00018  -0.00018   2.06381
   A17        2.15012   0.00002   0.00000   0.00027   0.00027   2.15039
   A18        2.06784   0.00000   0.00000  -0.00006  -0.00006   2.06778
   A19        1.97440   0.00024   0.00000  -0.00107  -0.00107   1.97332
   A20        2.21251  -0.00026   0.00000   0.00095   0.00095   2.21346
   A21        2.09406   0.00004   0.00000   0.00026   0.00026   2.09433
   A22        1.92828   0.00040   0.00000   0.00006   0.00006   1.92835
   A23        2.22581  -0.00059   0.00000   0.00327   0.00327   2.22908
   A24        2.12909   0.00019   0.00000  -0.00334  -0.00333   2.12575
   A25        2.18864   0.00006   0.00000  -0.00250  -0.00250   2.18615
   A26        2.15256  -0.00047   0.00000   0.00252   0.00252   2.15508
   A27        1.93325   0.00042   0.00000   0.00005   0.00005   1.93330
   A28        2.20665  -0.00016   0.00000   0.00021   0.00021   2.20687
   A29        2.12229  -0.00019   0.00000   0.00050   0.00050   2.12279
   A30        1.95067   0.00036   0.00000  -0.00063  -0.00063   1.95004
   A31        1.94649  -0.00011   0.00000  -0.00048  -0.00048   1.94602
   A32        2.13217  -0.00005   0.00000   0.00022   0.00022   2.13239
   A33        2.02232   0.00003   0.00000  -0.00018  -0.00018   2.02214
   A34        2.12739   0.00003   0.00000   0.00003   0.00003   2.12742
   A35        2.06237   0.00008   0.00000  -0.00024  -0.00024   2.06214
   A36        2.10961  -0.00004   0.00000   0.00017   0.00017   2.10978
   A37        2.10983  -0.00004   0.00000   0.00013   0.00013   2.10996
   A38        2.07851  -0.00010   0.00000   0.00031   0.00031   2.07882
   A39        2.14686   0.00005   0.00000   0.00004   0.00004   2.14691
   A40        2.05630   0.00005   0.00000  -0.00030  -0.00030   2.05600
   A41        2.20333  -0.00013   0.00000   0.00051   0.00051   2.20383
   A42        2.09688  -0.00030   0.00000   0.00034   0.00034   2.09723
   A43        1.98128   0.00043   0.00000  -0.00077  -0.00077   1.98051
    D1       -0.54203   0.00001   0.00000   0.02369   0.02369  -0.51833
    D2        2.43157  -0.00001   0.00000   0.02656   0.02656   2.45813
    D3        1.52979   0.00007   0.00000   0.02474   0.02474   1.55453
    D4       -1.77980   0.00004   0.00000   0.02761   0.02761  -1.75219
    D5       -2.60147  -0.00003   0.00000   0.02303   0.02303  -2.57844
    D6        0.37212  -0.00005   0.00000   0.02590   0.02590   0.39802
    D7        2.83536   0.00001   0.00000   0.00461   0.00460   2.83996
    D8       -0.22925  -0.00002   0.00000   0.00312   0.00312  -0.22613
    D9       -0.15200   0.00011   0.00000   0.00171   0.00171  -0.15029
   D10        3.06658   0.00008   0.00000   0.00022   0.00022   3.06680
   D11       -2.59568  -0.00012   0.00000  -0.00643  -0.00643  -2.60211
   D12        0.54209  -0.00009   0.00000  -0.00677  -0.00677   0.53532
   D13        0.36789  -0.00009   0.00000  -0.00345  -0.00345   0.36444
   D14       -2.77753  -0.00007   0.00000  -0.00379  -0.00379  -2.78132
   D15       -0.12641   0.00005   0.00000   0.00086   0.00086  -0.12555
   D16        3.12918  -0.00005   0.00000  -0.00029  -0.00029   3.12889
   D17        2.93685   0.00008   0.00000   0.00238   0.00238   2.93924
   D18       -0.09074  -0.00002   0.00000   0.00123   0.00123  -0.08951
   D19        0.14460  -0.00010   0.00000  -0.00142  -0.00142   0.14318
   D20       -2.94276  -0.00014   0.00000  -0.00207  -0.00207  -2.94484
   D21       -3.11075  -0.00001   0.00000  -0.00030  -0.00030  -3.11105
   D22        0.08507  -0.00005   0.00000  -0.00095  -0.00095   0.08412
   D23       -2.94682  -0.00024   0.00000  -0.00277  -0.00277  -2.94959
   D24        0.12261  -0.00003   0.00000  -0.00054  -0.00054   0.12207
   D25        0.14314  -0.00020   0.00000  -0.00213  -0.00213   0.14101
   D26       -3.07061   0.00001   0.00000   0.00009   0.00009  -3.07051
   D27       -0.37240   0.00010   0.00000   0.00282   0.00282  -0.36958
   D28        2.77277   0.00008   0.00000   0.00312   0.00312   2.77589
   D29        2.69257   0.00033   0.00000   0.00514   0.00514   2.69771
   D30       -0.44545   0.00031   0.00000   0.00544   0.00544  -0.44001
   D31        2.97405   0.00060   0.00000  -0.01324  -0.01324   2.96081
   D32       -0.01270   0.00053   0.00000  -0.01389  -0.01389  -0.02659
   D33       -0.17177   0.00062   0.00000  -0.01360  -0.01360  -0.18538
   D34        3.12467   0.00055   0.00000  -0.01426  -0.01426   3.11041
   D35       -0.22748   0.00027   0.00000   0.00565   0.00565  -0.22183
   D36        3.01258   0.00007   0.00000   0.00458   0.00458   3.01716
   D37        2.77586   0.00026   0.00000   0.00646   0.00646   2.78232
   D38       -0.26726   0.00006   0.00000   0.00540   0.00540  -0.26187
   D39       -3.01590  -0.00004   0.00000  -0.00443  -0.00443  -3.02033
   D40        0.19241   0.00004   0.00000  -0.00600  -0.00600   0.18641
   D41        0.26055  -0.00008   0.00000  -0.00476  -0.00476   0.25579
   D42       -2.81433  -0.00001   0.00000  -0.00633  -0.00633  -2.82065
   D43        0.56779  -0.00009   0.00000   0.00624   0.00624   0.57403
   D44       -2.66409   0.00007   0.00000   0.00727   0.00727  -2.65682
   D45        0.13352  -0.00004   0.00000  -0.00288  -0.00288   0.13064
   D46       -3.06196   0.00000   0.00000  -0.00153  -0.00153  -3.06349
   D47       -2.92280  -0.00019   0.00000  -0.00384  -0.00384  -2.92664
   D48        0.16490  -0.00015   0.00000  -0.00248  -0.00248   0.16242
   D49        0.05052  -0.00006   0.00000  -0.00107  -0.00107   0.04945
   D50        3.13629   0.00001   0.00000   0.00034   0.00034   3.13664
   D51       -3.03395  -0.00010   0.00000  -0.00250  -0.00250  -3.03645
   D52        0.05182  -0.00004   0.00000  -0.00109  -0.00109   0.05073
   D53       -0.06889   0.00004   0.00000   0.00188   0.00188  -0.06701
   D54        3.01240   0.00005   0.00000   0.00296   0.00296   3.01536
   D55        3.12853  -0.00002   0.00000   0.00047   0.00047   3.12900
   D56       -0.07336  -0.00001   0.00000   0.00155   0.00155  -0.07181
   D57       -0.10260   0.00008   0.00000   0.00125   0.00126  -0.10134
   D58        2.97608  -0.00002   0.00000   0.00277   0.00277   2.97884
   D59        3.09616   0.00007   0.00000   0.00022   0.00022   3.09638
   D60       -0.10834  -0.00003   0.00000   0.00173   0.00173  -0.10661
         Item               Value     Threshold  Converged?
 Maximum Force            0.000643     0.000450     NO 
 RMS     Force            0.000203     0.000300     YES
 Maximum Displacement     0.068007     0.001800     NO 
 RMS     Displacement     0.015310     0.001200     NO 
 Predicted change in Energy= 1.283325D-05
 GradGradGradGradGradGradGradGradGradGradGradGradGradGradGradGradGradGrad

                          Input orientation:                          
 ---------------------------------------------------------------------
 Center     Atomic      Atomic             Coordinates (Angstroms)
 Number     Number       Type             X           Y           Z
 ---------------------------------------------------------------------
      1          6           0       -1.082203    2.506887   -1.248372
      2          6           0       -1.503686    1.204743   -0.583229
      3          6           0       -2.879699    1.174735   -0.261702
      4          6           0       -3.585367    0.002120    0.025437
      5          6           0       -2.911662   -1.207186   -0.163460
      6          6           0       -1.549539   -1.164998   -0.451046
      7          9           0       -1.042266   -2.388169   -0.853730
      8          6           0       -0.706732   -0.008405   -0.443401
      9          6           0        0.788832   -0.117610   -0.310574
     10          6           0        1.517552   -1.333995    0.039258
     11          8           0        0.985404   -2.476227    0.528405
     12          6           0        2.932657   -1.389890   -0.001208
     13          6           0        3.712449   -0.260126   -0.224960
     14          6           0        3.064995    0.974254   -0.354307
     15          6           0        1.670582    1.014443   -0.335789
     16          9           0        1.169443    2.266362   -0.267563
     17          1           0       -1.960579    2.891775   -1.804838
     18          1           0       -0.770065    3.293919   -0.535932
     19          1           0       -0.264887    2.365824   -1.975833
     20          1           0       -3.428287    2.128941   -0.311902
     21          1           0       -4.654566    0.025115    0.282687
     22          1           0       -3.413365   -2.185352   -0.144443
     23          1           0        0.085949   -2.633883    0.173799
     24          1           0        3.379798   -2.372379    0.206235
     25          1           0        4.810568   -0.327213   -0.247493
     26          1           0        3.604502    1.929628   -0.416740
 ---------------------------------------------------------------------
                    Distance matrix (angstroms):
                    1          2          3          4          5
     1  C    0.000000
     2  C    1.521723   0.000000
     3  C    2.445228   1.413397   0.000000
     4  C    3.763280   2.479954   1.398371   0.000000
     5  C    4.279987   2.824182   2.384161   1.397134   0.000000
     6  C    3.786406   2.373868   2.698060   2.394535   1.392790
     7  F    4.911100   3.632505   4.052276   3.599136   2.316427
     8  C    2.667517   1.458224   2.480851   2.916583   2.525304
     9  C    3.356817   2.660564   3.889815   4.388719   3.860373
    10  C    4.813428   3.995067   5.071501   5.274957   4.435664
    11  O    5.680085   4.580485   5.375204   5.223709   4.156473
    12  C    5.732311   5.172235   6.358352   6.665061   5.849425
    13  C    5.629602   5.429757   6.746598   7.306818   6.691753
    14  C    4.510827   4.580216   5.948794   6.731757   6.365181
    15  C    3.261598   3.189580   4.553706   5.364726   5.095321
    16  F    2.467741   2.893493   4.193714   5.274548   5.360205
    17  H    1.108755   2.132406   2.484810   3.786813   4.516654
    18  H    1.106535   2.214744   3.002782   4.367722   4.998512
    19  H    1.103224   2.195923   3.345770   4.540679   4.801720
    20  H    2.554198   2.152173   1.101806   2.159129   3.379154
    21  H    4.611411   3.474101   2.183607   1.099951   2.180671
    22  H    5.354444   3.915629   3.404223   2.200790   1.099488
    23  H    5.460281   4.223161   4.846680   4.522067   3.336897
    24  H    6.769975   6.104709   7.209874   7.361009   6.409120
    25  H    6.615030   6.506106   7.835576   8.406823   7.772661
    26  H    4.794794   5.162051   6.529837   7.456878   7.236308
                    6          7          8          9         10
     6  C    0.000000
     7  F    1.384062   0.000000
     8  C    1.431115   2.438079   0.000000
     9  C    2.566074   2.967049   1.505417   0.000000
    10  C    3.110628   2.908844   2.633930   1.460482   0.000000
    11  O    3.017380   2.455503   3.146090   2.511096   1.351718
    12  C    4.510323   4.186092   3.917804   2.512049   1.416787
    13  C    5.344009   5.247021   4.431731   2.928340   2.457759
    14  C    5.087208   5.331501   3.898651   2.524875   2.806686
    15  C    3.890042   4.382416   2.590255   1.435152   2.383116
    16  F    4.381867   5.186512   2.953898   2.414546   3.630136
    17  H    4.296408   5.442951   3.440449   4.341484   5.775398
    18  H    4.527331   5.697474   3.304227   3.757589   5.194384
    19  H    4.054875   4.946098   2.860164   3.170308   4.574532
    20  H    3.794613   5.137213   3.463004   4.778188   6.047856
    21  H    3.405279   4.490445   4.014190   5.477491   6.324672
    22  H    2.146851   2.483210   3.486307   4.686322   5.007244
    23  H    2.285361   1.545658   2.811124   2.657121   1.938375
    24  H    5.117436   4.547353   4.765514   3.473353   2.138711
    25  H    6.418277   6.234639   5.529975   4.027688   3.455401
    26  H    6.011824   6.358206   4.726883   3.482880   3.900581
                   11         12         13         14         15
    11  O    0.000000
    12  C    2.291815   0.000000
    13  C    3.593806   1.390865   0.000000
    14  C    4.124281   2.394027   1.399864   0.000000
    15  C    3.660749   2.735981   2.409570   1.395115   0.000000
    16  F    4.812441   4.067929   3.584945   2.295688   1.350220
    17  H    6.552732   6.747555   6.679351   5.571115   4.343709
    18  H    6.124466   5.994510   5.728950   4.485702   3.345568
    19  H    5.592844   5.313080   5.077437   3.956505   2.874372
    20  H    6.433845   7.276009   7.530292   6.595287   5.219304
    21  H    6.174654   7.723263   8.387253   7.803733   6.431857
    22  H    4.459428   6.397286   7.381747   7.210845   6.010142
    23  H    0.979602   3.111574   4.352612   4.708743   4.010115
    24  H    2.418201   1.099206   2.181330   3.407823   3.832202
    25  H    4.455577   2.171748   1.100397   2.179965   3.415750
    26  H    5.211961   3.412219   2.200784   1.098957   2.141066
                   16         17         18         19         20
    16  F    0.000000
    17  H    3.542794   0.000000
    18  H    2.211242   1.785823   0.000000
    19  H    2.232797   1.783601   1.786023   0.000000
    20  H    4.599997   2.228215   2.910929   3.582161   0.000000
    21  H    6.264587   4.453434   5.142428   5.463434   2.506667
    22  H    6.390230   5.535767   6.096122   5.829245   4.317567
    23  H    5.037972   6.215801   6.031196   5.453538   5.938876
    24  H    5.160239   7.763721   7.062515   6.363625   8.178042
    25  H    4.470439   7.657391   6.658773   5.999988   8.597416
    26  H    2.462754   5.815726   4.583922   4.194426   7.036394
                   21         22         23         24         25
    21  H    0.000000
    22  H    2.570833   0.000000
    23  H    5.436415   3.542267   0.000000
    24  H    8.384797   6.804778   3.304372   0.000000
    25  H    9.486516   8.431866   5.274490   2.536864   0.000000
    26  H    8.504621   8.139881   5.792632   4.352684   2.564482
                   26
    26  H    0.000000
 Symmetry turned off by external request.
 Stoichiometry    C13H10F2O
 Framework group  C1[X(C13H10F2O)]
 Deg. of freedom    72
 Full point group                 C1      NOp   1
 Rotational constants (GHZ):           0.8393652           0.4707121           0.3127739
 Standard basis: def2SVP (5D, 7F)
   274 basis functions,   470 primitive gaussians,   290 cartesian basis functions
    57 alpha electrons       57 beta electrons
       nuclear repulsion energy      1069.5647523490 Hartrees.
 NAtoms=   26 NActive=   26 NUniq=   26 SFac= 1.00D+00 NAtFMM=   60 NAOKFM=F Big=F
 Integral buffers will be    131072 words long.
 Raffenetti 2 integral format.
 Two-electron integral symmetry is turned off.
 Nuclear repulsion after empirical dispersion term =     1069.5132030111 Hartrees.
 One-electron integrals computed using PRISM.
   1 Symmetry operations used in ECPInt.
 ECPInt:  NShTT=    8001 NPrTT=   29641 LenC2=    7591 LenP2D=   20283.
 LDataN:  DoStor=T MaxTD1= 4 Len=   56
 NBasis=   274 RedAO= T EigKep=  3.15D-04  NBF=   274
 NBsUse=   274 1.00D-06 EigRej= -1.00D+00 NBFU=   274
 Initial guess from the checkpoint file:  "path/to/scratch/gaussian_tmp/Gau-2280007.chk"
 B after Tr=     0.002575    0.002575   -0.005419
         Rot=    0.999999    0.001368    0.000016    0.000068 Ang=   0.16 deg.
 ExpMin= 1.22D-01 ExpMax= 2.89D+03 ExpMxC= 4.35D+02 IAcc=3 IRadAn=         5 AccDes= 0.00D+00
 Harris functional with IExCor=  404 and IRadAn=       5 diagonalized for initial guess.
 HarFok:  IExCor=  404 AccDes= 0.00D+00 IRadAn=         5 IDoV= 1 UseB2=F ITyADJ=14
 ICtDFT=  3500011 ScaDFX=  1.000000  1.000000  1.000000  1.000000
 FoFCou: FMM=F IPFlag=           0 FMFlag=      100000 FMFlg1=           0
         NFxFlg=           0 DoJE=T BraDBF=F KetDBF=T FulRan=T
         wScrn=  0.000000 ICntrl=       500 IOpCl=  0 I1Cent=   200000004 NGrid=           0
         NMat0=    1 NMatS0=      1 NMatT0=    0 NMatD0=    1 NMtDS0=    0 NMtDT0=    0
 Symmetry not used in FoFCou.
 Requested convergence on RMS density matrix=1.00D-08 within 128 cycles.
 Requested convergence on MAX density matrix=1.00D-06.
 Requested convergence on             energy=1.00D-06.
 No special actions if energy rises.
 Integral accuracy reduced to 1.0D-05 until final iterations.
 Initial convergence to 1.0D-05 achieved.  Increase integral accuracy.
 SCF Done:  E(RB-P86) =  -775.751003848     A.U. after   11 cycles
            NFock= 11  Conv=0.64D-08     -V/T= 2.0104
 DoSCS=F DFT=T ScalE2(SS,OS)=  1.000000  1.000000
 Range of M.O.s used for correlation:     1   274
 NBasis=   274 NAE=    57 NBE=    57 NFC=     0 NFV=     0
 NROrb=    274 NOA=    57 NOB=    57 NVA=   217 NVB=   217

 **** Warning!!: The largest alpha MO coefficient is  0.10083551D+02

 Symmetrizing basis deriv contribution to polar:
 IMax=3 JMax=2 DiffMx= 0.00D+00
   1 Symmetry operations used in ECPInt.
 ECPInt:  NShTT=    8001 NPrTT=   29641 LenC2=    7591 LenP2D=   20283.
 LDataN:  DoStor=T MaxTD1= 5 Len=  102
 Calling FoFJK, ICntrl=      2527 FMM=F ISym2X=0 I1Cent= 0 IOpClX= 0 NMat=1 NMatS=1 NMatT=0.
 -------------------------------------------------------------------
 Center     Atomic                   Forces (Hartrees/Bohr)
 Number     Number              X              Y              Z
 -------------------------------------------------------------------
      1        6           0.000045618    0.000002706    0.000071060
      2        6          -0.000006127   -0.000007861   -0.000011243
      3        6           0.000005067    0.000020871    0.000016499
      4        6          -0.000000343   -0.000010205   -0.000007163
      5        6          -0.000008091    0.000003190   -0.000000032
      6        6           0.000009146   -0.000002741    0.000025455
      7        9          -0.000002805    0.000004282   -0.000039103
      8        6          -0.000015011   -0.000016484   -0.000044454
      9        6          -0.000002020   -0.000005910    0.000017644
     10        6          -0.000014087   -0.000012074   -0.000004425
     11        8           0.000021416    0.000001737    0.000006795
     12        6           0.000009445    0.000004043    0.000003226
     13        6          -0.000001786   -0.000006466    0.000005571
     14        6          -0.000005230    0.000004909   -0.000000593
     15        6          -0.000002969    0.000006075    0.000022610
     16        9          -0.000052708    0.000022800   -0.000100785
     17        1           0.000011175   -0.000010155   -0.000019187
     18        1          -0.000011868   -0.000000766    0.000014404
     19        1           0.000027547    0.000001200    0.000015439
     20        1           0.000000313   -0.000003950    0.000004748
     21        1           0.000000318   -0.000000741    0.000001819
     22        1           0.000000488   -0.000000559    0.000002331
     23        1          -0.000007549    0.000005681    0.000021468
     24        1           0.000000197    0.000000149   -0.000000367
     25        1           0.000000047   -0.000000188   -0.000002752
     26        1          -0.000000182    0.000000459    0.000001036
 -------------------------------------------------------------------
 Cartesian Forces:  Max     0.000100785 RMS     0.000019976

 GradGradGradGradGradGradGradGradGradGradGradGradGradGradGradGradGradGrad
 Berny optimization.
 FormGI is forming the generalized inverse of G from B-inverse, IUseBI=4.
 Internal  Forces:  Max     0.000216346 RMS     0.000045924
 Search for a saddle point.
 Step number   4 out of a maximum of  140
 All quantities printed in internal units (Hartrees-Bohrs-Radians)
 Swapping is turned off.
 Update second derivatives using D2CorX and points    1    2    3    4
 ITU=  0  0  0  0
     Eigenvalues ---   -0.02781   0.00398   0.00741   0.01149   0.01473
     Eigenvalues ---    0.01557   0.01579   0.01631   0.01723   0.01753
     Eigenvalues ---    0.01950   0.02120   0.02156   0.02253   0.02330
     Eigenvalues ---    0.02608   0.02858   0.02931   0.03136   0.03867
     Eigenvalues ---    0.04900   0.05238   0.05514   0.09848   0.09888
     Eigenvalues ---    0.10586   0.10807   0.10966   0.11138   0.11563
     Eigenvalues ---    0.13202   0.14194   0.14620   0.16340   0.16485
     Eigenvalues ---    0.17079   0.17712   0.17885   0.18150   0.18685
     Eigenvalues ---    0.19503   0.19868   0.22923   0.25445   0.26870
     Eigenvalues ---    0.27405   0.29401   0.31580   0.32201   0.32678
     Eigenvalues ---    0.33036   0.33573   0.34021   0.34335   0.34481
     Eigenvalues ---    0.34507   0.34796   0.34896   0.34982   0.35780
     Eigenvalues ---    0.39812   0.40443   0.43463   0.44407   0.45735
     Eigenvalues ---    0.46199   0.47384   0.49023   0.49397   0.51413
     Eigenvalues ---    0.84852   2.23905
 Eigenvectors required to have negative eigenvalues:
                          D31       D32       D33       D34       D43
   1                   -0.46513  -0.44866  -0.40697  -0.39049   0.18277
                          D44       D40       D2        D4        D6
   1                    0.14973  -0.14334   0.14265   0.13615   0.13378
 RFO step:  Lambda0=8.387931294D-07 Lambda=-1.07983161D-06.
 Linear search not attempted -- option 19 set.
 Iteration  1 RMS(Cart)=  0.00171127 RMS(Int)=  0.00000163
 Iteration  2 RMS(Cart)=  0.00000185 RMS(Int)=  0.00000002
 Iteration  3 RMS(Cart)=  0.00000000 RMS(Int)=  0.00000002
 Variable       Old X    -DE/DX   Delta X   Delta X   Delta X     New X
                                 (Linear)    (Quad)   (Total)
    R1        2.87564  -0.00002   0.00000  -0.00004  -0.00004   2.87560
    R2        2.09524  -0.00000   0.00000   0.00005   0.00005   2.09530
    R3        2.09105   0.00001   0.00000   0.00003   0.00003   2.09108
    R4        2.08479   0.00001   0.00000  -0.00007  -0.00007   2.08472
    R5        2.67093   0.00000   0.00000  -0.00002  -0.00002   2.67092
    R6        2.75564  -0.00007   0.00000  -0.00011  -0.00011   2.75553
    R7        2.64254   0.00002   0.00000   0.00000   0.00000   2.64254
    R8        2.08211  -0.00000   0.00000  -0.00000  -0.00000   2.08211
    R9        2.64020   0.00001   0.00000   0.00004   0.00004   2.64024
   R10        2.07861   0.00000   0.00000   0.00000   0.00000   2.07861
   R11        2.63199   0.00001   0.00000  -0.00001  -0.00001   2.63198
   R12        2.07773   0.00000   0.00000   0.00000   0.00000   2.07773
   R13        2.61550   0.00001   0.00000   0.00001   0.00001   2.61550
   R14        2.70442  -0.00001   0.00000   0.00000   0.00000   2.70442
   R15        2.84483  -0.00006   0.00000  -0.00001  -0.00001   2.84481
   R16        2.75991   0.00000   0.00000  -0.00001  -0.00001   2.75990
   R17        2.71204  -0.00003   0.00000   0.00007   0.00007   2.71212
   R18        2.55438  -0.00000   0.00000  -0.00008  -0.00008   2.55430
   R19        2.67734   0.00001   0.00000   0.00004   0.00004   2.67738
   R20        1.85118  -0.00000   0.00000   0.00000   0.00000   1.85118
   R21        2.62835   0.00001   0.00000  -0.00003  -0.00003   2.62832
   R22        2.07720   0.00000   0.00000   0.00000   0.00000   2.07720
   R23        2.64536   0.00002   0.00000   0.00002   0.00002   2.64538
   R24        2.07945   0.00000   0.00000   0.00000   0.00000   2.07945
   R25        2.63638  -0.00001   0.00000  -0.00002  -0.00002   2.63636
   R26        2.07673   0.00000   0.00000  -0.00000  -0.00000   2.07672
   R27        2.55155   0.00004   0.00000   0.00004   0.00004   2.55158
    A1        1.87234   0.00001   0.00000  -0.00015  -0.00015   1.87219
    A2        1.98814  -0.00002   0.00000  -0.00029  -0.00029   1.98785
    A3        1.96493  -0.00000   0.00000   0.00036   0.00036   1.96529
    A4        1.87518   0.00001   0.00000   0.00002   0.00002   1.87520
    A5        1.87586   0.00000   0.00000  -0.00013  -0.00013   1.87573
    A6        1.88232   0.00000   0.00000   0.00017   0.00017   1.88250
    A7        1.96845   0.00010   0.00000   0.00011   0.00011   1.96855
    A8        2.21734  -0.00009   0.00000  -0.00018  -0.00018   2.21716
    A9        2.08586  -0.00000   0.00000   0.00009   0.00009   2.08595
   A10        2.16012  -0.00002   0.00000  -0.00013  -0.00013   2.15999
   A11        2.04427   0.00001   0.00000   0.00007   0.00007   2.04433
   A12        2.07638   0.00001   0.00000   0.00006   0.00006   2.07644
   A13        2.04286   0.00001   0.00000   0.00004   0.00004   2.04290
   A14        2.11884  -0.00001   0.00000   0.00000   0.00000   2.11885
   A15        2.11582  -0.00001   0.00000  -0.00004  -0.00004   2.11578
   A16        2.06381  -0.00001   0.00000   0.00004   0.00004   2.06385
   A17        2.15039   0.00000   0.00000  -0.00002  -0.00002   2.15036
   A18        2.06778   0.00000   0.00000  -0.00001  -0.00001   2.06777
   A19        1.97332   0.00002   0.00000   0.00007   0.00007   1.97340
   A20        2.21346  -0.00002   0.00000  -0.00010  -0.00010   2.21336
   A21        2.09433   0.00001   0.00000   0.00000   0.00000   2.09433
   A22        1.92835   0.00005   0.00000   0.00002   0.00002   1.92837
   A23        2.22908  -0.00022   0.00000  -0.00044  -0.00044   2.22864
   A24        2.12575   0.00017   0.00000   0.00041   0.00041   2.12617
   A25        2.18615   0.00014   0.00000   0.00027   0.00027   2.18642
   A26        2.15508  -0.00018   0.00000  -0.00033  -0.00033   2.15475
   A27        1.93330   0.00004   0.00000   0.00003   0.00003   1.93333
   A28        2.20687   0.00003   0.00000   0.00014   0.00014   2.20700
   A29        2.12279  -0.00003   0.00000  -0.00003  -0.00003   2.12276
   A30        1.95004  -0.00000   0.00000  -0.00010  -0.00010   1.94993
   A31        1.94602   0.00001   0.00000   0.00015   0.00015   1.94616
   A32        2.13239  -0.00000   0.00000   0.00001   0.00001   2.13240
   A33        2.02214   0.00000   0.00000  -0.00002  -0.00002   2.02212
   A34        2.12742   0.00000   0.00000  -0.00000  -0.00000   2.12742
   A35        2.06214   0.00001   0.00000   0.00002   0.00002   2.06216
   A36        2.10978  -0.00001   0.00000  -0.00002  -0.00002   2.10976
   A37        2.10996  -0.00001   0.00000  -0.00000  -0.00000   2.10996
   A38        2.07882  -0.00001   0.00000  -0.00001  -0.00001   2.07882
   A39        2.14691   0.00001   0.00000   0.00000   0.00000   2.14691
   A40        2.05600   0.00000   0.00000   0.00001   0.00001   2.05601
   A41        2.20383  -0.00001   0.00000  -0.00000  -0.00000   2.20383
   A42        2.09723  -0.00004   0.00000   0.00004   0.00004   2.09727
   A43        1.98051   0.00006   0.00000  -0.00002  -0.00002   1.98049
    D1       -0.51833  -0.00004   0.00000  -0.00373  -0.00373  -0.52207
    D2        2.45813  -0.00000   0.00000  -0.00363  -0.00363   2.45450
    D3        1.55453  -0.00003   0.00000  -0.00398  -0.00398   1.55055
    D4       -1.75219   0.00001   0.00000  -0.00388  -0.00388  -1.75607
    D5       -2.57844  -0.00005   0.00000  -0.00369  -0.00369  -2.58213
    D6        0.39802  -0.00001   0.00000  -0.00359  -0.00359   0.39443
    D7        2.83996   0.00004   0.00000  -0.00019  -0.00019   2.83977
    D8       -0.22613   0.00003   0.00000  -0.00011  -0.00011  -0.22624
    D9       -0.15029   0.00001   0.00000  -0.00026  -0.00026  -0.15055
   D10        3.06680  -0.00000   0.00000  -0.00018  -0.00018   3.06662
   D11       -2.60211  -0.00007   0.00000   0.00010   0.00010  -2.60201
   D12        0.53532  -0.00007   0.00000   0.00053   0.00053   0.53585
   D13        0.36444  -0.00002   0.00000   0.00021   0.00021   0.36465
   D14       -2.78132  -0.00002   0.00000   0.00064   0.00064  -2.78068
   D15       -0.12555   0.00001   0.00000   0.00012   0.00012  -0.12543
   D16        3.12889  -0.00001   0.00000   0.00006   0.00006   3.12895
   D17        2.93924   0.00002   0.00000   0.00004   0.00004   2.93927
   D18       -0.08951   0.00001   0.00000  -0.00002  -0.00002  -0.08953
   D19        0.14318  -0.00001   0.00000   0.00006   0.00006   0.14324
   D20       -2.94484  -0.00001   0.00000   0.00002   0.00002  -2.94482
   D21       -3.11105   0.00000   0.00000   0.00012   0.00012  -3.11093
   D22        0.08412   0.00001   0.00000   0.00008   0.00008   0.08420
   D23       -2.94959   0.00003   0.00000   0.00016   0.00016  -2.94943
   D24        0.12207  -0.00001   0.00000  -0.00012  -0.00012   0.12195
   D25        0.14101   0.00002   0.00000   0.00020   0.00020   0.14121
   D26       -3.07051  -0.00002   0.00000  -0.00008  -0.00008  -3.07059
   D27       -0.36958   0.00002   0.00000  -0.00000  -0.00000  -0.36959
   D28        2.77589   0.00002   0.00000  -0.00040  -0.00040   2.77549
   D29        2.69771  -0.00002   0.00000  -0.00030  -0.00030   2.69741
   D30       -0.44001  -0.00002   0.00000  -0.00070  -0.00070  -0.44070
   D31        2.96081  -0.00012   0.00000   0.00105   0.00105   2.96186
   D32       -0.02659  -0.00014   0.00000   0.00130   0.00130  -0.02530
   D33       -0.18538  -0.00012   0.00000   0.00152   0.00152  -0.18386
   D34        3.11041  -0.00013   0.00000   0.00177   0.00177   3.11218
   D35       -0.22183  -0.00002   0.00000   0.00039   0.00039  -0.22144
   D36        3.01716   0.00002   0.00000   0.00030   0.00030   3.01746
   D37        2.78232  -0.00002   0.00000   0.00014   0.00014   2.78246
   D38       -0.26187   0.00001   0.00000   0.00005   0.00005  -0.26182
   D39       -3.02033   0.00001   0.00000  -0.00038  -0.00038  -3.02071
   D40        0.18641  -0.00005   0.00000  -0.00068  -0.00068   0.18573
   D41        0.25579  -0.00001   0.00000  -0.00019  -0.00019   0.25560
   D42       -2.82065  -0.00007   0.00000  -0.00048  -0.00048  -2.82114
   D43        0.57403  -0.00000   0.00000  -0.00248  -0.00248   0.57155
   D44       -2.65682  -0.00004   0.00000  -0.00239  -0.00239  -2.65921
   D45        0.13064  -0.00001   0.00000   0.00010   0.00010   0.13075
   D46       -3.06349  -0.00001   0.00000   0.00003   0.00003  -3.06346
   D47       -2.92664   0.00002   0.00000   0.00002   0.00002  -2.92662
   D48        0.16242   0.00002   0.00000  -0.00006  -0.00006   0.16236
   D49        0.04945  -0.00001   0.00000  -0.00013  -0.00013   0.04933
   D50        3.13664   0.00000   0.00000  -0.00005  -0.00005   3.13659
   D51       -3.03645  -0.00000   0.00000  -0.00005  -0.00005  -3.03650
   D52        0.05073   0.00001   0.00000   0.00003   0.00003   0.05076
   D53       -0.06701   0.00001   0.00000  -0.00000  -0.00000  -0.06702
   D54        3.01536   0.00002   0.00000   0.00011   0.00011   3.01548
   D55        3.12900  -0.00000   0.00000  -0.00008  -0.00008   3.12891
   D56       -0.07181   0.00001   0.00000   0.00004   0.00004  -0.07178
   D57       -0.10134   0.00000   0.00000   0.00018   0.00018  -0.10116
   D58        2.97884   0.00006   0.00000   0.00046   0.00046   2.97930
   D59        3.09638  -0.00001   0.00000   0.00007   0.00007   3.09645
   D60       -0.10661   0.00005   0.00000   0.00035   0.00035  -0.10626
         Item               Value     Threshold  Converged?
 Maximum Force            0.000216     0.000450     YES
 RMS     Force            0.000046     0.000300     YES
 Maximum Displacement     0.007698     0.001800     NO 
 RMS     Displacement     0.001711     0.001200     NO 
 Predicted change in Energy=-1.205069D-07
 GradGradGradGradGradGradGradGradGradGradGradGradGradGradGradGradGradGrad

                          Input orientation:                          
 ---------------------------------------------------------------------
 Center     Atomic      Atomic             Coordinates (Angstroms)
 Number     Number       Type             X           Y           Z
 ---------------------------------------------------------------------
      1          6           0       -1.081378    2.505918   -1.249524
      2          6           0       -1.503368    1.204369   -0.583593
      3          6           0       -2.879220    1.175249   -0.261337
      4          6           0       -3.585274    0.003022    0.026441
      5          6           0       -2.912215   -1.206680   -0.162402
      6          6           0       -1.550187   -1.165277   -0.450525
      7          9           0       -1.043654   -2.388735   -0.853280
      8          6           0       -0.706911   -0.009019   -0.443617
      9          6           0        0.788655   -0.118130   -0.310824
     10          6           0        1.517874   -1.334511    0.037950
     11          8           0        0.986334   -2.477561    0.525730
     12          6           0        2.933038   -1.389650   -0.002262
     13          6           0        3.712317   -0.259271   -0.224580
     14          6           0        3.064300    0.974935   -0.352866
     15          6           0        1.669872    1.014413   -0.334777
     16          9           0        1.168103    2.266070   -0.265988
     17          1           0       -1.958731    2.888983   -1.808912
     18          1           0       -0.772251    3.294218   -0.537148
     19          1           0       -0.262013    2.364976   -1.974640
     20          1           0       -3.427353    2.129716   -0.311541
     21          1           0       -4.654337    0.026554    0.284209
     22          1           0       -3.414401   -2.184589   -0.142889
     23          1           0        0.086177   -2.634375    0.172531
     24          1           0        3.380614   -2.372136    0.204263
     25          1           0        4.810475   -0.325804   -0.246889
     26          1           0        3.603364    1.930627   -0.414235
 ---------------------------------------------------------------------
                    Distance matrix (angstroms):
                    1          2          3          4          5
     1  C    0.000000
     2  C    1.521700   0.000000
     3  C    2.445287   1.413388   0.000000
     4  C    3.763253   2.479861   1.398372   0.000000
     5  C    4.279858   2.824077   2.384211   1.397157   0.000000
     6  C    3.786273   2.373842   2.698182   2.394576   1.392785
     7  F    4.910811   3.632418   4.052367   3.599200   2.316482
     8  C    2.667325   1.458166   2.480855   2.916517   2.525241
     9  C    3.356160   2.660221   3.889549   4.388585   3.860494
    10  C    4.812753   3.995013   5.071775   5.275532   4.436459
    11  O    5.679967   4.581029   5.376338   5.225148   4.157806
    12  C    5.731200   5.171903   6.358315   6.665489   5.850309
    13  C    5.628170   5.429042   6.745929   7.306616   6.692225
    14  C    4.509385   4.579243   5.947599   6.730922   6.365097
    15  C    3.260480   3.188643   4.552527   5.363762   5.094948
    16  F    2.466787   2.892203   4.191746   5.272712   5.359078
    17  H    1.108783   2.132296   2.485795   3.787207   4.516037
    18  H    1.106551   2.214533   3.000903   4.366085   4.997796
    19  H    1.103185   2.196128   3.346734   4.541719   4.802552
    20  H    2.554395   2.152207   1.101806   2.159167   3.379223
    21  H    4.611466   3.474037   2.183612   1.099953   2.180669
    22  H    5.354297   3.915521   3.404256   2.200797   1.099489
    23  H    5.459674   4.223071   4.847170   4.522914   3.337791
    24  H    6.768921   6.104538   7.210149   7.361833   6.410338
    25  H    6.613460   6.505337   7.834844   8.406630   7.773225
    26  H    4.793274   5.160895   6.528236   7.455626   7.235944
                    6          7          8          9         10
     6  C    0.000000
     7  F    1.384065   0.000000
     8  C    1.431117   2.438086   0.000000
     9  C    2.566363   2.967703   1.505410   0.000000
    10  C    3.111309   2.909828   2.634104   1.460474   0.000000
    11  O    3.018129   2.455689   3.146492   2.511138   1.351676
    12  C    4.511163   4.187658   3.917929   2.512041   1.416809
    13  C    5.344703   5.248727   4.431724   2.928337   2.457772
    14  C    5.087586   5.332914   3.898517   2.524899   2.806726
    15  C    3.890145   4.383318   2.590050   1.435190   2.383164
    16  F    4.381472   5.186905   2.953517   2.414622   3.630275
    17  H    4.295248   5.441039   3.439404   4.339945   5.773697
    18  H    4.527669   5.698205   3.305206   3.759224   5.196204
    19  H    4.055244   4.946329   2.859688   3.168280   4.572167
    20  H    3.794740   5.137305   3.463009   4.777817   6.047997
    21  H    3.405297   4.490494   4.014121   5.477332   6.325293
    22  H    2.146841   2.483299   3.486265   4.686591   5.008260
    23  H    2.285636   1.545686   2.810893   2.656802   1.938431
    24  H    5.118403   4.548936   4.765704   3.473342   2.138721
    25  H    6.419050   6.236522   5.529973   4.027685   3.455408
    26  H    6.012073   6.359592   4.726686   3.482913   3.900623
                   11         12         13         14         15
    11  O    0.000000
    12  C    2.291721   0.000000
    13  C    3.593711   1.390848   0.000000
    14  C    4.124270   2.394037   1.399874   0.000000
    15  C    3.660817   2.735996   2.409564   1.395104   0.000000
    16  F    4.812681   4.068026   3.584981   2.295679   1.350240
    17  H    6.551623   6.745375   6.677005   5.569065   4.342101
    18  H    6.126643   5.996156   5.730299   4.486887   3.347002
    19  H    5.591098   5.309975   5.073921   3.953065   2.871471
    20  H    6.434956   7.275724   7.529256   6.593693   5.217867
    21  H    6.176253   7.723728   8.386982   7.802734   6.430757
    22  H    4.460869   6.398569   7.382657   7.211119   6.010013
    23  H    0.979603   3.111995   4.352896   4.708755   4.009876
    24  H    2.418064   1.099207   2.181314   3.407834   3.832221
    25  H    4.455452   2.171722   1.100397   2.179972   3.415742
    26  H    5.211957   3.412227   2.200793   1.098955   2.141063
                   16         17         18         19         20
    16  F    0.000000
    17  H    3.541994   0.000000
    18  H    2.212597   1.785870   0.000000
    19  H    2.230360   1.783508   1.786117   0.000000
    20  H    4.597704   2.230573   2.908011   3.583381   0.000000
    21  H    6.262504   4.454318   5.140316   5.464716   2.506731
    22  H    6.389277   5.534956   6.095385   5.830214   4.317619
    23  H    5.037581   6.214117   6.032309   5.452072   5.939342
    24  H    5.160358   7.761498   7.064244   6.360548   8.178089
    25  H    4.470464   7.654862   6.660002   5.996294   8.596252
    26  H    2.462721   5.813817   4.584811   4.191021   7.034284
                   21         22         23         24         25
    21  H    0.000000
    22  H    2.570799   0.000000
    23  H    5.437416   3.543422   0.000000
    24  H    8.385735   6.806461   3.305010   0.000000
    25  H    9.486247   8.432940   5.274884   2.536832   0.000000
    26  H    8.503114   8.139880   5.792593   4.352692   2.564488
                   26
    26  H    0.000000
 Symmetry turned off by external request.
 Stoichiometry    C13H10F2O
 Framework group  C1[X(C13H10F2O)]
 Deg. of freedom    72
 Full point group                 C1      NOp   1
 Rotational constants (GHZ):           0.8393301           0.4707374           0.3127780
 Standard basis: def2SVP (5D, 7F)
   274 basis functions,   470 primitive gaussians,   290 cartesian basis functions
    57 alpha electrons       57 beta electrons
       nuclear repulsion energy      1069.5729773138 Hartrees.
 NAtoms=   26 NActive=   26 NUniq=   26 SFac= 1.00D+00 NAtFMM=   60 NAOKFM=F Big=F
 Integral buffers will be    131072 words long.
 Raffenetti 2 integral format.
 Two-electron integral symmetry is turned off.
 Nuclear repulsion after empirical dispersion term =     1069.5214264243 Hartrees.
 One-electron integrals computed using PRISM.
   1 Symmetry operations used in ECPInt.
 ECPInt:  NShTT=    8001 NPrTT=   29641 LenC2=    7591 LenP2D=   20283.
 LDataN:  DoStor=T MaxTD1= 4 Len=   56
 NBasis=   274 RedAO= T EigKep=  3.15D-04  NBF=   274
 NBsUse=   274 1.00D-06 EigRej= -1.00D+00 NBFU=   274
 Initial guess from the checkpoint file:  "path/to/scratch/gaussian_tmp/Gau-2280007.chk"
 B after Tr=    -0.000276   -0.000363    0.000106
         Rot=    1.000000   -0.000105   -0.000029   -0.000003 Ang=  -0.01 deg.
 Requested convergence on RMS density matrix=1.00D-08 within 128 cycles.
 Requested convergence on MAX density matrix=1.00D-06.
 Requested convergence on             energy=1.00D-06.
 No special actions if energy rises.
 SCF Done:  E(RB-P86) =  -775.751004049     A.U. after    8 cycles
            NFock=  8  Conv=0.69D-08     -V/T= 2.0104
 DoSCS=F DFT=T ScalE2(SS,OS)=  1.000000  1.000000
 Range of M.O.s used for correlation:     1   274
 NBasis=   274 NAE=    57 NBE=    57 NFC=     0 NFV=     0
 NROrb=    274 NOA=    57 NOB=    57 NVA=   217 NVB=   217

 **** Warning!!: The largest alpha MO coefficient is  0.10055869D+02

 Symmetrizing basis deriv contribution to polar:
 IMax=3 JMax=2 DiffMx= 0.00D+00
   1 Symmetry operations used in ECPInt.
 ECPInt:  NShTT=    8001 NPrTT=   29641 LenC2=    7591 LenP2D=   20283.
 LDataN:  DoStor=T MaxTD1= 5 Len=  102
 Calling FoFJK, ICntrl=      2527 FMM=F ISym2X=0 I1Cent= 0 IOpClX= 0 NMat=1 NMatS=1 NMatT=0.
 -------------------------------------------------------------------
 Center     Atomic                   Forces (Hartrees/Bohr)
 Number     Number              X              Y              Z
 -------------------------------------------------------------------
      1        6           0.000004075    0.000000762    0.000010344
      2        6           0.000003232   -0.000002483   -0.000004286
      3        6           0.000002351    0.000003358    0.000008653
      4        6           0.000000064   -0.000000400    0.000000044
      5        6          -0.000000301   -0.000000306    0.000000491
      6        6          -0.000001105    0.000001823    0.000007901
      7        9          -0.000001006    0.000000178   -0.000005997
      8        6          -0.000003795   -0.000011166   -0.000022932
      9        6          -0.000001602    0.000004979    0.000012660
     10        6          -0.000004379   -0.000004747   -0.000002734
     11        8           0.000008443   -0.000000156   -0.000002642
     12        6           0.000002438    0.000000907    0.000000632
     13        6          -0.000000557   -0.000000950    0.000001669
     14        6          -0.000000925    0.000001316   -0.000000837
     15        6           0.000000663    0.000001555    0.000005425
     16        9          -0.000014514    0.000003513   -0.000020875
     17        1           0.000004117   -0.000003487   -0.000005312
     18        1          -0.000002385    0.000003565    0.000004374
     19        1           0.000006934   -0.000000761    0.000007017
     20        1          -0.000000269   -0.000000318   -0.000000088
     21        1           0.000000104   -0.000000476    0.000000549
     22        1           0.000000175   -0.000000275    0.000000539
     23        1          -0.000001973    0.000002605    0.000006860
     24        1           0.000000283    0.000000373   -0.000000305
     25        1           0.000000014    0.000000250   -0.000001114
     26        1          -0.000000084    0.000000340   -0.000000036
 -------------------------------------------------------------------
 Cartesian Forces:  Max     0.000022932 RMS     0.000005424

 GradGradGradGradGradGradGradGradGradGradGradGradGradGradGradGradGradGrad
 Berny optimization.
 FormGI is forming the generalized inverse of G from B-inverse, IUseBI=4.
 Internal  Forces:  Max     0.000056637 RMS     0.000010734
 Search for a saddle point.
 Step number   5 out of a maximum of  140
 All quantities printed in internal units (Hartrees-Bohrs-Radians)
 Swapping is turned off.
 Update second derivatives using D2CorX and points    1    2    3    4    5
 ITU=  0  0  0  0  0
     Eigenvalues ---   -0.02561   0.00334   0.00746   0.01128   0.01470
     Eigenvalues ---    0.01555   0.01579   0.01634   0.01715   0.01751
     Eigenvalues ---    0.01847   0.02119   0.02149   0.02247   0.02322
     Eigenvalues ---    0.02604   0.02856   0.02919   0.03087   0.03834
     Eigenvalues ---    0.04897   0.05239   0.05513   0.09848   0.09887
     Eigenvalues ---    0.10586   0.10807   0.10966   0.11138   0.11563
     Eigenvalues ---    0.13201   0.14194   0.14619   0.16339   0.16484
     Eigenvalues ---    0.17079   0.17712   0.17885   0.18149   0.18685
     Eigenvalues ---    0.19502   0.19868   0.22922   0.25443   0.26869
     Eigenvalues ---    0.27405   0.29400   0.31580   0.32201   0.32678
     Eigenvalues ---    0.33036   0.33573   0.34021   0.34335   0.34481
     Eigenvalues ---    0.34507   0.34796   0.34896   0.34982   0.35780
     Eigenvalues ---    0.39812   0.40443   0.43463   0.44407   0.45735
     Eigenvalues ---    0.46199   0.47383   0.49023   0.49397   0.51412
     Eigenvalues ---    0.84766   2.23726
 Eigenvectors required to have negative eigenvalues:
                          D31       D32       D33       D34       D43
   1                    0.47100   0.44806   0.41070   0.38777  -0.17776
                          D40       D44       D2        D4        D6
   1                    0.15097  -0.14718  -0.13395  -0.12567  -0.12527
 RFO step:  Lambda0=1.189955620D-08 Lambda=-8.56621899D-08.
 Linear search not attempted -- option 19 set.
 Iteration  1 RMS(Cart)=  0.00052931 RMS(Int)=  0.00000014
 Iteration  2 RMS(Cart)=  0.00000018 RMS(Int)=  0.00000001
 Variable       Old X    -DE/DX   Delta X   Delta X   Delta X     New X
                                 (Linear)    (Quad)   (Total)
    R1        2.87560  -0.00000   0.00000   0.00000   0.00000   2.87560
    R2        2.09530  -0.00000   0.00000   0.00001   0.00001   2.09531
    R3        2.09108   0.00000   0.00000   0.00003   0.00003   2.09111
    R4        2.08472   0.00000   0.00000  -0.00005  -0.00005   2.08467
    R5        2.67092  -0.00000   0.00000  -0.00000  -0.00000   2.67091
    R6        2.75553  -0.00002   0.00000  -0.00003  -0.00003   2.75551
    R7        2.64254   0.00000   0.00000   0.00000   0.00000   2.64254
    R8        2.08211   0.00000   0.00000   0.00000   0.00000   2.08212
    R9        2.64024   0.00000   0.00000   0.00002   0.00002   2.64026
   R10        2.07861  -0.00000   0.00000   0.00000   0.00000   2.07861
   R11        2.63198   0.00000   0.00000  -0.00001  -0.00001   2.63198
   R12        2.07773   0.00000   0.00000   0.00000   0.00000   2.07773
   R13        2.61550   0.00000   0.00000   0.00001   0.00001   2.61551
   R14        2.70442  -0.00000   0.00000  -0.00000  -0.00000   2.70442
   R15        2.84481  -0.00001   0.00000   0.00001   0.00001   2.84483
   R16        2.75990   0.00000   0.00000   0.00000   0.00000   2.75990
   R17        2.71212  -0.00001   0.00000   0.00001   0.00001   2.71212
   R18        2.55430  -0.00000   0.00000  -0.00002  -0.00002   2.55428
   R19        2.67738   0.00000   0.00000   0.00001   0.00001   2.67739
   R20        1.85118  -0.00000   0.00000  -0.00001  -0.00001   1.85118
   R21        2.62832   0.00000   0.00000  -0.00002  -0.00002   2.62831
   R22        2.07720  -0.00000   0.00000  -0.00000  -0.00000   2.07720
   R23        2.64538   0.00000   0.00000   0.00000   0.00000   2.64538
   R24        2.07945  -0.00000   0.00000  -0.00000  -0.00000   2.07945
   R25        2.63636  -0.00000   0.00000  -0.00001  -0.00001   2.63636
   R26        2.07672   0.00000   0.00000  -0.00000  -0.00000   2.07672
   R27        2.55158   0.00001   0.00000   0.00001   0.00001   2.55159
    A1        1.87219   0.00000   0.00000  -0.00004  -0.00004   1.87215
    A2        1.98785  -0.00000   0.00000  -0.00009  -0.00009   1.98776
    A3        1.96529  -0.00000   0.00000   0.00010   0.00010   1.96539
    A4        1.87520   0.00000   0.00000   0.00002   0.00002   1.87522
    A5        1.87573   0.00000   0.00000  -0.00003  -0.00003   1.87571
    A6        1.88250  -0.00000   0.00000   0.00003   0.00003   1.88253
    A7        1.96855   0.00002   0.00000   0.00000   0.00000   1.96856
    A8        2.21716  -0.00002   0.00000   0.00001   0.00001   2.21716
    A9        2.08595  -0.00000   0.00000  -0.00000  -0.00000   2.08594
   A10        2.15999  -0.00000   0.00000  -0.00002  -0.00002   2.15997
   A11        2.04433   0.00000   0.00000   0.00001   0.00001   2.04434
   A12        2.07644   0.00000   0.00000   0.00001   0.00001   2.07646
   A13        2.04290   0.00000   0.00000   0.00001   0.00001   2.04291
   A14        2.11885  -0.00000   0.00000   0.00000   0.00000   2.11885
   A15        2.11578  -0.00000   0.00000  -0.00001  -0.00001   2.11577
   A16        2.06385  -0.00000   0.00000  -0.00000  -0.00000   2.06385
   A17        2.15036   0.00000   0.00000  -0.00000  -0.00000   2.15036
   A18        2.06777   0.00000   0.00000   0.00001   0.00001   2.06778
   A19        1.97340   0.00000   0.00000   0.00005   0.00005   1.97345
   A20        2.21336  -0.00001   0.00000  -0.00002  -0.00002   2.21334
   A21        2.09433   0.00000   0.00000  -0.00003  -0.00003   2.09430
   A22        1.92837   0.00001   0.00000   0.00000   0.00000   1.92837
   A23        2.22864  -0.00006   0.00000  -0.00007  -0.00007   2.22857
   A24        2.12617   0.00005   0.00000   0.00007   0.00007   2.12623
   A25        2.18642   0.00004   0.00000  -0.00000  -0.00000   2.18642
   A26        2.15475  -0.00005   0.00000  -0.00003  -0.00003   2.15472
   A27        1.93333   0.00001   0.00000   0.00002   0.00002   1.93336
   A28        2.20700   0.00001   0.00000   0.00004   0.00004   2.20705
   A29        2.12276  -0.00001   0.00000   0.00001   0.00001   2.12277
   A30        1.94993  -0.00000   0.00000  -0.00005  -0.00005   1.94988
   A31        1.94616   0.00000   0.00000   0.00005   0.00005   1.94621
   A32        2.13240  -0.00000   0.00000   0.00001   0.00001   2.13241
   A33        2.02212   0.00000   0.00000  -0.00001  -0.00001   2.02212
   A34        2.12742  -0.00000   0.00000   0.00000   0.00000   2.12742
   A35        2.06216   0.00000   0.00000   0.00000   0.00000   2.06216
   A36        2.10976  -0.00000   0.00000  -0.00000  -0.00000   2.10976
   A37        2.10996  -0.00000   0.00000   0.00000   0.00000   2.10996
   A38        2.07882  -0.00000   0.00000   0.00001   0.00001   2.07882
   A39        2.14691   0.00000   0.00000   0.00000   0.00000   2.14691
   A40        2.05601   0.00000   0.00000  -0.00001  -0.00001   2.05601
   A41        2.20383  -0.00000   0.00000   0.00002   0.00002   2.20385
   A42        2.09727  -0.00001   0.00000   0.00001   0.00001   2.09728
   A43        1.98049   0.00002   0.00000  -0.00002  -0.00002   1.98046
    D1       -0.52207  -0.00001   0.00000  -0.00130  -0.00130  -0.52337
    D2        2.45450  -0.00000   0.00000  -0.00127  -0.00127   2.45322
    D3        1.55055  -0.00001   0.00000  -0.00136  -0.00136   1.54919
    D4       -1.75607   0.00000   0.00000  -0.00134  -0.00134  -1.75741
    D5       -2.58213  -0.00001   0.00000  -0.00130  -0.00130  -2.58343
    D6        0.39443  -0.00000   0.00000  -0.00127  -0.00127   0.39316
    D7        2.83977   0.00001   0.00000  -0.00014  -0.00014   2.83963
    D8       -0.22624   0.00001   0.00000  -0.00004  -0.00004  -0.22629
    D9       -0.15055   0.00000   0.00000  -0.00016  -0.00016  -0.15071
   D10        3.06662   0.00000   0.00000  -0.00007  -0.00007   3.06655
   D11       -2.60201  -0.00002   0.00000   0.00013   0.00013  -2.60187
   D12        0.53585  -0.00001   0.00000   0.00061   0.00061   0.53645
   D13        0.36465  -0.00000   0.00000   0.00016   0.00016   0.36481
   D14       -2.78068  -0.00000   0.00000   0.00063   0.00063  -2.78004
   D15       -0.12543   0.00000   0.00000   0.00003   0.00003  -0.12540
   D16        3.12895  -0.00000   0.00000   0.00004   0.00004   3.12899
   D17        2.93927   0.00000   0.00000  -0.00006  -0.00006   2.93921
   D18       -0.08953   0.00000   0.00000  -0.00005  -0.00005  -0.08958
   D19        0.14324  -0.00000   0.00000   0.00008   0.00008   0.14332
   D20       -2.94482  -0.00000   0.00000   0.00004   0.00004  -2.94478
   D21       -3.11093   0.00000   0.00000   0.00007   0.00007  -3.11086
   D22        0.08420   0.00000   0.00000   0.00003   0.00003   0.08422
   D23       -2.94943   0.00000   0.00000  -0.00004  -0.00004  -2.94947
   D24        0.12195  -0.00000   0.00000  -0.00007  -0.00007   0.12188
   D25        0.14121   0.00000   0.00000  -0.00000  -0.00000   0.14121
   D26       -3.07059  -0.00000   0.00000  -0.00003  -0.00003  -3.07063
   D27       -0.36959   0.00001   0.00000  -0.00005  -0.00005  -0.36963
   D28        2.77549   0.00000   0.00000  -0.00049  -0.00049   2.77500
   D29        2.69741  -0.00000   0.00000  -0.00008  -0.00008   2.69733
   D30       -0.44070  -0.00001   0.00000  -0.00052  -0.00052  -0.44122
   D31        2.96186  -0.00002   0.00000  -0.00026  -0.00026   2.96159
   D32       -0.02530  -0.00003   0.00000  -0.00020  -0.00020  -0.02550
   D33       -0.18386  -0.00002   0.00000   0.00026   0.00026  -0.18360
   D34        3.11218  -0.00002   0.00000   0.00032   0.00032   3.11249
   D35       -0.22144  -0.00000   0.00000   0.00035   0.00035  -0.22109
   D36        3.01746   0.00000   0.00000   0.00032   0.00032   3.01779
   D37        2.78246  -0.00000   0.00000   0.00029   0.00029   2.78275
   D38       -0.26182   0.00000   0.00000   0.00027   0.00027  -0.26155
   D39       -3.02071   0.00000   0.00000  -0.00036  -0.00036  -3.02108
   D40        0.18573  -0.00001   0.00000  -0.00051  -0.00051   0.18522
   D41        0.25560  -0.00000   0.00000  -0.00031  -0.00031   0.25529
   D42       -2.82114  -0.00002   0.00000  -0.00045  -0.00045  -2.82159
   D43        0.57155  -0.00000   0.00000  -0.00065  -0.00065   0.57090
   D44       -2.65921  -0.00001   0.00000  -0.00063  -0.00063  -2.65984
   D45        0.13075  -0.00000   0.00000  -0.00009  -0.00009   0.13066
   D46       -3.06346  -0.00000   0.00000  -0.00006  -0.00006  -3.06352
   D47       -2.92662   0.00000   0.00000  -0.00011  -0.00011  -2.92673
   D48        0.16236   0.00000   0.00000  -0.00009  -0.00009   0.16227
   D49        0.04933  -0.00000   0.00000  -0.00009  -0.00009   0.04923
   D50        3.13659   0.00000   0.00000  -0.00001  -0.00001   3.13658
   D51       -3.03650  -0.00000   0.00000  -0.00012  -0.00012  -3.03662
   D52        0.05076   0.00000   0.00000  -0.00003  -0.00003   0.05073
   D53       -0.06702   0.00000   0.00000   0.00006   0.00006  -0.06695
   D54        3.01548   0.00001   0.00000   0.00016   0.00016   3.01564
   D55        3.12891  -0.00000   0.00000  -0.00002  -0.00002   3.12889
   D56       -0.07178   0.00000   0.00000   0.00007   0.00007  -0.07171
   D57       -0.10116   0.00000   0.00000   0.00016   0.00016  -0.10101
   D58        2.97930   0.00001   0.00000   0.00029   0.00029   2.97960
   D59        3.09645  -0.00000   0.00000   0.00006   0.00006   3.09652
   D60       -0.10626   0.00001   0.00000   0.00020   0.00020  -0.10606
         Item               Value     Threshold  Converged?
 Maximum Force            0.000057     0.000450     YES
 RMS     Force            0.000011     0.000300     YES
 Maximum Displacement     0.002039     0.001800     NO 
 RMS     Displacement     0.000529     0.001200     YES
 Predicted change in Energy=-3.688131D-08
 GradGradGradGradGradGradGradGradGradGradGradGradGradGradGradGradGradGrad

                          Input orientation:                          
 ---------------------------------------------------------------------
 Center     Atomic      Atomic             Coordinates (Angstroms)
 Number     Number       Type             X           Y           Z
 ---------------------------------------------------------------------
      1          6           0       -1.081454    2.505828   -1.249874
      2          6           0       -1.503287    1.204329   -0.583744
      3          6           0       -2.879002    1.175346   -0.260895
      4          6           0       -3.585052    0.003156    0.027045
      5          6           0       -2.912192   -1.206603   -0.162204
      6          6           0       -1.550261   -1.165310   -0.450783
      7          9           0       -1.043922   -2.388751   -0.853846
      8          6           0       -0.706894   -0.009118   -0.444066
      9          6           0        0.788671   -0.118221   -0.311165
     10          6           0        1.517873   -1.334612    0.037614
     11          8           0        0.986318   -2.477831    0.524951
     12          6           0        2.933062   -1.389637   -0.002117
     13          6           0        3.712336   -0.259186   -0.224033
     14          6           0        3.064276    0.974977   -0.352515
     15          6           0        1.669842    1.014367   -0.334937
     16          9           0        1.167993    2.266023   -0.266653
     17          1           0       -1.958636    2.888235   -1.809991
     18          1           0       -0.773254    3.294512   -0.537495
     19          1           0       -0.261548    2.365116   -1.974385
     20          1           0       -3.427059    2.129873   -0.310832
     21          1           0       -4.654011    0.026762    0.285241
     22          1           0       -3.414479   -2.184458   -0.142626
     23          1           0        0.086073   -2.634424    0.171888
     24          1           0        3.380633   -2.372121    0.204427
     25          1           0        4.810506   -0.325642   -0.245964
     26          1           0        3.603295    1.930703   -0.413743
 ---------------------------------------------------------------------
                    Distance matrix (angstroms):
                    1          2          3          4          5
     1  C    0.000000
     2  C    1.521701   0.000000
     3  C    2.445289   1.413387   0.000000
     4  C    3.763229   2.479844   1.398373   0.000000
     5  C    4.279810   2.824057   2.384224   1.397166   0.000000
     6  C    3.786236   2.373830   2.698199   2.394579   1.392782
     7  F    4.910718   3.632381   4.052394   3.599240   2.316522
     8  C    2.667317   1.458152   2.480839   2.916486   2.525224
     9  C    3.356215   2.660171   3.889430   4.388459   3.860460
    10  C    4.812807   3.994961   5.071637   5.275375   4.436417
    11  O    5.680013   4.581009   5.376240   5.225001   4.157714
    12  C    5.731308   5.171861   6.358159   6.665324   5.850310
    13  C    5.628328   5.428995   6.745737   7.306418   6.692219
    14  C    4.509528   4.579160   5.947360   6.730681   6.365036
    15  C    3.260552   3.188533   4.552294   5.363534   5.094858
    16  F    2.466625   2.891967   4.191392   5.272405   5.358913
    17  H    1.108789   2.132267   2.486113   3.787296   4.515769
    18  H    1.106568   2.214487   3.000257   4.365539   4.997592
    19  H    1.103161   2.196185   3.347038   4.542054   4.802821
    20  H    2.554409   2.152211   1.101809   2.159177   3.379238
    21  H    4.611455   3.474027   2.183614   1.099953   2.180671
    22  H    5.354231   3.915497   3.404263   2.200804   1.099489
    23  H    5.459554   4.222922   4.846991   4.522717   3.337646
    24  H    6.769018   6.104497   7.209999   7.361670   6.410343
    25  H    6.613641   6.505297   7.834648   8.406428   7.773234
    26  H    4.793408   5.160785   6.527947   7.455338   7.235851
                    6          7          8          9         10
     6  C    0.000000
     7  F    1.384069   0.000000
     8  C    1.431115   2.438065   0.000000
     9  C    2.566416   2.967863   1.505417   0.000000
    10  C    3.111373   2.910104   2.634110   1.460476   0.000000
    11  O    3.018112   2.455788   3.146506   2.511158   1.351665
    12  C    4.511298   4.188087   3.917962   2.512056   1.416815
    13  C    5.344848   5.249162   4.431765   2.928358   2.457777
    14  C    5.087675   5.333226   3.898532   2.524910   2.806736
    15  C    3.890176   4.383491   2.590040   1.435194   2.383188
    16  F    4.381420   5.186933   2.953463   2.414639   3.630367
    17  H    4.294816   5.440358   3.439080   4.339695   5.773404
    18  H    4.527832   5.698492   3.305617   3.759997   5.196999
    19  H    4.055373   4.946410   2.859581   3.168000   4.571921
    20  H    3.794758   5.137331   3.462995   4.777688   6.047845
    21  H    3.405295   4.490541   4.014089   5.477181   6.325094
    22  H    2.146843   2.483367   3.486257   4.686600   5.008276
    23  H    2.285520   1.545760   2.810770   2.656740   1.938452
    24  H    5.118536   4.549386   4.765732   3.473351   2.138721
    25  H    6.419217   6.237008   5.530021   4.027708   3.455411
    26  H    6.012138   6.359874   4.726685   3.482918   3.900639
                   11         12         13         14         15
    11  O    0.000000
    12  C    2.291676   0.000000
    13  C    3.593680   1.390840   0.000000
    14  C    4.124287   2.394034   1.399874   0.000000
    15  C    3.660882   2.736006   2.409568   1.395101   0.000000
    16  F    4.812878   4.068083   3.584993   2.295662   1.350244
    17  H    6.551288   6.745169   6.676934   5.569061   4.342006
    18  H    6.127383   5.997054   5.731278   4.487883   3.347956
    19  H    5.590884   5.309759   5.073701   3.952727   2.870990
    20  H    6.434856   7.275534   7.529017   6.593403   5.217599
    21  H    6.176063   7.723499   8.386709   7.802423   6.430483
    22  H    4.460801   6.398653   7.382736   7.211127   6.009974
    23  H    0.979600   3.112093   4.352964   4.708766   4.009847
    24  H    2.417986   1.099207   2.181307   3.407834   3.832234
    25  H    4.455406   2.171714   1.100397   2.179973   3.415744
    26  H    5.211995   3.412229   2.200794   1.098955   2.141056
                   16         17         18         19         20
    16  F    0.000000
    17  H    3.541870   0.000000
    18  H    2.213500   1.785899   0.000000
    19  H    2.229294   1.783476   1.786134   0.000000
    20  H    4.597280   2.231335   2.906964   3.583743   0.000000
    21  H    6.262157   4.454557   5.139587   5.465121   2.506750
    22  H    6.389148   5.534600   6.095170   5.830518   4.317627
    23  H    5.037584   6.213569   6.032740   5.451856   5.939162
    24  H    5.160433   7.761251   7.065123   6.360355   8.177904
    25  H    4.470465   7.654833   6.660997   5.996111   8.596001
    26  H    2.462676   5.813901   4.585790   4.190624   7.033928
                   21         22         23         24         25
    21  H    0.000000
    22  H    2.570798   0.000000
    23  H    5.437201   3.543339   0.000000
    24  H    8.385504   6.806557   3.305146   0.000000
    25  H    9.485961   8.433045   5.274973   2.536822   0.000000
    26  H    8.502745   8.139853   5.792599   4.352701   2.564488
                   26
    26  H    0.000000
 Symmetry turned off by external request.
 Stoichiometry    C13H10F2O
 Framework group  C1[X(C13H10F2O)]
 Deg. of freedom    72
 Full point group                 C1      NOp   1
 Rotational constants (GHZ):           0.8392967           0.4707450           0.3127826
 Standard basis: def2SVP (5D, 7F)
   274 basis functions,   470 primitive gaussians,   290 cartesian basis functions
    57 alpha electrons       57 beta electrons
       nuclear repulsion energy      1069.5729548751 Hartrees.
 NAtoms=   26 NActive=   26 NUniq=   26 SFac= 1.00D+00 NAtFMM=   60 NAOKFM=F Big=F
 Integral buffers will be    131072 words long.
 Raffenetti 2 integral format.
 Two-electron integral symmetry is turned off.
 Nuclear repulsion after empirical dispersion term =     1069.5214039365 Hartrees.
 One-electron integrals computed using PRISM.
   1 Symmetry operations used in ECPInt.
 ECPInt:  NShTT=    8001 NPrTT=   29641 LenC2=    7591 LenP2D=   20283.
 LDataN:  DoStor=T MaxTD1= 4 Len=   56
 NBasis=   274 RedAO= T EigKep=  3.15D-04  NBF=   274
 NBsUse=   274 1.00D-06 EigRej= -1.00D+00 NBFU=   274
 Initial guess from the checkpoint file:  "path/to/scratch/gaussian_tmp/Gau-2280007.chk"
 B after Tr=    -0.000007   -0.000064   -0.000229
         Rot=    1.000000   -0.000017   -0.000008    0.000005 Ang=  -0.00 deg.
 Requested convergence on RMS density matrix=1.00D-08 within 128 cycles.
 Requested convergence on MAX density matrix=1.00D-06.
 Requested convergence on             energy=1.00D-06.
 No special actions if energy rises.
 SCF Done:  E(RB-P86) =  -775.751004175     A.U. after    7 cycles
            NFock=  7  Conv=0.67D-08     -V/T= 2.0104
 DoSCS=F DFT=T ScalE2(SS,OS)=  1.000000  1.000000
 Range of M.O.s used for correlation:     1   274
 NBasis=   274 NAE=    57 NBE=    57 NFC=     0 NFV=     0
 NROrb=    274 NOA=    57 NOB=    57 NVA=   217 NVB=   217

 **** Warning!!: The largest alpha MO coefficient is  0.10054444D+02

 Symmetrizing basis deriv contribution to polar:
 IMax=3 JMax=2 DiffMx= 0.00D+00
   1 Symmetry operations used in ECPInt.
 ECPInt:  NShTT=    8001 NPrTT=   29641 LenC2=    7591 LenP2D=   20283.
 LDataN:  DoStor=T MaxTD1= 5 Len=  102
 Calling FoFJK, ICntrl=      2527 FMM=F ISym2X=0 I1Cent= 0 IOpClX= 0 NMat=1 NMatS=1 NMatT=0.
 -------------------------------------------------------------------
 Center     Atomic                   Forces (Hartrees/Bohr)
 Number     Number              X              Y              Z
 -------------------------------------------------------------------
      1        6           0.000003090   -0.000001337    0.000001877
      2        6           0.000001464    0.000000091    0.000000157
      3        6          -0.000000437   -0.000000393   -0.000000162
      4        6           0.000000133   -0.000000057    0.000000351
      5        6          -0.000000007   -0.000000297    0.000000474
      6        6           0.000000335   -0.000000430   -0.000001108
      7        9           0.000002999   -0.000000091    0.000003269
      8        6          -0.000001183   -0.000002295    0.000000864
      9        6           0.000000979    0.000000372    0.000000112
     10        6          -0.000000175    0.000000933   -0.000000413
     11        8          -0.000002287   -0.000000609   -0.000000117
     12        6           0.000000019    0.000000159   -0.000000266
     13        6          -0.000000002    0.000000678   -0.000000168
     14        6           0.000000090    0.000000318   -0.000000418
     15        6          -0.000000315    0.000000523   -0.000000499
     16        9          -0.000008741    0.000002345   -0.000004098
     17        1           0.000000311    0.000000338    0.000000476
     18        1           0.000002346    0.000000131    0.000000879
     19        1           0.000000946   -0.000000905   -0.000000095
     20        1          -0.000000238   -0.000000308    0.000000066
     21        1           0.000000101   -0.000000320    0.000000479
     22        1           0.000000232   -0.000000291    0.000000540
     23        1           0.000000014    0.000000426   -0.000001084
     24        1           0.000000371    0.000000314   -0.000000061
     25        1           0.000000093    0.000000428   -0.000000488
     26        1          -0.000000138    0.000000275   -0.000000567
 -------------------------------------------------------------------
 Cartesian Forces:  Max     0.000008741 RMS     0.000001460

 GradGradGradGradGradGradGradGradGradGradGradGradGradGradGradGradGradGrad
 Berny optimization.
 FormGI is forming the generalized inverse of G from B-inverse, IUseBI=4.
 Internal  Forces:  Max     0.000021901 RMS     0.000004245
 Search for a saddle point.
 Step number   6 out of a maximum of  140
 All quantities printed in internal units (Hartrees-Bohrs-Radians)
 Swapping is turned off.
 Update second derivatives using D2CorX and points    1    2    3    4    5
                                                      6
 ITU=  0  0  0  0  0  0
     Eigenvalues ---   -0.02783   0.00385   0.00758   0.01136   0.01467
     Eigenvalues ---    0.01556   0.01579   0.01632   0.01719   0.01752
     Eigenvalues ---    0.01863   0.02120   0.02153   0.02249   0.02320
     Eigenvalues ---    0.02603   0.02856   0.02920   0.03080   0.03837
     Eigenvalues ---    0.04915   0.05238   0.05512   0.09848   0.09887
     Eigenvalues ---    0.10585   0.10806   0.10966   0.11138   0.11563
     Eigenvalues ---    0.13201   0.14194   0.14618   0.16340   0.16485
     Eigenvalues ---    0.17079   0.17712   0.17885   0.18149   0.18685
     Eigenvalues ---    0.19501   0.19868   0.22922   0.25439   0.26867
     Eigenvalues ---    0.27405   0.29399   0.31579   0.32201   0.32677
     Eigenvalues ---    0.33035   0.33573   0.34021   0.34335   0.34481
     Eigenvalues ---    0.34507   0.34796   0.34896   0.34982   0.35780
     Eigenvalues ---    0.39812   0.40443   0.43463   0.44407   0.45735
     Eigenvalues ---    0.46199   0.47383   0.49023   0.49397   0.51412
     Eigenvalues ---    0.84603   2.23547
 Eigenvectors required to have negative eigenvalues:
                          D31       D32       D33       D34       D43
   1                    0.46663   0.44835   0.40715   0.38887  -0.16772
                          D40       D2        D44       D4        D6
   1                    0.15058  -0.14323  -0.13642  -0.13574  -0.13435
 RFO step:  Lambda0=3.186927944D-10 Lambda= 0.00000000D+00.
 Linear search not attempted -- option 19 set.
 Iteration  1 RMS(Cart)=  0.00005342 RMS(Int)=  0.00000000
 Iteration  2 RMS(Cart)=  0.00000000 RMS(Int)=  0.00000000
 Variable       Old X    -DE/DX   Delta X   Delta X   Delta X     New X
                                 (Linear)    (Quad)   (Total)
    R1        2.87560  -0.00000   0.00000  -0.00000  -0.00000   2.87560
    R2        2.09531  -0.00000   0.00000  -0.00000  -0.00000   2.09531
    R3        2.09111   0.00000   0.00000  -0.00000  -0.00000   2.09111
    R4        2.08467   0.00000   0.00000   0.00000   0.00000   2.08468
    R5        2.67091  -0.00000   0.00000   0.00000   0.00000   2.67091
    R6        2.75551  -0.00001   0.00000   0.00000   0.00000   2.75551
    R7        2.64254   0.00000   0.00000   0.00000   0.00000   2.64254
    R8        2.08212   0.00000   0.00000  -0.00000  -0.00000   2.08212
    R9        2.64026   0.00000   0.00000  -0.00000  -0.00000   2.64026
   R10        2.07861  -0.00000   0.00000  -0.00000  -0.00000   2.07861
   R11        2.63198   0.00000   0.00000   0.00000   0.00000   2.63198
   R12        2.07773   0.00000   0.00000  -0.00000  -0.00000   2.07773
   R13        2.61551   0.00000   0.00000   0.00000   0.00000   2.61551
   R14        2.70442  -0.00000   0.00000  -0.00001  -0.00001   2.70441
   R15        2.84483  -0.00001   0.00000   0.00000   0.00000   2.84483
   R16        2.75990  -0.00000   0.00000  -0.00000  -0.00000   2.75989
   R17        2.71212  -0.00001   0.00000  -0.00000  -0.00000   2.71212
   R18        2.55428   0.00000   0.00000  -0.00000  -0.00000   2.55428
   R19        2.67739   0.00000   0.00000   0.00000   0.00000   2.67739
   R20        1.85118   0.00000   0.00000   0.00000   0.00000   1.85118
   R21        2.62831   0.00000   0.00000   0.00000   0.00000   2.62831
   R22        2.07720   0.00000   0.00000   0.00000   0.00000   2.07720
   R23        2.64538   0.00000   0.00000   0.00000   0.00000   2.64538
   R24        2.07945   0.00000   0.00000   0.00000   0.00000   2.07945
   R25        2.63636  -0.00000   0.00000  -0.00000  -0.00000   2.63636
   R26        2.07672  -0.00000   0.00000  -0.00000  -0.00000   2.07672
   R27        2.55159   0.00001   0.00000   0.00000   0.00000   2.55159
    A1        1.87215   0.00000   0.00000   0.00001   0.00001   1.87215
    A2        1.98776  -0.00000   0.00000   0.00001   0.00001   1.98777
    A3        1.96539  -0.00000   0.00000  -0.00002  -0.00002   1.96538
    A4        1.87522   0.00000   0.00000   0.00000   0.00000   1.87522
    A5        1.87571   0.00000   0.00000   0.00000   0.00000   1.87571
    A6        1.88253  -0.00000   0.00000  -0.00001  -0.00001   1.88253
    A7        1.96856   0.00001   0.00000   0.00000   0.00000   1.96856
    A8        2.21716  -0.00001   0.00000  -0.00000  -0.00000   2.21716
    A9        2.08594  -0.00000   0.00000  -0.00000  -0.00000   2.08594
   A10        2.15997  -0.00000   0.00000   0.00000   0.00000   2.15997
   A11        2.04434   0.00000   0.00000   0.00000   0.00000   2.04434
   A12        2.07646   0.00000   0.00000  -0.00000  -0.00000   2.07645
   A13        2.04291   0.00000   0.00000   0.00000   0.00000   2.04291
   A14        2.11885  -0.00000   0.00000  -0.00000  -0.00000   2.11885
   A15        2.11577  -0.00000   0.00000  -0.00000  -0.00000   2.11577
   A16        2.06385  -0.00000   0.00000   0.00000   0.00000   2.06385
   A17        2.15036   0.00000   0.00000   0.00000   0.00000   2.15036
   A18        2.06778   0.00000   0.00000  -0.00000  -0.00000   2.06778
   A19        1.97345   0.00001   0.00000  -0.00000  -0.00000   1.97345
   A20        2.21334  -0.00000   0.00000   0.00000   0.00000   2.21334
   A21        2.09430  -0.00000   0.00000   0.00000   0.00000   2.09430
   A22        1.92837   0.00001   0.00000   0.00001   0.00001   1.92838
   A23        2.22857  -0.00002   0.00000  -0.00002  -0.00002   2.22856
   A24        2.12623   0.00001   0.00000   0.00001   0.00001   2.12624
   A25        2.18642   0.00001   0.00000   0.00000   0.00000   2.18642
   A26        2.15472  -0.00002   0.00000  -0.00001  -0.00001   2.15471
   A27        1.93336   0.00001   0.00000   0.00001   0.00001   1.93336
   A28        2.20705  -0.00000   0.00000  -0.00000  -0.00000   2.20705
   A29        2.12277  -0.00000   0.00000  -0.00000  -0.00000   2.12277
   A30        1.94988   0.00001   0.00000   0.00001   0.00001   1.94989
   A31        1.94621  -0.00000   0.00000  -0.00001  -0.00001   1.94620
   A32        2.13241  -0.00000   0.00000   0.00000   0.00000   2.13241
   A33        2.02212   0.00000   0.00000   0.00000   0.00000   2.02212
   A34        2.12742   0.00000   0.00000  -0.00000  -0.00000   2.12742
   A35        2.06216   0.00000   0.00000   0.00000   0.00000   2.06217
   A36        2.10976  -0.00000   0.00000  -0.00000  -0.00000   2.10976
   A37        2.10996  -0.00000   0.00000  -0.00000  -0.00000   2.10996
   A38        2.07882  -0.00000   0.00000  -0.00000  -0.00000   2.07882
   A39        2.14691   0.00000   0.00000   0.00000   0.00000   2.14691
   A40        2.05601   0.00000   0.00000   0.00000   0.00000   2.05601
   A41        2.20385  -0.00000   0.00000   0.00000   0.00000   2.20385
   A42        2.09728  -0.00001   0.00000  -0.00001  -0.00001   2.09727
   A43        1.98046   0.00001   0.00000   0.00001   0.00001   1.98047
    D1       -0.52337  -0.00000   0.00000   0.00013   0.00013  -0.52324
    D2        2.45322   0.00000   0.00000   0.00014   0.00014   2.45336
    D3        1.54919   0.00000   0.00000   0.00014   0.00014   1.54933
    D4       -1.75741   0.00000   0.00000   0.00015   0.00015  -1.75726
    D5       -2.58343  -0.00000   0.00000   0.00013   0.00013  -2.58330
    D6        0.39316   0.00000   0.00000   0.00014   0.00014   0.39330
    D7        2.83963   0.00000   0.00000   0.00002   0.00002   2.83965
    D8       -0.22629   0.00000   0.00000   0.00002   0.00002  -0.22627
    D9       -0.15071   0.00000   0.00000   0.00002   0.00002  -0.15069
   D10        3.06655   0.00000   0.00000   0.00001   0.00001   3.06656
   D11       -2.60187  -0.00000   0.00000  -0.00004  -0.00004  -2.60191
   D12        0.53645  -0.00000   0.00000  -0.00006  -0.00006   0.53639
   D13        0.36481  -0.00000   0.00000  -0.00003  -0.00003   0.36479
   D14       -2.78004  -0.00000   0.00000  -0.00005  -0.00005  -2.78009
   D15       -0.12540   0.00000   0.00000   0.00001   0.00001  -0.12540
   D16        3.12899  -0.00000   0.00000  -0.00000  -0.00000   3.12899
   D17        2.93921   0.00000   0.00000   0.00001   0.00001   2.93922
   D18       -0.08958   0.00000   0.00000   0.00001   0.00001  -0.08957
   D19        0.14332  -0.00000   0.00000  -0.00001  -0.00001   0.14331
   D20       -2.94478  -0.00000   0.00000  -0.00002  -0.00002  -2.94480
   D21       -3.11086  -0.00000   0.00000  -0.00000  -0.00000  -3.11087
   D22        0.08422  -0.00000   0.00000  -0.00001  -0.00001   0.08421
   D23       -2.94947  -0.00000   0.00000  -0.00002  -0.00002  -2.94949
   D24        0.12188  -0.00000   0.00000  -0.00000  -0.00000   0.12188
   D25        0.14121  -0.00000   0.00000  -0.00002  -0.00002   0.14119
   D26       -3.07063  -0.00000   0.00000   0.00000   0.00000  -3.07063
   D27       -0.36963   0.00000   0.00000   0.00002   0.00002  -0.36961
   D28        2.77500   0.00000   0.00000   0.00004   0.00004   2.77504
   D29        2.69733   0.00000   0.00000   0.00004   0.00004   2.69737
   D30       -0.44122   0.00000   0.00000   0.00006   0.00006  -0.44116
   D31        2.96159  -0.00000   0.00000   0.00000   0.00000   2.96160
   D32       -0.02550  -0.00000   0.00000   0.00001   0.00001  -0.02549
   D33       -0.18360  -0.00000   0.00000  -0.00002  -0.00002  -0.18362
   D34        3.11249  -0.00000   0.00000  -0.00002  -0.00002   3.11248
   D35       -0.22109   0.00000   0.00000   0.00003   0.00003  -0.22106
   D36        3.01779   0.00000   0.00000   0.00002   0.00002   3.01781
   D37        2.78275   0.00000   0.00000   0.00003   0.00003   2.78278
   D38       -0.26155   0.00000   0.00000   0.00002   0.00002  -0.26154
   D39       -3.02108   0.00000   0.00000  -0.00002  -0.00002  -3.02109
   D40        0.18522  -0.00000   0.00000  -0.00002  -0.00002   0.18521
   D41        0.25529  -0.00000   0.00000  -0.00001  -0.00001   0.25528
   D42       -2.82159  -0.00000   0.00000  -0.00002  -0.00002  -2.82161
   D43        0.57090   0.00000   0.00000  -0.00001  -0.00001   0.57089
   D44       -2.65984   0.00000   0.00000  -0.00000  -0.00000  -2.65984
   D45        0.13066  -0.00000   0.00000  -0.00001  -0.00001   0.13065
   D46       -3.06352  -0.00000   0.00000  -0.00000  -0.00000  -3.06352
   D47       -2.92673  -0.00000   0.00000  -0.00002  -0.00002  -2.92675
   D48        0.16227  -0.00000   0.00000  -0.00001  -0.00001   0.16226
   D49        0.04923  -0.00000   0.00000  -0.00000  -0.00000   0.04923
   D50        3.13658   0.00000   0.00000   0.00000   0.00000   3.13658
   D51       -3.03662  -0.00000   0.00000  -0.00001  -0.00001  -3.03663
   D52        0.05073  -0.00000   0.00000  -0.00000  -0.00000   0.05072
   D53       -0.06695   0.00000   0.00000   0.00001   0.00001  -0.06694
   D54        3.01564   0.00000   0.00000   0.00001   0.00001   3.01565
   D55        3.12889  -0.00000   0.00000   0.00000   0.00000   3.12889
   D56       -0.07171   0.00000   0.00000   0.00000   0.00000  -0.07170
   D57       -0.10101   0.00000   0.00000   0.00000   0.00000  -0.10100
   D58        2.97960   0.00000   0.00000   0.00000   0.00000   2.97960
   D59        3.09652   0.00000   0.00000   0.00000   0.00000   3.09652
   D60       -0.10606   0.00000   0.00000   0.00000   0.00000  -0.10606
         Item               Value     Threshold  Converged?
 Maximum Force            0.000022     0.000450     YES
 RMS     Force            0.000004     0.000300     YES
 Maximum Displacement     0.000312     0.001800     YES
 RMS     Displacement     0.000053     0.001200     YES
 Predicted change in Energy=-1.574308D-09
 Optimization completed.
    -- Stationary point found.
                           ----------------------------
                           !   Optimized Parameters   !
                           ! (Angstroms and Degrees)  !
 --------------------------                            --------------------------
 ! Name  Definition              Value          Derivative Info.                !
 --------------------------------------------------------------------------------
 ! R1    R(1,2)                  1.5217         -DE/DX =    0.0                 !
 ! R2    R(1,17)                 1.1088         -DE/DX =    0.0                 !
 ! R3    R(1,18)                 1.1066         -DE/DX =    0.0                 !
 ! R4    R(1,19)                 1.1032         -DE/DX =    0.0                 !
 ! R5    R(2,3)                  1.4134         -DE/DX =    0.0                 !
 ! R6    R(2,8)                  1.4582         -DE/DX =    0.0                 !
 ! R7    R(3,4)                  1.3984         -DE/DX =    0.0                 !
 ! R8    R(3,20)                 1.1018         -DE/DX =    0.0                 !
 ! R9    R(4,5)                  1.3972         -DE/DX =    0.0                 !
 ! R10   R(4,21)                 1.1            -DE/DX =    0.0                 !
 ! R11   R(5,6)                  1.3928         -DE/DX =    0.0                 !
 ! R12   R(5,22)                 1.0995         -DE/DX =    0.0                 !
 ! R13   R(6,7)                  1.3841         -DE/DX =    0.0                 !
 ! R14   R(6,8)                  1.4311         -DE/DX =    0.0                 !
 ! R15   R(8,9)                  1.5054         -DE/DX =    0.0                 !
 ! R16   R(9,10)                 1.4605         -DE/DX =    0.0                 !
 ! R17   R(9,15)                 1.4352         -DE/DX =    0.0                 !
 ! R18   R(10,11)                1.3517         -DE/DX =    0.0                 !
 ! R19   R(10,12)                1.4168         -DE/DX =    0.0                 !
 ! R20   R(11,23)                0.9796         -DE/DX =    0.0                 !
 ! R21   R(12,13)                1.3908         -DE/DX =    0.0                 !
 ! R22   R(12,24)                1.0992         -DE/DX =    0.0                 !
 ! R23   R(13,14)                1.3999         -DE/DX =    0.0                 !
 ! R24   R(13,25)                1.1004         -DE/DX =    0.0                 !
 ! R25   R(14,15)                1.3951         -DE/DX =    0.0                 !
 ! R26   R(14,26)                1.099          -DE/DX =    0.0                 !
 ! R27   R(15,16)                1.3502         -DE/DX =    0.0                 !
 ! A1    A(2,1,17)             107.266          -DE/DX =    0.0                 !
 ! A2    A(2,1,18)             113.8903         -DE/DX =    0.0                 !
 ! A3    A(2,1,19)             112.6087         -DE/DX =    0.0                 !
 ! A4    A(17,1,18)            107.4419         -DE/DX =    0.0                 !
 ! A5    A(17,1,19)            107.4701         -DE/DX =    0.0                 !
 ! A6    A(18,1,19)            107.8611         -DE/DX =    0.0                 !
 ! A7    A(1,2,3)              112.7899         -DE/DX =    0.0                 !
 ! A8    A(1,2,8)              127.034          -DE/DX =    0.0                 !
 ! A9    A(3,2,8)              119.5158         -DE/DX =    0.0                 !
 ! A10   A(2,3,4)              123.7572         -DE/DX =    0.0                 !
 ! A11   A(2,3,20)             117.1319         -DE/DX =    0.0                 !
 ! A12   A(4,3,20)             118.9721         -DE/DX =    0.0                 !
 ! A13   A(3,4,5)              117.0498         -DE/DX =    0.0                 !
 ! A14   A(3,4,21)             121.4012         -DE/DX =    0.0                 !
 ! A15   A(5,4,21)             121.2247         -DE/DX =    0.0                 !
 ! A16   A(4,5,6)              118.2498         -DE/DX =    0.0                 !
 ! A17   A(4,5,22)             123.2065         -DE/DX =    0.0                 !
 ! A18   A(6,5,22)             118.475          -DE/DX =    0.0                 !
 ! A19   A(5,6,7)              113.0704         -DE/DX =    0.0                 !
 ! A20   A(5,6,8)              126.8151         -DE/DX =    0.0                 !
 ! A21   A(7,6,8)              119.9943         -DE/DX =    0.0                 !
 ! A22   A(2,8,6)              110.4877         -DE/DX =    0.0                 !
 ! A23   A(2,8,9)              127.6879         -DE/DX =    0.0                 !
 ! A24   A(6,8,9)              121.8242         -DE/DX =    0.0                 !
 ! A25   A(8,9,10)             125.2726         -DE/DX =    0.0                 !
 ! A26   A(8,9,15)             123.4563         -DE/DX =    0.0                 !
 ! A27   A(10,9,15)            110.7731         -DE/DX =    0.0                 !
 ! A28   A(9,10,11)            126.4545         -DE/DX =    0.0                 !
 ! A29   A(9,10,12)            121.6257         -DE/DX =    0.0                 !
 ! A30   A(11,10,12)           111.72           -DE/DX =    0.0                 !
 ! A31   A(10,11,23)           111.5097         -DE/DX =    0.0                 !
 ! A32   A(10,12,13)           122.1782         -DE/DX =    0.0                 !
 ! A33   A(10,12,24)           115.8587         -DE/DX =    0.0                 !
 ! A34   A(13,12,24)           121.892          -DE/DX =    0.0                 !
 ! A35   A(12,13,14)           118.1533         -DE/DX =    0.0                 !
 ! A36   A(12,13,25)           120.8805         -DE/DX =    0.0                 !
 ! A37   A(14,13,25)           120.8918         -DE/DX =    0.0                 !
 ! A38   A(13,14,15)           119.1079         -DE/DX =    0.0                 !
 ! A39   A(13,14,26)           123.0089         -DE/DX =    0.0                 !
 ! A40   A(15,14,26)           117.8006         -DE/DX =    0.0                 !
 ! A41   A(9,15,14)            126.2712         -DE/DX =    0.0                 !
 ! A42   A(9,15,16)            120.1654         -DE/DX =    0.0                 !
 ! A43   A(14,15,16)           113.4723         -DE/DX =    0.0                 !
 ! D1    D(17,1,2,3)           -29.9868         -DE/DX =    0.0                 !
 ! D2    D(17,1,2,8)           140.5593         -DE/DX =    0.0                 !
 ! D3    D(18,1,2,3)            88.7618         -DE/DX =    0.0                 !
 ! D4    D(18,1,2,8)          -100.6921         -DE/DX =    0.0                 !
 ! D5    D(19,1,2,3)          -148.0198         -DE/DX =    0.0                 !
 ! D6    D(19,1,2,8)            22.5263         -DE/DX =    0.0                 !
 ! D7    D(1,2,3,4)            162.6989         -DE/DX =    0.0                 !
 ! D8    D(1,2,3,20)           -12.9654         -DE/DX =    0.0                 !
 ! D9    D(8,2,3,4)             -8.635          -DE/DX =    0.0                 !
 ! D10   D(8,2,3,20)           175.7006         -DE/DX =    0.0                 !
 ! D11   D(1,2,8,6)           -149.0764         -DE/DX =    0.0                 !
 ! D12   D(1,2,8,9)             30.7365         -DE/DX =    0.0                 !
 ! D13   D(3,2,8,6)             20.9023         -DE/DX =    0.0                 !
 ! D14   D(3,2,8,9)           -159.2848         -DE/DX =    0.0                 !
 ! D15   D(2,3,4,5)             -7.185          -DE/DX =    0.0                 !
 ! D16   D(2,3,4,21)           179.2781         -DE/DX =    0.0                 !
 ! D17   D(20,3,4,5)           168.4043         -DE/DX =    0.0                 !
 ! D18   D(20,3,4,21)           -5.1325         -DE/DX =    0.0                 !
 ! D19   D(3,4,5,6)              8.2117         -DE/DX =    0.0                 !
 ! D20   D(3,4,5,22)          -168.7234         -DE/DX =    0.0                 !
 ! D21   D(21,4,5,6)          -178.2393         -DE/DX =    0.0                 !
 ! D22   D(21,4,5,22)            4.8256         -DE/DX =    0.0                 !
 ! D23   D(4,5,6,7)           -168.9921         -DE/DX =    0.0                 !
 ! D24   D(4,5,6,8)              6.9832         -DE/DX =    0.0                 !
 ! D25   D(22,5,6,7)             8.0907         -DE/DX =    0.0                 !
 ! D26   D(22,5,6,8)          -175.934          -DE/DX =    0.0                 !
 ! D27   D(5,6,8,2)            -21.1785         -DE/DX =    0.0                 !
 ! D28   D(5,6,8,9)            158.9958         -DE/DX =    0.0                 !
 ! D29   D(7,6,8,2)            154.5457         -DE/DX =    0.0                 !
 ! D30   D(7,6,8,9)            -25.2801         -DE/DX =    0.0                 !
 ! D31   D(2,8,9,10)           169.6869         -DE/DX =    0.0                 !
 ! D32   D(2,8,9,15)            -1.461          -DE/DX =    0.0                 !
 ! D33   D(6,8,9,10)           -10.5194         -DE/DX =    0.0                 !
 ! D34   D(6,8,9,15)           178.3328         -DE/DX =    0.0                 !
 ! D35   D(8,9,10,11)          -12.6678         -DE/DX =    0.0                 !
 ! D36   D(8,9,10,12)          172.9065         -DE/DX =    0.0                 !
 ! D37   D(15,9,10,11)         159.4398         -DE/DX =    0.0                 !
 ! D38   D(15,9,10,12)         -14.986          -DE/DX =    0.0                 !
 ! D39   D(8,9,15,14)         -173.0949         -DE/DX =    0.0                 !
 ! D40   D(8,9,15,16)           10.6126         -DE/DX =    0.0                 !
 ! D41   D(10,9,15,14)          14.6273         -DE/DX =    0.0                 !
 ! D42   D(10,9,15,16)        -161.6653         -DE/DX =    0.0                 !
 ! D43   D(9,10,11,23)          32.7102         -DE/DX =    0.0                 !
 ! D44   D(12,10,11,23)       -152.3977         -DE/DX =    0.0                 !
 ! D45   D(9,10,12,13)           7.4863         -DE/DX =    0.0                 !
 ! D46   D(9,10,12,24)        -175.5268         -DE/DX =    0.0                 !
 ! D47   D(11,10,12,13)       -167.6895         -DE/DX =    0.0                 !
 ! D48   D(11,10,12,24)          9.2975         -DE/DX =    0.0                 !
 ! D49   D(10,12,13,14)          2.8208         -DE/DX =    0.0                 !
 ! D50   D(10,12,13,25)        179.7129         -DE/DX =    0.0                 !
 ! D51   D(24,12,13,14)       -173.9856         -DE/DX =    0.0                 !
 ! D52   D(24,12,13,25)          2.9065         -DE/DX =    0.0                 !
 ! D53   D(12,13,14,15)         -3.836          -DE/DX =    0.0                 !
 ! D54   D(12,13,14,26)        172.7833         -DE/DX =    0.0                 !
 ! D55   D(25,13,14,15)        179.2722         -DE/DX =    0.0                 !
 ! D56   D(25,13,14,26)         -4.1084         -DE/DX =    0.0                 !
 ! D57   D(13,14,15,9)          -5.7873         -DE/DX =    0.0                 !
 ! D58   D(13,14,15,16)        170.7184         -DE/DX =    0.0                 !
 ! D59   D(26,14,15,9)         177.4174         -DE/DX =    0.0                 !
 ! D60   D(26,14,15,16)         -6.0769         -DE/DX =    0.0                 !
 --------------------------------------------------------------------------------
 GradGradGradGradGradGradGradGradGradGradGradGradGradGradGradGradGradGrad

                          Input orientation:                          
 ---------------------------------------------------------------------
 Center     Atomic      Atomic             Coordinates (Angstroms)
 Number     Number       Type             X           Y           Z
 ---------------------------------------------------------------------
      1          6           0       -1.081454    2.505828   -1.249874
      2          6           0       -1.503287    1.204329   -0.583744
      3          6           0       -2.879002    1.175346   -0.260895
      4          6           0       -3.585052    0.003156    0.027045
      5          6           0       -2.912192   -1.206603   -0.162204
      6          6           0       -1.550261   -1.165310   -0.450783
      7          9           0       -1.043922   -2.388751   -0.853846
      8          6           0       -0.706894   -0.009118   -0.444066
      9          6           0        0.788671   -0.118221   -0.311165
     10          6           0        1.517873   -1.334612    0.037614
     11          8           0        0.986318   -2.477831    0.524951
     12          6           0        2.933062   -1.389637   -0.002117
     13          6           0        3.712336   -0.259186   -0.224033
     14          6           0        3.064276    0.974977   -0.352515
     15          6           0        1.669842    1.014367   -0.334937
     16          9           0        1.167993    2.266023   -0.266653
     17          1           0       -1.958636    2.888235   -1.809991
     18          1           0       -0.773254    3.294512   -0.537495
     19          1           0       -0.261548    2.365116   -1.974385
     20          1           0       -3.427059    2.129873   -0.310832
     21          1           0       -4.654011    0.026762    0.285241
     22          1           0       -3.414479   -2.184458   -0.142626
     23          1           0        0.086073   -2.634424    0.171888
     24          1           0        3.380633   -2.372121    0.204427
     25          1           0        4.810506   -0.325642   -0.245964
     26          1           0        3.603295    1.930703   -0.413743
 ---------------------------------------------------------------------
                    Distance matrix (angstroms):
                    1          2          3          4          5
     1  C    0.000000
     2  C    1.521701   0.000000
     3  C    2.445289   1.413387   0.000000
     4  C    3.763229   2.479844   1.398373   0.000000
     5  C    4.279810   2.824057   2.384224   1.397166   0.000000
     6  C    3.786236   2.373830   2.698199   2.394579   1.392782
     7  F    4.910718   3.632381   4.052394   3.599240   2.316522
     8  C    2.667317   1.458152   2.480839   2.916486   2.525224
     9  C    3.356215   2.660171   3.889430   4.388459   3.860460
    10  C    4.812807   3.994961   5.071637   5.275375   4.436417
    11  O    5.680013   4.581009   5.376240   5.225001   4.157714
    12  C    5.731308   5.171861   6.358159   6.665324   5.850310
    13  C    5.628328   5.428995   6.745737   7.306418   6.692219
    14  C    4.509528   4.579160   5.947360   6.730681   6.365036
    15  C    3.260552   3.188533   4.552294   5.363534   5.094858
    16  F    2.466625   2.891967   4.191392   5.272405   5.358913
    17  H    1.108789   2.132267   2.486113   3.787296   4.515769
    18  H    1.106568   2.214487   3.000257   4.365539   4.997592
    19  H    1.103161   2.196185   3.347038   4.542054   4.802821
    20  H    2.554409   2.152211   1.101809   2.159177   3.379238
    21  H    4.611455   3.474027   2.183614   1.099953   2.180671
    22  H    5.354231   3.915497   3.404263   2.200804   1.099489
    23  H    5.459554   4.222922   4.846991   4.522717   3.337646
    24  H    6.769018   6.104497   7.209999   7.361670   6.410343
    25  H    6.613641   6.505297   7.834648   8.406428   7.773234
    26  H    4.793408   5.160785   6.527947   7.455338   7.235851
                    6          7          8          9         10
     6  C    0.000000
     7  F    1.384069   0.000000
     8  C    1.431115   2.438065   0.000000
     9  C    2.566416   2.967863   1.505417   0.000000
    10  C    3.111373   2.910104   2.634110   1.460476   0.000000
    11  O    3.018112   2.455788   3.146506   2.511158   1.351665
    12  C    4.511298   4.188087   3.917962   2.512056   1.416815
    13  C    5.344848   5.249162   4.431765   2.928358   2.457777
    14  C    5.087675   5.333226   3.898532   2.524910   2.806736
    15  C    3.890176   4.383491   2.590040   1.435194   2.383188
    16  F    4.381420   5.186933   2.953463   2.414639   3.630367
    17  H    4.294816   5.440358   3.439080   4.339695   5.773404
    18  H    4.527832   5.698492   3.305617   3.759997   5.196999
    19  H    4.055373   4.946410   2.859581   3.168000   4.571921
    20  H    3.794758   5.137331   3.462995   4.777688   6.047845
    21  H    3.405295   4.490541   4.014089   5.477181   6.325094
    22  H    2.146843   2.483367   3.486257   4.686600   5.008276
    23  H    2.285520   1.545760   2.810770   2.656740   1.938452
    24  H    5.118536   4.549386   4.765732   3.473351   2.138721
    25  H    6.419217   6.237008   5.530021   4.027708   3.455411
    26  H    6.012138   6.359874   4.726685   3.482918   3.900639
                   11         12         13         14         15
    11  O    0.000000
    12  C    2.291676   0.000000
    13  C    3.593680   1.390840   0.000000
    14  C    4.124287   2.394034   1.399874   0.000000
    15  C    3.660882   2.736006   2.409568   1.395101   0.000000
    16  F    4.812878   4.068083   3.584993   2.295662   1.350244
    17  H    6.551288   6.745169   6.676934   5.569061   4.342006
    18  H    6.127383   5.997054   5.731278   4.487883   3.347956
    19  H    5.590884   5.309759   5.073701   3.952727   2.870990
    20  H    6.434856   7.275534   7.529017   6.593403   5.217599
    21  H    6.176063   7.723499   8.386709   7.802423   6.430483
    22  H    4.460801   6.398653   7.382736   7.211127   6.009974
    23  H    0.979600   3.112093   4.352964   4.708766   4.009847
    24  H    2.417986   1.099207   2.181307   3.407834   3.832234
    25  H    4.455406   2.171714   1.100397   2.179973   3.415744
    26  H    5.211995   3.412229   2.200794   1.098955   2.141056
                   16         17         18         19         20
    16  F    0.000000
    17  H    3.541870   0.000000
    18  H    2.213500   1.785899   0.000000
    19  H    2.229294   1.783476   1.786134   0.000000
    20  H    4.597280   2.231335   2.906964   3.583743   0.000000
    21  H    6.262157   4.454557   5.139587   5.465121   2.506750
    22  H    6.389148   5.534600   6.095170   5.830518   4.317627
    23  H    5.037584   6.213569   6.032740   5.451856   5.939162
    24  H    5.160433   7.761251   7.065123   6.360355   8.177904
    25  H    4.470465   7.654833   6.660997   5.996111   8.596001
    26  H    2.462676   5.813901   4.585790   4.190624   7.033928
                   21         22         23         24         25
    21  H    0.000000
    22  H    2.570798   0.000000
    23  H    5.437201   3.543339   0.000000
    24  H    8.385504   6.806557   3.305146   0.000000
    25  H    9.485961   8.433045   5.274973   2.536822   0.000000
    26  H    8.502745   8.139853   5.792599   4.352701   2.564488
                   26
    26  H    0.000000
 Symmetry turned off by external request.
 Stoichiometry    C13H10F2O
 Framework group  C1[X(C13H10F2O)]
 Deg. of freedom    72
 Full point group                 C1      NOp   1
 Rotational constants (GHZ):           0.8392967           0.4707450           0.3127826

 **********************************************************************

            Population analysis using the SCF Density.

 **********************************************************************

 Alpha  occ. eigenvalues --  -24.33322 -24.30363 -18.80093 -10.01160 -10.00336
 Alpha  occ. eigenvalues --   -9.98896  -9.96251  -9.95147  -9.94810  -9.93314
 Alpha  occ. eigenvalues --   -9.93240  -9.92721  -9.92483  -9.91750  -9.91691
 Alpha  occ. eigenvalues --   -9.91214  -1.13491  -1.11374  -0.96076  -0.79513
 Alpha  occ. eigenvalues --   -0.77254  -0.71563  -0.70151  -0.66810  -0.66211
 Alpha  occ. eigenvalues --   -0.62549  -0.58959  -0.56159  -0.55007  -0.53583
 Alpha  occ. eigenvalues --   -0.51758  -0.48583  -0.47911  -0.46178  -0.44244
 Alpha  occ. eigenvalues --   -0.43472  -0.42992  -0.42335  -0.41730  -0.40421
 Alpha  occ. eigenvalues --   -0.38724  -0.38179  -0.38043  -0.36626  -0.35943
 Alpha  occ. eigenvalues --   -0.34297  -0.33945  -0.33123  -0.32906  -0.31025
 Alpha  occ. eigenvalues --   -0.30655  -0.30251  -0.28620  -0.26722  -0.22478
 Alpha  occ. eigenvalues --   -0.20899  -0.19735
 Alpha virt. eigenvalues --   -0.09117  -0.04998  -0.03063  -0.02554   0.02489
 Alpha virt. eigenvalues --    0.03871   0.04614   0.06546   0.07598   0.08105
 Alpha virt. eigenvalues --    0.09553   0.10064   0.11032   0.11137   0.12036
 Alpha virt. eigenvalues --    0.12680   0.13908   0.15803   0.17026   0.19040
 Alpha virt. eigenvalues --    0.19905   0.21883   0.23658   0.25089   0.25688
 Alpha virt. eigenvalues --    0.26494   0.27594   0.28563   0.29592   0.30599
 Alpha virt. eigenvalues --    0.32716   0.34903   0.35993   0.36576   0.37320
 Alpha virt. eigenvalues --    0.38769   0.39668   0.40282   0.41626   0.41684
 Alpha virt. eigenvalues --    0.42375   0.42847   0.43958   0.44246   0.45790
 Alpha virt. eigenvalues --    0.46816   0.47248   0.48754   0.49905   0.51282
 Alpha virt. eigenvalues --    0.51965   0.52100   0.53256   0.53896   0.55303
 Alpha virt. eigenvalues --    0.55998   0.56804   0.58424   0.59088   0.59565
 Alpha virt. eigenvalues --    0.60468   0.61053   0.61470   0.61937   0.62631
 Alpha virt. eigenvalues --    0.63573   0.64674   0.64931   0.65578   0.65949
 Alpha virt. eigenvalues --    0.67392   0.68396   0.70166   0.71420   0.71827
 Alpha virt. eigenvalues --    0.72590   0.73855   0.75079   0.76093   0.77809
 Alpha virt. eigenvalues --    0.80948   0.82078   0.82245   0.88349   0.92104
 Alpha virt. eigenvalues --    0.94140   0.95491   0.96690   0.97957   1.00982
 Alpha virt. eigenvalues --    1.04363   1.05276   1.07616   1.09291   1.10426
 Alpha virt. eigenvalues --    1.11860   1.14040   1.15939   1.17281   1.19327
 Alpha virt. eigenvalues --    1.20995   1.22143   1.23030   1.25451   1.27233
 Alpha virt. eigenvalues --    1.28089   1.31043   1.31352   1.34567   1.35887
 Alpha virt. eigenvalues --    1.37127   1.38457   1.42300   1.44007   1.46706
 Alpha virt. eigenvalues --    1.49391   1.52312   1.55081   1.56839   1.57296
 Alpha virt. eigenvalues --    1.58840   1.59225   1.61601   1.61904   1.62572
 Alpha virt. eigenvalues --    1.63304   1.64007   1.64375   1.65344   1.65979
 Alpha virt. eigenvalues --    1.67153   1.67550   1.70637   1.71865   1.72246
 Alpha virt. eigenvalues --    1.72516   1.73500   1.74563   1.76058   1.77881
 Alpha virt. eigenvalues --    1.78072   1.81291   1.82863   1.84609   1.85780
 Alpha virt. eigenvalues --    1.86230   1.87420   1.90124   1.90719   1.92679
 Alpha virt. eigenvalues --    1.93971   1.95509   1.96850   1.97714   1.99058
 Alpha virt. eigenvalues --    1.99904   2.01768   2.04680   2.05788   2.08897
 Alpha virt. eigenvalues --    2.09186   2.09661   2.13705   2.15169   2.17438
 Alpha virt. eigenvalues --    2.17616   2.18545   2.19534   2.20260   2.23420
 Alpha virt. eigenvalues --    2.23591   2.28348   2.31107   2.33342   2.35497
 Alpha virt. eigenvalues --    2.36551   2.37786   2.43558   2.45122   2.46970
 Alpha virt. eigenvalues --    2.48294   2.48742   2.52160   2.54760   2.55244
 Alpha virt. eigenvalues --    2.59343   2.61626   2.62758   2.65400   2.67591
 Alpha virt. eigenvalues --    2.68849   2.75867   2.77534   2.81025   2.81769
 Alpha virt. eigenvalues --    2.83986   2.86909   2.88457   2.90075   2.93025
 Alpha virt. eigenvalues --    2.93705   2.98042   3.00536   3.02018   3.06676
 Alpha virt. eigenvalues --    3.10031   3.12390   3.15355   3.20182   3.29593
 Alpha virt. eigenvalues --    3.32256   3.38542   3.43452   3.48019   3.67788
 Alpha virt. eigenvalues --    3.74542   3.79140
          Condensed to atoms (all electrons):
               1          2          3          4          5          6
     1  C    4.556616   0.438271  -0.073862   0.013355   0.000083   0.009004
     2  C    0.438271   5.192644   0.362603   0.057229  -0.117538   0.037807
     3  C   -0.073862   0.362603   5.091045   0.294014   0.083870  -0.134487
     4  C    0.013355   0.057229   0.294014   5.068972   0.238264   0.089278
     5  C    0.000083  -0.117538   0.083870   0.238264   5.195241   0.321517
     6  C    0.009004   0.037807  -0.134487   0.089278   0.321517   5.208640
     7  F   -0.000015   0.001787  -0.000002   0.005065  -0.059216   0.299456
     8  C   -0.063171   0.303757   0.032493  -0.088673  -0.003512   0.209642
     9  C   -0.019243  -0.046315   0.013933  -0.000237   0.011281  -0.064459
    10  C   -0.000364   0.007950   0.000262  -0.000239   0.001379  -0.026610
    11  O   -0.000003  -0.000022   0.000001   0.000002  -0.001035   0.008040
    12  C    0.000001   0.000112  -0.000002   0.000001  -0.000043   0.001641
    13  C   -0.000020  -0.000080   0.000001  -0.000000   0.000002  -0.000287
    14  C   -0.000012   0.000298  -0.000017   0.000001  -0.000002   0.000164
    15  C   -0.001288  -0.022084   0.000140  -0.000060  -0.000050   0.011184
    16  F    0.004690  -0.004156  -0.000128   0.000002  -0.000002   0.000287
    17  H    0.376142  -0.023483  -0.018739   0.002011  -0.000056  -0.000020
    18  H    0.357993  -0.000188  -0.000062  -0.000197  -0.000048  -0.000238
    19  H    0.372311  -0.002332   0.007880  -0.000860   0.000209  -0.000829
    20  H   -0.018379  -0.065033   0.424890  -0.066038   0.013755  -0.000522
    21  H   -0.000411   0.014372  -0.064885   0.432244  -0.070547   0.013573
    22  H    0.000017  -0.000893   0.012517  -0.064242   0.414950  -0.057892
    23  H   -0.000001   0.000444  -0.000069   0.000241  -0.002109  -0.017083
    24  H    0.000000   0.000001  -0.000000   0.000000   0.000001   0.000006
    25  H    0.000000  -0.000000   0.000000   0.000000  -0.000000   0.000001
    26  H   -0.000010   0.000027  -0.000000   0.000000  -0.000000   0.000001
               7          8          9         10         11         12
     1  C   -0.000015  -0.063171  -0.019243  -0.000364  -0.000003   0.000001
     2  C    0.001787   0.303757  -0.046315   0.007950  -0.000022   0.000112
     3  C   -0.000002   0.032493   0.013933   0.000262   0.000001  -0.000002
     4  C    0.005065  -0.088673  -0.000237  -0.000239   0.000002   0.000001
     5  C   -0.059216  -0.003512   0.011281   0.001379  -0.001035  -0.000043
     6  C    0.299456   0.209642  -0.064459  -0.026610   0.008040   0.001641
     7  F    8.989372  -0.069269   0.001670   0.001211  -0.026980  -0.000480
     8  C   -0.069269   5.457221   0.229236  -0.067415  -0.004239   0.009153
     9  C    0.001670   0.229236   5.752395   0.135911  -0.074804   0.008835
    10  C    0.001211  -0.067415   0.135911   5.182455   0.455947   0.289436
    11  O   -0.026980  -0.004239  -0.074804   0.455947   7.556108  -0.089507
    12  C   -0.000480   0.009153   0.008835   0.289436  -0.089507   5.252403
    13  C    0.000001  -0.000045  -0.103073   0.114427   0.005907   0.213782
    14  C    0.000000   0.013447   0.002246  -0.139953   0.000104   0.108319
    15  C    0.000152  -0.055958   0.166769   0.091834   0.001452  -0.137538
    16  F   -0.000000  -0.000348  -0.073967   0.001835  -0.000001   0.000032
    17  H    0.000001   0.006993  -0.000634   0.000005   0.000000   0.000000
    18  H    0.000000  -0.000987   0.003871   0.000031   0.000000  -0.000002
    19  H   -0.000004  -0.011396   0.005321   0.000187   0.000001  -0.000011
    20  H    0.000004   0.015040  -0.000231   0.000001   0.000000  -0.000000
    21  H   -0.000074  -0.001321   0.000017   0.000000  -0.000000   0.000000
    22  H    0.000815   0.017096  -0.000279   0.000053   0.000008  -0.000000
    23  H    0.051490   0.005630  -0.011802  -0.024897   0.338490   0.004711
    24  H    0.000017  -0.000194   0.019859  -0.056260   0.003594   0.415532
    25  H   -0.000000   0.000011  -0.001942   0.014438  -0.000111  -0.069375
    26  H   -0.000000  -0.000226   0.019155  -0.001344   0.000006   0.013485
              13         14         15         16         17         18
     1  C   -0.000020  -0.000012  -0.001288   0.004690   0.376142   0.357993
     2  C   -0.000080   0.000298  -0.022084  -0.004156  -0.023483  -0.000188
     3  C    0.000001  -0.000017   0.000140  -0.000128  -0.018739  -0.000062
     4  C   -0.000000   0.000001  -0.000060   0.000002   0.002011  -0.000197
     5  C    0.000002  -0.000002  -0.000050  -0.000002  -0.000056  -0.000048
     6  C   -0.000287   0.000164   0.011184   0.000287  -0.000020  -0.000238
     7  F    0.000001   0.000000   0.000152  -0.000000   0.000001   0.000000
     8  C   -0.000045   0.013447  -0.055958  -0.000348   0.006993  -0.000987
     9  C   -0.103073   0.002246   0.166769  -0.073967  -0.000634   0.003871
    10  C    0.114427  -0.139953   0.091834   0.001835   0.000005   0.000031
    11  O    0.005907   0.000104   0.001452  -0.000001   0.000000   0.000000
    12  C    0.213782   0.108319  -0.137538   0.000032   0.000000  -0.000002
    13  C    5.173698   0.165539   0.114633   0.005220  -0.000001   0.000002
    14  C    0.165539   5.283283   0.317328  -0.061599   0.000036  -0.000178
    15  C    0.114633   0.317328   5.056819   0.359657   0.000191  -0.002164
    16  F    0.005220  -0.061599   0.359657   8.927761   0.001717   0.003326
    17  H   -0.000001   0.000036   0.000191   0.001717   0.671007  -0.023235
    18  H    0.000002  -0.000178  -0.002164   0.003326  -0.023235   0.624861
    19  H    0.000074  -0.001240   0.001289  -0.001529  -0.028657  -0.018024
    20  H    0.000000  -0.000000   0.000024  -0.000011   0.004749   0.002020
    21  H   -0.000000   0.000000   0.000000   0.000000  -0.000017   0.000013
    22  H    0.000000  -0.000000   0.000001  -0.000000  -0.000002  -0.000001
    23  H    0.000016  -0.000160   0.000206   0.000001  -0.000001   0.000000
    24  H   -0.073341   0.014354  -0.001543   0.000004  -0.000000  -0.000000
    25  H    0.436317  -0.070780   0.014059  -0.000084   0.000000   0.000000
    26  H   -0.069523   0.416123  -0.059308   0.001759  -0.000002   0.000025
              19         20         21         22         23         24
     1  C    0.372311  -0.018379  -0.000411   0.000017  -0.000001   0.000000
     2  C   -0.002332  -0.065033   0.014372  -0.000893   0.000444   0.000001
     3  C    0.007880   0.424890  -0.064885   0.012517  -0.000069  -0.000000
     4  C   -0.000860  -0.066038   0.432244  -0.064242   0.000241   0.000000
     5  C    0.000209   0.013755  -0.070547   0.414950  -0.002109   0.000001
     6  C   -0.000829  -0.000522   0.013573  -0.057892  -0.017083   0.000006
     7  F   -0.000004   0.000004  -0.000074   0.000815   0.051490   0.000017
     8  C   -0.011396   0.015040  -0.001321   0.017096   0.005630  -0.000194
     9  C    0.005321  -0.000231   0.000017  -0.000279  -0.011802   0.019859
    10  C    0.000187   0.000001   0.000000   0.000053  -0.024897  -0.056260
    11  O    0.000001   0.000000  -0.000000   0.000008   0.338490   0.003594
    12  C   -0.000011  -0.000000   0.000000  -0.000000   0.004711   0.415532
    13  C    0.000074   0.000000  -0.000000   0.000000   0.000016  -0.073341
    14  C   -0.001240  -0.000000   0.000000  -0.000000  -0.000160   0.014354
    15  C    0.001289   0.000024   0.000000   0.000001   0.000206  -0.001543
    16  F   -0.001529  -0.000011   0.000000  -0.000000   0.000001   0.000004
    17  H   -0.028657   0.004749  -0.000017  -0.000002  -0.000001  -0.000000
    18  H   -0.018024   0.002020   0.000013  -0.000001   0.000000  -0.000000
    19  H    0.641994   0.000530   0.000010  -0.000001   0.000002  -0.000000
    20  H    0.000530   0.700407  -0.012383  -0.000366  -0.000001   0.000000
    21  H    0.000010  -0.012383   0.688864  -0.011754   0.000003  -0.000000
    22  H   -0.000001  -0.000366  -0.011754   0.673869   0.000138  -0.000000
    23  H    0.000002  -0.000001   0.000003   0.000138   0.469825   0.000023
    24  H   -0.000000   0.000000  -0.000000  -0.000000   0.000023   0.686157
    25  H   -0.000001  -0.000000   0.000000  -0.000000   0.000012  -0.013183
    26  H    0.000041  -0.000000  -0.000000   0.000000  -0.000002  -0.000306
              25         26
     1  C    0.000000  -0.000010
     2  C   -0.000000   0.000027
     3  C    0.000000  -0.000000
     4  C    0.000000   0.000000
     5  C   -0.000000  -0.000000
     6  C    0.000001   0.000001
     7  F   -0.000000  -0.000000
     8  C    0.000011  -0.000226
     9  C   -0.001942   0.019155
    10  C    0.014438  -0.001344
    11  O   -0.000111   0.000006
    12  C   -0.069375   0.013485
    13  C    0.436317  -0.069523
    14  C   -0.070780   0.416123
    15  C    0.014059  -0.059308
    16  F   -0.000084   0.001759
    17  H    0.000000  -0.000002
    18  H    0.000000   0.000025
    19  H   -0.000001   0.000041
    20  H   -0.000000  -0.000000
    21  H    0.000000  -0.000000
    22  H   -0.000000   0.000000
    23  H    0.000012  -0.000002
    24  H   -0.013183  -0.000306
    25  H    0.691583  -0.012318
    26  H   -0.012318   0.685402
 Mulliken charges:
               1
     1  C    0.048293
     2  C   -0.135177
     3  C   -0.031397
     4  C    0.019869
     5  C   -0.026392
     6  C    0.092186
     7  F   -0.195002
     8  C    0.067036
     9  C    0.026488
    10  C    0.019719
    11  O   -0.172957
    12  C   -0.020484
    13  C    0.016751
    14  C   -0.047301
    15  C    0.144253
    16  F   -0.164464
    17  H    0.031996
    18  H    0.053182
    19  H    0.035037
    20  H    0.001547
    21  H    0.012295
    22  H    0.015964
    23  H    0.184894
    24  H    0.005278
    25  H    0.011373
    26  H    0.007013
 Sum of Mulliken charges =  -0.00000
 Mulliken charges with hydrogens summed into heavy atoms:
               1
     1  C    0.168508
     2  C   -0.135177
     3  C   -0.029850
     4  C    0.032164
     5  C   -0.010428
     6  C    0.092186
     7  F   -0.195002
     8  C    0.067036
     9  C    0.026488
    10  C    0.019719
    11  O    0.011937
    12  C   -0.015206
    13  C    0.028124
    14  C   -0.040288
    15  C    0.144253
    16  F   -0.164464
 APT charges:
               1
     1  C   -0.612456
     2  C   -0.621272
     3  C   -0.519530
     4  C   -0.424890
     5  C   -0.430361
     6  C   -0.348144
     7  F    0.065729
     8  C   -0.415648
     9  C   -0.391874
    10  C   -0.566124
    11  O    0.154828
    12  C   -0.548573
    13  C   -0.284933
    14  C   -0.458728
    15  C   -0.394764
    16  F    0.097204
    17  H    0.596821
    18  H    0.340026
    19  H    0.163922
    20  H    0.654332
    21  H    0.864680
    22  H    0.681225
    23  H    0.161315
    24  H    0.667433
    25  H    0.905110
    26  H    0.664674
 Sum of APT charges =  -0.00000
 APT charges with hydrogens summed into heavy atoms:
               1
     1  C    0.488313
     2  C   -0.621272
     3  C    0.134802
     4  C    0.439790
     5  C    0.250864
     6  C   -0.348144
     7  F    0.065729
     8  C   -0.415648
     9  C   -0.391874
    10  C   -0.566124
    11  O    0.316143
    12  C    0.118860
    13  C    0.620178
    14  C    0.205946
    15  C   -0.394764
    16  F    0.097204
 Electronic spatial extent (au):  <R**2>=           3427.3877
 Charge=             -0.0000 electrons
 Dipole moment (field-independent basis, Debye):
    X=             -1.3697    Y=              0.6381    Z=             -0.5175  Tot=              1.5972
 Quadrupole moment (field-independent basis, Debye-Ang):
   XX=            -78.7540   YY=            -88.7692   ZZ=            -95.0702
   XY=              1.5454   XZ=             -1.0398   YZ=             -1.0091
 Traceless Quadrupole moment (field-independent basis, Debye-Ang):
   XX=              8.7771   YY=             -1.2381   ZZ=             -7.5390
   XY=              1.5454   XZ=             -1.0398   YZ=             -1.0091
 Octapole moment (field-independent basis, Debye-Ang**2):
  XXX=             -3.5559  YYY=             13.4054  ZZZ=             87.7910  XYY=            -13.9856
  XXY=              3.2353  XXZ=             30.7616  XZZ=             -2.7130  YZZ=              7.2837
  YYZ=             24.7304  XYZ=              2.7671
 Hexadecapole moment (field-independent basis, Debye-Ang**3):
 XXXX=          -2567.4338 YYYY=          -1347.0724 ZZZZ=           -251.2609 XXXY=             73.0089
 XXXZ=            -72.5513 YYYX=             79.2277 YYYZ=             92.9357 ZZZX=            -47.5502
 ZZZY=             92.3210 XXYY=           -658.1050 XXZZ=           -565.6417 YYZZ=           -275.4428
 XXYZ=             20.7979 YYXZ=            -18.0482 ZZXY=             24.4409
 N-N= 1.069521403937D+03 E-N=-3.950108544224D+03  KE= 7.677390190506D+02
  Exact polarizability:       0.000       0.000       0.000       0.000       0.000       0.000
 Approx polarizability:     471.762      -2.821     371.531     -16.100     -31.722     131.495
 -------------------------------------------------------------------
 Center     Atomic                   Forces (Hartrees/Bohr)
 Number     Number              X              Y              Z
 -------------------------------------------------------------------
      1        6           0.000003090   -0.000001337    0.000001877
      2        6           0.000001464    0.000000091    0.000000157
      3        6          -0.000000437   -0.000000393   -0.000000162
      4        6           0.000000133   -0.000000057    0.000000351
      5        6          -0.000000007   -0.000000297    0.000000474
      6        6           0.000000335   -0.000000430   -0.000001108
      7        9           0.000002999   -0.000000091    0.000003269
      8        6          -0.000001183   -0.000002295    0.000000864
      9        6           0.000000979    0.000000372    0.000000112
     10        6          -0.000000175    0.000000933   -0.000000413
     11        8          -0.000002287   -0.000000609   -0.000000117
     12        6           0.000000019    0.000000159   -0.000000266
     13        6          -0.000000002    0.000000678   -0.000000168
     14        6           0.000000090    0.000000318   -0.000000418
     15        6          -0.000000315    0.000000523   -0.000000499
     16        9          -0.000008741    0.000002345   -0.000004098
     17        1           0.000000311    0.000000338    0.000000476
     18        1           0.000002346    0.000000131    0.000000879
     19        1           0.000000946   -0.000000905   -0.000000095
     20        1          -0.000000238   -0.000000308    0.000000066
     21        1           0.000000101   -0.000000320    0.000000479
     22        1           0.000000232   -0.000000291    0.000000540
     23        1           0.000000014    0.000000426   -0.000001084
     24        1           0.000000371    0.000000314   -0.000000061
     25        1           0.000000093    0.000000428   -0.000000488
     26        1          -0.000000138    0.000000275   -0.000000567
 -------------------------------------------------------------------
 Cartesian Forces:  Max     0.000008741 RMS     0.000001460

 Test job not archived.
 1\1\GINC-SEMLSCPN055\FTS\RBP86\def2SVP\C13H10F2O1\KTVF206\23-Jul-2026\
 0\\# opt=(ts,noeigen,recalcfc=15) bp86 empiricaldispersion=GD3BJ def2s
 vp freq IOP(1/8=2) nosymm\\example\\0,1\C,-1.0814542754,2.5058283324,-
 1.2498743943\C,-1.5032871094,1.2043287039,-0.5837442765\C,-2.879001615
 6,1.1753462638,-0.2608954333\C,-3.5850521707,0.0031563157,0.0270446764
 \C,-2.9121921388,-1.206602689,-0.1622041186\C,-1.5502605507,-1.1653096
 503,-0.4507827689\F,-1.043922325,-2.3887508956,-0.8538459174\C,-0.7068
 938008,-0.0091184614,-0.4440656721\C,0.7886712047,-0.1182205607,-0.311
 1646444\C,1.5178732887,-1.3346115342,0.0376141165\O,0.9863181472,-2.47
 78310123,0.5249509823\C,2.9330621592,-1.3896370732,-0.0021165859\C,3.7
 123361031,-0.2591856467,-0.2240329365\C,3.0642764569,0.9749774239,-0.3
 525149302\C,1.6698422607,1.0143666242,-0.3349370552\F,1.167992583,2.26
 60226133,-0.2666534783\H,-1.9586356941,2.8882352179,-1.8099909042\H,-0
 .7732542237,3.2945115524,-0.537494712\H,-0.261547546,2.3651159529,-1.9
 743854511\H,-3.427059035,2.1298731763,-0.3108322077\H,-4.6540111934,0.
 0267615814,0.2852409774\H,-3.4144792953,-2.1844576799,-0.142625658\H,0
 .086072603,-2.6344243386,0.1718881778\H,3.3806333157,-2.3721212405,0.2
 044265252\H,4.8105057804,-0.3256420561,-0.2459643834\H,3.6032950714,1.
 9307030805,-0.4137429274\\Version=ES64L-G16RevC.02\HF=-775.7510042\RMS
 D=6.730e-09\RMSF=1.460e-06\Dipole=-0.5388755,0.2510328,-0.2035883\Pola
 r=0.,0.,0.,0.,0.,0.\Quadrupole=6.5255726,-0.920485,-5.6050876,1.148981
 4,-0.7730708,-0.7502693\PG=C01 [X(C13H10F2O1)]\\@


 "I COULD HAVE DONE IT IN A MUCH MORE COMPLICATED WAY"
 SAID THE RED QUEEN, IMMENSELY PROUD.

                                      -- LEWIS CARROLL
 Job cpu time:       0 days  0 hours 41 minutes 15.0 seconds.
 Elapsed time:       0 days  0 hours  5 minutes 18.9 seconds.
 File lengths (MBytes):  RWF=    233 Int=      0 D2E=      0 Chk=      8 Scr=      1
 Normal termination of Gaussian 16 at Thu Jul 23 14:28:44 2026.
 Link1:  Proceeding to internal job step number  2.
 ----------------------------------------------------------------------
 #N Geom=AllCheck Guess=TCheck SCRF=Check Test GenChk RBP86/def2SVP Fre
 q
 ----------------------------------------------------------------------
 1/5=1,10=4,11=1,29=7,30=1,38=1,40=1,71=15/1,3;
 2/12=2,15=1,40=1/2;
 3/5=43,7=101,11=2,14=-4,25=1,30=1,70=2,71=2,74=404,116=1,124=41,140=1/1,2,3;
 4/5=101/1;
 5/5=2,38=6,98=1/2;
 8/6=4,10=90,11=11/1;
 11/6=1,8=1,9=11,15=111,16=1,31=1/1,2,10;
 10/6=1,31=1/2;
 6/7=2,8=2,9=2,10=2,28=1/1;
 7/8=1,10=1,25=1,30=1/1,2,3,16;
 1/5=1,10=4,11=1,30=1,71=15/3;
 99//99;
 Structure from the checkpoint file:  "path/to/scratch/gaussian_tmp/Gau-2280007.chk"
 -------
 example
 -------
 Charge =  0 Multiplicity = 1
 Redundant internal coordinates found in file.  (old form).
 C,0,-1.0814542754,2.5058283324,-1.2498743943
 C,0,-1.5032871094,1.2043287039,-0.5837442765
 C,0,-2.8790016156,1.1753462638,-0.2608954333
 C,0,-3.5850521707,0.0031563157,0.0270446764
 C,0,-2.9121921388,-1.206602689,-0.1622041186
 C,0,-1.5502605507,-1.1653096503,-0.4507827689
 F,0,-1.043922325,-2.3887508956,-0.8538459174
 C,0,-0.7068938008,-0.0091184614,-0.4440656721
 C,0,0.7886712047,-0.1182205607,-0.3111646444
 C,0,1.5178732887,-1.3346115342,0.0376141165
 O,0,0.9863181472,-2.4778310123,0.5249509823
 C,0,2.9330621592,-1.3896370732,-0.0021165859
 C,0,3.7123361031,-0.2591856467,-0.2240329365
 C,0,3.0642764569,0.9749774239,-0.3525149302
 C,0,1.6698422607,1.0143666242,-0.3349370552
 F,0,1.167992583,2.2660226133,-0.2666534783
 H,0,-1.9586356941,2.8882352179,-1.8099909042
 H,0,-0.7732542237,3.2945115524,-0.537494712
 H,0,-0.261547546,2.3651159529,-1.9743854511
 H,0,-3.427059035,2.1298731763,-0.3108322077
 H,0,-4.6540111934,0.0267615814,0.2852409774
 H,0,-3.4144792953,-2.1844576799,-0.142625658
 H,0,0.086072603,-2.6344243386,0.1718881778
 H,0,3.3806333157,-2.3721212405,0.2044265252
 H,0,4.8105057804,-0.3256420561,-0.2459643834
 H,0,3.6032950714,1.9307030805,-0.4137429274
 Recover connectivity data from disk.

 GradGradGradGradGradGradGradGradGradGradGradGradGradGradGradGradGradGrad
 Berny optimization.
 Initialization pass.
                           ----------------------------
                           !    Initial Parameters    !
                           ! (Angstroms and Degrees)  !
 --------------------------                            --------------------------
 ! Name  Definition              Value          Derivative Info.                !
 --------------------------------------------------------------------------------
 ! R1    R(1,2)                  1.5217         calculate D2E/DX2 analytically  !
 ! R2    R(1,17)                 1.1088         calculate D2E/DX2 analytically  !
 ! R3    R(1,18)                 1.1066         calculate D2E/DX2 analytically  !
 ! R4    R(1,19)                 1.1032         calculate D2E/DX2 analytically  !
 ! R5    R(2,3)                  1.4134         calculate D2E/DX2 analytically  !
 ! R6    R(2,8)                  1.4582         calculate D2E/DX2 analytically  !
 ! R7    R(3,4)                  1.3984         calculate D2E/DX2 analytically  !
 ! R8    R(3,20)                 1.1018         calculate D2E/DX2 analytically  !
 ! R9    R(4,5)                  1.3972         calculate D2E/DX2 analytically  !
 ! R10   R(4,21)                 1.1            calculate D2E/DX2 analytically  !
 ! R11   R(5,6)                  1.3928         calculate D2E/DX2 analytically  !
 ! R12   R(5,22)                 1.0995         calculate D2E/DX2 analytically  !
 ! R13   R(6,7)                  1.3841         calculate D2E/DX2 analytically  !
 ! R14   R(6,8)                  1.4311         calculate D2E/DX2 analytically  !
 ! R15   R(8,9)                  1.5054         calculate D2E/DX2 analytically  !
 ! R16   R(9,10)                 1.4605         calculate D2E/DX2 analytically  !
 ! R17   R(9,15)                 1.4352         calculate D2E/DX2 analytically  !
 ! R18   R(10,11)                1.3517         calculate D2E/DX2 analytically  !
 ! R19   R(10,12)                1.4168         calculate D2E/DX2 analytically  !
 ! R20   R(11,23)                0.9796         calculate D2E/DX2 analytically  !
 ! R21   R(12,13)                1.3908         calculate D2E/DX2 analytically  !
 ! R22   R(12,24)                1.0992         calculate D2E/DX2 analytically  !
 ! R23   R(13,14)                1.3999         calculate D2E/DX2 analytically  !
 ! R24   R(13,25)                1.1004         calculate D2E/DX2 analytically  !
 ! R25   R(14,15)                1.3951         calculate D2E/DX2 analytically  !
 ! R26   R(14,26)                1.099          calculate D2E/DX2 analytically  !
 ! R27   R(15,16)                1.3502         calculate D2E/DX2 analytically  !
 ! A1    A(2,1,17)             107.266          calculate D2E/DX2 analytically  !
 ! A2    A(2,1,18)             113.8903         calculate D2E/DX2 analytically  !
 ! A3    A(2,1,19)             112.6087         calculate D2E/DX2 analytically  !
 ! A4    A(17,1,18)            107.4419         calculate D2E/DX2 analytically  !
 ! A5    A(17,1,19)            107.4701         calculate D2E/DX2 analytically  !
 ! A6    A(18,1,19)            107.8611         calculate D2E/DX2 analytically  !
 ! A7    A(1,2,3)              112.7899         calculate D2E/DX2 analytically  !
 ! A8    A(1,2,8)              127.034          calculate D2E/DX2 analytically  !
 ! A9    A(3,2,8)              119.5158         calculate D2E/DX2 analytically  !
 ! A10   A(2,3,4)              123.7572         calculate D2E/DX2 analytically  !
 ! A11   A(2,3,20)             117.1319         calculate D2E/DX2 analytically  !
 ! A12   A(4,3,20)             118.9721         calculate D2E/DX2 analytically  !
 ! A13   A(3,4,5)              117.0498         calculate D2E/DX2 analytically  !
 ! A14   A(3,4,21)             121.4012         calculate D2E/DX2 analytically  !
 ! A15   A(5,4,21)             121.2247         calculate D2E/DX2 analytically  !
 ! A16   A(4,5,6)              118.2498         calculate D2E/DX2 analytically  !
 ! A17   A(4,5,22)             123.2065         calculate D2E/DX2 analytically  !
 ! A18   A(6,5,22)             118.475          calculate D2E/DX2 analytically  !
 ! A19   A(5,6,7)              113.0704         calculate D2E/DX2 analytically  !
 ! A20   A(5,6,8)              126.8151         calculate D2E/DX2 analytically  !
 ! A21   A(7,6,8)              119.9943         calculate D2E/DX2 analytically  !
 ! A22   A(2,8,6)              110.4877         calculate D2E/DX2 analytically  !
 ! A23   A(2,8,9)              127.6879         calculate D2E/DX2 analytically  !
 ! A24   A(6,8,9)              121.8242         calculate D2E/DX2 analytically  !
 ! A25   A(8,9,10)             125.2726         calculate D2E/DX2 analytically  !
 ! A26   A(8,9,15)             123.4563         calculate D2E/DX2 analytically  !
 ! A27   A(10,9,15)            110.7731         calculate D2E/DX2 analytically  !
 ! A28   A(9,10,11)            126.4545         calculate D2E/DX2 analytically  !
 ! A29   A(9,10,12)            121.6257         calculate D2E/DX2 analytically  !
 ! A30   A(11,10,12)           111.72           calculate D2E/DX2 analytically  !
 ! A31   A(10,11,23)           111.5097         calculate D2E/DX2 analytically  !
 ! A32   A(10,12,13)           122.1782         calculate D2E/DX2 analytically  !
 ! A33   A(10,12,24)           115.8587         calculate D2E/DX2 analytically  !
 ! A34   A(13,12,24)           121.892          calculate D2E/DX2 analytically  !
 ! A35   A(12,13,14)           118.1533         calculate D2E/DX2 analytically  !
 ! A36   A(12,13,25)           120.8805         calculate D2E/DX2 analytically  !
 ! A37   A(14,13,25)           120.8918         calculate D2E/DX2 analytically  !
 ! A38   A(13,14,15)           119.1079         calculate D2E/DX2 analytically  !
 ! A39   A(13,14,26)           123.0089         calculate D2E/DX2 analytically  !
 ! A40   A(15,14,26)           117.8006         calculate D2E/DX2 analytically  !
 ! A41   A(9,15,14)            126.2712         calculate D2E/DX2 analytically  !
 ! A42   A(9,15,16)            120.1654         calculate D2E/DX2 analytically  !
 ! A43   A(14,15,16)           113.4723         calculate D2E/DX2 analytically  !
 ! D1    D(17,1,2,3)           -29.9868         calculate D2E/DX2 analytically  !
 ! D2    D(17,1,2,8)           140.5593         calculate D2E/DX2 analytically  !
 ! D3    D(18,1,2,3)            88.7618         calculate D2E/DX2 analytically  !
 ! D4    D(18,1,2,8)          -100.6921         calculate D2E/DX2 analytically  !
 ! D5    D(19,1,2,3)          -148.0198         calculate D2E/DX2 analytically  !
 ! D6    D(19,1,2,8)            22.5263         calculate D2E/DX2 analytically  !
 ! D7    D(1,2,3,4)            162.6989         calculate D2E/DX2 analytically  !
 ! D8    D(1,2,3,20)           -12.9654         calculate D2E/DX2 analytically  !
 ! D9    D(8,2,3,4)             -8.635          calculate D2E/DX2 analytically  !
 ! D10   D(8,2,3,20)           175.7006         calculate D2E/DX2 analytically  !
 ! D11   D(1,2,8,6)           -149.0764         calculate D2E/DX2 analytically  !
 ! D12   D(1,2,8,9)             30.7365         calculate D2E/DX2 analytically  !
 ! D13   D(3,2,8,6)             20.9023         calculate D2E/DX2 analytically  !
 ! D14   D(3,2,8,9)           -159.2848         calculate D2E/DX2 analytically  !
 ! D15   D(2,3,4,5)             -7.185          calculate D2E/DX2 analytically  !
 ! D16   D(2,3,4,21)           179.2781         calculate D2E/DX2 analytically  !
 ! D17   D(20,3,4,5)           168.4043         calculate D2E/DX2 analytically  !
 ! D18   D(20,3,4,21)           -5.1325         calculate D2E/DX2 analytically  !
 ! D19   D(3,4,5,6)              8.2117         calculate D2E/DX2 analytically  !
 ! D20   D(3,4,5,22)          -168.7234         calculate D2E/DX2 analytically  !
 ! D21   D(21,4,5,6)          -178.2393         calculate D2E/DX2 analytically  !
 ! D22   D(21,4,5,22)            4.8256         calculate D2E/DX2 analytically  !
 ! D23   D(4,5,6,7)           -168.9921         calculate D2E/DX2 analytically  !
 ! D24   D(4,5,6,8)              6.9832         calculate D2E/DX2 analytically  !
 ! D25   D(22,5,6,7)             8.0907         calculate D2E/DX2 analytically  !
 ! D26   D(22,5,6,8)          -175.934          calculate D2E/DX2 analytically  !
 ! D27   D(5,6,8,2)            -21.1785         calculate D2E/DX2 analytically  !
 ! D28   D(5,6,8,9)            158.9958         calculate D2E/DX2 analytically  !
 ! D29   D(7,6,8,2)            154.5457         calculate D2E/DX2 analytically  !
 ! D30   D(7,6,8,9)            -25.2801         calculate D2E/DX2 analytically  !
 ! D31   D(2,8,9,10)           169.6869         calculate D2E/DX2 analytically  !
 ! D32   D(2,8,9,15)            -1.461          calculate D2E/DX2 analytically  !
 ! D33   D(6,8,9,10)           -10.5194         calculate D2E/DX2 analytically  !
 ! D34   D(6,8,9,15)           178.3328         calculate D2E/DX2 analytically  !
 ! D35   D(8,9,10,11)          -12.6678         calculate D2E/DX2 analytically  !
 ! D36   D(8,9,10,12)          172.9065         calculate D2E/DX2 analytically  !
 ! D37   D(15,9,10,11)         159.4398         calculate D2E/DX2 analytically  !
 ! D38   D(15,9,10,12)         -14.986          calculate D2E/DX2 analytically  !
 ! D39   D(8,9,15,14)         -173.0949         calculate D2E/DX2 analytically  !
 ! D40   D(8,9,15,16)           10.6126         calculate D2E/DX2 analytically  !
 ! D41   D(10,9,15,14)          14.6273         calculate D2E/DX2 analytically  !
 ! D42   D(10,9,15,16)        -161.6653         calculate D2E/DX2 analytically  !
 ! D43   D(9,10,11,23)          32.7102         calculate D2E/DX2 analytically  !
 ! D44   D(12,10,11,23)       -152.3977         calculate D2E/DX2 analytically  !
 ! D45   D(9,10,12,13)           7.4863         calculate D2E/DX2 analytically  !
 ! D46   D(9,10,12,24)        -175.5268         calculate D2E/DX2 analytically  !
 ! D47   D(11,10,12,13)       -167.6895         calculate D2E/DX2 analytically  !
 ! D48   D(11,10,12,24)          9.2975         calculate D2E/DX2 analytically  !
 ! D49   D(10,12,13,14)          2.8208         calculate D2E/DX2 analytically  !
 ! D50   D(10,12,13,25)        179.7129         calculate D2E/DX2 analytically  !
 ! D51   D(24,12,13,14)       -173.9856         calculate D2E/DX2 analytically  !
 ! D52   D(24,12,13,25)          2.9065         calculate D2E/DX2 analytically  !
 ! D53   D(12,13,14,15)         -3.836          calculate D2E/DX2 analytically  !
 ! D54   D(12,13,14,26)        172.7833         calculate D2E/DX2 analytically  !
 ! D55   D(25,13,14,15)        179.2722         calculate D2E/DX2 analytically  !
 ! D56   D(25,13,14,26)         -4.1084         calculate D2E/DX2 analytically  !
 ! D57   D(13,14,15,9)          -5.7873         calculate D2E/DX2 analytically  !
 ! D58   D(13,14,15,16)        170.7184         calculate D2E/DX2 analytically  !
 ! D59   D(26,14,15,9)         177.4174         calculate D2E/DX2 analytically  !
 ! D60   D(26,14,15,16)         -6.0769         calculate D2E/DX2 analytically  !
 --------------------------------------------------------------------------------
 Trust Radius=3.00D-01 FncErr=1.00D-07 GrdErr=1.00D-07 EigMax=2.50D+02 EigMin=1.00D-04
 Number of steps in this run=      2 maximum allowed number of steps=      2.
 Search for a saddle point of order  1.
 GradGradGradGradGradGradGradGradGradGradGradGradGradGradGradGradGradGrad

                          Input orientation:                          
 ---------------------------------------------------------------------
 Center     Atomic      Atomic             Coordinates (Angstroms)
 Number     Number       Type             X           Y           Z
 ---------------------------------------------------------------------
      1          6           0       -1.081454    2.505828   -1.249874
      2          6           0       -1.503287    1.204329   -0.583744
      3          6           0       -2.879002    1.175346   -0.260895
      4          6           0       -3.585052    0.003156    0.027045
      5          6           0       -2.912192   -1.206603   -0.162204
      6          6           0       -1.550261   -1.165310   -0.450783
      7          9           0       -1.043922   -2.388751   -0.853846
      8          6           0       -0.706894   -0.009118   -0.444066
      9          6           0        0.788671   -0.118221   -0.311165
     10          6           0        1.517873   -1.334612    0.037614
     11          8           0        0.986318   -2.477831    0.524951
     12          6           0        2.933062   -1.389637   -0.002117
     13          6           0        3.712336   -0.259186   -0.224033
     14          6           0        3.064276    0.974977   -0.352515
     15          6           0        1.669842    1.014367   -0.334937
     16          9           0        1.167993    2.266023   -0.266653
     17          1           0       -1.958636    2.888235   -1.809991
     18          1           0       -0.773254    3.294512   -0.537495
     19          1           0       -0.261548    2.365116   -1.974385
     20          1           0       -3.427059    2.129873   -0.310832
     21          1           0       -4.654011    0.026762    0.285241
     22          1           0       -3.414479   -2.184458   -0.142626
     23          1           0        0.086073   -2.634424    0.171888
     24          1           0        3.380633   -2.372121    0.204427
     25          1           0        4.810506   -0.325642   -0.245964
     26          1           0        3.603295    1.930703   -0.413743
 ---------------------------------------------------------------------
                    Distance matrix (angstroms):
                    1          2          3          4          5
     1  C    0.000000
     2  C    1.521701   0.000000
     3  C    2.445289   1.413387   0.000000
     4  C    3.763229   2.479844   1.398373   0.000000
     5  C    4.279810   2.824057   2.384224   1.397166   0.000000
     6  C    3.786236   2.373830   2.698199   2.394579   1.392782
     7  F    4.910718   3.632381   4.052394   3.599240   2.316522
     8  C    2.667317   1.458152   2.480839   2.916486   2.525224
     9  C    3.356215   2.660171   3.889430   4.388459   3.860460
    10  C    4.812807   3.994961   5.071637   5.275375   4.436417
    11  O    5.680013   4.581009   5.376240   5.225001   4.157714
    12  C    5.731308   5.171861   6.358159   6.665324   5.850310
    13  C    5.628328   5.428995   6.745737   7.306418   6.692219
    14  C    4.509528   4.579160   5.947360   6.730681   6.365036
    15  C    3.260552   3.188533   4.552294   5.363534   5.094858
    16  F    2.466625   2.891967   4.191392   5.272405   5.358913
    17  H    1.108789   2.132267   2.486113   3.787296   4.515769
    18  H    1.106568   2.214487   3.000257   4.365539   4.997592
    19  H    1.103161   2.196185   3.347038   4.542054   4.802821
    20  H    2.554409   2.152211   1.101809   2.159177   3.379238
    21  H    4.611455   3.474027   2.183614   1.099953   2.180671
    22  H    5.354231   3.915497   3.404263   2.200804   1.099489
    23  H    5.459554   4.222922   4.846991   4.522717   3.337646
    24  H    6.769018   6.104497   7.209999   7.361670   6.410343
    25  H    6.613641   6.505297   7.834648   8.406428   7.773234
    26  H    4.793408   5.160785   6.527947   7.455338   7.235851
                    6          7          8          9         10
     6  C    0.000000
     7  F    1.384069   0.000000
     8  C    1.431115   2.438065   0.000000
     9  C    2.566416   2.967863   1.505417   0.000000
    10  C    3.111373   2.910104   2.634110   1.460476   0.000000
    11  O    3.018112   2.455788   3.146506   2.511158   1.351665
    12  C    4.511298   4.188087   3.917962   2.512056   1.416815
    13  C    5.344848   5.249162   4.431765   2.928358   2.457777
    14  C    5.087675   5.333226   3.898532   2.524910   2.806736
    15  C    3.890176   4.383491   2.590040   1.435194   2.383188
    16  F    4.381420   5.186933   2.953463   2.414639   3.630367
    17  H    4.294816   5.440358   3.439080   4.339695   5.773404
    18  H    4.527832   5.698492   3.305617   3.759997   5.196999
    19  H    4.055373   4.946410   2.859581   3.168000   4.571921
    20  H    3.794758   5.137331   3.462995   4.777688   6.047845
    21  H    3.405295   4.490541   4.014089   5.477181   6.325094
    22  H    2.146843   2.483367   3.486257   4.686600   5.008276
    23  H    2.285520   1.545760   2.810770   2.656740   1.938452
    24  H    5.118536   4.549386   4.765732   3.473351   2.138721
    25  H    6.419217   6.237008   5.530021   4.027708   3.455411
    26  H    6.012138   6.359874   4.726685   3.482918   3.900639
                   11         12         13         14         15
    11  O    0.000000
    12  C    2.291676   0.000000
    13  C    3.593680   1.390840   0.000000
    14  C    4.124287   2.394034   1.399874   0.000000
    15  C    3.660882   2.736006   2.409568   1.395101   0.000000
    16  F    4.812878   4.068083   3.584993   2.295662   1.350244
    17  H    6.551288   6.745169   6.676934   5.569061   4.342006
    18  H    6.127383   5.997054   5.731278   4.487883   3.347956
    19  H    5.590884   5.309759   5.073701   3.952727   2.870990
    20  H    6.434856   7.275534   7.529017   6.593403   5.217599
    21  H    6.176063   7.723499   8.386709   7.802423   6.430483
    22  H    4.460801   6.398653   7.382736   7.211127   6.009974
    23  H    0.979600   3.112093   4.352964   4.708766   4.009847
    24  H    2.417986   1.099207   2.181307   3.407834   3.832234
    25  H    4.455406   2.171714   1.100397   2.179973   3.415744
    26  H    5.211995   3.412229   2.200794   1.098955   2.141056
                   16         17         18         19         20
    16  F    0.000000
    17  H    3.541870   0.000000
    18  H    2.213500   1.785899   0.000000
    19  H    2.229294   1.783476   1.786134   0.000000
    20  H    4.597280   2.231335   2.906964   3.583743   0.000000
    21  H    6.262157   4.454557   5.139587   5.465121   2.506750
    22  H    6.389148   5.534600   6.095170   5.830518   4.317627
    23  H    5.037584   6.213569   6.032740   5.451856   5.939162
    24  H    5.160433   7.761251   7.065123   6.360355   8.177904
    25  H    4.470465   7.654833   6.660997   5.996111   8.596001
    26  H    2.462676   5.813901   4.585790   4.190624   7.033928
                   21         22         23         24         25
    21  H    0.000000
    22  H    2.570798   0.000000
    23  H    5.437201   3.543339   0.000000
    24  H    8.385504   6.806557   3.305146   0.000000
    25  H    9.485961   8.433045   5.274973   2.536822   0.000000
    26  H    8.502745   8.139853   5.792599   4.352701   2.564488
                   26
    26  H    0.000000
 Symmetry turned off by external request.
 Stoichiometry    C13H10F2O
 Framework group  C1[X(C13H10F2O)]
 Deg. of freedom    72
 Full point group                 C1      NOp   1
 Rotational constants (GHZ):           0.8392967           0.4707450           0.3127826
 Standard basis: def2SVP (5D, 7F)
   274 basis functions,   470 primitive gaussians,   290 cartesian basis functions
    57 alpha electrons       57 beta electrons
       nuclear repulsion energy      1069.5729548751 Hartrees.
 NAtoms=   26 NActive=   26 NUniq=   26 SFac= 1.00D+00 NAtFMM=   60 NAOKFM=F Big=F
 Integral buffers will be    131072 words long.
 Raffenetti 2 integral format.
 Two-electron integral symmetry is turned off.
 Nuclear repulsion after empirical dispersion term =     1069.5214039365 Hartrees.
 One-electron integrals computed using PRISM.
   1 Symmetry operations used in ECPInt.
 ECPInt:  NShTT=    8001 NPrTT=   29641 LenC2=    7591 LenP2D=   20283.
 LDataN:  DoStor=T MaxTD1= 4 Len=   56
 NBasis=   274 RedAO= T EigKep=  3.15D-04  NBF=   274
 NBsUse=   274 1.00D-06 EigRej= -1.00D+00 NBFU=   274
 Initial guess from the checkpoint file:  "path/to/scratch/gaussian_tmp/Gau-2280007.chk"
 B after Tr=     0.000000    0.000000    0.000000
         Rot=    1.000000    0.000000    0.000000    0.000000 Ang=   0.00 deg.
 Requested convergence on RMS density matrix=1.00D-08 within 128 cycles.
 Requested convergence on MAX density matrix=1.00D-06.
 Requested convergence on             energy=1.00D-06.
 No special actions if energy rises.
 SCF Done:  E(RB-P86) =  -775.751004175     A.U. after    1 cycles
            NFock=  1  Conv=0.68D-08     -V/T= 2.0104
 DoSCS=F DFT=T ScalE2(SS,OS)=  1.000000  1.000000
 Range of M.O.s used for correlation:     1   274
 NBasis=   274 NAE=    57 NBE=    57 NFC=     0 NFV=     0
 NROrb=    274 NOA=    57 NOB=    57 NVA=   217 NVB=   217

 **** Warning!!: The largest alpha MO coefficient is  0.10054449D+02

   1 Symmetry operations used in ECPInt.
 ECPInt:  NShTT=    8001 NPrTT=   29641 LenC2=    7591 LenP2D=   20283.
 LDataN:  DoStor=T MaxTD1= 5 Len=  102
 Symmetrizing basis deriv contribution to polar:
 IMax=3 JMax=2 DiffMx= 0.00D+00
 G2DrvN: will do    27 centers at a time, making    1 passes.
 Calling FoFCou, ICntrl=  3507 FMM=F I1Cent=   0 AccDes= 0.00D+00.
 End of G2Drv F.D. properties file   721 does not exist.
 End of G2Drv F.D. properties file   722 does not exist.
 End of G2Drv F.D. properties file   788 does not exist.
          IDoAtm=11111111111111111111111111
          Differentiating once with respect to electric field.
                with respect to dipole field.
          Differentiating once with respect to nuclear coordinates.
 Keep J ints in memory in canonical form, NReq=722055383.
          There are    81 degrees of freedom in the 1st order CPHF.  IDoFFX=6 NUNeed=     3.
     78 vectors produced by pass  0 Test12= 1.53D-14 1.23D-09 XBig12= 6.84D+02 1.60D+01.
 AX will form    78 AO Fock derivatives at one time.
     78 vectors produced by pass  1 Test12= 1.53D-14 1.23D-09 XBig12= 1.65D+02 2.76D+00.
     78 vectors produced by pass  2 Test12= 1.53D-14 1.23D-09 XBig12= 1.10D+00 9.22D-02.
     78 vectors produced by pass  3 Test12= 1.53D-14 1.23D-09 XBig12= 2.74D-03 4.23D-03.
     75 vectors produced by pass  4 Test12= 1.53D-14 1.23D-09 XBig12= 1.19D-06 7.48D-05.
     27 vectors produced by pass  5 Test12= 1.53D-14 1.23D-09 XBig12= 1.51D-10 7.63D-07.
      3 vectors produced by pass  6 Test12= 1.53D-14 1.23D-09 XBig12= 1.61D-14 8.92D-09.
 InvSVY:  IOpt=1 It=  1 EMax= 1.07D-14
 Solved reduced A of dimension   417 with    81 vectors.
 Isotropic polarizability for W=    0.000000      157.86 Bohr**3.
 End of Minotr F.D. properties file   721 does not exist.
 End of Minotr F.D. properties file   722 does not exist.
 End of Minotr F.D. properties file   788 does not exist.

 **********************************************************************

            Population analysis using the SCF Density.

 **********************************************************************

 Alpha  occ. eigenvalues --  -24.33322 -24.30363 -18.80093 -10.01160 -10.00336
 Alpha  occ. eigenvalues --   -9.98896  -9.96251  -9.95147  -9.94810  -9.93314
 Alpha  occ. eigenvalues --   -9.93240  -9.92721  -9.92483  -9.91750  -9.91691
 Alpha  occ. eigenvalues --   -9.91214  -1.13491  -1.11374  -0.96076  -0.79513
 Alpha  occ. eigenvalues --   -0.77254  -0.71563  -0.70151  -0.66810  -0.66211
 Alpha  occ. eigenvalues --   -0.62549  -0.58959  -0.56159  -0.55007  -0.53583
 Alpha  occ. eigenvalues --   -0.51758  -0.48583  -0.47911  -0.46178  -0.44244
 Alpha  occ. eigenvalues --   -0.43472  -0.42992  -0.42335  -0.41730  -0.40421
 Alpha  occ. eigenvalues --   -0.38724  -0.38179  -0.38043  -0.36626  -0.35943
 Alpha  occ. eigenvalues --   -0.34297  -0.33945  -0.33123  -0.32906  -0.31025
 Alpha  occ. eigenvalues --   -0.30655  -0.30251  -0.28620  -0.26722  -0.22478
 Alpha  occ. eigenvalues --   -0.20899  -0.19735
 Alpha virt. eigenvalues --   -0.09117  -0.04998  -0.03063  -0.02554   0.02489
 Alpha virt. eigenvalues --    0.03871   0.04614   0.06546   0.07598   0.08105
 Alpha virt. eigenvalues --    0.09553   0.10064   0.11032   0.11137   0.12036
 Alpha virt. eigenvalues --    0.12680   0.13908   0.15803   0.17026   0.19040
 Alpha virt. eigenvalues --    0.19905   0.21883   0.23658   0.25089   0.25688
 Alpha virt. eigenvalues --    0.26494   0.27594   0.28563   0.29592   0.30599
 Alpha virt. eigenvalues --    0.32716   0.34903   0.35993   0.36576   0.37320
 Alpha virt. eigenvalues --    0.38769   0.39668   0.40282   0.41626   0.41684
 Alpha virt. eigenvalues --    0.42375   0.42847   0.43958   0.44246   0.45790
 Alpha virt. eigenvalues --    0.46816   0.47248   0.48754   0.49905   0.51282
 Alpha virt. eigenvalues --    0.51965   0.52100   0.53256   0.53896   0.55303
 Alpha virt. eigenvalues --    0.55998   0.56804   0.58424   0.59088   0.59565
 Alpha virt. eigenvalues --    0.60468   0.61053   0.61470   0.61937   0.62631
 Alpha virt. eigenvalues --    0.63573   0.64674   0.64931   0.65578   0.65949
 Alpha virt. eigenvalues --    0.67392   0.68396   0.70166   0.71420   0.71827
 Alpha virt. eigenvalues --    0.72590   0.73855   0.75079   0.76093   0.77809
 Alpha virt. eigenvalues --    0.80948   0.82078   0.82245   0.88349   0.92104
 Alpha virt. eigenvalues --    0.94140   0.95491   0.96690   0.97957   1.00982
 Alpha virt. eigenvalues --    1.04363   1.05276   1.07616   1.09291   1.10426
 Alpha virt. eigenvalues --    1.11860   1.14040   1.15939   1.17281   1.19327
 Alpha virt. eigenvalues --    1.20995   1.22143   1.23030   1.25451   1.27233
 Alpha virt. eigenvalues --    1.28089   1.31043   1.31352   1.34567   1.35887
 Alpha virt. eigenvalues --    1.37127   1.38457   1.42300   1.44007   1.46706
 Alpha virt. eigenvalues --    1.49391   1.52312   1.55081   1.56839   1.57296
 Alpha virt. eigenvalues --    1.58840   1.59225   1.61601   1.61904   1.62572
 Alpha virt. eigenvalues --    1.63304   1.64007   1.64375   1.65344   1.65979
 Alpha virt. eigenvalues --    1.67153   1.67550   1.70637   1.71865   1.72246
 Alpha virt. eigenvalues --    1.72516   1.73500   1.74563   1.76058   1.77881
 Alpha virt. eigenvalues --    1.78072   1.81291   1.82863   1.84609   1.85780
 Alpha virt. eigenvalues --    1.86230   1.87420   1.90124   1.90719   1.92679
 Alpha virt. eigenvalues --    1.93971   1.95509   1.96850   1.97714   1.99058
 Alpha virt. eigenvalues --    1.99904   2.01768   2.04680   2.05788   2.08897
 Alpha virt. eigenvalues --    2.09186   2.09661   2.13705   2.15169   2.17438
 Alpha virt. eigenvalues --    2.17616   2.18545   2.19534   2.20260   2.23420
 Alpha virt. eigenvalues --    2.23591   2.28348   2.31107   2.33342   2.35497
 Alpha virt. eigenvalues --    2.36551   2.37786   2.43558   2.45122   2.46970
 Alpha virt. eigenvalues --    2.48294   2.48742   2.52160   2.54760   2.55244
 Alpha virt. eigenvalues --    2.59343   2.61626   2.62758   2.65400   2.67591
 Alpha virt. eigenvalues --    2.68849   2.75867   2.77534   2.81025   2.81769
 Alpha virt. eigenvalues --    2.83986   2.86908   2.88457   2.90075   2.93025
 Alpha virt. eigenvalues --    2.93705   2.98042   3.00536   3.02018   3.06676
 Alpha virt. eigenvalues --    3.10031   3.12390   3.15355   3.20182   3.29593
 Alpha virt. eigenvalues --    3.32256   3.38542   3.43452   3.48019   3.67788
 Alpha virt. eigenvalues --    3.74542   3.79140
          Condensed to atoms (all electrons):
               1          2          3          4          5          6
     1  C    4.556616   0.438272  -0.073862   0.013355   0.000083   0.009004
     2  C    0.438272   5.192644   0.362603   0.057229  -0.117538   0.037807
     3  C   -0.073862   0.362603   5.091044   0.294014   0.083869  -0.134487
     4  C    0.013355   0.057229   0.294014   5.068972   0.238264   0.089278
     5  C    0.000083  -0.117538   0.083869   0.238264   5.195240   0.321517
     6  C    0.009004   0.037807  -0.134487   0.089278   0.321517   5.208640
     7  F   -0.000015   0.001787  -0.000002   0.005065  -0.059216   0.299456
     8  C   -0.063171   0.303757   0.032493  -0.088673  -0.003512   0.209643
     9  C   -0.019243  -0.046315   0.013933  -0.000237   0.011281  -0.064459
    10  C   -0.000364   0.007950   0.000262  -0.000239   0.001379  -0.026610
    11  O   -0.000003  -0.000022   0.000001   0.000002  -0.001035   0.008040
    12  C    0.000001   0.000112  -0.000002   0.000001  -0.000043   0.001641
    13  C   -0.000020  -0.000080   0.000001  -0.000000   0.000002  -0.000287
    14  C   -0.000012   0.000298  -0.000017   0.000001  -0.000002   0.000164
    15  C   -0.001288  -0.022084   0.000140  -0.000060  -0.000050   0.011184
    16  F    0.004690  -0.004156  -0.000128   0.000002  -0.000002   0.000287
    17  H    0.376142  -0.023483  -0.018739   0.002011  -0.000056  -0.000020
    18  H    0.357993  -0.000188  -0.000062  -0.000197  -0.000048  -0.000238
    19  H    0.372311  -0.002332   0.007880  -0.000860   0.000209  -0.000829
    20  H   -0.018379  -0.065033   0.424890  -0.066038   0.013755  -0.000522
    21  H   -0.000411   0.014372  -0.064885   0.432244  -0.070547   0.013573
    22  H    0.000017  -0.000893   0.012517  -0.064242   0.414950  -0.057892
    23  H   -0.000001   0.000444  -0.000069   0.000241  -0.002109  -0.017083
    24  H    0.000000   0.000001  -0.000000   0.000000   0.000001   0.000006
    25  H    0.000000  -0.000000   0.000000   0.000000  -0.000000   0.000001
    26  H   -0.000010   0.000027  -0.000000   0.000000  -0.000000   0.000001
               7          8          9         10         11         12
     1  C   -0.000015  -0.063171  -0.019243  -0.000364  -0.000003   0.000001
     2  C    0.001787   0.303757  -0.046315   0.007950  -0.000022   0.000112
     3  C   -0.000002   0.032493   0.013933   0.000262   0.000001  -0.000002
     4  C    0.005065  -0.088673  -0.000237  -0.000239   0.000002   0.000001
     5  C   -0.059216  -0.003512   0.011281   0.001379  -0.001035  -0.000043
     6  C    0.299456   0.209643  -0.064459  -0.026610   0.008040   0.001641
     7  F    8.989373  -0.069269   0.001670   0.001211  -0.026980  -0.000480
     8  C   -0.069269   5.457220   0.229236  -0.067415  -0.004239   0.009153
     9  C    0.001670   0.229236   5.752397   0.135911  -0.074804   0.008835
    10  C    0.001211  -0.067415   0.135911   5.182455   0.455947   0.289436
    11  O   -0.026980  -0.004239  -0.074804   0.455947   7.556107  -0.089507
    12  C   -0.000480   0.009153   0.008835   0.289436  -0.089507   5.252401
    13  C    0.000001  -0.000045  -0.103073   0.114427   0.005907   0.213783
    14  C    0.000000   0.013447   0.002246  -0.139953   0.000104   0.108319
    15  C    0.000152  -0.055958   0.166769   0.091834   0.001452  -0.137538
    16  F   -0.000000  -0.000348  -0.073967   0.001835  -0.000001   0.000032
    17  H    0.000001   0.006993  -0.000634   0.000005   0.000000   0.000000
    18  H    0.000000  -0.000987   0.003871   0.000031   0.000000  -0.000002
    19  H   -0.000004  -0.011396   0.005321   0.000187   0.000001  -0.000011
    20  H    0.000004   0.015040  -0.000231   0.000001   0.000000  -0.000000
    21  H   -0.000074  -0.001321   0.000017   0.000000  -0.000000   0.000000
    22  H    0.000815   0.017096  -0.000279   0.000053   0.000008  -0.000000
    23  H    0.051490   0.005630  -0.011802  -0.024897   0.338490   0.004711
    24  H    0.000017  -0.000194   0.019859  -0.056260   0.003594   0.415532
    25  H   -0.000000   0.000011  -0.001942   0.014438  -0.000111  -0.069375
    26  H   -0.000000  -0.000226   0.019155  -0.001344   0.000006   0.013485
              13         14         15         16         17         18
     1  C   -0.000020  -0.000012  -0.001288   0.004690   0.376142   0.357993
     2  C   -0.000080   0.000298  -0.022084  -0.004156  -0.023483  -0.000188
     3  C    0.000001  -0.000017   0.000140  -0.000128  -0.018739  -0.000062
     4  C   -0.000000   0.000001  -0.000060   0.000002   0.002011  -0.000197
     5  C    0.000002  -0.000002  -0.000050  -0.000002  -0.000056  -0.000048
     6  C   -0.000287   0.000164   0.011184   0.000287  -0.000020  -0.000238
     7  F    0.000001   0.000000   0.000152  -0.000000   0.000001   0.000000
     8  C   -0.000045   0.013447  -0.055958  -0.000348   0.006993  -0.000987
     9  C   -0.103073   0.002246   0.166769  -0.073967  -0.000634   0.003871
    10  C    0.114427  -0.139953   0.091834   0.001835   0.000005   0.000031
    11  O    0.005907   0.000104   0.001452  -0.000001   0.000000   0.000000
    12  C    0.213783   0.108319  -0.137538   0.000032   0.000000  -0.000002
    13  C    5.173697   0.165539   0.114634   0.005220  -0.000001   0.000002
    14  C    0.165539   5.283283   0.317328  -0.061599   0.000036  -0.000178
    15  C    0.114634   0.317328   5.056820   0.359657   0.000191  -0.002164
    16  F    0.005220  -0.061599   0.359657   8.927761   0.001717   0.003326
    17  H   -0.000001   0.000036   0.000191   0.001717   0.671007  -0.023235
    18  H    0.000002  -0.000178  -0.002164   0.003326  -0.023235   0.624861
    19  H    0.000074  -0.001240   0.001289  -0.001529  -0.028657  -0.018024
    20  H    0.000000  -0.000000   0.000024  -0.000011   0.004749   0.002020
    21  H   -0.000000   0.000000   0.000000   0.000000  -0.000017   0.000013
    22  H    0.000000  -0.000000   0.000001  -0.000000  -0.000002  -0.000001
    23  H    0.000016  -0.000160   0.000206   0.000001  -0.000001   0.000000
    24  H   -0.073341   0.014354  -0.001543   0.000004  -0.000000  -0.000000
    25  H    0.436317  -0.070780   0.014059  -0.000084   0.000000   0.000000
    26  H   -0.069523   0.416123  -0.059308   0.001759  -0.000002   0.000025
              19         20         21         22         23         24
     1  C    0.372311  -0.018379  -0.000411   0.000017  -0.000001   0.000000
     2  C   -0.002332  -0.065033   0.014372  -0.000893   0.000444   0.000001
     3  C    0.007880   0.424890  -0.064885   0.012517  -0.000069  -0.000000
     4  C   -0.000860  -0.066038   0.432244  -0.064242   0.000241   0.000000
     5  C    0.000209   0.013755  -0.070547   0.414950  -0.002109   0.000001
     6  C   -0.000829  -0.000522   0.013573  -0.057892  -0.017083   0.000006
     7  F   -0.000004   0.000004  -0.000074   0.000815   0.051490   0.000017
     8  C   -0.011396   0.015040  -0.001321   0.017096   0.005630  -0.000194
     9  C    0.005321  -0.000231   0.000017  -0.000279  -0.011802   0.019859
    10  C    0.000187   0.000001   0.000000   0.000053  -0.024897  -0.056260
    11  O    0.000001   0.000000  -0.000000   0.000008   0.338490   0.003594
    12  C   -0.000011  -0.000000   0.000000  -0.000000   0.004711   0.415532
    13  C    0.000074   0.000000  -0.000000   0.000000   0.000016  -0.073341
    14  C   -0.001240  -0.000000   0.000000  -0.000000  -0.000160   0.014354
    15  C    0.001289   0.000024   0.000000   0.000001   0.000206  -0.001543
    16  F   -0.001529  -0.000011   0.000000  -0.000000   0.000001   0.000004
    17  H   -0.028657   0.004749  -0.000017  -0.000002  -0.000001  -0.000000
    18  H   -0.018024   0.002020   0.000013  -0.000001   0.000000  -0.000000
    19  H    0.641994   0.000530   0.000010  -0.000001   0.000002  -0.000000
    20  H    0.000530   0.700407  -0.012383  -0.000366  -0.000001   0.000000
    21  H    0.000010  -0.012383   0.688864  -0.011754   0.000003  -0.000000
    22  H   -0.000001  -0.000366  -0.011754   0.673869   0.000138  -0.000000
    23  H    0.000002  -0.000001   0.000003   0.000138   0.469825   0.000023
    24  H   -0.000000   0.000000  -0.000000  -0.000000   0.000023   0.686158
    25  H   -0.000001  -0.000000   0.000000  -0.000000   0.000012  -0.013183
    26  H    0.000041  -0.000000  -0.000000   0.000000  -0.000002  -0.000306
              25         26
     1  C    0.000000  -0.000010
     2  C   -0.000000   0.000027
     3  C    0.000000  -0.000000
     4  C    0.000000   0.000000
     5  C   -0.000000  -0.000000
     6  C    0.000001   0.000001
     7  F   -0.000000  -0.000000
     8  C    0.000011  -0.000226
     9  C   -0.001942   0.019155
    10  C    0.014438  -0.001344
    11  O   -0.000111   0.000006
    12  C   -0.069375   0.013485
    13  C    0.436317  -0.069523
    14  C   -0.070780   0.416123
    15  C    0.014059  -0.059308
    16  F   -0.000084   0.001759
    17  H    0.000000  -0.000002
    18  H    0.000000   0.000025
    19  H   -0.000001   0.000041
    20  H   -0.000000  -0.000000
    21  H    0.000000  -0.000000
    22  H   -0.000000   0.000000
    23  H    0.000012  -0.000002
    24  H   -0.013183  -0.000306
    25  H    0.691584  -0.012318
    26  H   -0.012318   0.685402
 Mulliken charges:
               1
     1  C    0.048293
     2  C   -0.135177
     3  C   -0.031396
     4  C    0.019869
     5  C   -0.026392
     6  C    0.092186
     7  F   -0.195002
     8  C    0.067036
     9  C    0.026486
    10  C    0.019719
    11  O   -0.172957
    12  C   -0.020483
    13  C    0.016752
    14  C   -0.047301
    15  C    0.144252
    16  F   -0.164464
    17  H    0.031996
    18  H    0.053182
    19  H    0.035037
    20  H    0.001547
    21  H    0.012295
    22  H    0.015964
    23  H    0.184894
    24  H    0.005278
    25  H    0.011373
    26  H    0.007013
 Sum of Mulliken charges =  -0.00000
 Mulliken charges with hydrogens summed into heavy atoms:
               1
     1  C    0.168508
     2  C   -0.135177
     3  C   -0.029850
     4  C    0.032164
     5  C   -0.010428
     6  C    0.092186
     7  F   -0.195002
     8  C    0.067036
     9  C    0.026486
    10  C    0.019719
    11  O    0.011937
    12  C   -0.015205
    13  C    0.028125
    14  C   -0.040287
    15  C    0.144252
    16  F   -0.164464
 APT charges:
               1
     1  C    0.019283
     2  C    0.050280
     3  C   -0.076949
     4  C   -0.010609
     5  C   -0.131628
     6  C    0.397666
     7  F   -0.486104
     8  C    0.145701
     9  C   -0.213720
    10  C    0.483876
    11  O   -0.651624
    12  C   -0.154864
    13  C    0.098806
    14  C   -0.276098
    15  C    0.563348
    16  F   -0.449082
    17  H   -0.014317
    18  H    0.020574
    19  H    0.012400
    20  H    0.028905
    21  H    0.040197
    22  H    0.067354
    23  H    0.390912
    24  H    0.049008
    25  H    0.039155
    26  H    0.057531
 Sum of APT charges =   0.00000
 APT charges with hydrogens summed into heavy atoms:
               1
     1  C    0.037940
     2  C    0.050280
     3  C   -0.048044
     4  C    0.029588
     5  C   -0.064274
     6  C    0.397666
     7  F   -0.486104
     8  C    0.145701
     9  C   -0.213720
    10  C    0.483876
    11  O   -0.260712
    12  C   -0.105856
    13  C    0.137961
    14  C   -0.218568
    15  C    0.563348
    16  F   -0.449082
 Electronic spatial extent (au):  <R**2>=           3427.3876
 Charge=             -0.0000 electrons
 Dipole moment (field-independent basis, Debye):
    X=             -1.3697    Y=              0.6381    Z=             -0.5175  Tot=              1.5972
 Quadrupole moment (field-independent basis, Debye-Ang):
   XX=            -78.7539   YY=            -88.7692   ZZ=            -95.0702
   XY=              1.5454   XZ=             -1.0398   YZ=             -1.0091
 Traceless Quadrupole moment (field-independent basis, Debye-Ang):
   XX=              8.7772   YY=             -1.2381   ZZ=             -7.5391
   XY=              1.5454   XZ=             -1.0398   YZ=             -1.0091
 Octapole moment (field-independent basis, Debye-Ang**2):
  XXX=             -3.5556  YYY=             13.4054  ZZZ=             87.7910  XYY=            -13.9856
  XXY=              3.2352  XXZ=             30.7615  XZZ=             -2.7130  YZZ=              7.2837
  YYZ=             24.7303  XYZ=              2.7671
 Hexadecapole moment (field-independent basis, Debye-Ang**3):
 XXXX=          -2567.4329 YYYY=          -1347.0724 ZZZZ=           -251.2609 XXXY=             73.0087
 XXXZ=            -72.5514 YYYX=             79.2276 YYYZ=             92.9357 ZZZX=            -47.5502
 ZZZY=             92.3210 XXYY=           -658.1049 XXZZ=           -565.6416 YYZZ=           -275.4428
 XXYZ=             20.7978 YYXZ=            -18.0482 ZZXY=             24.4409
 N-N= 1.069521403937D+03 E-N=-3.950108555628D+03  KE= 7.677390213885D+02
  Exact polarizability:     239.266      -5.060     162.394      -3.182     -14.524      71.916
 Approx polarizability:     471.762      -2.821     371.531     -16.100     -31.722     131.495
   1 Symmetry operations used in ECPInt.
 ECPInt:  NShTT=    8001 NPrTT=   29641 LenC2=    7591 LenP2D=   20283.
 LDataN:  DoStor=T MaxTD1= 6 Len=  172
 Calling FoFJK, ICntrl=    100527 FMM=F ISym2X=0 I1Cent= 0 IOpClX= 0 NMat=1 NMatS=1 NMatT=0.
 Full mass-weighted force constant matrix:
 Low frequencies ---  -77.9604   -1.0751   -0.0005    0.0001    0.0004    0.9689
 Low frequencies ---    1.7332   46.3624  118.1356
 ******    1 imaginary frequencies (negative Signs) ****** 
 Diagonal vibrational polarizability:
       11.2675319      13.2105377      18.8274407
 Harmonic frequencies (cm**-1), IR intensities (KM/Mole), Raman scattering
 activities (A**4/AMU), depolarization ratios for plane and unpolarized
 incident light, reduced masses (AMU), force constants (mDyne/A),
 and normal coordinates:
                      1                      2                      3
                      A                      A                      A
 Frequencies --    -77.9604                46.3619               118.1356
 Red. masses --      5.5795                 5.2525                 6.5069
 Frc consts  --      0.0200                 0.0067                 0.0535
 IR Inten    --      0.0854                 0.2437                 1.3589
  Atom  AN      X      Y      Z        X      Y      Z        X      Y      Z
     1   6     0.11  -0.12  -0.24    -0.04  -0.05  -0.14    -0.04   0.11   0.20
     2   6     0.05  -0.02  -0.09     0.02  -0.01  -0.02    -0.02   0.01   0.02
     3   6     0.05   0.06  -0.08     0.05   0.02   0.14    -0.06   0.01  -0.10
     4   6     0.01   0.10   0.01     0.07   0.03   0.23    -0.11   0.04  -0.17
     5   6    -0.04   0.07   0.08     0.03   0.02   0.13    -0.09   0.04  -0.04
     6   6    -0.04  -0.01   0.07    -0.00  -0.00  -0.02    -0.06   0.02   0.08
     7   9    -0.09  -0.05   0.13    -0.07   0.01  -0.14    -0.10  -0.06   0.24
     8   6     0.00  -0.04  -0.00     0.01  -0.01  -0.07    -0.02  -0.00   0.03
     9   6    -0.00  -0.03   0.00     0.01  -0.01  -0.08     0.02  -0.03   0.00
    10   6     0.04  -0.02  -0.09     0.00  -0.01  -0.04     0.08  -0.03  -0.06
    11   8     0.10  -0.07  -0.15    -0.03  -0.05  -0.18     0.17  -0.13  -0.22
    12   6     0.05   0.03  -0.12     0.01   0.03   0.15     0.09   0.03   0.02
    13   6     0.00   0.08  -0.05     0.01   0.05   0.26     0.07   0.06   0.13
    14   6    -0.04   0.07   0.06     0.00   0.03   0.15     0.03   0.02   0.08
    15   6    -0.05   0.01   0.10    -0.00  -0.00  -0.03     0.02  -0.03  -0.03
    16   9    -0.10  -0.02   0.26    -0.03  -0.01  -0.17     0.03  -0.02  -0.19
    17   1     0.18  -0.24  -0.43    -0.07  -0.13  -0.15    -0.09   0.25   0.37
    18   1    -0.04   0.01  -0.31    -0.05   0.02  -0.21     0.07  -0.03   0.31
    19   1     0.22  -0.20  -0.09    -0.05  -0.08  -0.14    -0.13   0.21   0.08
    20   1     0.08   0.08  -0.15     0.06   0.02   0.18    -0.03   0.02  -0.13
    21   1     0.01   0.16   0.01     0.10   0.04   0.36    -0.14   0.06  -0.29
    22   1    -0.08   0.09   0.14     0.01   0.03   0.17    -0.07   0.03  -0.03
    23   1     0.05  -0.03  -0.05     0.01  -0.05  -0.29     0.08  -0.03  -0.04
    24   1     0.09   0.03  -0.19     0.01   0.03   0.19     0.10   0.03  -0.01
    25   1     0.00   0.12  -0.08     0.02   0.07   0.41     0.08   0.10   0.22
    26   1    -0.08   0.09   0.15    -0.01   0.04   0.19    -0.02   0.05   0.08
                      4                      5                      6
                      A                      A                      A
 Frequencies --    181.7509               198.6039               205.3486
 Red. masses --      4.6284                 7.1773                 4.2774
 Frc consts  --      0.0901                 0.1668                 0.1063
 IR Inten    --      0.8014                 1.1078                 0.4275
  Atom  AN      X      Y      Z        X      Y      Z        X      Y      Z
     1   6    -0.01   0.03   0.04     0.13  -0.17   0.07    -0.02  -0.13  -0.10
     2   6    -0.07  -0.03  -0.13    -0.00  -0.11   0.07    -0.02  -0.01   0.11
     3   6    -0.10  -0.08  -0.23    -0.01  -0.04   0.05    -0.00   0.01   0.16
     4   6    -0.01  -0.07   0.04    -0.06  -0.02  -0.03    -0.04  -0.02  -0.04
     5   6     0.07  -0.06   0.26    -0.08  -0.03  -0.05    -0.05  -0.00  -0.16
     6   6     0.03  -0.01   0.08    -0.06  -0.10  -0.00    -0.01  -0.00  -0.01
     7   9    -0.01  -0.00  -0.01    -0.22  -0.18  -0.03     0.01  -0.01   0.05
     8   6    -0.01   0.03  -0.04    -0.01  -0.11   0.02    -0.01  -0.01   0.08
     9   6    -0.00   0.07  -0.04     0.01   0.09  -0.02    -0.00   0.05   0.06
    10   6    -0.04   0.03  -0.08     0.01   0.12   0.01    -0.01   0.02  -0.05
    11   8    -0.08   0.07  -0.02    -0.10   0.13  -0.10     0.00   0.05   0.04
    12   6    -0.05  -0.06  -0.14     0.01   0.09   0.17    -0.02  -0.05  -0.23
    13   6     0.00  -0.07   0.02     0.04   0.04   0.00     0.01  -0.03  -0.00
    14   6     0.05  -0.03   0.16     0.05   0.02  -0.18     0.03   0.01   0.23
    15   6     0.05   0.05   0.05     0.05   0.10  -0.06     0.02   0.04   0.09
    16   9     0.13   0.09   0.01     0.23   0.18   0.08     0.08   0.09  -0.13
    17   1     0.02   0.15   0.07     0.21  -0.16  -0.04    -0.02  -0.24  -0.18
    18   1    -0.00  -0.09   0.17     0.09  -0.16   0.07     0.00   0.01  -0.27
    19   1     0.01   0.10   0.06     0.19  -0.25   0.16    -0.03  -0.29  -0.08
    20   1    -0.16  -0.13  -0.38     0.05  -0.01   0.07     0.01   0.02   0.22
    21   1     0.00  -0.10   0.08    -0.07  -0.01  -0.07    -0.06  -0.04  -0.10
    22   1     0.14  -0.09   0.44    -0.11  -0.02  -0.10    -0.06  -0.00  -0.30
    23   1    -0.04   0.00  -0.09    -0.01   0.08  -0.32    -0.04   0.06   0.14
    24   1    -0.11  -0.10  -0.23    -0.02   0.10   0.30    -0.05  -0.10  -0.41
    25   1     0.00  -0.11   0.05     0.04   0.02   0.02     0.00  -0.05  -0.03
    26   1     0.10  -0.04   0.28     0.08   0.01  -0.27     0.05  -0.00   0.33
                      7                      8                      9
                      A                      A                      A
 Frequencies --    214.5667               297.7724               310.4541
 Red. masses --      6.0434                 6.2473                 5.4189
 Frc consts  --      0.1639                 0.3264                 0.3077
 IR Inten    --      2.5526                 4.0580                 2.8518
  Atom  AN      X      Y      Z        X      Y      Z        X      Y      Z
     1   6    -0.01  -0.11  -0.11     0.13   0.05   0.10     0.12  -0.09   0.07
     2   6    -0.06   0.02   0.10     0.15  -0.04  -0.03     0.07  -0.02   0.17
     3   6    -0.11  -0.02  -0.09     0.15   0.01  -0.11     0.02   0.01  -0.04
     4   6    -0.09  -0.03  -0.07     0.12   0.07  -0.00    -0.05   0.03  -0.14
     5   6    -0.00  -0.02   0.08     0.04   0.01   0.05    -0.02   0.01   0.10
     6   6     0.01   0.06   0.17     0.02  -0.09  -0.01     0.00  -0.02   0.18
     7   9     0.07   0.19  -0.14    -0.11  -0.14  -0.12    -0.05   0.06  -0.12
     8   6    -0.01   0.07   0.26     0.06  -0.09   0.06     0.03  -0.04   0.15
     9   6    -0.01   0.03   0.23    -0.01  -0.00   0.25     0.04  -0.05  -0.16
    10   6     0.00  -0.02   0.10    -0.00  -0.01   0.15     0.05  -0.00  -0.13
    11   8     0.04  -0.15  -0.16    -0.05  -0.05   0.03    -0.08   0.17   0.11
    12   6     0.00  -0.00   0.09    -0.02   0.03  -0.07     0.06   0.01  -0.10
    13   6     0.00  -0.03  -0.05    -0.09   0.07  -0.14     0.04   0.08   0.08
    14   6     0.01  -0.03  -0.12    -0.10   0.08   0.08     0.00   0.05   0.03
    15   6     0.02   0.01   0.06    -0.09   0.04   0.16    -0.00  -0.05  -0.13
    16   9     0.06   0.03  -0.05    -0.10   0.05  -0.18    -0.13  -0.13  -0.01
    17   1     0.01  -0.16  -0.17     0.08   0.10   0.22     0.07  -0.01   0.20
    18   1     0.07   0.00  -0.27     0.13  -0.03   0.19     0.34  -0.09  -0.05
    19   1    -0.04  -0.31  -0.11     0.07   0.18   0.02    -0.04  -0.26  -0.08
    20   1    -0.16  -0.06  -0.30     0.17   0.02  -0.17     0.03   0.01  -0.19
    21   1    -0.12  -0.07  -0.22     0.13   0.14   0.02    -0.11   0.05  -0.38
    22   1     0.03  -0.04   0.00    -0.04   0.06   0.09    -0.05   0.02   0.03
    23   1     0.05  -0.08  -0.21     0.03  -0.09  -0.18     0.08  -0.01  -0.23
    24   1     0.01  -0.01   0.05     0.06   0.02  -0.27     0.08   0.04  -0.03
    25   1    -0.00  -0.05  -0.15    -0.09   0.08  -0.40     0.05   0.13   0.27
    26   1     0.03  -0.05  -0.30    -0.12   0.08  -0.05    -0.05   0.09   0.17
                     10                     11                     12
                      A                      A                      A
 Frequencies --    334.2980               338.8546               354.9639
 Red. masses --      1.1133                 7.0842                 4.0548
 Frc consts  --      0.0733                 0.4793                 0.3010
 IR Inten    --      0.7828                 1.6814                 6.7827
  Atom  AN      X      Y      Z        X      Y      Z        X      Y      Z
     1   6     0.03  -0.02  -0.03     0.20  -0.01   0.04     0.19  -0.09   0.10
     2   6    -0.02   0.00  -0.02     0.10   0.04   0.08    -0.05  -0.05  -0.04
     3   6    -0.01   0.00  -0.00     0.11   0.01   0.05    -0.05   0.03  -0.03
     4   6    -0.00  -0.00   0.03     0.13  -0.04  -0.10    -0.05   0.05   0.08
     5   6    -0.01  -0.00  -0.01     0.12  -0.06   0.00    -0.11   0.00   0.04
     6   6    -0.01   0.00  -0.04     0.11  -0.03   0.11    -0.12  -0.03  -0.07
     7   9     0.00  -0.00   0.00     0.20  -0.02   0.15     0.09   0.09  -0.07
     8   6    -0.02  -0.00  -0.02     0.01   0.02   0.04    -0.11  -0.06  -0.05
     9   6    -0.01   0.00   0.01    -0.09   0.03  -0.09    -0.09  -0.06  -0.04
    10   6    -0.00   0.01   0.01    -0.19  -0.03  -0.12     0.01  -0.02  -0.00
    11   8     0.02  -0.01   0.00    -0.08  -0.09  -0.13     0.15  -0.06   0.10
    12   6     0.00   0.01   0.00    -0.22  -0.01   0.01     0.01   0.05  -0.04
    13   6     0.00   0.01  -0.01    -0.22  -0.00   0.11    -0.01   0.07   0.03
    14   6    -0.01   0.00   0.00    -0.15   0.01  -0.07    -0.08   0.01   0.02
    15   6    -0.01  -0.00   0.01    -0.13   0.07  -0.11    -0.08  -0.04  -0.03
    16   9     0.02   0.00   0.02     0.00   0.13  -0.01     0.10   0.03  -0.05
    17   1    -0.10   0.31   0.40     0.20   0.04   0.07     0.37  -0.04  -0.16
    18   1     0.60  -0.18  -0.11     0.30   0.00  -0.02    -0.02  -0.12   0.22
    19   1    -0.32  -0.22  -0.40     0.13  -0.13  -0.01     0.39  -0.09   0.33
    20   1    -0.02  -0.00   0.01     0.07  -0.02   0.07    -0.01   0.06  -0.02
    21   1     0.01  -0.00   0.08     0.09  -0.05  -0.24    -0.02   0.09   0.20
    22   1    -0.01  -0.00   0.01     0.09  -0.05  -0.04    -0.17   0.03   0.12
    23   1    -0.00   0.01   0.05    -0.12  -0.15   0.03     0.06  -0.02   0.33
    24   1     0.00   0.01  -0.00    -0.22   0.01   0.09     0.04   0.06  -0.03
    25   1     0.00   0.01  -0.02    -0.22  -0.01   0.30    -0.00   0.13   0.08
    26   1    -0.02   0.01   0.01    -0.10  -0.02  -0.02    -0.17   0.06   0.06
                     13                     14                     15
                      A                      A                      A
 Frequencies --    446.7782               471.0447               479.4152
 Red. masses --      4.1248                 4.6103                 3.6529
 Frc consts  --      0.4851                 0.6027                 0.4947
 IR Inten    --      2.9912                 1.9503                 6.6260
  Atom  AN      X      Y      Z        X      Y      Z        X      Y      Z
     1   6     0.19  -0.10   0.07     0.00  -0.00  -0.00    -0.02   0.00   0.01
     2   6    -0.07   0.00   0.03    -0.08   0.14   0.24     0.01  -0.03  -0.05
     3   6    -0.08  -0.02  -0.03    -0.14   0.10  -0.03    -0.00  -0.03  -0.12
     4   6    -0.01  -0.06   0.08     0.00  -0.00  -0.06     0.05   0.01   0.15
     5   6     0.04   0.00  -0.04     0.16   0.08   0.09    -0.01   0.03  -0.12
     6   6     0.02   0.07  -0.13     0.10   0.02  -0.21     0.00   0.01  -0.06
     7   9     0.03   0.02   0.10    -0.09  -0.16  -0.05    -0.02  -0.02   0.00
     8   6     0.00   0.05  -0.02    -0.00   0.06  -0.02     0.03   0.00   0.17
     9   6     0.01   0.05   0.04    -0.00   0.01  -0.00     0.02   0.03   0.17
    10   6    -0.04   0.09   0.04    -0.03  -0.04   0.00     0.01  -0.03  -0.07
    11   8    -0.09   0.09  -0.14     0.10  -0.11   0.09    -0.01   0.02   0.01
    12   6    -0.03   0.05   0.04    -0.03   0.01  -0.04     0.00  -0.06  -0.16
    13   6     0.03  -0.02  -0.05    -0.02   0.02   0.04    -0.01   0.02   0.21
    14   6     0.08   0.02   0.03     0.01   0.03  -0.03     0.01   0.00  -0.16
    15   6     0.07  -0.03   0.05     0.01   0.00  -0.05     0.01   0.02  -0.08
    16   9    -0.13  -0.15  -0.07     0.01   0.00   0.01    -0.02   0.01   0.03
    17   1     0.36  -0.01  -0.13     0.06  -0.12  -0.18    -0.04   0.01   0.03
    18   1     0.14  -0.09   0.09     0.04   0.21  -0.25    -0.06  -0.04   0.07
    19   1     0.30  -0.25   0.24     0.01  -0.29   0.06    -0.01   0.10   0.00
    20   1    -0.11  -0.04  -0.05    -0.24   0.03  -0.24    -0.01  -0.04  -0.21
    21   1     0.02  -0.14   0.23    -0.02  -0.20  -0.11     0.10   0.02   0.37
    22   1     0.15  -0.05   0.07     0.24   0.04   0.37    -0.02   0.03  -0.18
    23   1    -0.24   0.34   0.17     0.05  -0.15   0.21    -0.13   0.14   0.27
    24   1    -0.09   0.00  -0.04    -0.00   0.03  -0.03     0.02  -0.05  -0.14
    25   1     0.03  -0.11  -0.17    -0.02   0.00   0.13     0.00   0.08   0.58
    26   1     0.08   0.02  -0.02     0.01   0.03   0.01     0.04  -0.01  -0.16
                     16                     17                     18
                      A                      A                      A
 Frequencies --    500.7329               511.3301               526.3933
 Red. masses --      2.7850                 5.0319                 2.4389
 Frc consts  --      0.4114                 0.7751                 0.3982
 IR Inten    --     24.2175                11.4189                19.2194
  Atom  AN      X      Y      Z        X      Y      Z        X      Y      Z
     1   6    -0.08  -0.13   0.07    -0.05   0.06  -0.02     0.02   0.09  -0.05
     2   6     0.06  -0.12   0.06     0.02   0.06   0.09     0.08   0.05   0.01
     3   6     0.04  -0.04  -0.05     0.02   0.10  -0.03     0.08  -0.08   0.03
     4   6    -0.05   0.05  -0.02     0.05   0.09  -0.04     0.02  -0.07  -0.05
     5   6     0.01   0.08   0.05    -0.04  -0.01   0.09    -0.05  -0.12   0.06
     6   6    -0.01   0.05  -0.09    -0.05  -0.14  -0.05    -0.06  -0.02   0.02
     7   9    -0.00   0.07   0.00     0.13  -0.12  -0.05    -0.08   0.02  -0.04
     8   6     0.09  -0.06  -0.04    -0.10  -0.06   0.05    -0.02   0.01   0.01
     9   6     0.09  -0.01  -0.07    -0.10   0.04   0.04    -0.02   0.01   0.01
    10   6     0.02  -0.04   0.01     0.07   0.15  -0.06    -0.06   0.06   0.08
    11   8    -0.01  -0.04  -0.02     0.09   0.20  -0.12     0.05  -0.03  -0.02
    12   6     0.02  -0.07   0.05     0.07  -0.08   0.05    -0.06   0.07  -0.03
    13   6    -0.06  -0.04  -0.03     0.07  -0.12   0.03     0.01   0.02   0.01
    14   6    -0.01   0.02   0.02    -0.08  -0.19  -0.01     0.06   0.05   0.00
    15   6     0.00   0.09  -0.01    -0.09  -0.02   0.08     0.06  -0.02  -0.07
    16   9    -0.05   0.10   0.00    -0.04   0.00  -0.01     0.03  -0.05   0.02
    17   1    -0.16  -0.18   0.17    -0.12  -0.05   0.01    -0.02   0.01  -0.05
    18   1    -0.07  -0.12   0.04    -0.04   0.15  -0.12     0.00   0.14  -0.10
    19   1    -0.15  -0.06  -0.03    -0.10   0.06  -0.08     0.02   0.10  -0.07
    20   1     0.14   0.01  -0.15    -0.01   0.08  -0.13     0.03  -0.10   0.06
    21   1    -0.05   0.08  -0.04     0.03   0.12  -0.11    -0.00   0.03  -0.15
    22   1     0.06   0.05   0.15    -0.20   0.07   0.22    -0.05  -0.12  -0.01
    23   1    -0.31   0.35   0.61    -0.13   0.42   0.38    -0.30   0.35   0.72
    24   1     0.06  -0.04   0.10    -0.11  -0.14   0.13    -0.08   0.04  -0.12
    25   1    -0.06  -0.03  -0.06     0.07  -0.02   0.01     0.00  -0.07   0.04
    26   1     0.10  -0.04   0.05    -0.08  -0.20  -0.15     0.04   0.07   0.12
                     19                     20                     21
                      A                      A                      A
 Frequencies --    529.4717               559.8375               566.3470
 Red. masses --      5.2420                 5.5270                 3.8351
 Frc consts  --      0.8658                 1.0206                 0.7248
 IR Inten    --      1.6704                12.4257                 0.4102
  Atom  AN      X      Y      Z        X      Y      Z        X      Y      Z
     1   6     0.11   0.11  -0.05    -0.15  -0.03  -0.01    -0.02   0.04  -0.01
     2   6     0.06   0.12   0.07     0.05  -0.02   0.10     0.02   0.04   0.08
     3   6     0.03  -0.14  -0.00     0.04   0.02  -0.05    -0.03  -0.01  -0.16
     4   6     0.01  -0.17   0.01     0.02   0.06  -0.02     0.09   0.00   0.17
     5   6     0.00  -0.13   0.00    -0.01   0.03   0.04    -0.00   0.01  -0.15
     6   6    -0.05   0.13  -0.11    -0.03  -0.00  -0.13     0.03  -0.01   0.03
     7   9    -0.13   0.11   0.07     0.13  -0.01   0.06    -0.02  -0.03   0.00
     8   6     0.02   0.05  -0.02    -0.00  -0.06   0.00    -0.00   0.02   0.20
     9   6     0.01  -0.07   0.00    -0.03  -0.11   0.05    -0.01  -0.04  -0.16
    10   6     0.15  -0.10  -0.09    -0.03  -0.09  -0.01    -0.01   0.01   0.00
    11   8    -0.06   0.06   0.02    -0.23   0.02  -0.05     0.02  -0.00  -0.02
    12   6     0.17  -0.11   0.03     0.01   0.14  -0.04    -0.00   0.04   0.12
    13   6    -0.00   0.03  -0.00     0.02   0.19  -0.02    -0.03  -0.02  -0.15
    14   6    -0.17  -0.08  -0.02    -0.03   0.11  -0.02    -0.05  -0.00   0.15
    15   6    -0.14  -0.02   0.11    -0.01  -0.16   0.08    -0.03  -0.03  -0.11
    16   9     0.03   0.08  -0.03     0.22  -0.12   0.01     0.05  -0.00   0.01
    17   1     0.15   0.04  -0.16    -0.24  -0.20   0.04    -0.05  -0.04  -0.02
    18   1     0.12   0.22  -0.18    -0.17   0.07  -0.10    -0.04   0.10  -0.07
    19   1     0.13  -0.04  -0.00    -0.18   0.03  -0.06    -0.03   0.03  -0.01
    20   1    -0.10  -0.21  -0.02     0.07   0.03  -0.18    -0.13  -0.08  -0.42
    21   1     0.02  -0.14   0.05     0.03   0.10   0.01     0.12  -0.01   0.30
    22   1     0.20  -0.22   0.10    -0.03   0.05   0.29    -0.06   0.04  -0.34
    23   1    -0.06   0.19  -0.04    -0.25   0.19  -0.06    -0.02   0.03   0.08
    24   1     0.26  -0.04   0.19     0.16   0.20  -0.07    -0.00   0.05   0.20
    25   1     0.01   0.27  -0.01     0.02   0.20  -0.02    -0.03  -0.02  -0.30
    26   1    -0.22  -0.06  -0.18    -0.27   0.23  -0.08    -0.07   0.02   0.39
                     22                     23                     24
                      A                      A                      A
 Frequencies --    590.8772               601.0987               605.6354
 Red. masses --      2.8252                 3.3396                 6.0342
 Frc consts  --      0.5812                 0.7109                 1.3040
 IR Inten    --     14.1983                 8.5035                 1.6468
  Atom  AN      X      Y      Z        X      Y      Z        X      Y      Z
     1   6    -0.00  -0.01  -0.00    -0.03  -0.02   0.02     0.09   0.15  -0.05
     2   6    -0.06  -0.02  -0.09     0.11  -0.01   0.10    -0.02   0.11   0.05
     3   6    -0.05   0.04   0.04     0.10  -0.09  -0.09    -0.07   0.04  -0.02
     4   6     0.02   0.00   0.00     0.02  -0.01   0.03    -0.07   0.02   0.06
     5   6     0.08   0.04  -0.03    -0.07  -0.04  -0.01    -0.19  -0.10   0.03
     6   6     0.09  -0.02   0.13    -0.07   0.03  -0.09    -0.12  -0.12  -0.00
     7   9    -0.05  -0.03  -0.05    -0.03   0.06   0.03     0.15  -0.10  -0.01
     8   6     0.01   0.03   0.03    -0.00  -0.02  -0.00    -0.06  -0.03   0.04
     9   6    -0.00  -0.01  -0.05    -0.03   0.05  -0.03     0.12  -0.01  -0.05
    10   6    -0.02  -0.06  -0.18    -0.09   0.04  -0.16     0.02  -0.19  -0.10
    11   8     0.02   0.00   0.03     0.11   0.02   0.06    -0.15  -0.10   0.04
    12   6    -0.02   0.04   0.04    -0.13   0.08   0.02     0.06  -0.06   0.04
    13   6    -0.02   0.04  -0.02     0.00  -0.04   0.01     0.02   0.01  -0.04
    14   6    -0.00   0.02  -0.03     0.08  -0.01  -0.03     0.19   0.15  -0.01
    15   6     0.00  -0.03   0.22     0.05   0.01   0.17     0.13   0.13   0.06
    16   9     0.03  -0.04  -0.04    -0.02  -0.03  -0.02    -0.10   0.10  -0.02
    17   1     0.05   0.09  -0.00    -0.12  -0.18   0.06     0.12   0.14  -0.12
    18   1    -0.00  -0.11   0.10    -0.05   0.09  -0.09     0.12   0.22  -0.14
    19   1     0.04   0.02   0.04    -0.08  -0.01  -0.05     0.09   0.02  -0.03
    20   1    -0.05   0.04   0.08     0.09  -0.10  -0.20    -0.13   0.01  -0.04
    21   1    -0.01  -0.09  -0.09     0.05   0.13   0.11    -0.06   0.10   0.11
    22   1     0.04   0.06  -0.28    -0.04  -0.05   0.13    -0.33  -0.03   0.10
    23   1    -0.24   0.20   0.61     0.31  -0.42  -0.28    -0.17  -0.00   0.05
    24   1     0.03   0.12   0.34    -0.24   0.08   0.22     0.22   0.06   0.23
    25   1    -0.02   0.03  -0.01    -0.01  -0.19   0.01     0.02  -0.07  -0.01
    26   1    -0.05   0.03  -0.30     0.11  -0.04  -0.29     0.35   0.06  -0.08
                     25                     26                     27
                      A                      A                      A
 Frequencies --    687.5886               723.3924               736.4004
 Red. masses --      2.8947                 2.6129                 6.8348
 Frc consts  --      0.8063                 0.8056                 2.1837
 IR Inten    --     32.4703                 3.0160                 4.7530
  Atom  AN      X      Y      Z        X      Y      Z        X      Y      Z
     1   6    -0.00   0.00   0.02     0.01   0.02  -0.03    -0.07  -0.16   0.07
     2   6     0.02   0.04   0.11    -0.01  -0.03  -0.08    -0.08   0.02  -0.03
     3   6    -0.02  -0.01  -0.07     0.00   0.01   0.03     0.03   0.17  -0.02
     4   6     0.02   0.01   0.10    -0.03  -0.01  -0.08     0.40  -0.00  -0.11
     5   6    -0.02   0.01  -0.05     0.00  -0.00   0.00     0.06  -0.15  -0.02
     6   6     0.02  -0.03   0.13    -0.01   0.02  -0.09    -0.05  -0.03  -0.03
     7   9     0.01   0.00  -0.00     0.00  -0.02  -0.00    -0.08   0.11   0.05
     8   6     0.00  -0.01  -0.16     0.01   0.01   0.24    -0.19   0.02   0.05
     9   6     0.02  -0.03  -0.15     0.03  -0.04  -0.20    -0.11   0.00  -0.05
    10   6     0.01   0.04   0.16     0.00   0.03   0.08    -0.03  -0.05   0.00
    11   8    -0.02  -0.02  -0.01     0.02  -0.00  -0.01    -0.11  -0.11   0.04
    12   6     0.01  -0.02  -0.07    -0.02  -0.01  -0.00     0.08   0.06  -0.01
    13   6     0.01   0.02   0.13    -0.04   0.01   0.09     0.28  -0.00   0.00
    14   6    -0.01  -0.01  -0.07    -0.01   0.01  -0.00     0.09  -0.05   0.01
    15   6    -0.01  -0.00   0.12     0.00   0.00   0.07    -0.01   0.02  -0.01
    16   9    -0.00   0.02  -0.00     0.01   0.00  -0.00    -0.08   0.11   0.00
    17   1    -0.02  -0.08  -0.01     0.02   0.10   0.00    -0.06  -0.06   0.11
    18   1     0.02   0.11  -0.11    -0.01  -0.07   0.08    -0.08  -0.25   0.17
    19   1    -0.04  -0.11   0.00     0.04   0.11  -0.01    -0.06  -0.13   0.08
    20   1    -0.10  -0.06  -0.31     0.07   0.06   0.28    -0.17   0.05  -0.02
    21   1    -0.03  -0.00  -0.10     0.06  -0.01   0.28     0.40  -0.03  -0.10
    22   1    -0.11   0.05  -0.39     0.11  -0.05   0.43    -0.13  -0.04   0.07
    23   1    -0.04   0.07  -0.00     0.03  -0.00  -0.06    -0.13  -0.01   0.09
    24   1    -0.00  -0.12  -0.50    -0.02  -0.09  -0.38     0.03   0.01  -0.08
    25   1     0.01  -0.01  -0.17    -0.05  -0.06  -0.31     0.29  -0.02  -0.08
    26   1    -0.02  -0.02  -0.44     0.01  -0.02  -0.43     0.01  -0.00  -0.11
                     28                     29                     30
                      A                      A                      A
 Frequencies --    754.9564               765.5614               787.2389
 Red. masses --      1.5044                 1.8592                 6.1459
 Frc consts  --      0.5052                 0.6420                 2.2441
 IR Inten    --     48.5694                28.0294                 0.5258
  Atom  AN      X      Y      Z        X      Y      Z        X      Y      Z
     1   6    -0.01   0.00   0.02     0.00   0.00  -0.01     0.06   0.07  -0.03
     2   6     0.01   0.01   0.06    -0.01  -0.00  -0.01     0.07  -0.04  -0.01
     3   6    -0.03   0.00  -0.08     0.00   0.01   0.01     0.03  -0.14   0.01
     4   6    -0.00   0.00  -0.06     0.01  -0.00   0.00    -0.24   0.00   0.05
     5   6    -0.02  -0.00  -0.09     0.00  -0.00   0.01     0.05   0.15   0.01
     6   6     0.02  -0.02   0.12    -0.01   0.01  -0.02     0.07   0.04  -0.00
     7   9    -0.01   0.01  -0.02     0.00  -0.00   0.00     0.04  -0.06  -0.02
     8   6     0.00   0.00  -0.06    -0.00   0.00   0.05     0.06  -0.00   0.05
     9   6    -0.00   0.00   0.01     0.01  -0.02  -0.10    -0.11  -0.01  -0.03
    10   6     0.00   0.00   0.01     0.00   0.04   0.13    -0.11  -0.01  -0.02
    11   8    -0.00  -0.00  -0.00    -0.00  -0.01  -0.02    -0.09  -0.11   0.03
    12   6     0.00   0.00  -0.01    -0.01  -0.01  -0.08    -0.01   0.19  -0.03
    13   6     0.01  -0.00  -0.01     0.01  -0.01  -0.05     0.40  -0.02  -0.01
    14   6    -0.00  -0.01  -0.01    -0.01  -0.02  -0.12    -0.02  -0.17   0.02
    15   6    -0.00  -0.00   0.01     0.00   0.00   0.14    -0.08  -0.02  -0.01
    16   9     0.00  -0.00  -0.00    -0.01   0.01  -0.02    -0.08   0.12   0.00
    17   1    -0.02  -0.09  -0.02     0.00   0.03   0.01     0.00   0.00   0.01
    18   1     0.02   0.10  -0.11    -0.01  -0.03   0.03     0.03   0.10  -0.06
    19   1    -0.04  -0.10  -0.00     0.01   0.03   0.00     0.03   0.13  -0.08
    20   1     0.11   0.11   0.44    -0.02  -0.01  -0.05     0.21  -0.04   0.07
    21   1     0.17   0.02   0.64    -0.01  -0.00  -0.05    -0.24  -0.01   0.09
    22   1     0.11  -0.06   0.46    -0.01  -0.00  -0.00     0.24   0.04  -0.04
    23   1    -0.04   0.04   0.07     0.02   0.02  -0.11    -0.15  -0.06   0.16
    24   1     0.01   0.02   0.07     0.00   0.10   0.39    -0.22   0.09  -0.05
    25   1     0.01   0.02   0.09     0.02   0.07   0.56     0.40  -0.03  -0.01
    26   1    -0.01   0.01   0.10     0.01   0.02   0.65    -0.26  -0.03  -0.03
                     31                     32                     33
                      A                      A                      A
 Frequencies --    841.6801               846.6018               907.9562
 Red. masses --      1.4586                 1.3838                 4.2837
 Frc consts  --      0.6088                 0.5843                 2.0806
 IR Inten    --      6.8481                 3.5145                32.2317
  Atom  AN      X      Y      Z        X      Y      Z        X      Y      Z
     1   6    -0.00  -0.00   0.00     0.00   0.00  -0.03    -0.09  -0.14   0.08
     2   6     0.00   0.00   0.00    -0.01  -0.00  -0.01    -0.00   0.12  -0.06
     3   6    -0.00  -0.00  -0.01     0.03   0.02   0.10     0.15  -0.12  -0.01
     4   6    -0.00   0.00  -0.00    -0.00  -0.01   0.02    -0.01   0.05   0.00
     5   6     0.00  -0.00   0.01    -0.04   0.01  -0.12    -0.11  -0.05   0.00
     6   6    -0.00   0.00  -0.00     0.02  -0.01   0.05    -0.02   0.14   0.04
     7   9     0.00  -0.00   0.00    -0.00   0.01  -0.01     0.05  -0.15  -0.05
     8   6    -0.00   0.01   0.00     0.01  -0.03  -0.02    -0.00   0.30   0.00
     9   6     0.00   0.01  -0.01     0.00  -0.00   0.01    -0.02   0.13  -0.03
    10   6     0.01   0.02   0.08    -0.00   0.00   0.00    -0.00  -0.01  -0.00
    11   8    -0.00  -0.01  -0.02     0.00  -0.00  -0.00    -0.01  -0.05   0.02
    12   6    -0.01  -0.02  -0.12    -0.01   0.01  -0.01     0.06  -0.04   0.01
    13   6    -0.00   0.00  -0.03     0.01  -0.00  -0.00     0.00   0.02  -0.00
    14   6     0.01   0.00   0.12     0.00  -0.00   0.01    -0.04  -0.02  -0.00
    15   6    -0.01  -0.00  -0.05    -0.00   0.00  -0.01    -0.00   0.01   0.00
    16   9     0.00  -0.00   0.01    -0.00   0.00   0.00     0.01  -0.04  -0.00
    17   1    -0.00  -0.01  -0.00     0.02   0.10   0.01     0.08   0.02  -0.07
    18   1     0.00   0.01  -0.01    -0.02  -0.10   0.10     0.04  -0.22   0.10
    19   1    -0.00  -0.01   0.00     0.04   0.10   0.00    -0.01  -0.42   0.24
    20   1     0.02   0.01   0.06    -0.15  -0.13  -0.62     0.13  -0.14  -0.05
    21   1     0.00   0.01   0.01    -0.04  -0.04  -0.13    -0.01   0.53  -0.08
    22   1    -0.02   0.00  -0.06     0.13  -0.05   0.67    -0.05  -0.08   0.14
    23   1     0.00   0.04  -0.05    -0.02   0.02   0.03    -0.04   0.02   0.02
    24   1     0.01   0.16   0.68    -0.01   0.02   0.06     0.10  -0.03  -0.01
    25   1     0.01   0.04   0.17     0.01  -0.01   0.02     0.01   0.20  -0.05
    26   1     0.01  -0.05  -0.65    -0.00  -0.01  -0.07    -0.08  -0.00   0.03
                     34                     35                     36
                      A                      A                      A
 Frequencies --    938.3413               943.0420               972.8808
 Red. masses --      1.3184                 1.2872                 3.5665
 Frc consts  --      0.6839                 0.6745                 1.9889
 IR Inten    --      0.4064                 0.3417                 4.0382
  Atom  AN      X      Y      Z        X      Y      Z        X      Y      Z
     1   6     0.00  -0.01  -0.01    -0.00  -0.00   0.00    -0.10   0.01  -0.00
     2   6     0.00   0.01   0.01    -0.00   0.00  -0.00    -0.04   0.02   0.01
     3   6     0.02   0.03   0.08    -0.00   0.00  -0.01    -0.05   0.09  -0.03
     4   6    -0.04  -0.01  -0.12     0.00   0.00   0.01     0.06   0.00   0.01
     5   6    -0.00  -0.02   0.06    -0.00  -0.00  -0.00    -0.10  -0.11   0.02
     6   6     0.00   0.01   0.00    -0.00   0.00  -0.00    -0.02   0.06   0.00
     7   9     0.00  -0.01   0.00     0.00  -0.00  -0.00     0.01  -0.02  -0.01
     8   6     0.02   0.01  -0.02     0.01   0.00   0.00     0.21  -0.03  -0.01
     9   6     0.01   0.00   0.00     0.01  -0.00  -0.01     0.20  -0.13   0.04
    10   6    -0.00  -0.00  -0.00    -0.00   0.00  -0.00     0.01  -0.04  -0.01
    11   8     0.00  -0.00   0.00     0.00   0.00   0.00     0.02   0.04  -0.01
    12   6    -0.01   0.01   0.00    -0.00   0.02   0.07    -0.13   0.17  -0.03
    13   6     0.00  -0.00  -0.01    -0.01  -0.02  -0.13     0.03  -0.02   0.02
    14   6    -0.01  -0.01   0.00    -0.00  -0.00   0.05    -0.08  -0.11   0.01
    15   6    -0.00   0.00  -0.00     0.00   0.00   0.01    -0.02  -0.02  -0.02
    16   9     0.00  -0.00   0.00     0.00   0.00   0.00    -0.02   0.05   0.00
    17   1    -0.01   0.04   0.03     0.01   0.01  -0.01     0.22   0.36  -0.26
    18   1    -0.03  -0.07   0.07     0.00  -0.00   0.00     0.18  -0.15   0.06
    19   1     0.02   0.06  -0.00     0.00  -0.01   0.01     0.08  -0.35   0.27
    20   1    -0.13  -0.08  -0.49     0.00   0.01   0.03    -0.07   0.08   0.13
    21   1     0.17   0.04   0.71    -0.01   0.00  -0.04     0.03   0.10  -0.12
    22   1    -0.08   0.01  -0.37    -0.01  -0.00   0.02    -0.19  -0.07   0.02
    23   1    -0.00  -0.00   0.00    -0.00   0.00   0.01     0.01   0.11  -0.02
    24   1    -0.01   0.00  -0.03    -0.01  -0.10  -0.48    -0.21   0.15   0.00
    25   1     0.00   0.01   0.04     0.02   0.12   0.78     0.01  -0.22  -0.06
    26   1    -0.02  -0.01  -0.02     0.01  -0.03  -0.33    -0.16  -0.07   0.03
                     37                     38                     39
                      A                      A                      A
 Frequencies --    978.6060              1002.6805              1012.9061
 Red. masses --      1.8721                 2.2966                 2.0928
 Frc consts  --      1.0563                 1.3604                 1.2650
 IR Inten    --     17.3490                 6.1703                 3.2514
  Atom  AN      X      Y      Z        X      Y      Z        X      Y      Z
     1   6     0.09  -0.08  -0.07     0.03   0.06   0.11    -0.07   0.03  -0.11
     2   6     0.05   0.01   0.05    -0.03  -0.08  -0.10    -0.00  -0.01   0.11
     3   6    -0.09   0.09  -0.03    -0.03   0.04   0.04     0.02  -0.04  -0.03
     4   6    -0.01  -0.01   0.03     0.02   0.00  -0.01     0.01  -0.00  -0.00
     5   6    -0.04  -0.09  -0.00    -0.03  -0.03   0.00     0.00   0.03   0.01
     6   6    -0.02   0.04   0.00     0.00  -0.04  -0.02     0.02  -0.08  -0.02
     7   9     0.01  -0.03  -0.01    -0.01   0.03   0.01    -0.01   0.04   0.02
     8   6     0.05   0.06  -0.02     0.06  -0.02   0.02     0.02  -0.07  -0.00
     9   6     0.05   0.06  -0.00     0.08   0.14  -0.02     0.01   0.14  -0.02
    10   6    -0.01   0.01  -0.01    -0.02   0.04  -0.02    -0.02   0.05  -0.01
    11   8    -0.01  -0.03   0.01    -0.03  -0.06   0.02    -0.03  -0.06   0.01
    12   6    -0.00   0.02  -0.00     0.01   0.01  -0.00     0.04  -0.04   0.00
    13   6     0.01   0.01   0.00     0.02   0.03   0.00     0.01   0.03  -0.00
    14   6    -0.05  -0.05   0.00    -0.08  -0.08   0.01    -0.04  -0.03   0.00
    15   6     0.00   0.02  -0.00     0.01   0.08   0.00     0.01   0.07   0.00
    16   9     0.01  -0.03   0.00     0.02  -0.07  -0.00     0.02  -0.06  -0.00
    17   1    -0.22  -0.17   0.36    -0.04  -0.36  -0.07     0.20   0.56  -0.17
    18   1    -0.28  -0.19   0.23     0.07   0.52  -0.41     0.10  -0.37   0.27
    19   1     0.02   0.61  -0.28    -0.19  -0.25  -0.10     0.20   0.02   0.21
    20   1    -0.08   0.11   0.14    -0.05   0.02  -0.15     0.08   0.01   0.11
    21   1    -0.05  -0.06  -0.09     0.01  -0.05  -0.02     0.01  -0.02   0.01
    22   1     0.03  -0.13   0.02    -0.15   0.03   0.07    -0.15   0.11  -0.01
    23   1    -0.02  -0.01   0.02    -0.03  -0.12   0.07    -0.03  -0.17   0.08
    24   1    -0.02   0.01  -0.00    -0.02  -0.01  -0.00    -0.00  -0.05   0.01
    25   1     0.01   0.12  -0.04     0.03   0.33  -0.07     0.03   0.34  -0.06
    26   1    -0.07  -0.04   0.01    -0.07  -0.09   0.02    -0.01  -0.05   0.01
                     40                     41                     42
                      A                      A                      A
 Frequencies --   1072.5004              1084.5830              1122.5891
 Red. masses --      1.6243                 1.3421                 1.1716
 Frc consts  --      1.1008                 0.9302                 0.8699
 IR Inten    --      3.2938                10.5955                 5.6584
  Atom  AN      X      Y      Z        X      Y      Z        X      Y      Z
     1   6     0.02  -0.01  -0.01    -0.03   0.02   0.01     0.00  -0.01   0.00
     2   6    -0.01   0.02   0.00     0.01  -0.02   0.00     0.00   0.02  -0.01
     3   6     0.01  -0.06   0.00     0.02   0.09  -0.01    -0.00  -0.01   0.00
     4   6     0.02  -0.01  -0.02    -0.05   0.02   0.03     0.01  -0.00  -0.00
     5   6     0.02   0.06  -0.00     0.02  -0.09  -0.01    -0.00   0.01   0.00
     6   6    -0.01  -0.01   0.00    -0.00   0.01   0.00    -0.01   0.02   0.01
     7   9     0.00   0.00   0.00    -0.00  -0.00   0.00     0.00  -0.01  -0.00
     8   6    -0.05   0.02  -0.00    -0.02  -0.04   0.00     0.00  -0.00  -0.00
     9   6     0.01  -0.01   0.00    -0.04   0.01  -0.00     0.00  -0.09   0.01
    10   6     0.03  -0.03   0.00    -0.00   0.00  -0.00    -0.02   0.01  -0.00
    11   8    -0.01   0.00   0.00    -0.01  -0.01   0.00     0.01   0.01  -0.01
    12   6    -0.01   0.13  -0.02     0.02   0.02  -0.00    -0.02  -0.02   0.00
    13   6    -0.07   0.02   0.01    -0.02   0.01   0.00     0.01   0.04  -0.01
    14   6     0.00  -0.13   0.01     0.02  -0.03   0.00     0.02   0.01  -0.00
    15   6     0.00   0.02  -0.00    -0.00   0.01   0.00     0.01  -0.02   0.00
    16   9    -0.01  -0.01   0.00     0.00  -0.01  -0.00    -0.00   0.02   0.00
    17   1    -0.03  -0.03   0.05     0.05   0.08  -0.08    -0.01  -0.03   0.02
    18   1    -0.04  -0.02   0.02     0.06  -0.00  -0.02    -0.01  -0.00   0.00
    19   1     0.00   0.06  -0.03     0.00  -0.09   0.06    -0.00  -0.01  -0.00
    20   1    -0.08  -0.11   0.05     0.23   0.21  -0.12    -0.08  -0.05   0.03
    21   1     0.03  -0.06   0.01    -0.07   0.22  -0.01     0.01  -0.02  -0.00
    22   1    -0.18   0.17   0.05     0.65  -0.42  -0.17    -0.02   0.02   0.01
    23   1    -0.01   0.13  -0.05    -0.01   0.01  -0.00     0.00  -0.02   0.02
    24   1     0.41   0.32  -0.10     0.14   0.08  -0.02    -0.53  -0.25   0.07
    25   1    -0.08   0.05  -0.02    -0.02   0.11  -0.02     0.05   0.66  -0.10
    26   1     0.57  -0.46   0.04     0.28  -0.18   0.01     0.38  -0.19   0.02
                     43                     44                     45
                      A                      A                      A
 Frequencies --   1130.2990              1176.6787              1192.1111
 Red. masses --      1.2192                 1.8493                 5.2303
 Frc consts  --      0.9177                 1.5086                 4.3794
 IR Inten    --      1.6633               156.2240                31.8884
  Atom  AN      X      Y      Z        X      Y      Z        X      Y      Z
     1   6     0.03   0.01  -0.01    -0.00   0.01  -0.01     0.01   0.08  -0.03
     2   6    -0.06  -0.00   0.02    -0.01  -0.01   0.01    -0.04  -0.22   0.07
     3   6    -0.03  -0.06   0.01     0.03  -0.02  -0.00    -0.06   0.00   0.01
     4   6     0.03   0.04  -0.02     0.02  -0.00  -0.01     0.16  -0.01  -0.05
     5   6     0.02   0.02  -0.00     0.02   0.05   0.00    -0.08   0.05   0.02
     6   6     0.03  -0.03  -0.01    -0.07   0.03   0.02    -0.12   0.33   0.07
     7   9    -0.00   0.01   0.00     0.01  -0.02  -0.01     0.05  -0.10  -0.04
     8   6    -0.01  -0.04   0.00    -0.09  -0.02  -0.00     0.19  -0.11  -0.01
     9   6     0.04  -0.00   0.00     0.05   0.07  -0.01    -0.23   0.05  -0.02
    10   6     0.01   0.00  -0.00     0.15  -0.03  -0.02    -0.08   0.01  -0.00
    11   8    -0.00  -0.00  -0.00    -0.01  -0.07   0.04     0.02  -0.01   0.02
    12   6    -0.01   0.01  -0.00    -0.06   0.04  -0.00     0.06  -0.05   0.01
    13   6     0.00  -0.00  -0.00     0.00   0.01  -0.00     0.03  -0.01  -0.00
    14   6    -0.01  -0.00   0.00    -0.01   0.00  -0.00     0.04   0.07  -0.00
    15   6     0.00   0.01  -0.00    -0.05   0.07  -0.00    -0.07   0.04   0.01
    16   9     0.00  -0.00   0.00     0.02  -0.04  -0.00     0.02  -0.03  -0.00
    17   1    -0.03  -0.02   0.06     0.01   0.02  -0.01     0.09   0.14  -0.12
    18   1    -0.05   0.04  -0.01    -0.01  -0.00   0.01     0.10   0.12  -0.11
    19   1     0.00   0.09  -0.06     0.00   0.00  -0.01     0.03   0.11  -0.03
    20   1    -0.41  -0.28   0.15     0.06  -0.01  -0.02    -0.43  -0.21   0.15
    21   1     0.05   0.78  -0.04     0.03  -0.18   0.01     0.17  -0.09  -0.04
    22   1     0.22  -0.09  -0.04     0.23  -0.05  -0.06     0.01   0.02  -0.03
    23   1    -0.00  -0.02   0.01    -0.00   0.60  -0.29    -0.01   0.15  -0.08
    24   1    -0.05  -0.01   0.00    -0.54  -0.17   0.01     0.30   0.05  -0.01
    25   1     0.00  -0.03   0.00    -0.01  -0.23   0.03     0.03  -0.10   0.02
    26   1    -0.07   0.03  -0.00    -0.02   0.01   0.02     0.31  -0.08  -0.00
                     46                     47                     48
                      A                      A                      A
 Frequencies --   1205.8039              1222.8573              1255.2004
 Red. masses --      1.8783                 2.5884                 2.3529
 Frc consts  --      1.6090                 2.2805                 2.1841
 IR Inten    --      3.7212                 5.8912                11.0153
  Atom  AN      X      Y      Z        X      Y      Z        X      Y      Z
     1   6    -0.03  -0.03   0.02     0.05   0.06  -0.04    -0.02   0.01   0.00
     2   6     0.09   0.08  -0.04    -0.14  -0.15   0.08     0.09  -0.01  -0.02
     3   6     0.02   0.01  -0.01     0.02  -0.06   0.01    -0.04   0.03   0.01
     4   6     0.02   0.00  -0.01     0.07   0.00  -0.02    -0.03   0.02   0.01
     5   6     0.00   0.09   0.01     0.02   0.02  -0.00     0.01  -0.02  -0.01
     6   6    -0.13   0.03   0.03    -0.04   0.09   0.03     0.01  -0.06  -0.02
     7   9     0.02  -0.02  -0.01     0.01  -0.03  -0.01    -0.01   0.02   0.01
     8   6    -0.07  -0.08   0.01    -0.12   0.04  -0.02     0.08   0.00   0.01
     9   6     0.08  -0.01   0.01     0.10  -0.01   0.01    -0.10   0.11  -0.02
    10   6    -0.07   0.02  -0.00    -0.05  -0.04   0.01     0.05  -0.02  -0.01
    11   8     0.01   0.02  -0.01     0.03   0.03  -0.01     0.02  -0.04   0.03
    12   6     0.00  -0.00  -0.00    -0.04   0.00   0.00    -0.06  -0.01   0.01
    13   6    -0.00  -0.02   0.00    -0.03  -0.01   0.00    -0.06   0.02   0.00
    14   6    -0.03  -0.04   0.00     0.00  -0.07   0.01     0.10  -0.06   0.00
    15   6     0.08   0.03  -0.00     0.12  -0.06  -0.00     0.09  -0.17  -0.00
    16   9    -0.01   0.00   0.00    -0.03   0.05   0.00    -0.04   0.07   0.00
    17   1    -0.02  -0.04   0.01     0.01   0.06  -0.00    -0.01  -0.01  -0.03
    18   1     0.02  -0.07   0.04    -0.01   0.09  -0.04     0.10  -0.03  -0.01
    19   1     0.00  -0.13   0.08     0.01   0.16  -0.10     0.04  -0.06   0.09
    20   1    -0.43  -0.24   0.14     0.56   0.22  -0.18    -0.30  -0.11   0.07
    21   1     0.02  -0.42   0.02     0.09   0.08  -0.02    -0.03   0.03   0.00
    22   1     0.46  -0.14  -0.10     0.05   0.01  -0.03    -0.05   0.00   0.03
    23   1    -0.00  -0.18   0.08     0.02   0.04  -0.02     0.04   0.58  -0.30
    24   1     0.20   0.09  -0.01     0.12   0.08  -0.01     0.10   0.06  -0.04
    25   1     0.01   0.18  -0.03    -0.01   0.43  -0.07    -0.05   0.43  -0.07
    26   1    -0.29   0.11  -0.02    -0.41   0.15  -0.02    -0.29   0.15   0.01
                     49                     50                     51
                      A                      A                      A
 Frequencies --   1302.9822              1327.4699              1339.4534
 Red. masses --      4.3090                 2.8000                 1.2842
 Frc consts  --      4.3102                 2.9071                 1.3575
 IR Inten    --     30.5904                17.1595                 1.6745
  Atom  AN      X      Y      Z        X      Y      Z        X      Y      Z
     1   6    -0.05   0.05  -0.02    -0.03  -0.04   0.02    -0.04  -0.13   0.05
     2   6     0.20  -0.25   0.03     0.06  -0.00  -0.01    -0.01   0.03  -0.01
     3   6    -0.15  -0.05   0.05    -0.04  -0.01   0.02     0.01  -0.00  -0.00
     4   6     0.03   0.15  -0.01    -0.02   0.02   0.01     0.00  -0.01  -0.00
     5   6     0.10  -0.03  -0.03     0.07  -0.03  -0.02    -0.01   0.01   0.00
     6   6    -0.15  -0.11  -0.00    -0.01  -0.06  -0.01     0.00   0.01   0.00
     7   9    -0.00   0.00   0.00    -0.01   0.02   0.01     0.00  -0.00  -0.00
     8   6    -0.05   0.27  -0.02    -0.00   0.05  -0.00    -0.00  -0.02   0.00
     9   6     0.06  -0.01   0.01    -0.03  -0.09   0.00     0.00   0.01  -0.00
    10   6     0.03  -0.01   0.02    -0.14  -0.12   0.02     0.02   0.02  -0.01
    11   8    -0.02   0.02  -0.02     0.07   0.05   0.00    -0.01  -0.01   0.00
    12   6     0.03   0.01  -0.00    -0.06  -0.03   0.01     0.01   0.01  -0.00
    13   6     0.00   0.04  -0.01     0.09  -0.09   0.01    -0.02   0.01  -0.00
    14   6    -0.02   0.01  -0.00    -0.04   0.04  -0.00     0.01  -0.01   0.00
    15   6    -0.04  -0.06  -0.00    -0.00   0.22   0.00     0.01  -0.03   0.00
    16   9    -0.00   0.02   0.00     0.03  -0.07  -0.00    -0.01   0.01   0.00
    17   1     0.09   0.15  -0.16     0.11   0.19  -0.04     0.21   0.42   0.01
    18   1     0.34  -0.01  -0.13     0.04   0.10  -0.16     0.13   0.35  -0.52
    19   1     0.14   0.08   0.17     0.02   0.16   0.03     0.11   0.56   0.07
    20   1    -0.28  -0.13  -0.07     0.01   0.02  -0.04     0.02  -0.00   0.01
    21   1     0.03  -0.12  -0.01    -0.03   0.12   0.00     0.00  -0.02  -0.00
    22   1     0.15  -0.06   0.04    -0.10   0.05   0.05     0.02  -0.01  -0.01
    23   1    -0.01  -0.36   0.18     0.09   0.60  -0.33    -0.01  -0.08   0.04
    24   1    -0.17  -0.08   0.02     0.29   0.11  -0.03    -0.05  -0.01   0.00
    25   1    -0.01  -0.25   0.04     0.12   0.30  -0.05    -0.02  -0.03   0.00
    26   1     0.20  -0.11   0.01    -0.09   0.09  -0.03    -0.02  -0.00   0.00
                     52                     53                     54
                      A                      A                      A
 Frequencies --   1344.4500              1393.0164              1424.1396
 Red. masses --      6.2513                 1.8944                 1.6091
 Frc consts  --      6.6575                 2.1659                 1.9228
 IR Inten    --     76.5411                 8.4012                23.7832
  Atom  AN      X      Y      Z        X      Y      Z        X      Y      Z
     1   6    -0.01   0.01  -0.01    -0.06   0.02   0.01    -0.02   0.01  -0.00
     2   6     0.05  -0.02  -0.01     0.09  -0.03  -0.02    -0.09   0.04   0.01
     3   6    -0.06  -0.00   0.02    -0.01   0.07  -0.01     0.02  -0.04   0.00
     4   6    -0.01  -0.00   0.00    -0.05  -0.08   0.02     0.04   0.02  -0.01
     5   6     0.06  -0.03  -0.02     0.05  -0.04  -0.01    -0.06   0.04   0.02
     6   6     0.00   0.03   0.01     0.07   0.13   0.01    -0.00  -0.08  -0.01
     7   9     0.01  -0.01   0.00    -0.00  -0.02  -0.01    -0.00   0.01   0.00
     8   6    -0.01   0.03  -0.01    -0.13  -0.06  -0.00     0.05   0.02  -0.00
     9   6    -0.04  -0.23   0.04     0.03   0.02  -0.00     0.06   0.01   0.00
    10   6    -0.07   0.37  -0.15     0.02  -0.02   0.01    -0.07   0.04  -0.02
    11   8    -0.07  -0.18   0.09    -0.00   0.01  -0.01     0.01  -0.02   0.01
    12   6     0.25   0.09  -0.03    -0.02   0.00  -0.00    -0.02  -0.04   0.01
    13   6    -0.12  -0.12   0.03    -0.00   0.01  -0.00     0.05  -0.01  -0.00
    14   6    -0.14   0.03   0.00     0.01  -0.02   0.00    -0.04   0.06  -0.00
    15   6     0.23   0.04   0.01    -0.01   0.03   0.00    -0.04  -0.06   0.00
    16   9    -0.01   0.02  -0.00     0.00  -0.01  -0.00     0.00   0.01  -0.00
    17   1    -0.03  -0.05  -0.02    -0.09  -0.37  -0.17    -0.15  -0.45  -0.08
    18   1     0.08  -0.04   0.02     0.58  -0.20  -0.03     0.53  -0.19  -0.03
    19   1     0.03  -0.03   0.05     0.16   0.25   0.20     0.18   0.34   0.15
    20   1     0.06   0.06  -0.05    -0.12   0.02   0.02     0.10   0.00  -0.01
    21   1    -0.01   0.19  -0.01    -0.06   0.28   0.01     0.04  -0.13  -0.01
    22   1    -0.18   0.09   0.06    -0.32   0.16   0.07     0.21  -0.10  -0.06
    23   1    -0.04   0.51  -0.30    -0.02  -0.10   0.06     0.03   0.21  -0.12
    24   1    -0.10  -0.04   0.07    -0.02   0.00  -0.00     0.16   0.03  -0.01
    25   1    -0.13  -0.18   0.03    -0.00   0.02  -0.00     0.06  -0.03  -0.00
    26   1    -0.08  -0.03  -0.06    -0.06   0.02   0.00     0.20  -0.08   0.00
                     55                     56                     57
                      A                      A                      A
 Frequencies --   1427.3728              1434.4630              1439.0281
 Red. masses --      1.1912                 2.7627                 2.7627
 Frc consts  --      1.4299                 3.3494                 3.3707
 IR Inten    --     15.4085               103.3624                 6.5390
  Atom  AN      X      Y      Z        X      Y      Z        X      Y      Z
     1   6     0.00  -0.00  -0.06     0.00  -0.02   0.04     0.01   0.02  -0.03
     2   6     0.02   0.02  -0.02     0.07   0.03  -0.01    -0.03  -0.14   0.04
     3   6    -0.05  -0.01   0.02    -0.07  -0.01   0.02     0.17   0.08  -0.06
     4   6     0.01  -0.02  -0.00     0.00  -0.04   0.00    -0.07   0.06   0.02
     5   6     0.04   0.00  -0.01     0.06   0.00  -0.01    -0.09  -0.06   0.02
     6   6    -0.04   0.02   0.01    -0.05   0.04   0.02     0.18   0.03  -0.03
     7   9     0.00  -0.00  -0.00     0.01  -0.01  -0.00    -0.01   0.00   0.00
     8   6     0.00  -0.03   0.00    -0.05  -0.03  -0.00    -0.12   0.05  -0.01
     9   6     0.03   0.02   0.00     0.14   0.00   0.02     0.09  -0.01   0.01
    10   6    -0.01   0.02  -0.01     0.00   0.17  -0.06    -0.06   0.04  -0.02
    11   8     0.00  -0.01   0.00    -0.01  -0.06   0.02     0.01  -0.01   0.01
    12   6    -0.02  -0.02   0.00    -0.12  -0.09   0.02    -0.02  -0.03   0.01
    13   6     0.02   0.00  -0.00     0.06  -0.02  -0.00     0.04  -0.01  -0.00
    14   6    -0.00   0.01  -0.00     0.06   0.06  -0.01    -0.03   0.05  -0.00
    15   6    -0.03  -0.02  -0.00    -0.17  -0.10   0.00    -0.03  -0.05   0.00
    16   9     0.00   0.00  -0.00     0.01   0.01   0.00     0.00   0.01   0.00
    17   1    -0.34   0.09   0.57     0.27   0.19  -0.27    -0.05   0.25   0.23
    18   1    -0.08   0.16  -0.17    -0.23   0.00   0.11    -0.20   0.18  -0.11
    19   1     0.38  -0.25   0.46    -0.31  -0.05  -0.32     0.09  -0.16   0.11
    20   1     0.14   0.09  -0.06     0.11   0.09  -0.06    -0.49  -0.28   0.20
    21   1     0.01   0.12  -0.01     0.01   0.20  -0.00    -0.09  -0.33   0.04
    22   1    -0.04   0.05   0.02    -0.09   0.09   0.03    -0.06  -0.10  -0.02
    23   1    -0.00   0.01  -0.01    -0.00   0.09  -0.04     0.02   0.22  -0.11
    24   1     0.07   0.02  -0.01     0.45   0.16  -0.06     0.14   0.03  -0.01
    25   1     0.02  -0.00  -0.00     0.09   0.18  -0.04     0.05  -0.01  -0.00
    26   1     0.06  -0.02   0.00     0.17   0.02   0.02     0.14  -0.05   0.00
                     58                     59                     60
                      A                      A                      A
 Frequencies --   1457.8554              1555.9599              1572.5551
 Red. masses --      3.1455                 6.3562                 6.4914
 Frc consts  --      3.9388                 9.0666                 9.4581
 IR Inten    --     52.8136                19.3421                56.6476
  Atom  AN      X      Y      Z        X      Y      Z        X      Y      Z
     1   6    -0.00   0.02  -0.02     0.01  -0.01   0.01    -0.00   0.00  -0.01
     2   6    -0.05  -0.03   0.01    -0.10   0.13  -0.01     0.03  -0.03  -0.00
     3   6     0.02  -0.02  -0.00    -0.01  -0.19   0.03    -0.02   0.02   0.00
     4   6     0.01   0.06  -0.01    -0.06   0.46   0.00     0.03  -0.08  -0.01
     5   6    -0.06  -0.01   0.01     0.20  -0.29  -0.06    -0.08   0.07   0.02
     6   6     0.04  -0.02  -0.01    -0.00   0.14   0.02     0.04  -0.04  -0.01
     7   9     0.00  -0.00   0.00    -0.01  -0.01  -0.00     0.00   0.00   0.00
     8   6     0.03   0.07  -0.01     0.00  -0.18   0.01    -0.00   0.06  -0.00
     9   6    -0.07  -0.13   0.01     0.02   0.00   0.00     0.01  -0.17   0.03
    10   6     0.20   0.11  -0.03    -0.04   0.03  -0.01    -0.14   0.12  -0.04
    11   8    -0.05  -0.04   0.00     0.01  -0.00   0.00     0.02  -0.02   0.01
    12   6    -0.11   0.04  -0.00    -0.00  -0.05   0.01    -0.02  -0.20   0.04
    13   6    -0.04  -0.13   0.02    -0.00   0.11  -0.02    -0.03   0.45  -0.07
    14   6     0.16  -0.02  -0.00     0.04  -0.06   0.01     0.22  -0.29   0.02
    15   6    -0.11   0.14  -0.00    -0.00   0.01   0.00    -0.05   0.15  -0.00
    16   9     0.02  -0.04  -0.00    -0.00  -0.00  -0.00    -0.00  -0.02  -0.00
    17   1    -0.15  -0.15   0.12    -0.00  -0.13  -0.06    -0.02  -0.01   0.03
    18   1     0.18  -0.03  -0.04     0.10  -0.06   0.02     0.03  -0.01  -0.00
    19   1     0.18   0.06   0.17    -0.01   0.13  -0.05     0.04  -0.02   0.05
    20   1    -0.04  -0.06   0.03     0.04  -0.19  -0.00     0.02   0.04  -0.01
    21   1     0.01  -0.20  -0.00    -0.09  -0.52   0.05     0.04   0.06  -0.02
    22   1     0.09  -0.09  -0.03    -0.32  -0.04   0.10     0.11  -0.03  -0.04
    23   1    -0.05  -0.30   0.18    -0.01   0.01   0.00     0.05   0.24  -0.12
    24   1     0.17   0.19  -0.06     0.01  -0.05   0.01     0.07  -0.19   0.03
    25   1    -0.01   0.47  -0.07    -0.02  -0.14   0.02    -0.10  -0.49   0.07
    26   1    -0.31   0.27  -0.00    -0.05  -0.02   0.01    -0.32   0.00   0.03
                     61                     62                     63
                      A                      A                      A
 Frequencies --   1607.6608              1620.7956              2981.2705
 Red. masses --      6.8867                 7.1840                 1.0398
 Frc consts  --     10.4870                11.1192                 5.4449
 IR Inten    --      3.1769                75.6727                18.1314
  Atom  AN      X      Y      Z        X      Y      Z        X      Y      Z
     1   6    -0.01  -0.01   0.01     0.00  -0.00  -0.00    -0.01   0.05  -0.02
     2   6     0.23   0.05  -0.06    -0.05   0.01   0.01    -0.00  -0.00   0.00
     3   6    -0.31  -0.18   0.10     0.06   0.03  -0.02    -0.00  -0.00   0.00
     4   6     0.17   0.13  -0.05    -0.03  -0.02   0.01     0.00   0.00  -0.00
     5   6    -0.32   0.05   0.07     0.06  -0.01  -0.01     0.00  -0.00  -0.00
     6   6     0.35   0.07  -0.05    -0.07  -0.03   0.01    -0.00  -0.00   0.00
     7   9    -0.01   0.00   0.00    -0.00   0.01  -0.00     0.00   0.00   0.00
     8   6    -0.15  -0.08   0.01     0.02   0.00   0.00     0.00  -0.00   0.00
     9   6     0.02   0.04  -0.00     0.16   0.07   0.00    -0.00   0.00   0.00
    10   6    -0.05  -0.05   0.01    -0.27  -0.06   0.02    -0.00  -0.00   0.00
    11   8     0.01   0.01  -0.00     0.03   0.01   0.01     0.00   0.00  -0.00
    12   6     0.07   0.05  -0.01     0.35   0.19  -0.05    -0.00   0.00  -0.00
    13   6    -0.03  -0.06   0.01    -0.18  -0.15   0.03    -0.00  -0.00  -0.00
    14   6     0.02   0.01  -0.00     0.31  -0.05  -0.00    -0.00   0.00  -0.00
    15   6    -0.03  -0.01   0.00    -0.34  -0.04   0.00     0.00   0.00   0.00
    16   9     0.00  -0.00   0.00     0.02  -0.01  -0.00     0.00  -0.00   0.00
    17   1     0.06   0.09  -0.04    -0.02  -0.02   0.02     0.59  -0.24   0.36
    18   1    -0.07   0.00   0.03     0.02  -0.01  -0.01    -0.16  -0.38  -0.36
    19   1    -0.05  -0.11  -0.01     0.02   0.02   0.01    -0.30   0.06   0.25
    20   1     0.36   0.17  -0.16    -0.05  -0.03   0.02    -0.01   0.01  -0.00
    21   1     0.19  -0.19  -0.06    -0.03   0.03   0.01     0.00   0.00  -0.00
    22   1     0.24  -0.27  -0.11    -0.03   0.04   0.02    -0.00  -0.00  -0.00
    23   1     0.02   0.10  -0.04     0.02   0.19  -0.12    -0.00  -0.00   0.00
    24   1    -0.10  -0.02   0.01    -0.38  -0.12   0.06     0.00  -0.00   0.00
    25   1    -0.03   0.06  -0.01    -0.19   0.20  -0.01     0.00  -0.00   0.00
    26   1    -0.02   0.04  -0.00    -0.23   0.28   0.00    -0.00  -0.00   0.00
                     64                     65                     66
                      A                      A                      A
 Frequencies --   3054.8534              3097.4022              3100.1977
 Red. masses --      1.1009                 1.0916                 1.0989
 Frc consts  --      6.0531                 6.1706                 6.2227
 IR Inten    --      8.0072                 4.6898                 8.0163
  Atom  AN      X      Y      Z        X      Y      Z        X      Y      Z
     1   6    -0.07  -0.02  -0.05    -0.02   0.02   0.03    -0.05   0.03   0.05
     2   6    -0.00  -0.00   0.00    -0.00  -0.00   0.00     0.00   0.00  -0.00
     3   6     0.00  -0.00   0.00     0.04  -0.06   0.00    -0.02   0.03  -0.00
     4   6    -0.00   0.00   0.00    -0.02   0.00   0.00     0.01  -0.00  -0.00
     5   6     0.00  -0.00  -0.00     0.00   0.00  -0.00    -0.00  -0.00  -0.00
     6   6    -0.00  -0.00   0.00    -0.00   0.00   0.00    -0.00  -0.00   0.00
     7   9     0.00  -0.00  -0.00    -0.00  -0.00  -0.00     0.00  -0.00   0.00
     8   6    -0.00   0.00  -0.00    -0.00   0.00  -0.00     0.00  -0.00  -0.00
     9   6     0.00   0.00   0.00     0.00  -0.00  -0.00     0.00   0.00   0.00
    10   6    -0.00   0.00   0.00     0.00   0.00  -0.00    -0.00  -0.00   0.00
    11   8    -0.00   0.00  -0.00     0.00  -0.00   0.00    -0.00   0.00  -0.00
    12   6     0.00   0.00  -0.00     0.00  -0.00   0.00     0.00   0.00  -0.00
    13   6    -0.00  -0.00   0.00    -0.00   0.00   0.00    -0.00  -0.00   0.00
    14   6    -0.00   0.00   0.00     0.00   0.00  -0.00     0.00   0.00  -0.00
    15   6     0.00  -0.00  -0.00     0.00  -0.00   0.00     0.00  -0.00   0.00
    16   9    -0.00   0.00  -0.00    -0.00   0.00  -0.00    -0.00  -0.00  -0.00
    17   1     0.51  -0.22   0.31     0.04  -0.01   0.03     0.14  -0.05   0.10
    18   1     0.20   0.52   0.48    -0.06  -0.13  -0.12    -0.11  -0.24  -0.22
    19   1     0.13  -0.03  -0.14     0.31  -0.05  -0.26     0.61  -0.11  -0.51
    20   1    -0.01   0.03  -0.00    -0.42   0.75  -0.04     0.22  -0.38   0.02
    21   1     0.00  -0.00  -0.00     0.22  -0.01  -0.05    -0.12   0.00   0.03
    22   1     0.00   0.00  -0.00    -0.02  -0.04   0.00     0.01   0.02  -0.00
    23   1     0.00   0.00   0.00    -0.00  -0.00  -0.00     0.00   0.00   0.00
    24   1    -0.00   0.00  -0.00    -0.00   0.00  -0.00    -0.00   0.00  -0.00
    25   1     0.00  -0.00  -0.00     0.00  -0.00  -0.00     0.00  -0.00   0.00
    26   1    -0.00  -0.00  -0.00    -0.00  -0.00   0.00    -0.00  -0.00   0.00
                     67                     68                     69
                      A                      A                      A
 Frequencies --   3118.4468              3125.5945              3137.2677
 Red. masses --      1.0873                 1.0904                 1.0926
 Frc consts  --      6.2301                 6.2765                 6.3357
 IR Inten    --      4.3908                 5.3749                 3.5244
  Atom  AN      X      Y      Z        X      Y      Z        X      Y      Z
     1   6     0.00  -0.00  -0.00    -0.00   0.00  -0.00    -0.00   0.00   0.00
     2   6     0.00   0.00  -0.00     0.00   0.00  -0.00     0.00   0.00  -0.00
     3   6    -0.00   0.00  -0.00    -0.01   0.02  -0.00     0.00  -0.00   0.00
     4   6    -0.00  -0.00   0.00    -0.07  -0.00   0.02     0.00  -0.00  -0.00
     5   6     0.00   0.00  -0.00     0.02   0.04  -0.00     0.00   0.00  -0.00
     6   6     0.00  -0.00  -0.00    -0.00   0.00   0.00     0.00  -0.00  -0.00
     7   9    -0.00   0.00  -0.00     0.00  -0.00  -0.00    -0.00   0.00  -0.00
     8   6     0.00  -0.00  -0.00    -0.00  -0.00  -0.00    -0.00  -0.00   0.00
     9   6    -0.00  -0.00  -0.00     0.00   0.00  -0.00     0.00   0.00  -0.00
    10   6    -0.00  -0.00   0.00     0.00   0.00  -0.00    -0.00  -0.00   0.00
    11   8     0.00   0.00   0.00     0.00   0.00   0.00     0.00   0.00  -0.00
    12   6     0.01  -0.03   0.01    -0.00   0.00  -0.00     0.03  -0.06   0.01
    13   6    -0.08   0.00   0.00     0.00  -0.00  -0.00     0.02   0.00  -0.00
    14   6     0.01   0.02  -0.00    -0.00  -0.00   0.00    -0.02  -0.04   0.00
    15   6    -0.00   0.00   0.00    -0.00  -0.00  -0.00     0.00  -0.00  -0.00
    16   9    -0.00  -0.00  -0.00    -0.00   0.00  -0.00    -0.00   0.00  -0.00
    17   1    -0.00   0.00  -0.00     0.00  -0.00   0.00     0.00  -0.00   0.00
    18   1     0.00   0.00   0.00    -0.00  -0.00   0.00    -0.00  -0.00  -0.00
    19   1    -0.00   0.00   0.00     0.00  -0.00  -0.00     0.00  -0.00  -0.00
    20   1     0.00  -0.00   0.00     0.11  -0.21   0.01    -0.00   0.00  -0.00
    21   1     0.00  -0.00  -0.00     0.77  -0.02  -0.19    -0.00   0.00   0.00
    22   1    -0.00  -0.00   0.00    -0.26  -0.49   0.01    -0.00  -0.00   0.00
    23   1    -0.00  -0.00  -0.00    -0.00  -0.00  -0.00     0.00   0.00  -0.00
    24   1    -0.16   0.33  -0.07     0.00  -0.00   0.00    -0.34   0.73  -0.15
    25   1     0.87  -0.05  -0.02    -0.01   0.00   0.00    -0.16   0.01   0.00
    26   1    -0.15  -0.25   0.02     0.00   0.00  -0.00     0.27   0.47  -0.03
                     70                     71                     72
                      A                      A                      A
 Frequencies --   3140.2211              3143.2403              3590.0166
 Red. masses --      1.0985                 1.0984                 1.0633
 Frc consts  --      6.3823                 6.3938                 8.0741
 IR Inten    --      1.8572                 2.2880               364.3818
  Atom  AN      X      Y      Z        X      Y      Z        X      Y      Z
     1   6    -0.00   0.00   0.00    -0.00   0.00   0.00     0.00  -0.00  -0.00
     2   6     0.00   0.00  -0.00    -0.00  -0.00   0.00    -0.00   0.00  -0.00
     3   6    -0.00   0.01  -0.00     0.00  -0.00   0.00     0.00  -0.00  -0.00
     4   6    -0.05   0.00   0.01     0.00  -0.00  -0.00    -0.00   0.00   0.00
     5   6    -0.03  -0.07   0.00     0.00   0.00  -0.00     0.00  -0.00  -0.00
     6   6     0.00  -0.00  -0.00    -0.00   0.00   0.00    -0.00   0.01   0.00
     7   9    -0.00   0.00   0.00     0.00  -0.00  -0.00    -0.00  -0.00  -0.00
     8   6     0.00   0.00   0.00     0.00  -0.00   0.00     0.00  -0.00  -0.00
     9   6     0.00  -0.00   0.00    -0.00   0.00   0.00    -0.00   0.00  -0.00
    10   6    -0.00  -0.00   0.00     0.00   0.00  -0.00    -0.00  -0.00   0.00
    11   8    -0.00   0.00  -0.00    -0.00  -0.00  -0.00    -0.06  -0.01  -0.02
    12   6     0.00  -0.00   0.00    -0.01   0.04  -0.01     0.00   0.00  -0.00
    13   6    -0.00   0.00   0.00    -0.04   0.00   0.00    -0.00  -0.00   0.00
    14   6    -0.00  -0.00   0.00    -0.03  -0.06   0.00    -0.00   0.00  -0.00
    15   6     0.00   0.00  -0.00     0.00  -0.00  -0.00     0.00  -0.00  -0.00
    16   9    -0.00  -0.00   0.00    -0.00   0.00   0.00    -0.00   0.00   0.00
    17   1     0.00  -0.00   0.00     0.00  -0.00   0.00    -0.00  -0.00  -0.00
    18   1    -0.00  -0.00  -0.00    -0.00  -0.00  -0.00     0.00  -0.00  -0.00
    19   1     0.00  -0.00  -0.00     0.00  -0.00  -0.00    -0.00  -0.00   0.00
    20   1     0.05  -0.09   0.01    -0.00   0.00  -0.00    -0.00   0.00   0.00
    21   1     0.53  -0.01  -0.13    -0.00   0.00   0.00     0.00  -0.00  -0.00
    22   1     0.38   0.73  -0.02    -0.00  -0.01   0.00    -0.00  -0.00   0.00
    23   1     0.00   0.00   0.00     0.00  -0.00   0.00     0.92   0.17   0.34
    24   1    -0.00   0.00  -0.00     0.18  -0.39   0.08    -0.00   0.00  -0.00
    25   1     0.00  -0.00  -0.00     0.44  -0.03  -0.01     0.00   0.00   0.00
    26   1     0.00   0.01  -0.00     0.39   0.68  -0.04    -0.00  -0.00   0.00

 -------------------
 - Thermochemistry -
 -------------------
 Temperature   298.150 Kelvin.  Pressure   1.00000 Atm.
 Atom     1 has atomic number  6 and mass  12.00000
 Atom     2 has atomic number  6 and mass  12.00000
 Atom     3 has atomic number  6 and mass  12.00000
 Atom     4 has atomic number  6 and mass  12.00000
 Atom     5 has atomic number  6 and mass  12.00000
 Atom     6 has atomic number  6 and mass  12.00000
 Atom     7 has atomic number  9 and mass  18.99840
 Atom     8 has atomic number  6 and mass  12.00000
 Atom     9 has atomic number  6 and mass  12.00000
 Atom    10 has atomic number  6 and mass  12.00000
 Atom    11 has atomic number  8 and mass  15.99491
 Atom    12 has atomic number  6 and mass  12.00000
 Atom    13 has atomic number  6 and mass  12.00000
 Atom    14 has atomic number  6 and mass  12.00000
 Atom    15 has atomic number  6 and mass  12.00000
 Atom    16 has atomic number  9 and mass  18.99840
 Atom    17 has atomic number  1 and mass   1.00783
 Atom    18 has atomic number  1 and mass   1.00783
 Atom    19 has atomic number  1 and mass   1.00783
 Atom    20 has atomic number  1 and mass   1.00783
 Atom    21 has atomic number  1 and mass   1.00783
 Atom    22 has atomic number  1 and mass   1.00783
 Atom    23 has atomic number  1 and mass   1.00783
 Atom    24 has atomic number  1 and mass   1.00783
 Atom    25 has atomic number  1 and mass   1.00783
 Atom    26 has atomic number  1 and mass   1.00783
 Molecular mass:   220.06997 amu.
 Principal axes and moments of inertia in atomic units:
                           1         2         3
     Eigenvalues --  2150.301723833.798045769.95305
           X            0.99832   0.03866  -0.04305
           Y           -0.03352   0.99288   0.11433
           Z            0.04717  -0.11269   0.99251
 This molecule is an asymmetric top.
 Rotational symmetry number  1.
 Warning -- assumption of classical behavior for rotation
           may cause significant error
 Rotational temperatures (Kelvin)      0.04028     0.02259     0.01501
 Rotational constants (GHZ):           0.83930     0.47074     0.31278
    1 imaginary frequencies ignored.
 Zero-point vibrational energy     502959.4 (Joules/Mol)
                                  120.21018 (Kcal/Mol)
 Warning -- explicit consideration of  23 degrees of freedom as
           vibrations may cause significant error
 Vibrational temperatures:     66.70   169.97   261.50   285.75   295.45
          (Kelvin)            308.71   428.43   446.67   480.98   487.54
                              510.71   642.81   677.73   689.77   720.44
                              735.69   757.36   761.79   805.48   814.85
                              850.14   864.85   871.37   989.29  1040.80
                             1059.52  1086.21  1101.47  1132.66  1210.99
                             1218.07  1306.35  1350.06  1356.83  1399.76
                             1408.00  1442.63  1457.35  1543.09  1560.47
                             1615.16  1626.25  1692.98  1715.18  1734.88
                             1759.42  1805.95  1874.70  1909.93  1927.17
                             1934.36  2004.24  2049.02  2053.67  2063.87
                             2070.44  2097.53  2238.68  2262.56  2313.07
                             2331.96  4289.38  4395.25  4456.47  4460.49
                             4486.75  4497.03  4513.83  4518.08  4522.42
                             5165.23
 
 Zero-point correction=                           0.191567 (Hartree/Particle)
 Thermal correction to Energy=                    0.203857
 Thermal correction to Enthalpy=                  0.204801
 Thermal correction to Gibbs Free Energy=         0.153585
 Sum of electronic and zero-point Energies=           -775.559437
 Sum of electronic and thermal Energies=              -775.547147
 Sum of electronic and thermal Enthalpies=            -775.546203
 Sum of electronic and thermal Free Energies=         -775.597419
 
                     E (Thermal)             CV                S
                      KCal/Mol        Cal/Mol-Kelvin    Cal/Mol-Kelvin
 Total                  127.922             51.527            107.794
 Electronic               0.000              0.000              0.000
 Translational            0.889              2.981             42.069
 Rotational               0.889              2.981             32.231
 Vibrational            126.145             45.565             33.494
 Vibration     1          0.595              1.979              4.967
 Vibration     2          0.608              1.934              3.131
 Vibration     3          0.630              1.865              2.310
 Vibration     4          0.637              1.842              2.146
 Vibration     5          0.640              1.832              2.085
 Vibration     6          0.644              1.819              2.004
 Vibration     7          0.691              1.678              1.429
 Vibration     8          0.699              1.654              1.360
 Vibration     9          0.716              1.607              1.239
 Vibration    10          0.719              1.598              1.218
 Vibration    11          0.731              1.565              1.144
 Vibration    12          0.806              1.368              0.806
 Vibration    13          0.828              1.314              0.735
 Vibration    14          0.836              1.296              0.712
 Vibration    15          0.856              1.248              0.656
 Vibration    16          0.866              1.225              0.630
 Vibration    17          0.881              1.192              0.595
 Vibration    18          0.884              1.185              0.588
 Vibration    19          0.915              1.118              0.524
 Vibration    20          0.922              1.104              0.511
 Vibration    21          0.948              1.051              0.466
 Vibration    22          0.959              1.029              0.448
 Vibration    23          0.964              1.020              0.440
                       Q            Log10(Q)             Ln(Q)
 Total Bot       0.226954D-70        -70.644062       -162.663965
 Total V=0       0.295538D+18         17.470613         40.227574
 Vib (Bot)       0.716385D-85        -85.144854       -196.053271
 Vib (Bot)    1  0.446041D+01          0.649375          1.495242
 Vib (Bot)    2  0.173059D+01          0.238195          0.548465
 Vib (Bot)    3  0.110442D+01          0.043133          0.099317
 Vib (Bot)    4  0.100452D+01          0.001958          0.004507
 Vib (Bot)    5  0.968999D+00         -0.013677         -0.031492
 Vib (Bot)    6  0.923951D+00         -0.034351         -0.079097
 Vib (Bot)    7  0.639462D+00         -0.194185         -0.447127
 Vib (Bot)    8  0.608923D+00         -0.215437         -0.496063
 Vib (Bot)    9  0.557437D+00         -0.253805         -0.584406
 Vib (Bot)   10  0.548374D+00         -0.260923         -0.600798
 Vib (Bot)   11  0.518087D+00         -0.285598         -0.657613
 Vib (Bot)   12  0.384832D+00         -0.414729         -0.954948
 Vib (Bot)   13  0.357770D+00         -0.446397         -1.027866
 Vib (Bot)   14  0.349030D+00         -0.457138         -1.052598
 Vib (Bot)   15  0.328011D+00         -0.484112         -1.114708
 Vib (Bot)   16  0.318176D+00         -0.497333         -1.145151
 Vib (Bot)   17  0.304839D+00         -0.515929         -1.187971
 Vib (Bot)   18  0.302202D+00         -0.519703         -1.196660
 Vib (Bot)   19  0.277664D+00         -0.556480         -1.281343
 Vib (Bot)   20  0.272730D+00         -0.564266         -1.299271
 Vib (Bot)   21  0.255076D+00         -0.593330         -1.366193
 Vib (Bot)   22  0.248130D+00         -0.605320         -1.393802
 Vib (Bot)   23  0.245120D+00         -0.610621         -1.406008
 Vib (V=0)       0.932872D+03          2.969822          6.838268
 Vib (V=0)    1  0.498835D+01          0.697957          1.607105
 Vib (V=0)    2  0.230138D+01          0.361988          0.833508
 Vib (V=0)    3  0.171233D+01          0.233587          0.537853
 Vib (V=0)    4  0.162208D+01          0.210071          0.483707
 Vib (V=0)    5  0.159039D+01          0.201505          0.463982
 Vib (V=0)    6  0.155056D+01          0.190490          0.438619
 Vib (V=0)    7  0.131173D+01          0.117846          0.271350
 Vib (V=0)    8  0.128790D+01          0.109882          0.253014
 Vib (V=0)    9  0.124882D+01          0.096501          0.222201
 Vib (V=0)   10  0.124210D+01          0.094157          0.216804
 Vib (V=0)   11  0.122001D+01          0.086363          0.198859
 Vib (V=0)   12  0.113095D+01          0.053443          0.123056
 Vib (V=0)   13  0.111482D+01          0.047203          0.108690
 Vib (V=0)   14  0.110977D+01          0.045234          0.104155
 Vib (V=0)   15  0.109799D+01          0.040598          0.093481
 Vib (V=0)   16  0.109265D+01          0.038482          0.088607
 Vib (V=0)   17  0.108560D+01          0.035670          0.082133
 Vib (V=0)   18  0.108423D+01          0.035122          0.080871
 Vib (V=0)   19  0.107192D+01          0.030164          0.069455
 Vib (V=0)   20  0.106955D+01          0.029199          0.067234
 Vib (V=0)   21  0.106131D+01          0.025840          0.059500
 Vib (V=0)   22  0.105818D+01          0.024561          0.056554
 Vib (V=0)   23  0.105685D+01          0.024014          0.055294
 Electronic      0.100000D+01          0.000000          0.000000
 Translational   0.128320D+09          8.108295         18.670039
 Rotational      0.246886D+07          6.392496         14.719266
 -------------------------------------------------------------------
 Center     Atomic                   Forces (Hartrees/Bohr)
 Number     Number              X              Y              Z
 -------------------------------------------------------------------
      1        6           0.000003073   -0.000001345    0.000001852
      2        6           0.000001404    0.000000087    0.000000170
      3        6          -0.000000420   -0.000000380   -0.000000163
      4        6           0.000000179   -0.000000038    0.000000347
      5        6          -0.000000014   -0.000000311    0.000000479
      6        6           0.000000286   -0.000000366   -0.000001076
      7        9           0.000003027   -0.000000188    0.000003219
      8        6          -0.000001282   -0.000002238    0.000000827
      9        6           0.000000820    0.000000233    0.000000131
     10        6           0.000000056    0.000000704   -0.000000339
     11        8          -0.000002307   -0.000000527   -0.000000156
     12        6           0.000000078    0.000000219   -0.000000276
     13        6          -0.000000000    0.000000569   -0.000000129
     14        6           0.000000208    0.000000228   -0.000000408
     15        6          -0.000000147    0.000000527   -0.000000531
     16        9          -0.000008829    0.000002571   -0.000004081
     17        1           0.000000316    0.000000336    0.000000476
     18        1           0.000002361    0.000000174    0.000000917
     19        1           0.000000970   -0.000000911   -0.000000119
     20        1          -0.000000232   -0.000000325    0.000000065
     21        1           0.000000075   -0.000000321    0.000000481
     22        1           0.000000222   -0.000000303    0.000000536
     23        1           0.000000027    0.000000431   -0.000001070
     24        1           0.000000307    0.000000436   -0.000000092
     25        1          -0.000000038    0.000000447   -0.000000491
     26        1          -0.000000139    0.000000291   -0.000000570
 -------------------------------------------------------------------
 Cartesian Forces:  Max     0.000008829 RMS     0.000001465
 FormGI is forming the generalized inverse of G from B-inverse, IUseBI=4.

 GradGradGradGradGradGradGradGradGradGradGradGradGradGradGradGradGradGrad
 Berny optimization.
 Internal  Forces:  Max     0.000021929 RMS     0.000004244
 Search for a saddle point.
 Step number   1 out of a maximum of    2
 All quantities printed in internal units (Hartrees-Bohrs-Radians)
 Swapping is turned off.
 Second derivative matrix not updated -- analytic derivatives used.
 ITU=  0
     Eigenvalues ---   -0.02537   0.00353   0.00711   0.01101   0.01447
     Eigenvalues ---    0.01565   0.01579   0.01628   0.01712   0.01753
     Eigenvalues ---    0.01851   0.02125   0.02157   0.02254   0.02321
     Eigenvalues ---    0.02595   0.02849   0.02911   0.03049   0.03888
     Eigenvalues ---    0.05151   0.05471   0.05511   0.09864   0.09902
     Eigenvalues ---    0.10609   0.10810   0.10981   0.11144   0.11580
     Eigenvalues ---    0.13192   0.14088   0.14688   0.16282   0.16443
     Eigenvalues ---    0.17035   0.17618   0.17867   0.18142   0.18670
     Eigenvalues ---    0.19485   0.19727   0.22800   0.25361   0.26645
     Eigenvalues ---    0.27385   0.29364   0.31522   0.32298   0.32774
     Eigenvalues ---    0.33044   0.33629   0.34026   0.34354   0.34498
     Eigenvalues ---    0.34522   0.34802   0.34902   0.35006   0.35766
     Eigenvalues ---    0.39914   0.40443   0.43562   0.44620   0.45849
     Eigenvalues ---    0.46310   0.47515   0.49100   0.49421   0.51378
     Eigenvalues ---    0.87640   2.26693
 Eigenvectors required to have negative eigenvalues:
                          D31       D32       D33       D34       D43
   1                   -0.46004  -0.44653  -0.39380  -0.38029   0.17530
                          D40       D2        D4        D44       D6
   1                   -0.15520   0.15206   0.14986   0.14939   0.14145
 Angle between quadratic step and forces=  80.04 degrees.
 Linear search not attempted -- option 19 set.
 Iteration  1 RMS(Cart)=  0.00006375 RMS(Int)=  0.00000000
 Iteration  2 RMS(Cart)=  0.00000000 RMS(Int)=  0.00000000
 Variable       Old X    -DE/DX   Delta X   Delta X   Delta X     New X
                                 (Linear)    (Quad)   (Total)
    R1        2.87560  -0.00000   0.00000  -0.00000  -0.00000   2.87560
    R2        2.09531  -0.00000   0.00000  -0.00000  -0.00000   2.09531
    R3        2.09111   0.00000   0.00000  -0.00000  -0.00000   2.09111
    R4        2.08467   0.00000   0.00000   0.00000   0.00000   2.08468
    R5        2.67091  -0.00000   0.00000   0.00000   0.00000   2.67091
    R6        2.75551  -0.00001   0.00000   0.00000   0.00000   2.75551
    R7        2.64254   0.00000   0.00000  -0.00000  -0.00000   2.64254
    R8        2.08212   0.00000   0.00000  -0.00000  -0.00000   2.08212
    R9        2.64026   0.00000   0.00000  -0.00000  -0.00000   2.64026
   R10        2.07861   0.00000   0.00000   0.00000   0.00000   2.07861
   R11        2.63198   0.00000   0.00000   0.00000   0.00000   2.63198
   R12        2.07773   0.00000   0.00000  -0.00000  -0.00000   2.07773
   R13        2.61551   0.00000   0.00000  -0.00000  -0.00000   2.61551
   R14        2.70442  -0.00000   0.00000  -0.00000  -0.00000   2.70441
   R15        2.84483  -0.00001   0.00000   0.00000   0.00000   2.84483
   R16        2.75990  -0.00000   0.00000  -0.00000  -0.00000   2.75990
   R17        2.71212  -0.00001   0.00000  -0.00000  -0.00000   2.71212
   R18        2.55428   0.00000   0.00000  -0.00000  -0.00000   2.55428
   R19        2.67739   0.00000   0.00000   0.00000   0.00000   2.67739
   R20        1.85118   0.00000   0.00000   0.00000   0.00000   1.85118
   R21        2.62831   0.00000   0.00000   0.00000   0.00000   2.62831
   R22        2.07720  -0.00000   0.00000  -0.00000  -0.00000   2.07720
   R23        2.64538   0.00000   0.00000   0.00000   0.00000   2.64538
   R24        2.07945  -0.00000   0.00000  -0.00000  -0.00000   2.07945
   R25        2.63636  -0.00000   0.00000  -0.00000  -0.00000   2.63636
   R26        2.07672  -0.00000   0.00000  -0.00000  -0.00000   2.07672
   R27        2.55159   0.00001   0.00000   0.00000   0.00000   2.55159
    A1        1.87215   0.00000   0.00000   0.00001   0.00001   1.87215
    A2        1.98776  -0.00000   0.00000   0.00001   0.00001   1.98777
    A3        1.96539  -0.00000   0.00000  -0.00001  -0.00001   1.96538
    A4        1.87522   0.00000   0.00000   0.00000   0.00000   1.87522
    A5        1.87571   0.00000   0.00000   0.00000   0.00000   1.87571
    A6        1.88253  -0.00000   0.00000  -0.00000  -0.00000   1.88253
    A7        1.96856   0.00001   0.00000  -0.00000  -0.00000   1.96856
    A8        2.21716  -0.00001   0.00000   0.00000   0.00000   2.21716
    A9        2.08594  -0.00000   0.00000   0.00000   0.00000   2.08594
   A10        2.15997  -0.00000   0.00000   0.00000   0.00000   2.15997
   A11        2.04434   0.00000   0.00000   0.00000   0.00000   2.04434
   A12        2.07646   0.00000   0.00000  -0.00000  -0.00000   2.07645
   A13        2.04291   0.00000   0.00000   0.00000   0.00000   2.04291
   A14        2.11885  -0.00000   0.00000  -0.00000  -0.00000   2.11885
   A15        2.11577  -0.00000   0.00000  -0.00000  -0.00000   2.11577
   A16        2.06385  -0.00000   0.00000   0.00000   0.00000   2.06385
   A17        2.15036   0.00000   0.00000   0.00000   0.00000   2.15036
   A18        2.06778   0.00000   0.00000  -0.00000  -0.00000   2.06778
   A19        1.97345   0.00001   0.00000  -0.00001  -0.00001   1.97345
   A20        2.21334  -0.00000   0.00000   0.00000   0.00000   2.21334
   A21        2.09430  -0.00000   0.00000   0.00000   0.00000   2.09430
   A22        1.92837   0.00001   0.00000   0.00001   0.00001   1.92838
   A23        2.22857  -0.00002   0.00000  -0.00002  -0.00002   2.22855
   A24        2.12623   0.00001   0.00000   0.00001   0.00001   2.12625
   A25        2.18642   0.00001   0.00000   0.00001   0.00001   2.18643
   A26        2.15472  -0.00002   0.00000  -0.00001  -0.00001   2.15471
   A27        1.93336   0.00001   0.00000   0.00000   0.00000   1.93336
   A28        2.20705  -0.00000   0.00000  -0.00000  -0.00000   2.20705
   A29        2.12277  -0.00000   0.00000  -0.00000  -0.00000   2.12276
   A30        1.94988   0.00001   0.00000   0.00000   0.00000   1.94989
   A31        1.94621  -0.00000   0.00000  -0.00001  -0.00001   1.94620
   A32        2.13241  -0.00000   0.00000   0.00000   0.00000   2.13241
   A33        2.02212   0.00000   0.00000   0.00000   0.00000   2.02212
   A34        2.12742   0.00000   0.00000  -0.00000  -0.00000   2.12742
   A35        2.06216   0.00000   0.00000   0.00000   0.00000   2.06217
   A36        2.10976  -0.00000   0.00000  -0.00000  -0.00000   2.10976
   A37        2.10996  -0.00000   0.00000  -0.00000  -0.00000   2.10996
   A38        2.07882  -0.00000   0.00000  -0.00000  -0.00000   2.07882
   A39        2.14691   0.00000   0.00000   0.00000   0.00000   2.14691
   A40        2.05601   0.00000   0.00000   0.00000   0.00000   2.05601
   A41        2.20385  -0.00000   0.00000   0.00000   0.00000   2.20385
   A42        2.09728  -0.00001   0.00000  -0.00001  -0.00001   2.09727
   A43        1.98046   0.00001   0.00000   0.00001   0.00001   1.98047
    D1       -0.52337  -0.00000   0.00000   0.00011   0.00011  -0.52325
    D2        2.45322   0.00000   0.00000   0.00013   0.00013   2.45335
    D3        1.54919   0.00000   0.00000   0.00013   0.00013   1.54931
    D4       -1.75741   0.00000   0.00000   0.00014   0.00014  -1.75727
    D5       -2.58343  -0.00000   0.00000   0.00011   0.00011  -2.58332
    D6        0.39316   0.00000   0.00000   0.00013   0.00013   0.39329
    D7        2.83963   0.00000   0.00000   0.00004   0.00004   2.83967
    D8       -0.22629   0.00000   0.00000   0.00002   0.00002  -0.22626
    D9       -0.15071   0.00000   0.00000   0.00002   0.00002  -0.15069
   D10        3.06655   0.00000   0.00000   0.00001   0.00001   3.06657
   D11       -2.60187  -0.00000   0.00000  -0.00005  -0.00005  -2.60193
   D12        0.53645  -0.00000   0.00000  -0.00008  -0.00008   0.53638
   D13        0.36481  -0.00000   0.00000  -0.00004  -0.00004   0.36477
   D14       -2.78004  -0.00000   0.00000  -0.00006  -0.00006  -2.78010
   D15       -0.12540   0.00000   0.00000   0.00001   0.00001  -0.12540
   D16        3.12899  -0.00000   0.00000  -0.00000  -0.00000   3.12899
   D17        2.93921   0.00000   0.00000   0.00002   0.00002   2.93923
   D18       -0.08958   0.00000   0.00000   0.00001   0.00001  -0.08957
   D19        0.14332  -0.00000   0.00000  -0.00002  -0.00002   0.14331
   D20       -2.94478  -0.00000   0.00000  -0.00002  -0.00002  -2.94480
   D21       -3.11086  -0.00000   0.00000  -0.00001  -0.00001  -3.11087
   D22        0.08422  -0.00000   0.00000  -0.00001  -0.00001   0.08421
   D23       -2.94947  -0.00000   0.00000  -0.00002  -0.00002  -2.94949
   D24        0.12188  -0.00000   0.00000  -0.00001  -0.00001   0.12187
   D25        0.14121  -0.00000   0.00000  -0.00002  -0.00002   0.14119
   D26       -3.07063  -0.00000   0.00000  -0.00000  -0.00000  -3.07063
   D27       -0.36963   0.00000   0.00000   0.00003   0.00003  -0.36960
   D28        2.77500   0.00000   0.00000   0.00005   0.00005   2.77505
   D29        2.69733   0.00000   0.00000   0.00005   0.00005   2.69738
   D30       -0.44122   0.00000   0.00000   0.00007   0.00007  -0.44115
   D31        2.96159  -0.00000   0.00000   0.00005   0.00005   2.96164
   D32       -0.02550  -0.00000   0.00000   0.00002   0.00002  -0.02548
   D33       -0.18360  -0.00000   0.00000   0.00002   0.00002  -0.18357
   D34        3.11249  -0.00000   0.00000   0.00000   0.00000   3.11249
   D35       -0.22109   0.00000   0.00000  -0.00001  -0.00001  -0.22111
   D36        3.01779   0.00000   0.00000  -0.00002  -0.00002   3.01777
   D37        2.78275   0.00000   0.00000   0.00001   0.00001   2.78276
   D38       -0.26155   0.00000   0.00000   0.00000   0.00000  -0.26155
   D39       -3.02108   0.00000   0.00000   0.00002   0.00002  -3.02106
   D40        0.18522  -0.00000   0.00000   0.00002   0.00002   0.18524
   D41        0.25529  -0.00000   0.00000  -0.00000  -0.00000   0.25529
   D42       -2.82159  -0.00000   0.00000  -0.00000  -0.00000  -2.82160
   D43        0.57090   0.00000   0.00000  -0.00003  -0.00003   0.57087
   D44       -2.65984   0.00000   0.00000  -0.00003  -0.00003  -2.65987
   D45        0.13066  -0.00000   0.00000   0.00000   0.00000   0.13066
   D46       -3.06352  -0.00000   0.00000   0.00000   0.00000  -3.06352
   D47       -2.92673  -0.00000   0.00000  -0.00000  -0.00000  -2.92674
   D48        0.16227  -0.00000   0.00000  -0.00000  -0.00000   0.16227
   D49        0.04923  -0.00000   0.00000  -0.00000  -0.00000   0.04923
   D50        3.13658   0.00000   0.00000   0.00000   0.00000   3.13658
   D51       -3.03662  -0.00000   0.00000  -0.00000  -0.00000  -3.03662
   D52        0.05073   0.00000   0.00000   0.00000   0.00000   0.05073
   D53       -0.06695   0.00000   0.00000   0.00000   0.00000  -0.06695
   D54        3.01564   0.00000   0.00000   0.00000   0.00000   3.01564
   D55        3.12889  -0.00000   0.00000  -0.00000  -0.00000   3.12889
   D56       -0.07171   0.00000   0.00000  -0.00000  -0.00000  -0.07171
   D57       -0.10101   0.00000   0.00000   0.00000   0.00000  -0.10101
   D58        2.97960   0.00000   0.00000   0.00000   0.00000   2.97960
   D59        3.09652   0.00000   0.00000   0.00000   0.00000   3.09652
   D60       -0.10606   0.00000   0.00000   0.00000   0.00000  -0.10606
         Item               Value     Threshold  Converged?
 Maximum Force            0.000022     0.000450     YES
 RMS     Force            0.000004     0.000300     YES
 Maximum Displacement     0.000293     0.001800     YES
 RMS     Displacement     0.000064     0.001200     YES
 Predicted change in Energy=-1.507736D-09
 Optimization completed.
    -- Stationary point found.
                           ----------------------------
                           !   Optimized Parameters   !
                           ! (Angstroms and Degrees)  !
 --------------------------                            --------------------------
 ! Name  Definition              Value          Derivative Info.                !
 --------------------------------------------------------------------------------
 ! R1    R(1,2)                  1.5217         -DE/DX =    0.0                 !
 ! R2    R(1,17)                 1.1088         -DE/DX =    0.0                 !
 ! R3    R(1,18)                 1.1066         -DE/DX =    0.0                 !
 ! R4    R(1,19)                 1.1032         -DE/DX =    0.0                 !
 ! R5    R(2,3)                  1.4134         -DE/DX =    0.0                 !
 ! R6    R(2,8)                  1.4582         -DE/DX =    0.0                 !
 ! R7    R(3,4)                  1.3984         -DE/DX =    0.0                 !
 ! R8    R(3,20)                 1.1018         -DE/DX =    0.0                 !
 ! R9    R(4,5)                  1.3972         -DE/DX =    0.0                 !
 ! R10   R(4,21)                 1.1            -DE/DX =    0.0                 !
 ! R11   R(5,6)                  1.3928         -DE/DX =    0.0                 !
 ! R12   R(5,22)                 1.0995         -DE/DX =    0.0                 !
 ! R13   R(6,7)                  1.3841         -DE/DX =    0.0                 !
 ! R14   R(6,8)                  1.4311         -DE/DX =    0.0                 !
 ! R15   R(8,9)                  1.5054         -DE/DX =    0.0                 !
 ! R16   R(9,10)                 1.4605         -DE/DX =    0.0                 !
 ! R17   R(9,15)                 1.4352         -DE/DX =    0.0                 !
 ! R18   R(10,11)                1.3517         -DE/DX =    0.0                 !
 ! R19   R(10,12)                1.4168         -DE/DX =    0.0                 !
 ! R20   R(11,23)                0.9796         -DE/DX =    0.0                 !
 ! R21   R(12,13)                1.3908         -DE/DX =    0.0                 !
 ! R22   R(12,24)                1.0992         -DE/DX =    0.0                 !
 ! R23   R(13,14)                1.3999         -DE/DX =    0.0                 !
 ! R24   R(13,25)                1.1004         -DE/DX =    0.0                 !
 ! R25   R(14,15)                1.3951         -DE/DX =    0.0                 !
 ! R26   R(14,26)                1.099          -DE/DX =    0.0                 !
 ! R27   R(15,16)                1.3502         -DE/DX =    0.0                 !
 ! A1    A(2,1,17)             107.266          -DE/DX =    0.0                 !
 ! A2    A(2,1,18)             113.8903         -DE/DX =    0.0                 !
 ! A3    A(2,1,19)             112.6087         -DE/DX =    0.0                 !
 ! A4    A(17,1,18)            107.4419         -DE/DX =    0.0                 !
 ! A5    A(17,1,19)            107.4701         -DE/DX =    0.0                 !
 ! A6    A(18,1,19)            107.8611         -DE/DX =    0.0                 !
 ! A7    A(1,2,3)              112.7899         -DE/DX =    0.0                 !
 ! A8    A(1,2,8)              127.034          -DE/DX =    0.0                 !
 ! A9    A(3,2,8)              119.5158         -DE/DX =    0.0                 !
 ! A10   A(2,3,4)              123.7572         -DE/DX =    0.0                 !
 ! A11   A(2,3,20)             117.1319         -DE/DX =    0.0                 !
 ! A12   A(4,3,20)             118.9721         -DE/DX =    0.0                 !
 ! A13   A(3,4,5)              117.0498         -DE/DX =    0.0                 !
 ! A14   A(3,4,21)             121.4012         -DE/DX =    0.0                 !
 ! A15   A(5,4,21)             121.2247         -DE/DX =    0.0                 !
 ! A16   A(4,5,6)              118.2498         -DE/DX =    0.0                 !
 ! A17   A(4,5,22)             123.2065         -DE/DX =    0.0                 !
 ! A18   A(6,5,22)             118.475          -DE/DX =    0.0                 !
 ! A19   A(5,6,7)              113.0704         -DE/DX =    0.0                 !
 ! A20   A(5,6,8)              126.8151         -DE/DX =    0.0                 !
 ! A21   A(7,6,8)              119.9943         -DE/DX =    0.0                 !
 ! A22   A(2,8,6)              110.4877         -DE/DX =    0.0                 !
 ! A23   A(2,8,9)              127.6879         -DE/DX =    0.0                 !
 ! A24   A(6,8,9)              121.8242         -DE/DX =    0.0                 !
 ! A25   A(8,9,10)             125.2726         -DE/DX =    0.0                 !
 ! A26   A(8,9,15)             123.4563         -DE/DX =    0.0                 !
 ! A27   A(10,9,15)            110.7731         -DE/DX =    0.0                 !
 ! A28   A(9,10,11)            126.4545         -DE/DX =    0.0                 !
 ! A29   A(9,10,12)            121.6257         -DE/DX =    0.0                 !
 ! A30   A(11,10,12)           111.72           -DE/DX =    0.0                 !
 ! A31   A(10,11,23)           111.5097         -DE/DX =    0.0                 !
 ! A32   A(10,12,13)           122.1782         -DE/DX =    0.0                 !
 ! A33   A(10,12,24)           115.8587         -DE/DX =    0.0                 !
 ! A34   A(13,12,24)           121.892          -DE/DX =    0.0                 !
 ! A35   A(12,13,14)           118.1533         -DE/DX =    0.0                 !
 ! A36   A(12,13,25)           120.8805         -DE/DX =    0.0                 !
 ! A37   A(14,13,25)           120.8918         -DE/DX =    0.0                 !
 ! A38   A(13,14,15)           119.1079         -DE/DX =    0.0                 !
 ! A39   A(13,14,26)           123.0089         -DE/DX =    0.0                 !
 ! A40   A(15,14,26)           117.8006         -DE/DX =    0.0                 !
 ! A41   A(9,15,14)            126.2712         -DE/DX =    0.0                 !
 ! A42   A(9,15,16)            120.1654         -DE/DX =    0.0                 !
 ! A43   A(14,15,16)           113.4723         -DE/DX =    0.0                 !
 ! D1    D(17,1,2,3)           -29.9868         -DE/DX =    0.0                 !
 ! D2    D(17,1,2,8)           140.5593         -DE/DX =    0.0                 !
 ! D3    D(18,1,2,3)            88.7618         -DE/DX =    0.0                 !
 ! D4    D(18,1,2,8)          -100.6921         -DE/DX =    0.0                 !
 ! D5    D(19,1,2,3)          -148.0198         -DE/DX =    0.0                 !
 ! D6    D(19,1,2,8)            22.5263         -DE/DX =    0.0                 !
 ! D7    D(1,2,3,4)            162.6989         -DE/DX =    0.0                 !
 ! D8    D(1,2,3,20)           -12.9654         -DE/DX =    0.0                 !
 ! D9    D(8,2,3,4)             -8.635          -DE/DX =    0.0                 !
 ! D10   D(8,2,3,20)           175.7006         -DE/DX =    0.0                 !
 ! D11   D(1,2,8,6)           -149.0764         -DE/DX =    0.0                 !
 ! D12   D(1,2,8,9)             30.7365         -DE/DX =    0.0                 !
 ! D13   D(3,2,8,6)             20.9023         -DE/DX =    0.0                 !
 ! D14   D(3,2,8,9)           -159.2848         -DE/DX =    0.0                 !
 ! D15   D(2,3,4,5)             -7.185          -DE/DX =    0.0                 !
 ! D16   D(2,3,4,21)           179.2781         -DE/DX =    0.0                 !
 ! D17   D(20,3,4,5)           168.4043         -DE/DX =    0.0                 !
 ! D18   D(20,3,4,21)           -5.1325         -DE/DX =    0.0                 !
 ! D19   D(3,4,5,6)              8.2117         -DE/DX =    0.0                 !
 ! D20   D(3,4,5,22)          -168.7234         -DE/DX =    0.0                 !
 ! D21   D(21,4,5,6)          -178.2393         -DE/DX =    0.0                 !
 ! D22   D(21,4,5,22)            4.8256         -DE/DX =    0.0                 !
 ! D23   D(4,5,6,7)           -168.9921         -DE/DX =    0.0                 !
 ! D24   D(4,5,6,8)              6.9832         -DE/DX =    0.0                 !
 ! D25   D(22,5,6,7)             8.0907         -DE/DX =    0.0                 !
 ! D26   D(22,5,6,8)          -175.934          -DE/DX =    0.0                 !
 ! D27   D(5,6,8,2)            -21.1785         -DE/DX =    0.0                 !
 ! D28   D(5,6,8,9)            158.9958         -DE/DX =    0.0                 !
 ! D29   D(7,6,8,2)            154.5457         -DE/DX =    0.0                 !
 ! D30   D(7,6,8,9)            -25.2801         -DE/DX =    0.0                 !
 ! D31   D(2,8,9,10)           169.6869         -DE/DX =    0.0                 !
 ! D32   D(2,8,9,15)            -1.461          -DE/DX =    0.0                 !
 ! D33   D(6,8,9,10)           -10.5194         -DE/DX =    0.0                 !
 ! D34   D(6,8,9,15)           178.3328         -DE/DX =    0.0                 !
 ! D35   D(8,9,10,11)          -12.6678         -DE/DX =    0.0                 !
 ! D36   D(8,9,10,12)          172.9065         -DE/DX =    0.0                 !
 ! D37   D(15,9,10,11)         159.4398         -DE/DX =    0.0                 !
 ! D38   D(15,9,10,12)         -14.986          -DE/DX =    0.0                 !
 ! D39   D(8,9,15,14)         -173.0949         -DE/DX =    0.0                 !
 ! D40   D(8,9,15,16)           10.6126         -DE/DX =    0.0                 !
 ! D41   D(10,9,15,14)          14.6273         -DE/DX =    0.0                 !
 ! D42   D(10,9,15,16)        -161.6653         -DE/DX =    0.0                 !
 ! D43   D(9,10,11,23)          32.7102         -DE/DX =    0.0                 !
 ! D44   D(12,10,11,23)       -152.3977         -DE/DX =    0.0                 !
 ! D45   D(9,10,12,13)           7.4863         -DE/DX =    0.0                 !
 ! D46   D(9,10,12,24)        -175.5268         -DE/DX =    0.0                 !
 ! D47   D(11,10,12,13)       -167.6895         -DE/DX =    0.0                 !
 ! D48   D(11,10,12,24)          9.2975         -DE/DX =    0.0                 !
 ! D49   D(10,12,13,14)          2.8208         -DE/DX =    0.0                 !
 ! D50   D(10,12,13,25)        179.7129         -DE/DX =    0.0                 !
 ! D51   D(24,12,13,14)       -173.9856         -DE/DX =    0.0                 !
 ! D52   D(24,12,13,25)          2.9065         -DE/DX =    0.0                 !
 ! D53   D(12,13,14,15)         -3.836          -DE/DX =    0.0                 !
 ! D54   D(12,13,14,26)        172.7833         -DE/DX =    0.0                 !
 ! D55   D(25,13,14,15)        179.2722         -DE/DX =    0.0                 !
 ! D56   D(25,13,14,26)         -4.1084         -DE/DX =    0.0                 !
 ! D57   D(13,14,15,9)          -5.7873         -DE/DX =    0.0                 !
 ! D58   D(13,14,15,16)        170.7184         -DE/DX =    0.0                 !
 ! D59   D(26,14,15,9)         177.4174         -DE/DX =    0.0                 !
 ! D60   D(26,14,15,16)         -6.0769         -DE/DX =    0.0                 !
 --------------------------------------------------------------------------------
 GradGradGradGradGradGradGradGradGradGradGradGradGradGradGradGradGradGrad


 ----------------------------------------------------------------------

 Electric dipole moment (input orientation):
 (Debye = 10**-18 statcoulomb cm , SI units = C m)
                  (au)            (Debye)         (10**-30 SI)
   Tot        0.628367D+00      0.159715D+01      0.532752D+01
   x         -0.538870D+00     -0.136967D+01     -0.456873D+01
   y          0.251029D+00      0.638052D+00      0.212831D+01
   z         -0.203590D+00     -0.517474D+00     -0.172611D+01

 Dipole polarizability, Alpha (input orientation).
 (esu units = cm**3 , SI units = C**2 m**2 J**-1)
 Alpha(0;0):
               (au)            (10**-24 esu)      (10**-40 SI)
   iso        0.157859D+03      0.233923D+02      0.260274D+02
   aniso      0.147617D+03      0.218746D+02      0.243388D+02
   xx         0.239266D+03      0.354556D+02      0.394497D+02
   yx        -0.506027D+01     -0.749855D+00     -0.834326D+00
   yy         0.162394D+03      0.240644D+02      0.267752D+02
   zx        -0.318151D+01     -0.471451D+00     -0.524560D+00
   zy        -0.145240D+02     -0.215223D+01     -0.239468D+01
   zz         0.719160D+02      0.106568D+02      0.118573D+02

 ----------------------------------------------------------------------

 Dipole orientation:
     6          2.34233606         -2.69214788          4.40957225
     6          0.27204940         -0.82575234          3.70278793
     6         -1.42100186         -0.34861661          5.71268807
     6         -3.05393186          1.72735977          5.79567428
     6         -2.77354830          3.55175859          3.90783643
     6         -1.14159329          3.03503127          1.90858369
     9         -0.66128541          5.12501080          0.41118971
     6          0.12135258          0.69605213          1.41057881
     6          1.10898697          0.04573872         -1.17683415
     6          0.56154351          1.44743407         -3.49040259
     8         -1.23377206          3.23940703         -3.79041304
     6          1.78786267          0.87687670         -5.80103872
     6          3.35489859         -1.21538126         -6.07462309
     6          3.62218883         -2.85259932         -4.01401616
     6          2.44155925         -2.24948005         -1.73525549
     9          2.52135428         -4.13580913         -0.01886030
     1          2.70015504         -2.47590842          6.46274510
     1          1.83242716         -4.69139384          4.06934662
     1          4.13642392         -2.31225354          3.41821768
     1         -1.33372935         -1.62929238          7.35203622
     1         -4.35880235          2.01590879          7.38773875
     1         -3.70537890          5.40772121          3.97162794
     1         -1.49443540          4.20639741         -2.23354496
     1          1.34871293          2.13492415         -7.39453222
     1          4.28046911         -1.62536213         -7.89103294
     1          4.64155136         -4.65830270         -4.12853928

 Electric dipole moment (dipole orientation):
 (Debye = 10**-18 statcoulomb cm , SI units = C m)
                  (au)            (Debye)         (10**-30 SI)
   Tot        0.628367D+00      0.159715D+01      0.532752D+01
   x          0.000000D+00      0.000000D+00      0.000000D+00
   y          0.000000D+00      0.000000D+00      0.000000D+00
   z          0.628367D+00      0.159715D+01      0.532752D+01

 Dipole polarizability, Alpha (dipole orientation).
 (esu units = cm**3 , SI units = C**2 m**2 J**-1)
 Alpha(0;0):
               (au)            (10**-24 esu)      (10**-40 SI)
   iso        0.157859D+03      0.233923D+02      0.260274D+02
   aniso      0.147617D+03      0.218746D+02      0.243388D+02
   xx         0.118752D+03      0.175973D+02      0.195796D+02
   yx        -0.471162D+02     -0.698191D+01     -0.776842D+01
   yy         0.139935D+03      0.207362D+02      0.230721D+02
   zx        -0.499088D+02     -0.739572D+01     -0.822885D+01
   zy        -0.112362D+01     -0.166503D+00     -0.185260D+00
   zz         0.214889D+03      0.318433D+02      0.354305D+02

 ----------------------------------------------------------------------

 Test job not archived.
 1\1\GINC-SEMLSCPN055\Freq\RBP86\def2SVP\C13H10F2O1\KTVF206\23-Jul-2026
 \0\\#N Geom=AllCheck Guess=TCheck SCRF=Check Test GenChk RBP86/def2SVP
  Freq\\example\\0,1\C,-1.0814542754,2.5058283324,-1.2498743943\C,-1.50
 32871094,1.2043287039,-0.5837442765\C,-2.8790016156,1.1753462638,-0.26
 08954333\C,-3.5850521707,0.0031563157,0.0270446764\C,-2.9121921388,-1.
 206602689,-0.1622041186\C,-1.5502605507,-1.1653096503,-0.4507827689\F,
 -1.043922325,-2.3887508956,-0.8538459174\C,-0.7068938008,-0.0091184614
 ,-0.4440656721\C,0.7886712047,-0.1182205607,-0.3111646444\C,1.51787328
 87,-1.3346115342,0.0376141165\O,0.9863181472,-2.4778310123,0.524950982
 3\C,2.9330621592,-1.3896370732,-0.0021165859\C,3.7123361031,-0.2591856
 467,-0.2240329365\C,3.0642764569,0.9749774239,-0.3525149302\C,1.669842
 2607,1.0143666242,-0.3349370552\F,1.167992583,2.2660226133,-0.26665347
 83\H,-1.9586356941,2.8882352179,-1.8099909042\H,-0.7732542237,3.294511
 5524,-0.537494712\H,-0.261547546,2.3651159529,-1.9743854511\H,-3.42705
 9035,2.1298731763,-0.3108322077\H,-4.6540111934,0.0267615814,0.2852409
 774\H,-3.4144792953,-2.1844576799,-0.142625658\H,0.086072603,-2.634424
 3386,0.1718881778\H,3.3806333157,-2.3721212405,0.2044265252\H,4.810505
 7804,-0.3256420561,-0.2459643834\H,3.6032950714,1.9307030805,-0.413742
 9274\\Version=ES64L-G16RevC.02\HF=-775.7510042\RMSD=6.777e-09\RMSF=1.4
 65e-06\ZeroPoint=0.1915671\Thermal=0.2038573\ETot=-775.5471469\HTot=-7
 75.5462027\GTot=-775.5974193\Dipole=-0.5388702,0.2510288,-0.2035901\Di
 poleDeriv=0.0557378,-0.0017542,0.0437547,-0.0318921,-0.0829004,0.04577
 48,-0.0099583,-0.0040135,0.0850121,-0.0920371,0.1190339,-0.115016,-0.0
 325258,0.2345438,-0.1415572,-0.1333053,-0.1907191,0.008334,-0.0568867,
 -0.1942021,0.0564706,-0.0933156,-0.0191671,0.0059821,0.0327772,0.05723
 95,-0.1547937,-0.0559381,-0.0002564,-0.0742285,-0.0046951,0.1062619,-0
 .01795,-0.0663692,-0.0130384,-0.082151,-0.1644079,0.1164606,0.0283415,
 0.031441,-0.0972397,0.0372232,0.0481809,-0.0211436,-0.1332355,0.253382
 3,-0.1882534,-0.1587269,-0.1560281,0.8235766,0.2385252,-0.2104961,0.29
 13347,0.116038,-0.4281639,0.2567885,0.0379159,0.210257,-0.838758,-0.17
 61349,-0.1604321,-0.2212733,-0.1913913,0.6042876,-0.1435261,0.1001365,
 0.0425072,-0.1478313,0.0091611,0.3019218,0.0241732,-0.0193542,-0.34341
 44,0.0705241,-0.0250477,-0.071724,-0.2414759,0.0349802,0.1223408,0.079
 2457,-0.0562695,0.3748335,0.4776335,-0.2068125,-0.0410018,0.8712985,-0
 .3123396,-0.1303255,-0.3852741,0.2054961,-0.5289388,-0.4872052,0.15479
 28,-0.1935312,-1.010224,0.2177511,-0.0006743,0.372906,-0.4157083,-0.20
 17966,-0.3747176,0.1025059,-0.013845,-0.1139928,-0.018592,0.0654512,-0
 .0454802,-0.1488019,0.0458102,0.015044,-0.0321566,-0.1491625,0.3402807
 ,-0.0820299,-0.0574983,-0.0680366,-0.0896727,-0.4820408,0.2956609,-0.0
 289406,0.1082894,-0.1832299,0.0354385,0.0198111,0.0049957,-0.1630242,0
 .7260722,-0.3576814,0.0075547,0.1455917,0.9041629,0.0315051,-0.1014041
 ,0.075367,0.0598101,-0.3487286,0.3191493,-0.0387451,0.1824907,-0.90331
 67,0.0149264,-0.0612177,-0.0188649,-0.0952009,-0.0671343,0.0556971,-0.
 0803144,0.0224002,0.0092772,0.0411863,-0.0557892,0.0765478,0.0149049,0
 .0996163,-0.0848819,0.0021847,-0.0509802,-0.0404552,-0.0204209,-0.0105
 401,-0.0448867,0.0025622,0.0150098,-0.0186828,0.0883935,0.0295762,0.01
 77767,-0.0190979,0.0735338,0.0188089,0.0044121,0.0373662,0.0570726,0.0
 026214,0.0846253,-0.0469754,0.0090458,0.0200061,0.0584318,0.0963254,-0
 .0625376,-0.0028802,0.0505057,0.0025758,0.0749149,0.0036315,0.0383643,
 0.0022544,0.1082135,0.0762637,-0.0271611,0.0085381,-0.0460785,-0.00832
 28,0.0002234,0.0359796,-0.0363498,0.1341197,0.5254872,0.0906392,0.0696
 592,0.0097666,0.3070609,0.0191911,0.2046645,-0.0661043,0.3401883,0.049
 7726,0.0198498,-0.0019177,0.0572256,-0.0200744,0.026163,0.008761,0.061
 1189,0.1173258,-0.0819444,0.0114182,0.0064092,0.0064078,0.0866582,0.00
 2797,0.0039096,0.0099623,0.11275,0.0503298,-0.0237693,0.0021218,-0.048
 3747,-0.0218489,0.0146165,0.022308,-0.0172015,0.1441111\Polar=239.2661
 202,-5.0602737,162.3943238,-3.1815119,-14.5239957,71.9159855\Quadrupol
 e=6.5256112,-0.9205057,-5.6051055,1.1489527,-0.7730691,-0.7502714\PG=C
 01 [X(C13H10F2O1)]\NImag=1\\0.56721044,-0.00924637,0.46679435,-0.00773
 111,0.03779151,0.50995100,-0.08509492,-0.03325540,0.02132309,0.5681029
 8,-0.02357729,-0.15874179,0.05660649,-0.01494990,0.52305191,0.01631974
 ,0.04077852,-0.08922434,-0.07843939,-0.09966565,0.20609147,-0.01577397
 ,-0.01221566,0.01185518,-0.28970068,-0.02615865,0.05448825,0.61405087,
 -0.02955294,-0.00834218,0.01407819,0.03059375,-0.10439617,-0.00132533,
 -0.01414555,0.69694441,0.01265105,0.01299308,-0.00139739,0.05300271,0.
 00596656,-0.07333164,-0.11305668,-0.08887559,0.16117770,-0.00429239,0.
 00299333,0.00130765,-0.02327207,-0.02482002,0.01103565,-0.17182447,-0.
 12685638,0.03899652,0.68514281,-0.00014217,0.00491121,-0.00096886,-0.0
 6448297,0.01944137,0.01311233,-0.07025890,-0.27617059,0.04892427,-0.01
 169806,0.65643442,0.00101276,0.00206135,0.00382990,0.01334877,0.003839
 44,0.00218698,0.03126208,0.05147033,-0.06852940,-0.14943044,-0.0161400
 8,0.16140646,-0.00164854,0.00022639,-0.00255784,-0.04177848,0.01620046
 ,0.00839470,0.05237740,0.01963766,-0.00694292,-0.16705234,0.07370739,0
 .02774274,0.64685766,0.00023088,-0.00258193,-0.00006178,0.02311150,-0.
 00867502,-0.00657965,-0.01833692,-0.05762072,0.00643281,0.12979942,-0.
 29398326,-0.03805360,0.01553309,0.72916113,-0.00010476,-0.00062863,-0.
 00035909,0.00740139,-0.00285752,-0.00264507,-0.00487016,-0.00009289,0.
 00916325,0.02900737,-0.03426610,-0.06077053,-0.11632210,0.04082716,0.1
 3775260,-0.00148775,0.00187721,0.00138831,0.05622928,-0.01580474,-0.01
 845437,-0.04507944,-0.02539641,0.01064969,-0.02588325,0.07526003,0.005
 17400,-0.32730405,-0.06228689,0.05721571,0.65732099,0.00215964,-0.0003
 6667,0.00129745,0.02332258,-0.05073511,-0.00393547,-0.01751758,-0.0167
 1430,0.00353071,0.02493863,0.02152292,-0.00499863,0.00751906,-0.100154
 48,-0.00149734,0.03836613,0.53805734,0.00089795,0.00246628,0.00344970,
 -0.01674391,0.00991893,0.00525036,0.00974442,0.00580470,-0.00470891,0.
 00736612,-0.01602289,0.00100566,0.05223025,0.01258273,-0.06694185,-0.0
 8262650,0.05938401,0.15096876,0.00051300,-0.00019240,0.00025301,-0.003
 46482,-0.00149065,0.00280652,0.00080595,0.00237600,-0.00057297,-0.0049
 1635,-0.00634213,0.00239134,-0.02626838,0.05473492,0.01594675,-0.08961
 531,0.04943037,0.02247017,0.14139630,0.00222290,0.00025243,-0.00013759
 ,-0.00977781,-0.00161108,-0.00073208,0.00290578,-0.00077386,-0.0006532
 9,0.00113511,0.00127760,-0.00111604,0.01508856,-0.01878759,-0.01013974
 ,0.06151773,-0.20019922,-0.05210533,-0.09197381,0.25721255,0.00106952,
 0.00005156,0.00022937,0.00139904,-0.00093574,0.00464468,-0.00304767,-0
 .00101568,-0.00058268,0.00265495,0.00379271,0.00607288,0.01232211,-0.0
 1682409,0.00063735,0.02462062,-0.06458489,-0.05249567,-0.01219180,0.07
 729034,0.06830453,0.01172652,-0.00227362,0.00260687,-0.13938839,0.0667
 9250,0.00127877,-0.02581618,0.02440816,-0.00240443,0.00506490,-0.00293
 182,-0.00240226,-0.02306577,-0.01850680,0.00088721,-0.17200989,-0.1075
 9288,0.00181849,0.00936128,0.02208927,0.00590047,0.54939967,0.00986719
 ,-0.02066012,-0.00246164,0.03437072,-0.19045878,0.03750805,0.05413329,
 0.02381533,-0.00789567,-0.00061151,-0.04603906,0.00214962,-0.05181744,
 0.02344520,0.00881845,-0.05844957,-0.19112597,-0.02318046,-0.00999671,
 -0.04209357,0.00177349,0.01827850,0.53719228,-0.00292067,0.00976038,0.
 00130998,-0.00191219,0.01729377,-0.06082197,0.00313862,-0.00352483,0.0
 0297161,0.00101951,0.00280723,-0.00084547,0.00852683,0.00077790,0.0033
 6895,0.00228218,-0.00253124,-0.05462124,-0.00284858,-0.01097508,0.0018
 1014,0.00214792,-0.02243173,0.14699477,-0.00009584,-0.00244212,-0.0007
 2263,-0.02352173,0.01588883,-0.00377716,0.00729687,0.00177427,-0.00117
 653,-0.00378651,-0.00041253,0.00187098,0.00592341,-0.00179131,-0.00109
 104,-0.03290361,-0.01495923,0.00093263,0.00279812,0.00187193,-0.001169
 94,-0.16537850,0.00226071,-0.00653838,0.54954633,-0.00067168,0.0013868
 1,-0.00027563,0.02603002,0.00461030,-0.00181272,0.00047911,-0.00498015
 ,0.00120028,0.00036077,0.00011533,-0.00018133,-0.00069585,-0.00476448,
 -0.00033395,-0.02637943,0.00414490,0.00059305,-0.00112060,0.00390713,-
 0.00010588,0.00375994,-0.09832624,0.00628465,0.03039144,0.53758538,-0.
 00069666,-0.00167896,-0.00158397,-0.00193603,-0.00169936,-0.00018674,0
 .00046350,0.00205289,0.00557085,0.00076377,0.00036810,-0.00158729,0.00
 105594,-0.00068131,0.00419081,0.00106090,0.00003360,0.00172770,-0.0000
 6466,0.00043857,-0.00236567,-0.01216645,0.00705565,-0.04924071,0.03045
 469,-0.06102786,0.14080210,0.00022525,0.00024986,0.00016834,-0.0022373
 4,-0.00509152,0.00096335,-0.00133647,0.00032348,-0.00023702,0.00008281
 ,0.00031380,0.00002020,-0.00067863,-0.00000224,-0.00027155,-0.00280763
 ,0.01135501,0.00085301,0.00696996,-0.00688160,0.00112027,-0.02122097,0
 .02528967,-0.00576973,-0.15005908,0.02312662,-0.01533411,0.63890887,-0
 .00013587,-0.00080938,-0.00049672,-0.00647886,0.00133435,-0.00049434,0
 .00160513,0.00033097,0.00013565,-0.00197771,0.00008632,0.00074652,0.00
 158395,-0.00155834,-0.00061738,-0.01102031,0.01310523,0.00297254,0.015
 64029,-0.01253508,0.00611119,0.02034705,0.00197114,-0.00048420,0.05836
 068,-0.17162189,0.03315858,0.04219683,0.57403187,0.00007233,0.00009063
 ,0.00006657,0.00238189,-0.00077164,0.00224070,-0.00073241,0.00026790,0
 .00040256,0.00059966,0.00021050,-0.00020908,-0.00019485,0.00065039,-0.
 00052328,0.00326624,-0.00491185,-0.00018236,-0.00768967,0.00499557,-0.
 00298286,-0.00487143,0.00018419,-0.00183107,-0.01944626,0.04488455,-0.
 06604276,-0.00833882,-0.13734435,0.19960720,-0.00022641,0.00006499,0.0
 0008651,0.00140413,0.00049097,0.00062391,-0.00001052,0.00122810,0.0000
 5901,0.00115811,-0.00099360,-0.00043381,-0.00186451,0.00203852,0.00124
 704,0.01061305,-0.02033895,-0.00397250,-0.03429041,0.01715273,-0.02161
 571,-0.00274951,0.00135393,-0.00063649,0.01759768,0.00941883,-0.000629
 81,-0.13052419,-0.09313573,0.02848098,0.56090895,0.00002905,0.00013554
 ,0.00020958,0.00213596,-0.00063703,0.00014565,-0.00116190,0.00028772,0
 .00026896,0.00100859,0.00049760,-0.00039993,-0.00032824,0.00099146,0.0
 0018628,0.00484289,-0.01047850,-0.00344709,-0.00914647,0.01446817,-0.0
 0261331,-0.00871593,0.00359874,-0.00146436,-0.00989830,-0.03789627,0.0
 1830132,-0.07316329,-0.25230641,0.09256910,0.17739134,0.33551442,-0.00
 005773,-0.00007975,-0.00015505,-0.00011794,-0.00005679,-0.00008096,0.0
 0004629,-0.00028424,0.00001555,-0.00055563,-0.00003256,0.00036504,-0.0
 0060154,0.00075882,0.00078715,-0.00081281,-0.00227147,-0.00171963,-0.0
 1704632,0.00228195,-0.00823227,0.00116240,-0.00094377,-0.00104057,0.00
 610849,0.00902824,0.00120252,0.01044108,0.08456207,-0.08187690,0.12892
 753,-0.10392569,0.15072963,0.00006396,-0.00039254,-0.00003943,-0.00069
 993,0.00065116,-0.00032414,0.00029090,0.00048325,0.00007659,0.00008317
 ,-0.00003014,-0.00005522,0.00017594,0.00007048,0.00002899,0.00094980,-
 0.00352947,-0.00045636,-0.00379023,0.00300692,-0.00198952,0.00350902,0
 .00145742,0.00006191,-0.01320993,0.04790294,-0.00561656,-0.29168842,-0
 .00402157,0.00361901,-0.04856295,-0.02605469,0.01521195,0.64617829,-0.
 00009514,-0.00000996,0.00002952,0.00064690,0.00071801,0.00003805,0.000
 35418,-0.00041136,-0.00022332,-0.00025475,-0.00016269,0.00012572,0.000
 01713,0.00051643,0.00002040,0.00019924,-0.00251067,-0.00072896,-0.0021
 8945,0.00209005,-0.00139506,0.00157293,-0.00377388,0.00294512,0.021910
 70,0.01792853,-0.00155130,0.05521371,-0.10389208,0.00565185,-0.0571429
 9,-0.01189088,0.00888722,0.02306292,0.71980663,0.00006568,0.00005074,0
 .00014232,-0.00093607,0.00020322,0.00017629,0.00012504,0.00016114,-0.0
 0053485,0.00006098,-0.00020368,0.00008405,-0.00013983,-0.00013018,-0.0
 0001709,-0.00009128,0.00022914,-0.00088918,0.00131989,-0.00018104,0.00
 168292,-0.00009739,0.00220121,0.00451696,-0.00683700,-0.00118144,0.002
 78239,-0.00177961,0.00454067,-0.06360780,0.02265037,0.01132901,0.00593
 690,-0.02490832,-0.12887703,0.13728810,-0.00008075,0.00019333,0.000104
 48,0.00030964,-0.00090289,0.00023272,-0.00019949,-0.00037294,-0.000131
 97,-0.00018370,-0.00005123,0.00003606,-0.00031554,0.00038790,-0.000050
 77,0.00023003,0.00157551,-0.00000717,0.00071081,-0.00091884,-0.0000112
 9,-0.00206802,0.00036309,0.00106964,0.00274251,-0.00124640,0.00019031,
 -0.02656084,-0.02510485,0.00634336,-0.00273493,0.00138431,-0.00271720,
 -0.19753202,-0.14365077,0.02977242,0.72241985,-0.00023562,0.00026671,-
 0.00010261,-0.00019800,0.00038286,-0.00009532,0.00027308,-0.00020173,-
 0.00007271,-0.00037415,-0.00001524,0.00016040,0.00024061,-0.00019153,0
 .00003109,-0.00148905,0.00134884,0.00044340,0.00243638,-0.00192301,0.0
 0073653,0.00276623,-0.00155201,0.00023984,-0.00768013,-0.04075216,0.00
 567284,-0.06672342,0.02356141,-0.00123262,0.01243158,0.00349424,-0.004
 48169,-0.09214720,-0.28172061,0.05106943,0.00034095,0.66051502,0.00002
 685,-0.00017599,-0.00011419,0.00006838,0.00000465,0.00006505,0.0000329
 6,0.00005009,0.00007833,0.00001574,-0.00001298,-0.00000882,-0.00001479
 ,0.00001514,0.00008332,0.00030760,-0.00025827,0.00007304,-0.00028029,0
 .00019588,-0.00007350,0.00026765,-0.00001352,-0.00138956,0.00052568,0.
 00575435,0.00066007,0.01231715,-0.00283121,0.00049026,-0.00245854,-0.0
 0066471,0.00568744,0.01932474,0.04477738,-0.06189044,-0.02355363,-0.07
 963533,0.13609117,-0.00049203,0.00016242,-0.00015171,-0.00091295,0.001
 34478,-0.00045431,0.00068709,0.00005630,-0.00003933,-0.00062800,-0.000
 01016,0.00023490,0.00064702,-0.00035335,0.00006814,-0.00220301,-0.0002
 8899,0.00027392,0.00141663,-0.00104921,0.00010287,0.00824831,-0.002067
 68,0.00058157,-0.02855922,-0.04628038,0.00696190,-0.04445291,0.0198285
 2,-0.00057501,0.00592233,-0.00137752,-0.00281922,0.05194825,0.01202671
 ,0.00062511,-0.16484364,0.07166747,-0.00862261,0.67166080,0.00025090,-
 0.00041060,0.00020310,0.00055720,-0.00084727,0.00031138,-0.00026319,0.
 00046071,0.00002923,0.00049582,-0.00006454,-0.00019517,-0.00037786,-0.
 00047286,-0.00000179,0.00009155,-0.00036955,-0.00019307,-0.00170817,0.
 00163927,-0.00032131,-0.00385961,-0.00451075,-0.00049508,-0.01530558,0
 .02340557,-0.00278451,0.02533416,-0.00923444,-0.00120141,-0.00683013,-
 0.00386979,0.00355500,-0.02106469,-0.05460525,0.00784841,0.12570530,-0
 .29865562,0.02647913,0.00378546,0.72890903,0.00056838,-0.00046027,0.00
 035543,-0.00074727,0.00017580,-0.00068410,0.00001370,-0.00012090,-0.00
 019336,-0.00021183,0.00004923,0.00013367,0.00011157,0.00014989,-0.0004
 7241,-0.00055769,-0.00011573,0.00026297,0.00035995,-0.00034866,0.00014
 010,0.00043166,0.00066910,0.00477551,-0.00158643,-0.00311090,0.0048767
 9,-0.00333822,0.00169799,-0.00013306,0.00115373,0.00018824,-0.00188997
 ,0.00445249,0.00942364,0.00702156,-0.01358079,0.02081471,-0.05412330,-
 0.00711275,-0.04836980,0.10738091,-0.00133179,0.00167531,0.00033573,0.
 00225694,-0.00453674,0.00120442,-0.00130355,-0.00040075,-0.00004255,0.
 00083181,0.00002068,-0.00028497,-0.00133618,-0.00046054,-0.00047602,-0
 .00115013,0.00471114,0.00004194,-0.00097978,0.00115691,0.00010488,-0.0
 3330162,-0.02515554,0.00092517,-0.17552052,-0.05551136,-0.00445260,0.0
 6843037,-0.02241487,-0.00372866,-0.01207242,0.00416141,0.00197314,-0.0
 4826419,-0.02321213,0.00276674,-0.02133022,0.07688201,-0.00838775,-0.3
 3570384,-0.04636474,0.00947591,0.67381155,0.00089184,0.00084762,-0.000
 88729,0.00571452,0.00277258,-0.00108362,-0.00160052,-0.00129736,0.0003
 8747,0.00199435,0.00017970,-0.00057743,-0.00126801,0.00004951,0.000071
 72,0.00663661,0.00068702,0.00049694,-0.00050487,0.00024705,0.00050643,
 -0.01772956,0.00824497,-0.00150356,-0.09665763,-0.19082684,0.00266289,
 0.01418225,-0.05028099,0.00690968,-0.00031509,0.00205495,0.00115276,-0
 .01463681,-0.01097106,0.00050853,0.02800876,0.01588828,-0.00112009,0.0
 1942190,-0.10070606,0.00504838,-0.00242160,0.60217688,-0.00153669,-0.0
 0013637,0.00002249,0.00062808,0.00057568,0.00046207,-0.00013355,-0.000
 23508,-0.00045778,0.00017857,0.00002234,-0.00009754,-0.00017501,-0.000
 47860,0.00063357,0.00030403,0.00122630,0.00204422,0.00036408,-0.000172
 18,0.00004211,-0.00118240,-0.00146056,-0.00047662,-0.00081582,-0.00583
 174,-0.05158950,-0.00627805,0.00841489,-0.00470727,0.00011105,0.003170
 07,0.00438304,0.00340412,0.00260957,-0.00005392,-0.00217281,-0.0024774
 8,0.00051220,0.00038652,0.00449937,-0.05910914,0.00133521,-0.00072602,
 0.13627469,-0.01432147,0.00468091,-0.00921103,-0.00014351,0.00292586,-
 0.00119479,0.00002185,-0.00025659,0.00011312,0.00042658,0.00015202,-0.
 00007386,-0.00001965,-0.00050332,0.00001282,0.00044057,0.00013728,0.00
 034898,0.00038975,-0.00055671,0.00019507,0.00014727,0.00066065,-0.0004
 1712,0.01486018,-0.01488806,0.00111989,-0.00839114,-0.00044809,0.00075
 116,0.00230841,-0.00026065,-0.00010779,0.00336612,0.00287997,-0.000333
 25,-0.00568909,-0.00768355,0.00118444,-0.03029207,0.06027899,0.0005661
 9,-0.10345957,0.08260145,0.00471824,0.15233458,0.00355299,-0.00120151,
 0.00135749,-0.00353836,-0.00307856,0.00144137,0.00052245,0.00078347,-0
 .00064526,-0.00098815,-0.00028330,0.00028828,0.00020193,0.00090273,-0.
 00006132,-0.00014821,-0.00077652,-0.00048977,-0.00092491,0.00073154,-0
 .00052870,0.00640208,0.00262427,0.00076060,0.01497279,-0.04558105,-0.0
 0137434,-0.00663391,-0.00022533,-0.00202312,0.00044200,-0.00316758,0.0
 0120189,0.00156804,-0.00213583,0.00056201,0.00123694,0.00259765,-0.000
 13292,0.02175393,-0.02338411,-0.00248432,0.08872541,-0.27315697,-0.010
 24589,-0.13234780,0.34002108,-0.00662312,0.00220095,-0.00627067,-0.000
 32017,-0.00052145,0.00015161,0.00041251,0.00014531,0.00031474,-0.00001
 003,-0.00049618,-0.00001164,-0.00050001,0.00021471,0.00014386,0.000620
 77,0.00052604,-0.00017190,-0.00004781,-0.00007472,-0.00018778,-0.00183
 592,-0.00048891,-0.00265478,0.00442716,0.00337220,0.00425746,0.0001980
 4,0.00063665,0.00543396,0.00015873,-0.00050948,0.00021800,-0.00131156,
 -0.00025218,-0.00125208,0.00030512,0.00152327,0.00664743,0.00195807,-0
 .00269300,0.00963545,0.00430339,-0.01579641,-0.03550733,0.00728154,0.0
 1135210,0.02404895,-0.20670124,0.07077305,-0.10278446,0.00552239,-0.00
 471236,0.00541057,-0.00138362,-0.00463996,0.00365477,0.00079240,0.0013
 1101,0.00044919,0.00083483,-0.00081879,-0.00016202,-0.00086776,-0.0005
 5330,0.00017834,0.00008590,-0.00011543,-0.00020614,-0.00074414,0.00003
 461,0.00031549,0.00008091,0.00030757,0.00020827,-0.00007033,-0.0000744
 8,0.00003420,0.00013639,0.00016964,-0.00003883,0.00005894,0.00016916,-
 0.00003015,0.00002487,-0.00014583,0.00004102,-0.00027486,0.00039430,0.
 00007049,0.00097246,-0.00273241,-0.00012752,-0.00309315,0.00239718,-0.
 00163934,0.22514600,0.06899695,-0.06664150,0.04074690,0.01803113,-0.01
 618675,0.01483918,0.00158340,-0.00016875,-0.00014693,-0.00008795,-0.00
 002228,-0.00040106,0.00013856,0.00007173,0.00012953,0.00064816,-0.0001
 0824,-0.00025296,-0.00016089,-0.00069099,-0.00044352,-0.00293472,-0.00
 115738,0.00166262,0.00027958,0.00022860,0.00029629,-0.00008090,0.00017
 734,-0.00007819,0.00005791,-0.00006715,0.00004680,0.00003628,0.0000478
 3,-0.00001294,-0.00001285,0.00000485,0.00001555,0.00002531,0.00017157,
 -0.00002687,-0.00028582,-0.00096001,-0.00010509,-0.00093874,0.00157087
 ,0.00001310,-0.07089682,0.07774430,-0.10079598,0.04196202,-0.10809469,
 -0.00958182,0.00497878,-0.00601092,-0.00060878,0.00151607,0.00055335,0
 .00008032,-0.00033316,0.00002928,0.00002428,0.00017627,-0.00017402,-0.
 00033117,-0.00017509,0.00045068,0.00012806,0.00017712,0.00004765,0.001
 56622,0.00053751,-0.00104814,0.00002284,-0.00006150,-0.00003885,-0.000
 06633,-0.00008765,0.00006765,0.00003757,0.00005862,-0.00005848,0.00003
 214,-0.00000585,0.00001490,-0.00006126,-0.00005622,0.00001040,-0.00013
 067,0.00014685,0.00008858,-0.00025140,0.00006197,-0.00013156,-0.000504
 12,0.00045653,0.00091231,0.10967272,-0.04938080,0.11225016,-0.05582939
 ,-0.05433887,-0.05082506,-0.00372004,-0.00546677,-0.00266405,0.0001906
 2,-0.00163683,0.00167471,0.00010828,0.00127594,0.00050107,0.00082923,-
 0.00054349,-0.00013754,-0.00112805,-0.00069132,0.00038770,0.00001126,0
 .00004871,-0.00002097,-0.00031404,0.00151385,-0.00107264,0.00056135,-0
 .00036083,-0.00022863,-0.00006036,0.00024241,-0.00013074,-0.00014944,-
 0.00024046,0.00012578,-0.00000075,-0.00003777,0.00001704,0.00002251,0.
 00011671,0.00005278,0.00029037,-0.00031451,0.00015667,-0.00111229,0.00
 208363,0.00031676,-0.00549542,0.00174926,-0.00127779,-0.00557731,-0.01
 651483,-0.01501315,0.06607650,-0.05169399,-0.16861571,-0.12422116,-0.0
 0718286,-0.01742251,-0.01228660,0.00238821,0.00024831,0.00017987,-0.00
 007857,-0.00131068,0.00084074,-0.00109949,0.00023638,0.00001285,0.0006
 9192,0.00055242,0.00101694,0.00013416,-0.00032568,-0.00000767,-0.00174
 488,-0.00175709,0.00050398,-0.00000445,0.00032996,-0.00036844,0.000005
 66,0.00002526,0.00005175,0.00010381,0.00012989,-0.00000205,0.00005032,
 0.00013485,-0.00000221,0.00002580,-0.00013002,0.00000592,-0.00025953,0
 .00048411,0.00014359,0.00071061,-0.00270701,-0.00026727,-0.00035986,0.
 00247857,0.00023736,0.00303930,0.00740693,0.00696866,0.05730300,0.1827
 4948,-0.04662977,-0.12146824,-0.15433880,0.00496797,0.01005595,0.01238
 398,0.00032075,0.00035240,-0.00050522,-0.00020343,-0.00029659,-0.00021
 578,0.00030191,0.00039923,0.00003569,-0.00010864,-0.00023884,-0.000541
 39,-0.00004704,0.00003653,0.00002684,-0.00031682,0.00123792,-0.0003717
 7,-0.00022074,-0.00002299,0.00006850,0.00004095,0.00001826,-0.00001133
 ,0.00001353,0.00002183,0.00001696,-0.00002564,-0.00001797,-0.00001317,
 -0.00007769,0.00005576,0.00006229,0.00005483,0.00008313,0.00017724,-0.
 00057064,0.00013416,-0.00019310,-0.00331481,0.00185871,-0.00044215,-0.
 00236800,-0.00918443,-0.00913683,0.05486696,0.12932178,0.16445371,-0.1
 9169923,0.03030256,0.13642613,-0.00515309,0.00040893,0.00243775,-0.000
 41814,-0.00131848,0.00097347,-0.00021943,-0.00004321,0.00019172,0.0002
 2307,0.00011875,-0.00006008,-0.00036532,-0.00027697,-0.00003280,0.0000
 4835,-0.00015988,-0.00008208,0.00050078,0.00112200,-0.00096188,0.00037
 405,-0.00034602,0.00028924,0.00008221,0.00017120,0.00001339,-0.0000948
 9,-0.00014899,0.00003639,-0.00001347,-0.00010287,-0.00001295,-0.000031
 53,0.00006777,0.00003074,0.00014040,-0.00008883,-0.00002318,-0.0007473
 1,0.00109654,-0.00039749,-0.00488517,-0.00041985,-0.00613319,-0.014910
 17,0.00253611,0.01488217,0.00584422,-0.00151797,-0.00678878,0.21087868
 ,0.03087795,-0.04693278,-0.02402726,-0.02055712,0.00296595,0.01725625,
 -0.00067882,-0.00434956,0.00129497,-0.00131580,0.00018252,-0.00038495,
 0.00018693,0.00000819,0.00008952,-0.00052415,0.00025283,-0.00027589,0.
 00013769,-0.00008251,0.00005052,-0.00057612,0.00155489,0.00013184,0.00
 013148,-0.00014385,-0.00013686,0.00015981,-0.00012545,-0.00010421,0.00
 000654,0.00007774,0.00002011,-0.00009950,-0.00002070,-0.00000691,0.000
 02102,0.00013189,-0.00000331,0.00022415,-0.00015196,-0.00004231,0.0003
 6613,0.00042856,0.00058491,0.00110223,-0.00010042,0.00113538,0.0061741
 7,-0.00227052,-0.00664154,0.01578820,-0.00255036,-0.01209002,-0.030923
 34,0.05135145,0.13258462,-0.02225673,-0.15550875,0.00732617,-0.0029541
 2,-0.00706456,0.00056368,0.00265373,-0.00062985,0.00024178,-0.00093929
 ,0.00054673,-0.00038950,0.00045606,-0.00007726,0.00062057,0.00000867,-
 0.00000486,-0.00018636,0.00012534,-0.00007011,0.00103011,-0.00082286,0
 .00059339,-0.00035473,-0.00024807,-0.00011101,0.00003026,-0.00005376,-
 0.00011350,-0.00013707,-0.00021463,0.00005657,-0.00009440,-0.00022086,
 0.00003790,-0.00008194,0.00021557,0.00000548,0.00038115,-0.00039141,-0
 .00013405,-0.00204544,0.00384235,-0.00059835,-0.00052171,-0.00242352,-
 0.00030090,-0.01199764,0.00192569,0.01055031,0.01376416,-0.00155327,-0
 .01134539,-0.14091159,0.02283697,0.16432892,-0.00034978,0.00111096,-0.
 00182203,-0.01382339,0.02436831,-0.00088622,-0.11349504,0.11761426,-0.
 00072073,0.00924916,-0.01524409,0.00095042,-0.00090440,-0.00222472,0.0
 0154463,0.00000222,-0.00077002,-0.00005281,0.00013866,0.00015741,-0.00
 011881,-0.00411583,-0.00193989,0.00219128,0.00002837,0.00116852,-0.000
 25661,-0.00035246,-0.00029125,-0.00002214,0.00001972,0.00007084,-0.000
 00217,-0.00001587,0.00011771,-0.00003387,-0.00000814,0.00001869,-0.000
 00243,0.00000814,-0.00009711,-0.00000652,-0.00003256,0.00057376,0.0000
 4722,0.00024629,-0.00041908,0.00005859,0.00006306,-0.00036084,0.000885
 77,-0.00053473,-0.00032466,0.00006837,0.00042798,-0.00020067,-0.000011
 61,0.12281838,-0.00241516,0.00022981,0.00093833,-0.00324275,0.00099023
 ,0.00134760,0.11866263,-0.25067945,0.01359893,0.01422681,-0.01775123,0
 .00021335,-0.00375726,-0.00255006,0.00229028,-0.00018120,0.00088372,0.
 00025622,0.00016658,-0.00009167,-0.00020149,-0.00029953,0.00016893,0.0
 0071337,-0.00010347,0.00005605,-0.00016638,0.00001274,0.00006909,-0.00
 005795,0.00000953,-0.00002179,0.00003805,0.00000327,0.00000403,0.00000
 288,0.00002939,0.00000542,0.00000596,0.00002349,0.00000367,0.00001426,
 0.00000439,-0.00016203,0.00002116,-0.00005531,0.00011347,-0.00004031,-
 0.00027530,0.00072722,-0.00018047,0.00002370,0.00005353,-0.00026145,-0
 .00033537,0.00007442,-0.00008971,-0.12286378,0.26781004,0.00154965,-0.
 00271701,-0.00264723,-0.00315028,-0.00212468,0.00313659,0.00315041,0.0
 1812937,-0.03662863,-0.00500876,0.00203696,0.00324124,0.00033526,0.002
 80689,0.00536510,0.00368194,0.00126878,-0.00133757,-0.00047251,0.00014
 571,-0.00045623,0.00245500,-0.00186506,0.00502109,-0.00012033,-0.00057
 067,0.00057735,0.00028660,0.00016653,-0.00018231,-0.00018405,-0.000029
 61,0.00000707,-0.00000157,-0.00011609,-0.00001653,-0.00001143,-0.00000
 471,-0.00000259,-0.00001591,0.00000361,-0.00002403,-0.00006716,0.00008
 039,0.00003390,-0.00000336,-0.00002414,-0.00001000,-0.00028469,0.00031
 317,-0.00024184,-0.00026821,-0.00050552,0.00001186,0.00011739,0.000395
 08,-0.00020907,-0.00074755,-0.01724422,0.02665419,-0.00065073,0.000169
 34,0.00005151,0.00127465,-0.00209123,0.00184453,-0.00918403,0.00420442
 ,0.00229298,-0.31094815,0.00617920,0.06771011,-0.00874886,-0.00331403,
 0.00247322,0.00160283,0.00191676,0.00141521,-0.00088446,0.00036933,0.0
 0023376,0.00037892,-0.00020340,-0.00020613,0.00004755,-0.00000383,-0.0
 0020978,0.00002822,0.00004509,-0.00000437,-0.00014190,-0.00002724,-0.0
 0006957,-0.00001870,0.00001951,0.00000560,0.00000468,-0.00000112,-0.00
 000896,-0.00002135,-0.00001794,0.00002073,0.00005900,-0.00004947,-0.00
 000213,-0.00004982,0.00005933,-0.00002561,0.00003543,0.00000901,-0.000
 02431,-0.00005717,-0.00008176,0.00006146,-0.00006358,-0.00021212,0.000
 08099,0.00045149,-0.00022845,-0.00110815,0.32627138,-0.00105532,0.0003
 1567,0.00013919,-0.00145705,-0.00353964,0.00173265,-0.02435614,0.00546
 502,0.00520536,0.00588440,-0.05372758,-0.00068953,0.02551799,0.0036008
 1,-0.00568514,0.00047198,-0.00307785,-0.00061614,0.00205498,-0.0011043
 8,-0.00047853,0.00015911,-0.00096662,0.00003444,-0.00003537,0.00017314
 ,-0.00003511,-0.00010285,-0.00016261,0.00004409,0.00018926,0.00013435,
 0.00004762,0.00003203,0.00003416,-0.00001282,-0.00000039,-0.00002718,0
 .00000311,-0.00001940,0.00003104,-0.00000125,0.00009802,-0.00012242,0.
 00001216,-0.00006072,0.00007974,-0.00001823,0.00012886,0.00001368,-0.0
 0002056,-0.00002498,-0.00009222,0.00002446,-0.00009391,-0.00028162,0.0
 0013514,0.00019606,0.00075853,-0.00061657,-0.00669512,0.05143876,0.000
 09481,-0.00051004,0.00016798,0.00065438,0.00270503,0.00546030,0.005172
 14,0.00052937,0.00177363,0.06612348,-0.00086384,-0.04910651,0.00325874
 ,-0.00073910,0.00222631,0.00036764,-0.00090363,0.00627862,0.00027257,-
 0.00008448,0.00030517,-0.00039883,-0.00050348,-0.00046107,-0.00002245,
 -0.00003530,-0.00074893,0.00002418,-0.00004149,0.00006814,-0.00000325,
 0.00006415,-0.00007537,-0.00000330,0.00002412,0.00001214,0.00002102,-0
 .00001076,-0.00001230,-0.00001369,-0.00001255,0.00004883,0.00000164,0.
 00007296,0.00003439,0.00004564,0.00002733,-0.00005556,-0.00003969,0.00
 005730,-0.00006279,-0.00007706,0.00003035,0.00005473,-0.00002286,-0.00
 002585,-0.00005671,-0.00083941,-0.00088304,-0.00323606,-0.07363969,0.0
 0062337,0.04086242,0.00011062,0.00000283,-0.00000624,-0.00015174,0.000
 84074,-0.00037220,-0.00083751,0.00269548,0.00143201,0.01097375,0.01403
 654,-0.00073477,-0.10908480,-0.11423311,0.00885195,-0.01021610,-0.0266
 5389,0.00027348,0.00243572,-0.00007715,-0.00139031,-0.00412219,0.00230
 731,0.00165230,-0.00017953,-0.00116735,0.00005188,-0.00021906,-0.00060
 483,0.00029030,0.00057181,0.00048056,-0.00007557,0.00012665,0.00011527
 ,-0.00003890,-0.00000580,-0.00008040,0.00001163,-0.00006228,-0.0000872
 3,0.00000825,-0.00026594,0.00029560,-0.00014748,0.00002809,-0.00002564
 ,0.00001988,-0.00002870,-0.00002681,0.00004345,-0.00002507,0.00000756,
 -0.00003413,0.00002887,0.00000370,-0.00001697,0.00026690,0.00063424,-0
 .00031199,0.00043949,-0.00057473,-0.00090404,0.11107362,-0.00010838,0.
 00010425,0.00016840,0.00047139,0.00028561,-0.00010961,0.00376290,-0.00
 250669,-0.00173449,-0.01382433,-0.01503178,0.00148374,-0.11646947,-0.2
 6735516,0.00349607,0.00326004,-0.00010255,-0.00128171,0.00070278,0.001
 18638,0.00021720,0.00046866,0.00065292,-0.00019439,0.00008457,0.000103
 04,0.00008548,-0.00003693,-0.00011509,0.00003740,0.00009412,0.00006467
 ,-0.00003991,0.00001742,0.00001017,-0.00000384,-0.00001640,-0.00002605
 ,0.00000292,-0.00002750,0.00002256,-0.00001035,0.00005214,0.00004237,0
 .00001147,-0.00001163,-0.00000480,-0.00000775,0.00002878,0.00002875,-0
 .00007304,0.00003335,0.00002074,-0.00001153,-0.00006147,-0.00000670,-0
 .00000446,-0.00061198,-0.00071712,0.00043168,0.00000561,0.00104264,0.0
 0053402,0.12221225,0.28228230,0.00014015,-0.00028185,0.00012583,0.0023
 2782,-0.00070343,-0.00183341,0.00118502,-0.00142025,0.00550529,-0.0040
 9211,-0.00085140,0.00279394,0.01172984,-0.00019494,-0.03143552,-0.0020
 8952,0.00249436,0.00472011,-0.00094233,0.00143558,-0.00409319,0.001721
 53,0.00188031,0.00366565,-0.00001025,0.00054133,0.00046211,-0.00010430
 ,-0.00008141,0.00003860,0.00002031,-0.00001856,-0.00023137,0.00001761,
 0.00000654,-0.00001734,0.00000363,-0.00000519,0.00000684,0.00001895,0.
 00008479,-0.00004537,0.00018380,-0.00024627,-0.00006472,-0.00008577,0.
 00008791,0.00005271,-0.00027338,0.00004550,0.00003493,-0.00010386,0.00
 003953,-0.00009443,0.00001645,-0.00002252,0.00002535,-0.00023067,-0.00
 027005,0.00082606,-0.00105522,0.00038978,-0.00344627,-0.00835388,-0.00
 302139,0.02265824,0.00025656,-0.00011311,-0.00010050,-0.00168009,0.000
 10670,-0.00050104,0.00065914,-0.00103117,-0.00024634,-0.00088577,0.000
 35540,0.00052551,0.00218162,-0.00240505,-0.00111245,-0.01385449,0.0268
 9240,0.00457305,-0.00324871,-0.01681463,-0.00802881,0.00609689,-0.0027
 1773,-0.00020127,-0.00022599,0.00508267,-0.00188135,-0.02503371,-0.020
 05066,0.00593379,-0.36817773,-0.06114517,-0.13863069,0.00730585,-0.000
 20749,-0.00257214,-0.00195349,-0.00414393,0.00104907,-0.00207158,0.003
 30647,-0.00070843,0.00190484,0.00035771,-0.00014063,-0.00066947,0.0015
 6784,0.00015625,-0.00013625,-0.00007469,0.00000475,0.00012145,-0.00016
 663,0.00001674,0.00005233,-0.00005127,0.00017162,-0.00001388,-0.000055
 84,0.00014805,0.00018831,-0.00025621,-0.00006613,-0.00078899,-0.000020
 84,-0.00004649,0.40016797,-0.00013115,0.00006500,0.00003326,0.00017523
 ,-0.00017555,-0.00037539,0.00003199,0.00025511,0.00009337,0.00004811,-
 0.00007955,-0.00023600,0.00001251,-0.00034662,0.00020263,0.00765468,-0
 .00360976,0.00270511,-0.00179991,-0.00298312,-0.00090712,0.00014210,-0
 .00122978,-0.00030555,0.00075038,0.00071953,0.00043814,-0.03523747,-0.
 00850951,-0.01204253,-0.04070007,-0.04140522,0.00165605,-0.00118029,-0
 .00341299,0.00135711,-0.00027658,0.00147546,0.00068025,0.00045933,-0.0
 0056810,0.00007583,-0.00152212,-0.00027953,0.00020656,0.00016758,0.000
 82749,0.00018072,-0.00000484,0.00006205,-0.00002424,0.00001646,0.00002
 484,-0.00000558,0.00001603,-0.00001071,0.00001447,-0.00004349,0.000023
 72,0.00003738,-0.00005321,0.00001098,-0.00005343,-0.00011456,0.0000161
 9,0.00011369,0.07190819,0.05917591,0.00015911,-0.00003772,-0.00001940,
 -0.00109016,0.00001915,-0.00037569,0.00051022,-0.00031237,-0.00002857,
 0.00004208,0.00005631,-0.00030002,0.00176239,-0.00250484,-0.00089388,-
 0.00639673,0.01635773,0.00740465,-0.00377431,-0.01032830,-0.01214217,0
 .00243189,-0.00189968,-0.00057784,-0.00055678,0.00199368,-0.00079682,0
 .01624410,-0.00427827,0.00500744,-0.15484408,-0.01171072,-0.07065974,0
 .00326373,0.00573149,0.00007788,0.00148247,-0.00049507,0.00083145,-0.0
 0041038,0.00011953,0.00006020,0.00000497,0.00012852,-0.00062083,-0.000
 23414,0.00067447,0.00008568,-0.00005275,-0.00004788,0.00002171,0.00003
 063,-0.00010254,-0.00000041,0.00002411,-0.00002066,0.00007534,0.000000
 74,-0.00003875,0.00010094,0.00015694,-0.00021851,-0.00003828,-0.000256
 52,0.00002346,0.00033744,0.14157359,0.00645506,0.07297362,0.00000701,-
 0.00003352,0.00000768,-0.00035555,-0.00024107,-0.00000151,-0.00004393,
 0.00012999,0.00000804,-0.00000042,0.00003448,-0.00000518,0.00003243,-0
 .00009753,-0.00002001,-0.00014055,0.00058658,0.00008055,0.00041762,-0.
 00039734,0.00021297,-0.00008665,0.00124193,-0.00040086,-0.00444819,-0.
 00141973,0.00084507,-0.00950184,0.02702328,-0.00637876,0.00173273,0.00
 036451,-0.00025930,-0.09808481,0.10157022,-0.01907727,0.01045686,-0.01
 598740,0.00311268,-0.00124090,-0.00279068,0.00070400,-0.00114814,-0.00
 105096,0.00000559,0.00028959,0.00002434,-0.00001334,0.00000084,0.00000
 861,-0.00000268,-0.00000645,0.00001202,0.00000065,0.00000366,-0.000002
 52,-0.00000777,-0.00004314,0.00000431,0.00002911,-0.00000423,-0.000004
 91,-0.00000327,-0.00002671,-0.00000351,-0.00000255,-0.00021205,-0.0003
 1139,-0.00034358,0.10119902,0.00000542,0.00000699,0.00000494,0.0000372
 0,0.00002989,-0.00002624,-0.00000816,0.00000103,0.00000911,0.00002926,
 -0.00000509,-0.00001025,-0.00000382,0.00000853,0.00001018,0.00004675,-
 0.00010654,-0.00004468,-0.00011124,0.00009934,-0.00003239,-0.00029767,
 0.00005827,-0.00002692,0.00023682,0.00026760,0.00062563,-0.00324261,-0
 .00049909,0.00144945,-0.00148550,0.00051698,-0.00080370,0.10503327,-0.
 26937764,0.04974855,0.01178584,-0.01493737,0.00360793,-0.00383769,-0.0
 0166300,0.00178873,-0.00036404,0.00064754,-0.00008087,0.00013805,0.000
 01767,-0.00012128,0.00000629,-0.00000390,0.00000464,-0.00001143,0.0000
 0082,0.00000272,-0.00000490,0.00000015,-0.00000348,0.00000453,-0.00000
 159,0.00000155,0.00000238,0.00000086,-0.00000206,0.00000481,0.00000197
 ,-0.00000137,-0.00024291,0.00007122,-0.00000675,-0.10834941,0.28484296
 ,-0.00000392,0.00003437,0.00000956,0.00003428,0.00001252,-0.00009654,0
 .00000342,-0.00002957,-0.00000983,-0.00000313,-0.00000109,0.00000004,-
 0.00000403,-0.00001992,-0.00001299,-0.00012027,0.00021223,0.00004894,0
 .00005718,-0.00011755,-0.00010094,-0.00002618,-0.00008335,0.00026896,-
 0.00013031,-0.00064251,0.00406170,-0.00297376,0.00204897,0.00346930,0.
 00155967,-0.00124356,-0.00343595,-0.01832776,0.05219440,-0.04049358,-0
 .00317802,0.00168706,0.00123243,0.00042681,0.00171550,0.00579743,0.001
 92731,0.00006889,-0.00085758,-0.00024775,0.00003141,-0.00032298,-0.000
 01446,-0.00000481,-0.00000044,0.00000159,-0.00001632,-0.00000379,0.000
 00830,0.00000934,0.00002502,0.00000682,-0.00000030,0.00000800,0.000002
 33,-0.00000244,0.00000071,-0.00000759,-0.00000016,0.00000389,-0.000279
 30,-0.00022839,-0.00030589,0.02178938,-0.05508583,0.03370252,-0.000013
 73,0.00001481,-0.00001112,-0.00001805,0.00000836,-0.00001502,0.0000066
 7,0.00001855,0.00000570,-0.00001157,-0.00000377,-0.00000261,-0.0000072
 0,-0.00001086,0.00000945,0.00003873,-0.00006018,-0.00000554,-0.0001271
 4,0.00006948,-0.00009921,0.00007219,0.00000819,-0.00004026,0.00025995,
 -0.00013610,-0.00000878,0.00124745,-0.00228203,0.00060809,-0.00114251,
 -0.00037737,-0.00009820,-0.01132747,0.00427674,-0.00024854,-0.32471507
 ,0.01651173,0.00598657,-0.00874000,-0.00250608,0.00056356,0.00160037,0
 .00203906,0.00011488,-0.00089727,0.00043268,0.00000686,-0.00002827,-0.
 00000330,-0.00000907,0.00001785,-0.00002317,-0.00000791,0.00001283,0.0
 0000051,0.00002944,-0.00000529,0.00000524,0.00000223,-0.00000624,0.000
 00052,0.,-0.00000088,-0.00000193,0.00000452,0.00011565,-0.00006179,0.0
 0032228,0.00078577,0.00004211,-0.00020264,0.34221694,-0.00000213,0.,0.
 00001021,-0.00004575,-0.00006015,0.00001353,0.00000352,0.00002058,0.00
 000759,-0.00000767,-0.00000378,-0.00000244,0.00000345,0.00002073,0.000
 00772,0.00006207,-0.00008918,0.00001605,-0.00009544,0.00006961,-0.0001
 0319,0.00005013,0.00012552,-0.00012264,-0.00017376,-0.00079946,-0.0000
 6994,-0.00155486,-0.00282132,0.00203271,-0.00130242,-0.00031739,-0.000
 27894,-0.02408162,0.00629678,0.00027186,0.01656583,-0.05472334,0.00234
 869,0.02610733,0.00311291,-0.00030330,0.00071132,-0.00341813,0.0009408
 7,0.00185386,-0.00099394,-0.00008234,0.00002917,0.00001528,0.00000472,
 -0.00002569,0.00003155,0.00000251,-0.00000395,-0.00000190,-0.00002862,
 -0.00000495,0.00000016,0.00000055,-0.00000004,0.00000183,-0.00000071,0
 .00000345,0.00000040,0.00000130,-0.00009978,-0.00014644,0.00037406,0.0
 0046403,0.00063987,-0.00090783,-0.01783725,0.05200954,-0.00005683,0.00
 011552,-0.00003035,0.00011104,-0.00003712,0.00005456,-0.00001895,0.000
 01409,0.00006207,0.00001627,0.00002930,-0.00002370,0.00002147,-0.00003
 349,0.00001042,-0.00001361,0.00006130,0.00015277,-0.00006044,-0.000055
 98,-0.00018100,-0.00001990,-0.00015360,-0.00066469,0.00002671,-0.00019
 100,-0.00085248,-0.00014015,0.00251340,0.00680909,0.00003273,-0.000178
 91,-0.00012881,0.00500527,0.00069571,0.00357993,0.00545521,0.00200796,
 -0.03560376,-0.00317404,-0.00069160,0.00356739,-0.00013499,0.00091148,
 0.00633445,-0.00034963,0.00010141,-0.00006128,-0.00001712,-0.00000075,
 -0.00001665,-0.00004447,-0.00002489,-0.00004518,0.00000805,-0.00000295
 ,0.00001415,0.00000012,-0.00000414,0.00000633,-0.00000074,0.00000041,0
 .00000074,-0.00000251,0.00000117,0.00000131,0.00017383,-0.00000580,-0.
 00014183,-0.00018796,-0.00112077,-0.00382050,-0.00669797,-0.00374362,0
 .02444585,-0.00002341,0.00000633,0.00004866,0.00001676,-0.00018376,0.0
 0004329,0.00001969,0.00006435,-0.00001892,-0.00000937,-0.00000171,0.00
 000127,-0.00000530,-0.00013650,-0.00001615,-0.00041117,0.00032170,0.00
 001139,0.00008629,-0.00007037,0.00003574,-0.00012405,-0.00130361,0.000
 01378,-0.00422861,0.00219920,0.00001666,-0.00077976,0.00099669,-0.0002
 8128,0.00036901,0.00000714,-0.00002254,-0.00084816,0.00274036,-0.00027
 232,0.01133051,0.01313660,-0.00102666,-0.12047072,-0.11852378,0.009215
 83,-0.01080730,-0.02693107,0.00119521,0.00254751,-0.00016327,-0.000169
 00,0.00006139,0.00002816,0.00000045,-0.00006315,0.00006546,-0.00000006
 ,-0.00001609,-0.00003909,-0.00006783,-0.00002586,0.00000709,0.00000029
 ,-0.00000272,0.00000390,-0.00000259,-0.00004022,0.00000036,0.00002072,
 -0.00009841,0.00005427,-0.00004984,0.00041805,0.00058667,-0.00029798,0
 .00066629,-0.00061886,0.00006861,0.12243877,-0.00002252,-0.00000227,0.
 00002598,-0.00003125,-0.00001766,-0.00000254,-0.00000366,0.00000020,-0
 .00001094,-0.00001956,0.00000167,0.00000693,0.00000177,0.00002922,-0.0
 0001209,0.00005296,-0.00003011,-0.00001795,-0.00005651,0.00002063,-0.0
 0003140,0.00022648,0.00019878,0.00014385,0.00054968,0.00073053,0.00038
 439,0.00098802,0.00000404,-0.00026190,-0.00022965,0.00009154,-0.000036
 00,0.00386280,-0.00269187,0.00052820,-0.01506982,-0.01481675,0.0009013
 8,-0.12131567,-0.25872653,0.01515527,0.00337479,0.00062138,-0.00007818
 ,0.00079216,0.00134138,-0.00043555,0.00000643,0.00000650,-0.00000963,0
 .00001255,0.00000364,-0.00000770,0.00000613,0.00000045,-0.00000919,-0.
 00000449,0.00000291,0.00000064,-0.00000101,0.00000091,0.00000178,0.000
 00536,0.00000098,-0.00000198,0.00001975,0.00002940,0.00006862,-0.00077
 432,-0.00061745,0.00036895,-0.00012416,0.00103027,-0.00020715,0.127753
 75,0.27278821,-0.00005534,0.00007467,0.00008379,0.00000023,-0.00002848
 ,0.00005128,-0.00001999,0.00001115,-0.00005083,0.00000495,0.00001940,0
 .00000991,0.00002438,0.00005351,-0.00007539,0.00004238,-0.00020787,-0.
 00022362,-0.00014442,0.00009950,0.00002033,0.00001582,0.00018881,0.000
 74850,0.00020755,0.00198117,0.00390440,0.00192411,-0.00091314,-0.00129
 791,-0.00024737,-0.00009224,0.00017922,-0.00134476,0.00022790,0.005431
 75,0.00061954,0.00401187,0.00068123,0.01144490,0.01227167,-0.02751326,
 -0.00414206,-0.00110483,0.00368812,0.00026204,0.00023180,-0.00465312,0
 .00000111,-0.00000538,-0.00001671,-0.00003169,0.00000460,-0.00003306,-
 0.00002843,-0.00001966,-0.00003479,-0.00000038,-0.00000213,0.00000236,
 0.00000527,0.00000307,0.00000574,0.00001798,-0.00000038,0.00000333,0.0
 0018932,-0.00006559,-0.00007499,-0.00009167,0.00011313,0.00083251,-0.0
 0020671,-0.00038878,-0.00346884,-0.00844675,-0.01646377,0.02180005\\-0
 .00000307,0.00000135,-0.00000185,-0.00000140,-0.00000009,-0.00000017,0
 .00000042,0.00000038,0.00000016,-0.00000018,0.00000004,-0.00000035,0.0
 0000001,0.00000031,-0.00000048,-0.00000029,0.00000037,0.00000108,-0.00
 000303,0.00000019,-0.00000322,0.00000128,0.00000224,-0.00000083,-0.000
 00082,-0.00000023,-0.00000013,-0.00000006,-0.00000070,0.00000034,0.000
 00231,0.00000053,0.00000016,-0.00000008,-0.00000022,0.00000028,0.,-0.0
 0000057,0.00000013,-0.00000021,-0.00000023,0.00000041,0.00000015,-0.00
 000053,0.00000053,0.00000883,-0.00000257,0.00000408,-0.00000032,-0.000
 00034,-0.00000048,-0.00000236,-0.00000017,-0.00000092,-0.00000097,0.00
 000091,0.00000012,0.00000023,0.00000032,-0.00000007,-0.00000007,0.0000
 0032,-0.00000048,-0.00000022,0.00000030,-0.00000054,-0.00000003,-0.000
 00043,0.00000107,-0.00000031,-0.00000044,0.00000009,0.00000004,-0.0000
 0045,0.00000049,0.00000014,-0.00000029,0.00000057\\\@


 ABOVE ALL I AM AN OPTIMIST FOR NUMBER THEORY,
 AND I HOLD THE HOPE THAT WE MAY NOT BE FAR FROM
 A TIME WHEN IRREFUTABLE ARITHMETIC WILL CELEBRATE
 ITS TRIUMPHS IN PHYSICS AND CHEMISTRY.
   -- HERMANN MINKOWSKI, 1905
 Job cpu time:       0 days  0 hours 23 minutes 49.2 seconds.
 Elapsed time:       0 days  0 hours  3 minutes  2.1 seconds.
 File lengths (MBytes):  RWF=    233 Int=      0 D2E=      0 Chk=      8 Scr=      1
 Normal termination of Gaussian 16 at Thu Jul 23 14:31:46 2026.
