%mem=12000MB
%nprocshared=8
# opt=(ts,noeigen,recalcfc=15) bp86 empiricaldispersion=GD3BJ def2svp  freq IOP(1/8=2) nosymm

example

0 1
C -1.0336250000 2.4571100000 -1.2959290000
C -1.4897680000 1.1886570000 -0.5915310000
C -2.8661720000 1.1958400000 -0.2722280000
C -3.5924230000 0.0426880000 0.0407000000
C -2.9410290000 -1.1839350000 -0.1201050000
C -1.5783290000 -1.1760960000 -0.4063260000
F -1.0951890000 -2.4145540000 -0.7918140000
C -0.7161810000 -0.0342590000 -0.4211060000
C 0.7772840000 -0.1373990000 -0.2898030000
C 1.5339310000 -1.3522550000 -0.0049840000
O 1.0323920000 -2.5224080000 0.4456200000
C 2.9489690000 -1.3758750000 -0.0749060000
C 3.7003770000 -0.2183520000 -0.2504050000
C 3.0266260000 1.0085470000 -0.2946700000
C 1.6323350000 1.0160880000 -0.2530760000
F 1.1005990000 2.2468520000 -0.0900760000
H -1.8717270000 2.7922040000 -1.9409810000
H -0.7929300000 3.2888370000 -0.6069850000
H -0.1605130000 2.2929580000 -1.9505280000
H -3.3963220000 2.1589190000 -0.3476930000
H -4.6614410000 0.0899870000 0.2954860000
H -3.4626050000 -2.1510920000 -0.0816800000
H 0.1093020000 -2.6580040000 0.1453260000
H 3.4209880000 -2.3572400000 0.0751540000
H 4.7990620000 -0.2607660000 -0.2951770000
H 3.5462170000 1.9768620000 -0.3029860000

