  26
G(CENSO)=        -776.03802821  G(xTB)=         -46.31752443        !CONF2
C   -0.7244012996   1.6148839231  -1.9971953269
C   -1.4666384445   0.7875070938  -0.9923384146
C   -2.8544637405   0.7794517948  -0.9535035488
C   -3.5419444041   0.0356396916  -0.0100914734
C   -2.8517545878  -0.7215460134   0.9189857577
C   -1.4706468825  -0.7149211784   0.8782736786
F   -0.7892243679  -1.4662700791   1.7681493731
C   -0.7580006798   0.0218008563  -0.0605954588
C    0.7256738988  -0.0016402315  -0.0486490995
C    1.4425015334  -0.7554623904  -0.9824666168
O    0.8107428204  -1.4865068077  -1.9353221276
C    2.8327824849  -0.7672099058  -0.9512760097
C    3.5134173205  -0.0408869256   0.0059555262
C    2.8246015281   0.7087991816   0.9443903079
C    1.4444331542   0.7125522643   0.9004968558
F    0.7629234332   1.4559068469   1.7979722743
H   -1.4153443012   2.2052914413  -2.5927518495
H   -0.0329883011   2.2881657040  -1.4920189408
H   -0.1384220337   0.9875781253  -2.6684486477
H   -3.4039099546   1.3713138563  -1.6701917658
H   -4.6207521054   0.0473260369   0.0041921550
H   -3.3598616458  -1.3076425458   1.6675232461
H   -0.1460836362  -1.4334941186  -1.8057364714
H    3.3560400890  -1.3585164393  -1.6849274994
H    4.5918134000  -0.0591964434   0.0241308893
H    3.3352861100   1.2816322394   1.7008971666
  26
G(CENSO)=        -776.03785797  G(xTB)=         -46.31761758        !CONF3
C   -0.7131921043   1.7968450948  -1.8184638199
C   -1.4636681907   0.8824122374  -0.9005212327
C   -2.8512151055   0.8783357275  -0.8606073566
C   -3.5419578029   0.0418429756  -0.0008252168
C   -2.8556363313  -0.8169507661   0.8383828769
C   -1.4744802103  -0.8126603091   0.7962947248
F   -0.7945784381  -1.6572573151   1.6017579116
C   -0.7590005980   0.0200388955  -0.0555652467
C    0.7258810982  -0.0032952744  -0.0445565404
C    1.4411392608  -0.8547243587  -0.8910356438
O    0.8096056077  -1.6770255138  -1.7651799809
C    2.8318937532  -0.8621267325  -0.8596657546
C    3.5130696683  -0.0346530354   0.0108003130
C    2.8250583557   0.8159495453   0.8598039865
C    1.4451345935   0.8151098643   0.8151561150
F    0.7624684538   1.6511231548   1.6279278425
H   -0.0349915655   1.2340578959  -2.4593467387
H   -1.3984740863   2.3626407015  -2.4438723424
H   -0.1118202897   2.4968283508  -1.2391591806
H   -3.3978833019   1.5462616096  -1.5093861796
H   -4.6206335300   0.0596054341   0.0185960757
H   -3.3661805186  -1.4779997802   1.5197408541
H   -0.1477065910  -1.6109405499  -1.6436721850
H    3.3547759432  -1.5295031138  -1.5251497278
H    4.5913805979  -0.0514553842   0.0307351740
H    3.3358834124   1.4688950590   1.5481817096
  26
G(CENSO)=        -776.03764813  G(xTB)=         -46.31723654        !CONF4
C   -0.7508880591   1.5114887065  -2.1005554603
C   -1.4699217224   0.7402707176  -1.0348240899
C   -2.8587949171   0.7310973061  -0.9899991185
C   -3.5421088047   0.0410945955  -0.0053234249
C   -2.8466161233  -0.6620940066   0.9622153191
C   -1.4666927265  -0.6575611781   0.9146445793
F   -0.7821614857  -1.3635258047   1.8385170310
C   -0.7558578113   0.0258696632  -0.0672799489
C    0.7265633535  -0.0025499661  -0.0524887620
C    1.4483318341  -0.7015828034  -1.0255412708
O    0.8226361938  -1.3853579790  -2.0155199076
C    2.8385669959  -0.7127253127  -0.9905267491
C    3.5155032083  -0.0440229866   0.0101634389
C    2.8222299214   0.6450151733   0.9908784270
C    1.4423065434   0.6513140332   0.9425366130
F    0.7592377804   1.3411690660   1.8794197651
H   -1.3640674572   2.3405323513  -2.4447487500
H    0.1943319183   1.9010782023  -1.7280719533
H   -0.5345887577   0.8756451683  -2.9606555219
H   -3.4100840014   1.2834674893  -1.7362636147
H   -4.6208945741   0.0531008893   0.0136064358
H   -3.3507217628  -1.2050243789   1.7449923357
H   -0.1343701721  -1.3455272845  -1.8830155178
H    3.3649880239  -1.2583267780  -1.7562570797
H    4.5938211264  -0.0608452180   0.0305613546
H    3.3290914216   1.1712816958   1.7828260707
  26
G(CENSO)=        -776.03749017  G(xTB)=         -46.31758745        !CONF1
C   -0.7359902562   2.0979801838  -1.4765998425
C   -1.4660977183   1.0301892152  -0.7241554291
C   -2.8542263737   1.0170117687  -0.6814217755
C   -3.5460820352   0.0383736987   0.0098019706
C   -2.8582655193  -0.9616319088   0.6733425040
C   -1.4779734810  -0.9473801917   0.6294649501
F   -0.7990325432  -1.9262580093   1.2734605186
C   -0.7576350310   0.0296444858  -0.0511126415
C    0.7247791708  -0.0012639213  -0.0398209429
C    1.4383409555  -1.0051770697  -0.7048272002
O    0.8173046577  -1.9759808669  -1.4142569178
C    2.8302357883  -1.0069761496  -0.6754655364
C    3.5172602864  -0.0312426830   0.0174301907
C    2.8324281568   0.9662819011   0.6915925301
C    1.4532580893   0.9614601472   0.6483638743
F    0.7797095207   1.9311234995   1.3075687876
H   -1.3966826150   2.5850548988  -2.1891374669
H   -0.3669183997   2.8535076872  -0.7835434170
H    0.1211058642   1.6860189828  -2.0069498991
H   -3.4009826322   1.7908084912  -1.1993891214
H   -4.6247346280   0.0521072921   0.0325996737
H   -3.3662701716  -1.7383509436   1.2216752781
H   -0.1399991955  -1.9165695731  -1.2951477510
H    3.3481254953  -1.7910007396  -1.2032236442
H    4.5956409116  -0.0467123995   0.0370215531
H    3.3458434884   1.7347583600   1.2458434000
  26
G(CENSO)=        -776.03738692  G(xTB)=         -46.31728822        !CONF7
C   -0.7909171843   1.5981664417  -2.0608885162
C   -1.4786810489   0.7713483042  -1.0160524289
C   -2.8681798678   0.7654714308  -0.9514187573
C   -3.5410210594   0.0471252772   0.0186440951
C   -2.8344429570  -0.6929361211   0.9510275014
C   -1.4559956784  -0.6882418442   0.8853665152
F   -0.7606654639  -1.4241209847   1.7772254350
C   -0.7541626635   0.0294976976  -0.0800729794
C    0.7294697979  -0.0011622558  -0.0625397917
C    1.4557125298  -0.7431801429  -0.9998101052
O    0.8362975682  -1.4453168397  -1.9807404489
C    2.8453718801  -0.7691989526  -0.9431877849
C    3.5157163440  -0.0698683528   0.0409113234
C    2.8176362205   0.6679914786   0.9818840031
C    1.4387227582   0.6859248450   0.9139857415
F    0.7489505330   1.4158034804   1.8157020326
H   -1.2595901834   1.4505319666  -3.0322314842
H   -0.8805012409   2.6540084714  -1.8060400531
H    0.2662875056   1.3595149373  -2.1372991694
H   -3.4250087412   1.3444249556  -1.6731775451
H   -4.6193355521   0.0631674229   0.0537027467
H   -3.3299727782  -1.2632278416   1.7198362747
H   -0.1227053837  -1.3578825708  -1.8901562339
H    3.3754011223  -1.3500547548  -1.6802612283
H    4.5934194597  -0.0995217900   0.0773301413
H    3.3201378091   1.2206262021   1.7584576874
  26
G(CENSO)=        -776.03738142  G(xTB)=         -46.31724355        !CONF6
C   -0.7881320729   1.6569041149  -2.0090957073
C   -1.4797377632   0.7953467989  -0.9959410087
C   -2.8695151219   0.7674837753  -0.9473402071
C   -3.5418293624   0.0148560807  -0.0029342761
C   -2.8345608642  -0.7342176764   0.9216587888
C   -1.4555228232  -0.7081462195   0.8712841850
F   -0.7582381229  -1.4526183524   1.7546324762
C   -0.7548814530   0.0400033168  -0.0712404285
C    0.7293052914   0.0102935952  -0.0558944927
C    1.4431466862  -0.7614706975  -0.9787389784
O    0.8112198227  -1.4783433661  -1.9407785793
C    2.8324596014  -0.8016980705  -0.9275800309
C    3.5146742723  -0.0852365769   0.0359934812
C    2.8289386760   0.6849840142   0.9598108692
C    1.4497309852   0.7158472212   0.8981813157
F    0.7716490276   1.4747215771   1.7846613863
H   -0.8378978496   2.6990869322  -1.6935365013
H    0.2594751496   1.3899434952  -2.1198795363
H   -1.2799791284   1.5784046533  -2.9765751574
H   -3.4276225935   1.3533290577  -1.6624618711
H   -4.6205828235   0.0105590157   0.0171262513
H   -3.3294374957  -1.3296954525   1.6715135789
H   -0.1461239216  -1.3758064033  -1.8490511100
H    3.3528881636  -1.4072592754  -1.6514891106
H    4.5920810764  -0.1266910685   0.0695067196
H    3.3412140877   1.2519234558   1.7195320853
  26
G(CENSO)=        -776.03702497  G(xTB)=         -46.31722978        !CONF8
C   -0.7782993862   2.0037161147  -1.6465553310
C   -1.4724390997   0.9869163987  -0.7935953205
C   -2.8621087094   0.9639421175  -0.7449564722
C   -3.5429122013   0.0285980376   0.0110499210
C   -2.8439469382  -0.9179202990   0.7400192114
C   -1.4650403706  -0.8939422736   0.6907415190
F   -0.7735758596  -1.8192533362   1.3942626081
C   -0.7550588211   0.0398758212  -0.0602098195
C    0.7292865513   0.0054421418  -0.0437789740
C    1.4378706862  -0.9510547600  -0.7777048809
O    0.8061187434  -1.8606395573  -1.5569131399
C    2.8286814851  -0.9708737078  -0.7360847413
C    3.5168481380  -0.0563730739   0.0354904828
C    2.8360367743   0.8953646680   0.7763539293
C    1.4567875895   0.9073442641   0.7223678013
F    0.7826438078   1.8356626296   1.4360404231
H    0.2948612225   2.0020209217  -1.4786681017
H   -0.9624353211   1.7920140814  -2.7000934128
H   -1.1653276112   2.9981208569  -1.4333792677
H   -3.4138473936   1.6984227605  -1.3125805834
H   -4.6215743877   0.0330911912   0.0357876549
H   -3.3439318235  -1.6595696861   1.3415710038
H   -0.1513413128  -1.7745608673  -1.4547487367
H    3.3453906275  -1.7176952735  -1.3160390271
H    4.5945952908  -0.0842555925   0.0641015297
H    3.3518735643   1.6161614150   1.3891760064
  26
G(CENSO)=        -776.03631212  G(xTB)=         -46.31652059        !CONF9
C   -0.7765698910   1.8037060195  -1.8665081450
C   -1.4741282520   0.8828264355  -0.9122909482
C   -2.8639976579   0.8640361750  -0.8621331107
C   -3.5417309614   0.0297126064   0.0065513661
C   -2.8401668687  -0.8151056711   0.8496589317
C   -1.4611097297  -0.7960697152   0.7980932665
F   -0.7670982896  -1.6261951363   1.6066731986
C   -0.7554205159   0.0361790811  -0.0667077173
C    0.7301040527   0.0055914596  -0.0503968428
C    1.4424356656  -0.8476764593  -0.8983326499
O    0.8093657993  -1.6523054906  -1.7861708486
C    2.8326546525  -0.8756638590  -0.8507232814
C    3.5155948139  -0.0658022161   0.0348287102
C    2.8302753072   0.7861694655   0.8848509201
C    1.4508468506   0.8036108206   0.8278026906
F    0.7709122749   1.6369404229   1.6445531973
H   -1.0946413067   2.8300272308  -1.6914159141
H    0.3031385332   1.7502171090  -1.7540762644
H   -1.0336087252   1.5468736916  -2.8938870696
H   -3.4176640886   1.5218623226  -1.5155479469
H   -4.6205286394   0.0350984970   0.0316594395
H   -3.3397131632  -1.4757677021   1.5396258772
H   -0.1480334349  -1.5542078997  -1.6913160098
H    3.3534797613  -1.5444308954  -1.5163436908
H    4.5933502281  -0.0971644859   0.0658189688
H    3.3432494671   1.4260841045   1.5838340467
  26
G(CENSO)=        -776.03373172  G(xTB)=         -46.31627677        !CONF11
C   -0.7522915453   1.5746671023  -2.0431438214
C   -1.4791631238   0.7767627300  -1.0055252588
C   -2.8662411054   0.7603272276  -0.9564497268
C   -3.5428298414   0.0253899067   0.0010454235
C   -2.8402633879  -0.7143262132   0.9346282819
C   -1.4600864395  -0.6963860220   0.8833336998
F   -0.7674326705  -1.4286728736   1.7838994372
C   -0.7600324414   0.0328899160  -0.0686852646
C    0.7201422646   0.0119874778  -0.0570734253
C    1.4424080035  -0.7297822332  -0.9975279081
O    0.7429776280  -1.4039710893  -1.9473188484
C    2.8301340864  -0.7623180712  -0.9428799833
C    3.5113556920  -0.0639299021   0.0376343016
C    2.8188969916   0.6787126015   0.9756719696
C    1.4378555039   0.6982999705   0.9120909678
F    0.7591116123   1.4319328120   1.8172336732
H   -0.2838316238   0.9046022929  -2.7626865023
H   -1.4363695611   2.2304673490  -2.5739521269
H    0.0323854364   2.1761301606  -1.5863304737
H   -3.4248165616   1.3362971047  -1.6795058490
H   -4.6219685835   0.0285509926   0.0221633448
H   -3.3386464406  -1.2972319210   1.6925281876
H    1.3489465177  -1.9164186095  -2.4962727247
H    3.3761870420  -1.3445462661  -1.6729641900
H    4.5889946754  -0.1002491474   0.0691993262
H    3.3251632619   1.2324350581   1.7491371265
  26
G(CENSO)=        -776.03361228  G(xTB)=         -46.31650706        !CONF5
C   -0.7745826849   2.1380978964  -1.4473303417
C   -1.4836705049   1.0416522494  -0.7141246047
C   -2.8713717148   0.9947920715  -0.6832554837
C   -3.5431098337  -0.0134620249  -0.0161470057
C   -2.8346806338  -1.0053476399   0.6379192287
C   -1.4554445636  -0.9570451432   0.6066510213
F   -0.7599320938  -1.9154744012   1.2585308446
C   -0.7584993921   0.0491964307  -0.0517633630
C    0.7201236409   0.0284490694  -0.0384574017
C    1.4148594035  -1.0016370518  -0.6848805898
O    0.6876868054  -1.9207629682  -1.3655751523
C    2.8030343710  -1.0434456690  -0.6376508813
C    3.5119331116  -0.0725973211   0.0462155922
C    2.8474808455   0.9546763574   0.6901724065
C    1.4662883857   0.9827401170   0.6371787336
F    0.8181350899   1.9776905891   1.2808103002
H   -0.4204838053   2.8900160265  -0.7429391371
H    0.0883442962   1.7497652005  -1.9848649237
H   -1.4440882991   2.6229761579  -2.1527651925
H   -3.4334073896   1.7623798626  -1.1946813289
H   -4.6222869312  -0.0301631458  -0.0063991214
H   -3.3290281463  -1.8049401109   1.1660258318
H    1.2676324763  -2.6069559774  -1.7166104968
H    3.3267331304  -1.8460151318  -1.1389340003
H    4.5892526892  -0.1189977401   0.0776760835
H    3.3759516787   1.7208158419   1.2333739773
  26
G(CENSO)=        -776.03343806  G(xTB)=         -46.31644978        !CONF10
C   -0.7522412554   1.8367202022  -1.8033877301
C   -1.4819629344   0.9006975390  -0.8904013370
C   -2.8689160584   0.8669962965  -0.8503125672
C   -3.5417777870   0.0015203285  -0.0056254657
C   -2.8362297317  -0.8552929995   0.8191811945
C   -1.4560567149  -0.8206608462   0.7752384580
F   -0.7579879481  -1.6566390342   1.5765337978
C   -0.7606634462   0.0412344244  -0.0610240335
C    0.7209310606   0.0238422308  -0.0502905266
C    1.4276544212  -0.8551588801  -0.8774419446
O    0.7103141817  -1.6384468331  -1.7227843986
C    2.8150633163  -0.8998016843  -0.8222637416
C    3.5084907209  -0.0780519890   0.0481497766
C    2.8308593764   0.8043984286   0.8686721018
C    1.4499080485   0.8365174405   0.8037274694
F    0.7824239507   1.6995414317   1.5987344521
H   -0.1063306119   1.2773168880  -2.4788946765
H   -1.4509026870   2.4248101640  -2.3923985096
H   -0.1235589937   2.5147667119  -1.2274071810
H   -3.4306638002   1.5298314649  -1.4919101812
H   -4.6209735051  -0.0080487013   0.0102268430
H   -3.3321285456  -1.5407745378   1.4876929209
H    1.3037310753  -2.2219252054  -2.2119091042
H    3.3510871045  -1.5880125583  -1.4617597262
H    4.5854645326  -0.1278349074   0.0862119522
H    3.3488716121   1.4542579121   1.5546829344
  26
G(CENSO)=        -776.03297442  G(xTB)=         -46.31615735        !CONF12
C   -0.8084615308   2.0371198203  -1.6254104374
C   -1.4856452336   0.9979014747  -0.7846385911
C   -2.8750192274   0.9492810628  -0.7429180903
C   -3.5409667194  -0.0098373544  -0.0044405548
C   -2.8262119906  -0.9523947035   0.7143691904
C   -1.4483644047  -0.9027665193   0.6706607252
F   -0.7436042961  -1.8152094286   1.3768715862
C   -0.7561006929   0.0557380643  -0.0618326197
C    0.7244561383   0.0287507120  -0.0440418559
C    1.4206654083  -0.9497498738  -0.7613845677
O    0.6952938944  -1.8162041395  -1.5110690850
C    2.8085155985  -0.9988930499  -0.7046809563
C    3.5124710787  -0.0869680659   0.0603192477
C    2.8447361978   0.8891956952   0.7769321656
C    1.4641556549   0.9256459059   0.7128640736
F    0.8075930523   1.8741774314   1.4136635559
H    0.2598929811   2.0740837667  -1.4334423819
H   -0.9593095531   1.8114918019  -2.6811427019
H   -1.2354154529   3.0184243789  -1.4278868338
H   -3.4384355631   1.6802988172  -1.3039037976
H   -4.6198473474  -0.0271819218   0.0142700424
H   -3.3156572174  -1.7130379859   1.3012953795
H    1.2796914491  -2.4657960566  -1.9199015580
H    3.3350887488  -1.7611047420  -1.2627020509
H    4.5893246066  -0.1385125291   0.0983664301
H    3.3703594029   1.6088307774   1.3828412508
  26
G(CENSO)=        -776.03288920  G(xTB)=         -46.31577698        !CONF13
C   -0.8123141339   1.6590020936  -2.0216117011
C   -1.4887622038   0.7987024315  -0.9984737215
C   -2.8776966049   0.7677541838  -0.9371389211
C   -3.5410120244   0.0121018673   0.0106597247
C   -2.8236568408  -0.7394148438   0.9250075806
C   -1.4458039847  -0.7085598641   0.8607204891
F   -0.7385592402  -1.4508955388   1.7418167264
C   -0.7563777712   0.0462568395  -0.0822340359
C    0.7246601037   0.0202920600  -0.0645214080
C    1.4442172821  -0.7567946484  -0.9784264646
O    0.7414992067  -1.4423910967  -1.9165142441
C    2.8310806900  -0.8071238014  -0.9092755020
C    3.5120449097  -0.0974324654   0.0633222227
C    2.8213890268   0.6772285672   0.9765138966
C    1.4417799817   0.7186058866   0.8960377088
F    0.7639146521   1.4804052101   1.7780968678
H   -1.2689341290   1.5119079434  -2.9982882885
H   -0.9248463804   2.7094208075  -1.7528690824
H    0.2480838553   1.4355220724  -2.0908592233
H   -3.4436475403   1.3524975565  -1.6474517192
H   -4.6198836218   0.0055167275   0.0406983273
H   -3.3102831406  -1.3404460987   1.6763185266
H    1.3439069839  -1.9621134432  -2.4620501602
H    3.3753619449  -1.4142751325  -1.6199356760
H    4.5883488191  -0.1510707650   0.1093649296
H    3.3281340430   1.2381371616   1.7444242576
