  26
G(CENSO)=        -776.03911312  G(xTB)=         -46.31734423        !CONF4
C   -0.7328172342   1.5565234968  -2.0654229338
C   -1.4708463327   0.7540843987  -1.0296639162
C   -2.8670240259   0.7358630941  -1.0022137281
C   -3.5601236224   0.0272989133  -0.0266465268
C   -2.8725735169  -0.6811102076   0.9510531913
C   -1.4900435717  -0.6609805785   0.9133063203
F   -0.8132797472  -1.3486931738   1.8556374432
C   -0.7587437014   0.0280645065  -0.0526200885
C    0.7217870021  -0.0127213484  -0.0368353229
C    1.4374180489  -0.7240359565  -1.0127833415
O    0.7914794793  -1.4297108631  -1.9825840641
C    2.8308003115  -0.7366816583  -1.0186108188
C    3.5234622932  -0.0462810951  -0.0340450993
C    2.8503465586   0.6550753067   0.9632313689
C    1.4679483575   0.6470473897   0.9345003662
F    0.7946572657   1.3296443442   1.8862512148
H   -1.4178219983   2.2174083183  -2.5997359317
H    0.0508780238   2.1623051664  -1.6017696505
H   -0.2401173445   0.9114805095  -2.8011578686
H   -3.4165542082   1.2987331467  -1.7500460239
H   -4.6450990559   0.0311966073  -0.0217568995
H   -3.3808733084  -1.2379119745   1.7295589577
H   -0.1592569579  -1.4019875935  -1.7981207461
H    3.3472663206  -1.2977336291  -1.7884266390
H    4.6082054262  -0.0585563618  -0.0366142706
H    3.3707543606   1.1949925372   1.7448095582
  26
G(CENSO)=        -776.03910688  G(xTB)=         -46.31747499        !CONF2
C   -0.7179461955   1.6135746571  -2.0045477159
C   -1.4649795665   0.7799693978  -1.0007026422
C   -2.8607604703   0.7512526895  -0.9877524197
C   -3.5573617854   0.0124250608  -0.0368375690
C   -2.8740387685  -0.7149467760   0.9296586918
C   -1.4907896903  -0.6829586707   0.9065852053
F   -0.8170250262  -1.3891133403   1.8371938435
C   -0.7571490505   0.0356994394  -0.0349768025
C    0.7241941248  -0.0012301174  -0.0166464000
C    1.4363340817  -0.7336784716  -0.9793791396
O    0.7862040445  -1.4531964807  -1.9354778703
C    2.8295901176  -0.7484639752  -0.9878366403
C    3.5246924673  -0.0355066980  -0.0208839948
C    2.8545963376   0.6905252338   0.9605742520
C    1.4718218962   0.6825466734   0.9358076692
F    0.8003150722   1.3866382683   1.8729416944
H   -1.4107099263   2.1939066104  -2.6171272559
H   -0.0343860885   2.3038137579  -1.4997744738
H   -0.1069146982   0.9944871820  -2.6702816731
H   -3.4073515930   1.3265757485  -1.7281258876
H   -4.6422999047   0.0061358259  -0.0437434401
H   -3.3858433149  -1.2960756265   1.6880909971
H   -0.1651409035  -1.4109224629  -1.7563365484
H    3.3436114168  -1.3267953498  -1.7466581293
H    4.6094141575  -0.0488725825  -0.0257419100
H    3.3776980413   1.2487710851   1.7274242560
  26
G(CENSO)=        -776.03909839  G(xTB)=         -46.31692669        !CONF6
C   -0.7369025771   1.5843519453  -2.0270611284
C   -1.4778257515   0.7541970471  -1.0159378789
C   -2.8732782369   0.7117494372  -1.0084766098
C   -3.5672810646  -0.0160418845  -0.0473486841
C   -2.8811760257  -0.7193100788   0.9347148499
C   -1.4982304943  -0.6757911830   0.9158910951
F   -0.8224029415  -1.3601843399   1.8611032286
C   -0.7669456256   0.0324978556  -0.0352212787
C    0.7143236517   0.0094019294  -0.0093670008
C    1.4391435836  -0.7123761193  -0.9707591776
O    0.8020064773  -1.4358420514  -1.9330134706
C    2.8323956638  -0.7135639353  -0.9715742225
C    3.5155348491  -0.0003196510   0.0034323300
C    2.8329111041   0.7128839326   0.9855448762
C    1.4505289707   0.6931511638   0.9521193320
F    0.7677307599   1.3856312908   1.8898140669
H   -0.0879834376   2.3108474259  -1.5264349211
H   -0.0913651769   0.9703183931  -2.6641778191
H   -1.4356656940   2.1257271891  -2.6682405189
H   -3.4220131424   1.2689034886  -1.7610154930
H   -4.6520597168  -0.0325762947  -0.0586830345
H   -3.3904427705  -1.2912342320   1.7016808747
H   -0.1507079621  -1.4043182141  -1.7589016495
H    3.3559341219  -1.2828508326  -1.7306637898
H    4.6003140704  -0.0033048048   0.0046552739
H    3.3460949041   1.2705710480   1.7593185708
  26
G(CENSO)=        -776.03865012  G(xTB)=         -46.31757439        !CONF1
C   -0.7440619402   2.1042817901  -1.4813998234
C   -1.4736818644   1.0284970773  -0.7294845448
C   -2.8689141823   0.9959754033  -0.7071237476
C   -3.5587968095   0.0104692745  -0.0088759958
C   -2.8672021250  -0.9730066409   0.6869324064
C   -1.4842983656  -0.9311151342   0.6592843762
F   -0.8019479377  -1.8813934472   1.3369006725
C   -0.7553526589   0.0403528126  -0.0270394204
C    0.7258763009   0.0034123983  -0.0098905882
C    1.4373383418  -0.9954028934  -0.6957936020
O    0.7962921849  -1.9585550426  -1.4085495590
C    2.8313961300  -1.0213766476  -0.6848597782
C    3.5292382309  -0.0465222153   0.0129576432
C    2.8610770545   0.9621484644   0.7028103245
C    1.4792463200   0.9554017816   0.6695606583
F    0.8117679543   1.9233002126   1.3402305336
H   -1.4096766088   2.6033389092  -2.1888815456
H   -0.3536388739   2.8590929624  -0.7898436878
H    0.1116567854   1.6963773976  -2.0272267136
H   -3.4220457235   1.7560779415  -1.2497739062
H   -4.6437916366   0.0050063205  -0.0069819822
H   -3.3707278070  -1.7535645056   1.2453898150
H   -0.1583830165  -1.8104547436  -1.3478328770
H    3.3434401573  -1.8075112140  -1.2273255625
H    4.6138005572  -0.0699494579   0.0220300596
H    3.3845312449   1.7309048058   1.2579011018
  26
G(CENSO)=        -776.03863397  G(xTB)=         -46.31634160        !CONF8
C   -0.7558041776   2.0528925581  -1.5721749331
C   -1.4816905364   0.9910823883  -0.7972870500
C   -2.8769308238   0.9475743834  -0.7880148634
C   -3.5663069883  -0.0235937117  -0.0696838419
C   -2.8740344799  -0.9815630893   0.6600626852
C   -1.4916238187  -0.9286136869   0.6456260504
F   -0.8090658069  -1.8540656359   1.3571731397
C   -0.7625119135   0.0290539957  -0.0597875104
C    0.7183128833   0.0047900726  -0.0258989653
C    1.4451929644  -1.0122716118  -0.6672765394
O    0.8202713312  -2.0061006361  -1.3525327326
C    2.8391441863  -1.0264599816  -0.6402551032
C    3.5219461970  -0.0214303754   0.0289718373
C    2.8382179202   1.0055917766   0.6746842816
C    1.4571894897   0.9860213533   0.6271829976
F    0.7752579227   1.9721046025   1.2561293609
H    0.1296770921   1.6471781942  -2.0686183625
H   -1.4096548584   2.4992192222  -2.3239967117
H   -0.4131678675   2.8493672966  -0.9031961479
H   -3.4303804284   1.6876611408  -1.3575968067
H   -4.6511561151  -0.0378423851  -0.0793245521
H   -3.3766382494  -1.7506318326   1.2346145987
H   -0.1362088958  -1.8641197355  -1.3064433644
H    3.3634123757  -1.8275586382  -1.1482794500
H    4.6064379696  -0.0358282007   0.0504338158
H    3.3492962367   1.7981077792   1.2069700357
  26
G(CENSO)=        -776.03861319  G(xTB)=         -46.31727848        !CONF7
C   -0.7803477451   1.6092571882  -2.0579593720
C   -1.4773906339   0.7636728182  -1.0266682676
C   -2.8749696993   0.7168107453  -1.0020239849
C   -3.5567203452   0.0028513026  -0.0254861596
C   -2.8570096259  -0.6894981753   0.9568120850
C   -1.4765828607  -0.6456671541   0.9193637751
F   -0.7886743863  -1.3248665541   1.8596659987
C   -0.7532164995   0.0558050758  -0.0472576581
C    0.7283131313   0.0140391228  -0.0257142228
C    1.4411959596  -0.7188399431  -0.9883809132
O    0.7934182214  -1.4095391035  -1.9663963850
C    2.8342149634  -0.7580016751  -0.9775709212
C    3.5282794912  -0.0721409072   0.0094163986
C    2.8571274486   0.6521362735   0.9911317608
C    1.4751011622   0.6699459476   0.9466669589
F    0.8038902572   1.3710352624   1.8861940862
H   -1.2645339396   1.5114639312  -3.0334504553
H   -0.8343724497   2.6650054667  -1.7681510804
H    0.2742683007   1.3515584585  -2.1619378678
H   -3.4317033754   1.2619003583  -1.7582009844
H   -4.6414999250  -0.0170537648  -0.0250313116
H   -3.3561986096  -1.2557540743   1.7343352922
H   -0.1606169376  -1.3369221328  -1.8128590109
H    3.3484262147  -1.3334339898  -1.7384536520
H    4.6125511018  -0.1046183318   0.0190330399
H    3.3789762163   1.1897529563   1.7730841034
  26
G(CENSO)=        -776.03858958  G(xTB)=         -46.31726617        !CONF3
C   -0.7095021618   1.8107090508  -1.8105483074
C   -1.4638057009   0.8832884609  -0.9007669224
C   -2.8590128512   0.8566954044  -0.8903862516
C   -3.5561464986   0.0109457367  -0.0329319452
C   -2.8740894032  -0.8307031266   0.8364958239
C   -1.4901819028  -0.7965693975   0.8170035801
F   -0.8157426399  -1.6113643062   1.6549768130
C   -0.7572946625   0.0339162424  -0.0271180415
C    0.7256822641   0.0005818853  -0.0092086678
C    1.4327607854  -0.8477851537  -0.8743152595
O    0.7768868913  -1.6673273014  -1.7409850113
C    2.8262784808  -0.8696235172  -0.8805320531
C    3.5245500160  -0.0394921619  -0.0147406199
C    2.8584608139   0.8157298642   0.8597553185
C    1.4756294439   0.8089496376   0.8362170801
F    0.8055562928   1.6368359389   1.6694652012
H   -0.0054061358   1.2615572544  -2.4443897539
H   -1.3939724167   2.3684354782  -2.4527605365
H   -0.1189895548   2.5262321598  -1.2283760718
H   -3.4054411146   1.5121957971  -1.5609296746
H   -4.6411430882   0.0068099777  -0.0402415157
H   -3.3862978890  -1.4988789543   1.5189659804
H   -0.1758505799  -1.5616831140  -1.5998229074
H    3.3382630346  -1.5396591494  -1.5612086197
H    4.6092518278  -0.0580825382  -0.0176832592
H    3.3844380053   1.4696234718   1.5444569621
  26
G(CENSO)=        -776.03842903  G(xTB)=         -46.31692068        !CONF9
C   -0.7853438781   1.6350471778  -2.0171562094
C   -1.4764750734   0.7906570233  -0.9799799080
C   -2.8744608579   0.7436221010  -0.9538613342
C   -3.5550837992   0.0185520837   0.0143476706
C   -2.8536427816  -0.6834641477   0.9892966469
C   -1.4738696224  -0.6389422909   0.9512358207
F   -0.7855837700  -1.3283045410   1.8838009663
C   -0.7505225564   0.0719523402  -0.0098053273
C    0.7302817865   0.0259452986   0.0087116533
C    1.4429340567  -0.6533855949  -0.9931243299
O    0.7955010113  -1.2900664040  -2.0071495714
C    2.8359304803  -0.6946359756  -0.9842906445
C    3.5307614679  -0.0660082721   0.0394758601
C    2.8602713233   0.6038820716   1.0597095144
C    1.4784179866   0.6266533965   1.0159531897
F    0.8090246425   1.2782927959   1.9914170460
H   -1.0807963347   2.6830370164  -1.8992653203
H    0.3007831965   1.5789101017  -1.9350687181
H   -1.0725673994   1.3277566367  -3.0281429524
H   -3.4314995695   1.2990612914  -1.7024422787
H   -4.6398395314  -0.0005393059   0.0165921486
H   -3.3516894433  -1.2571018905   1.7622349261
H   -0.1582670363  -1.2316627359  -1.8468208270
H    3.3493345553  -1.2280701532  -1.7756868079
H    4.6149708386  -0.1003356718   0.0473613369
H    3.3824085444   1.0977271043   1.8699932660
