  26
G(CENSO)=        -776.03802821  G(xTB)=         -46.31752443        !CONF2
C   -0.7244012996   1.6148839231  -1.9971953269
C   -1.4666384445   0.7875070938  -0.9923384146
C   -2.8544637405   0.7794517948  -0.9535035488
C   -3.5419444041   0.0356396916  -0.0100914734
C   -2.8517545878  -0.7215460134   0.9189857577
C   -1.4706468825  -0.7149211784   0.8782736786
F   -0.7892243679  -1.4662700791   1.7681493731
C   -0.7580006798   0.0218008563  -0.0605954588
C    0.7256738988  -0.0016402315  -0.0486490995
C    1.4425015334  -0.7554623904  -0.9824666168
O    0.8107428204  -1.4865068077  -1.9353221276
C    2.8327824849  -0.7672099058  -0.9512760097
C    3.5134173205  -0.0408869256   0.0059555262
C    2.8246015281   0.7087991816   0.9443903079
C    1.4444331542   0.7125522643   0.9004968558
F    0.7629234332   1.4559068469   1.7979722743
H   -1.4153443012   2.2052914413  -2.5927518495
H   -0.0329883011   2.2881657040  -1.4920189408
H   -0.1384220337   0.9875781253  -2.6684486477
H   -3.4039099546   1.3713138563  -1.6701917658
H   -4.6207521054   0.0473260369   0.0041921550
H   -3.3598616458  -1.3076425458   1.6675232461
H   -0.1460836362  -1.4334941186  -1.8057364714
H    3.3560400890  -1.3585164393  -1.6849274994
H    4.5918134000  -0.0591964434   0.0241308893
H    3.3352861100   1.2816322394   1.7008971666
