      -----------------------------------------------------------      
     |                   =====================                   |     
     |                           x T B                           |     
     |                   =====================                   |     
     |                         S. Grimme                         |     
     |          Mulliken Center for Theoretical Chemistry        |     
     |                    University of Bonn                     |     
      -----------------------------------------------------------      

   * xtb version 6.6.1 (8d0f1dd) compiled by 'stahn@M-Bot' on 2023-08-01

   xtb is free software: you can redistribute it and/or modify it under
   the terms of the GNU Lesser General Public License as published by
   the Free Software Foundation, either version 3 of the License, or
   (at your option) any later version.
   
   xtb is distributed in the hope that it will be useful,
   but WITHOUT ANY WARRANTY; without even the implied warranty of
   MERCHANTABILITY or FITNESS FOR A PARTICULAR PURPOSE.  See the
   GNU Lesser General Public License for more details.
   
   Cite this work as:
   * C. Bannwarth, E. Caldeweyher, S. Ehlert, A. Hansen, P. Pracht,
     J. Seibert, S. Spicher, S. Grimme, WIREs Comput. Mol. Sci., 2020, 11,
     e01493. DOI: 10.1002/wcms.1493
   
   for GFN2-xTB:
   * C. Bannwarth, S. Ehlert and S. Grimme., J. Chem. Theory Comput., 2019,
     15, 1652-1671. DOI: 10.1021/acs.jctc.8b01176
   for GFN1-xTB:
   * S. Grimme, C. Bannwarth, P. Shushkov, J. Chem. Theory Comput., 2017,
     13, 1989-2009. DOI: 10.1021/acs.jctc.7b00118
   for GFN0-xTB:
   * P. Pracht, E. Caldeweyher, S. Ehlert, S. Grimme, ChemRxiv, 2019, preprint.
     DOI: 10.26434/chemrxiv.8326202.v1
   for GFN-FF:
   * S. Spicher and S. Grimme, Angew. Chem. Int. Ed., 2020, 59, 15665-15673.
     DOI: 10.1002/anie.202004239
   
   for ALPB and GBSA implicit solvation:
   * S. Ehlert, M. Stahn, S. Spicher, S. Grimme, J. Chem. Theory Comput.,
     2021, 17, 4250-4261. DOI: 10.1021/acs.jctc.1c00471
   
   for DFT-D4:
   * E. Caldeweyher, C. Bannwarth and S. Grimme, J. Chem. Phys., 2017,
     147, 034112. DOI: 10.1063/1.4993215
   * E. Caldeweyher, S. Ehlert, A. Hansen, H. Neugebauer, S. Spicher,
     C. Bannwarth and S. Grimme, J. Chem. Phys., 2019, 150, 154122.
     DOI: 10.1063/1.5090222
   * E. Caldeweyher, J.-M. Mewes, S. Ehlert and S. Grimme, Phys. Chem. Chem. Phys.
     2020, 22, 8499-8512. DOI: 10.1039/D0CP00502A
   
   for sTDA-xTB:
   * S. Grimme and C. Bannwarth, J. Chem. Phys., 2016, 145, 054103.
     DOI: 10.1063/1.4959605
   
   in the mass-spec context:
   * V. Asgeirsson, C. Bauer and S. Grimme, Chem. Sci., 2017, 8, 4879.
     DOI: 10.1039/c7sc00601b
   * J. Koopman and S. Grimme, ACS Omega 2019, 4, 12, 15120-15133.
     DOI: 10.1021/acsomega.9b02011
   
   for metadynamics refer to:
   * S. Grimme, J. Chem. Theory Comput., 2019, 155, 2847-2862
     DOI: 10.1021/acs.jctc.9b00143
   
   for SPH calculations refer to:
   * S. Spicher and S. Grimme, J. Chem. Theory Comput., 2021, 17, 1701-1714
     DOI: 10.1021/acs.jctc.0c01306
   
   with help from (in alphabetical order)
   P. Atkinson, C. Bannwarth, F. Bohle, G. Brandenburg, E. Caldeweyher
   M. Checinski, S. Dohm, S. Ehlert, S. Ehrlich, I. Gerasimov, C. Hölzer
   A. Katbashev, J. Koopman, C. Lavigne, S. Lehtola, F. März, M. Müller,
   F. Musil, H. Neugebauer, J. Pisarek, C. Plett, P. Pracht, F. Pultar,
   J. Seibert, P. Shushkov, S. Spicher, M. Stahn, M. Steiner, T. Strunk,
   J. Stückrath, T. Rose, and J. Unsleber
   
 * started run on 2026/07/23 at 12:55:28.768     

           -------------------------------------------------
          |                Calculation Setup                |
           -------------------------------------------------

          program call               : /path/to/xtb /path/to/atropisomers_workflow/example/reactant_censo/confs/6.xyz --opt --etemp 298.15 --chrg 0 --uhf 0 -P 4
          hostname                   : node
          coordinate file            : /path/to/atropisomers_workflow/example/reactant_censo/confs/6.xyz
          omp threads                :                     4

   ID    Z sym.   atoms
    1    6 C      1-6, 8-10, 12-15
    2    9 F      7, 16
    3    8 O      11
    4    1 H      17-26

           -------------------------------------------------
          |                 G F N 2 - x T B                 |
           -------------------------------------------------

        Reference                      10.1021/acs.jctc.8b01176
      * Hamiltonian:
        H0-scaling (s, p, d)           1.850000    2.230000    2.230000
        zeta-weighting                 0.500000
      * Dispersion:
        s8                             2.700000
        a1                             0.520000
        a2                             5.000000
        s9                             5.000000
      * Repulsion:
        kExp                           1.500000    1.000000
        rExp                           1.000000
      * Coulomb:
        alpha                          2.000000
        third order                    shell-resolved
        anisotropic                    true
        a3                             3.000000
        a5                             4.000000
        cn-shift                       1.200000
        cn-exp                         4.000000
        max-rad                        5.000000


          ...................................................
          :                      SETUP                      :
          :.................................................:
          :  # basis functions                  74          :
          :  # atomic orbitals                  74          :
          :  # shells                           42          :
          :  # electrons                        82          :
          :  max. iterations                   250          :
          :  Hamiltonian                  GFN2-xTB          :
          :  restarted?                      false          :
          :  GBSA solvation                  false          :
          :  PC potential                    false          :
          :  electronic temp.          298.1500000     K    :
          :  accuracy                    1.0000000          :
          :  -> integral cutoff          0.2500000E+02      :
          :  -> integral neglect         0.1000000E-07      :
          :  -> SCF convergence          0.1000000E-05 Eh   :
          :  -> wf. convergence          0.1000000E-03 e    :
          :  Broyden damping             0.4000000          :
          ...................................................

 iter      E             dE          RMSdq      gap      omega  full diag
   1    -47.0538740 -0.470539E+02  0.459E+00    4.38       0.0  T
   2    -47.0915969 -0.377229E-01  0.280E+00    4.29       1.0  T
   3    -47.0838671  0.772982E-02  0.147E+00    4.37       1.0  T
   4    -47.1042418 -0.203747E-01  0.235E-01    4.35       1.0  T
   5    -47.1044807 -0.238875E-03  0.912E-02    4.37       1.0  T
   6    -47.1045924 -0.111753E-03  0.467E-02    4.37       1.0  T
   7    -47.1046104 -0.179563E-04  0.174E-02    4.36       1.1  T
   8    -47.1046131 -0.273386E-05  0.788E-03    4.36       2.5  T
   9    -47.1046137 -0.581865E-06  0.173E-03    4.36      11.3  T
  10    -47.1046137 -0.143604E-07  0.792E-04    4.36      24.8  T
  11    -47.1046137 -0.241679E-08  0.386E-04    4.36      50.8  T

   *** convergence criteria satisfied after 11 iterations ***

         #    Occupation            Energy/Eh            Energy/eV
      -------------------------------------------------------------
         1        2.0000           -0.8140732             -22.1521
       ...           ...                  ...                  ...
        35        2.0000           -0.4535404             -12.3415
        36        2.0000           -0.4443630             -12.0917
        37        2.0000           -0.4248841             -11.5617
        38        2.0000           -0.4105775             -11.1724
        39        2.0000           -0.4058961             -11.0450
        40        2.0000           -0.4010822             -10.9140
        41        2.0000           -0.3982289             -10.8364 (HOMO)
        42                         -0.2378298              -6.4717 (LUMO)
        43                         -0.2328342              -6.3357
        44                         -0.2306409              -6.2761
        45                         -0.2261260              -6.1532
        46                         -0.1068151              -2.9066
       ...                                ...                  ...
        74                          0.6930056              18.8576
      -------------------------------------------------------------
                  HL-Gap            0.1603990 Eh            4.3647 eV
             Fermi-level           -0.3180294 Eh           -8.6540 eV

 SCC (total)                   0 d,  0 h,  0 min,  0.038 sec
 SCC setup                      ...        0 min,  0.000 sec (  0.555%)
 Dispersion                     ...        0 min,  0.000 sec (  0.719%)
 classical contributions        ...        0 min,  0.000 sec (  0.057%)
 integral evaluation            ...        0 min,  0.002 sec (  4.697%)
 iterations                     ...        0 min,  0.031 sec ( 81.556%)
 molecular gradient             ...        0 min,  0.005 sec ( 11.757%)
 printout                       ...        0 min,  0.000 sec (  0.589%)

         :::::::::::::::::::::::::::::::::::::::::::::::::::::
         ::                     SUMMARY                     ::
         :::::::::::::::::::::::::::::::::::::::::::::::::::::
         :: total energy             -46.448260651598 Eh    ::
         :: gradient norm              0.091948692985 Eh/a0 ::
         :: HOMO-LUMO gap              4.364679689201 eV    ::
         ::.................................................::
         :: SCC energy               -47.104613692921 Eh    ::
         :: -> isotropic ES            0.048707919691 Eh    ::
         :: -> anisotropic ES          0.002596569719 Eh    ::
         :: -> anisotropic XC          0.008132013546 Eh    ::
         :: -> dispersion             -0.027578701139 Eh    ::
         :: repulsion energy           0.656098005537 Eh    ::
         :: add. restraining           0.000000000000 Eh    ::
         :: total charge              -0.000000000000 e     ::
         :::::::::::::::::::::::::::::::::::::::::::::::::::::

      ----------------------------------------------------------- 
     |                   =====================                   |
     |                        A N C O P T                        |
     |                   =====================                   |
     |               Approximate Normal Coordinate               |
     |                Rational Function Optimizer                |
      ----------------------------------------------------------- 

          ...................................................
          :                      SETUP                      :
          :.................................................:
          :   optimization level            normal          :
          :   max. optcycles                   200          :
          :   ANC micro-cycles                  20          :
          :   degrees of freedom                72          :
          :.................................................:
          :   RF solver                   davidson          :
          :   write xtbopt.log                true          :
          :   linear?                        false          :
          :   energy convergence         0.5000000E-05 Eh   :
          :   grad. convergence          0.1000000E-02 Eh/α :
          :   maxmium RF displ.          1.0000000          :
          :   Hlow (freq-cutoff)         0.1000000E-01      :
          :   Hmax (freq-cutoff)         5.0000000          :
          :   S6 in model hess.         20.0000000          :
          ...................................................

generating ANC from model Hessian ...
Using Lindh-Hessian (1995)
 Shifting diagonal of input Hessian by   8.690428997347571E-003
 Lowest  eigenvalues of input Hessian
    0.000000    0.000000    0.000000    0.000000    0.000000    0.000000
    0.010000    0.010625    0.010889    0.014205    0.015372    0.017979
    0.021098    0.022544    0.025730    0.029406    0.030220    0.031728
 Highest eigenvalues
    1.914226    1.934160    2.035655    2.115917    2.125244    2.175411
 

........................................................................
.............................. CYCLE    1 ..............................
........................................................................

 iter      E             dE          RMSdq      gap      omega  full diag
   1    -47.1046137 -0.471046E+02  0.115E-04    4.36       0.0  T
   2    -47.1046137 -0.269722E-10  0.706E-05    4.36     277.7  T
   3    -47.1046137  0.542855E-11  0.407E-05    4.36     481.7  T
     SCC iter.                  ...        0 min,  0.004 sec
     gradient                   ...        0 min,  0.004 sec
 * total energy  :   -46.4482607 Eh     change       -0.1630738E-08 Eh
   gradient norm :     0.0919495 Eh/α   predicted     0.0000000E+00 (-100.00%)
   displ. norm   :     0.3090828 α      lambda       -0.1857914E-01
   maximum displ.:     0.1146147 α      in ANC's #16, #40, #19, ...

........................................................................
.............................. CYCLE    2 ..............................
........................................................................

 iter      E             dE          RMSdq      gap      omega  full diag
   1    -47.1158379 -0.471158E+02  0.299E-01    4.31       0.0  T
   2    -47.1160207 -0.182839E-03  0.187E-01    4.35       1.0  T
   3    -47.1159555  0.651661E-04  0.849E-02    4.35       1.0  T
   4    -47.1160634 -0.107824E-03  0.210E-02    4.35       1.0  T
   5    -47.1160692 -0.587041E-05  0.524E-03    4.35       3.7  T
   6    -47.1160697 -0.426364E-06  0.300E-03    4.35       6.5  T
   7    -47.1160698 -0.101905E-06  0.112E-03    4.35      17.6  T
   8    -47.1160698 -0.367657E-08  0.367E-04    4.35      53.5  T
   9    -47.1160698 -0.179909E-08  0.111E-04    4.35     176.5  T
     SCC iter.                  ...        0 min,  0.012 sec
     gradient                   ...        0 min,  0.004 sec
 * total energy  :   -46.4614577 Eh     change       -0.1319703E-01 Eh
   gradient norm :     0.0394663 Eh/α   predicted    -0.1017772E-01 ( -22.88%)
   displ. norm   :     0.2613957 α      lambda       -0.6550276E-02
   maximum displ.:     0.0792244 α      in ANC's #40, #14, #34, ...

........................................................................
.............................. CYCLE    3 ..............................
........................................................................

 iter      E             dE          RMSdq      gap      omega  full diag
   1    -47.1191640 -0.471192E+02  0.220E-01    4.29       0.0  T
   2    -47.1192875 -0.123412E-03  0.133E-01    4.32       1.0  T
   3    -47.1192702  0.172770E-04  0.641E-02    4.32       1.0  T
   4    -47.1193076 -0.373771E-04  0.173E-02    4.32       1.1  T
   5    -47.1193107 -0.315872E-05  0.420E-03    4.32       4.7  T
   6    -47.1193108 -0.107300E-06  0.257E-03    4.32       7.6  T
   7    -47.1193109 -0.745487E-07  0.110E-03    4.32      17.8  T
   8    -47.1193109 -0.750990E-08  0.328E-04    4.32      59.8  T
   9    -47.1193109 -0.184367E-08  0.949E-05    4.32     206.6  T
     SCC iter.                  ...        0 min,  0.012 sec
     gradient                   ...        0 min,  0.004 sec
 * total energy  :   -46.4652204 Eh     change       -0.3762698E-02 Eh
   gradient norm :     0.0152546 Eh/α   predicted    -0.3499200E-02 (  -7.00%)
   displ. norm   :     0.1236922 α      lambda       -0.6329361E-03
   maximum displ.:     0.0680499 α      in ANC's #5, #15, #12, ...

........................................................................
.............................. CYCLE    4 ..............................
........................................................................

 iter      E             dE          RMSdq      gap      omega  full diag
   1    -47.1187868 -0.471188E+02  0.571E-02    4.31       0.0  T
   2    -47.1187927 -0.590860E-05  0.336E-02    4.32       1.0  T
   3    -47.1187915  0.129005E-05  0.165E-02    4.32       1.2  T
   4    -47.1187939 -0.249047E-05  0.346E-03    4.32       5.7  T
   5    -47.1187941 -0.114922E-06  0.116E-03    4.32      16.9  T
   6    -47.1187941 -0.476241E-08  0.697E-04    4.32      28.1  T
   7    -47.1187941 -0.509073E-08  0.288E-04    4.32      68.0  T
     SCC iter.                  ...        0 min,  0.009 sec
     gradient                   ...        0 min,  0.004 sec
 * total energy  :   -46.4656921 Eh     change       -0.4716695E-03 Eh
   gradient norm :     0.0145203 Eh/α   predicted    -0.3213122E-03 ( -31.88%)
   displ. norm   :     0.1757256 α      lambda       -0.6440496E-03
   maximum displ.:     0.1108722 α      in ANC's #5, #4, #15, ...

........................................................................
.............................. CYCLE    5 ..............................
........................................................................

 iter      E             dE          RMSdq      gap      omega  full diag
   1    -47.1192475 -0.471192E+02  0.687E-02    4.32       0.0  T
   2    -47.1192503 -0.286697E-05  0.410E-02    4.32       1.0  T
   3    -47.1192468  0.358534E-05  0.159E-02    4.32       1.2  T
   4    -47.1192515 -0.473289E-05  0.240E-03    4.32       8.2  T
   5    -47.1192515 -0.449661E-07  0.121E-03    4.32      16.2  T
   6    -47.1192515 -0.624382E-08  0.661E-04    4.32      29.7  T
   7    -47.1192515 -0.527233E-08  0.204E-04    4.32      96.3  T
     SCC iter.                  ...        0 min,  0.009 sec
     gradient                   ...        0 min,  0.004 sec
 * total energy  :   -46.4661203 Eh     change       -0.4282016E-03 Eh
   gradient norm :     0.0088392 Eh/α   predicted    -0.3319779E-03 ( -22.47%)
   displ. norm   :     0.1328911 α      lambda       -0.2641966E-03
   maximum displ.:     0.0845058 α      in ANC's #5, #1, #4, ...

........................................................................
.............................. CYCLE    6 ..............................
........................................................................

 iter      E             dE          RMSdq      gap      omega  full diag
   1    -47.1196279 -0.471196E+02  0.482E-02    4.33       0.0  T
   2    -47.1196287 -0.815021E-06  0.292E-02    4.33       1.0  T
   3    -47.1196268  0.186172E-05  0.900E-03    4.33       2.2  T
   4    -47.1196291 -0.231787E-05  0.151E-03    4.33      13.0  T
   5    -47.1196291 -0.676392E-08  0.867E-04    4.33      22.6  T
   6    -47.1196291 -0.736476E-08  0.374E-04    4.33      52.4  T
     SCC iter.                  ...        0 min,  0.008 sec
     gradient                   ...        0 min,  0.004 sec
 * total energy  :   -46.4663001 Eh     change       -0.1798687E-03 Eh
   gradient norm :     0.0087790 Eh/α   predicted    -0.1344530E-03 ( -25.25%)
   displ. norm   :     0.1169666 α      lambda       -0.2351918E-03
   maximum displ.:     0.0648297 α      in ANC's #5, #1, #2, ...

........................................................................
.............................. CYCLE    7 ..............................
........................................................................

 iter      E             dE          RMSdq      gap      omega  full diag
   1    -47.1218915 -0.471219E+02  0.471E-02    4.33       0.0  T
   2    -47.1218937 -0.218485E-05  0.278E-02    4.33       1.0  T
   3    -47.1218926  0.103916E-05  0.991E-03    4.33       2.0  T
   4    -47.1218943 -0.161404E-05  0.258E-03    4.33       7.6  T
   5    -47.1218943 -0.626792E-07  0.115E-03    4.33      17.0  T
   6    -47.1218943 -0.431267E-08  0.684E-04    4.33      28.7  T
   7    -47.1218943 -0.501111E-08  0.221E-04    4.33      88.6  T
     SCC iter.                  ...        0 min,  0.009 sec
     gradient                   ...        0 min,  0.004 sec
 * total energy  :   -46.4663989 Eh     change       -0.9878943E-04 Eh
   gradient norm :     0.0064610 Eh/α   predicted    -0.1192131E-03 (  20.67%)
   displ. norm   :     0.0976383 α      lambda       -0.1193704E-03
   maximum displ.:     0.0471697 α      in ANC's #2, #5, #1, ...

........................................................................
.............................. CYCLE    8 ..............................
........................................................................

 iter      E             dE          RMSdq      gap      omega  full diag
   1    -47.1209789 -0.471210E+02  0.368E-02    4.33       0.0  T
   2    -47.1209793 -0.426800E-06  0.222E-02    4.33       1.0  T
   3    -47.1209791  0.292409E-06  0.517E-03    4.33       3.8  T
   4    -47.1209796 -0.542808E-06  0.151E-03    4.33      13.0  T
   5    -47.1209796 -0.224238E-08  0.589E-04    4.33      33.3  T
   6    -47.1209796 -0.306665E-08  0.261E-04    4.33      75.1  T
     SCC iter.                  ...        0 min,  0.008 sec
     gradient                   ...        0 min,  0.004 sec
 * total energy  :   -46.4664393 Eh     change       -0.4042629E-04 Eh
   gradient norm :     0.0048733 Eh/α   predicted    -0.6025860E-04 (  49.06%)
   displ. norm   :     0.0411840 α      lambda       -0.4259671E-04
   maximum displ.:     0.0299869 α      in ANC's #5, #4, #15, ...

........................................................................
.............................. CYCLE    9 ..............................
........................................................................

 iter      E             dE          RMSdq      gap      omega  full diag
   1    -47.1213396 -0.471213E+02  0.169E-02    4.33       0.0  T
   2    -47.1213398 -0.151075E-06  0.102E-02    4.33       1.9  T
   3    -47.1213395  0.282281E-06  0.384E-03    4.33       5.1  T
   4    -47.1213398 -0.364071E-06  0.675E-04    4.33      29.1  T
   5    -47.1213398 -0.213613E-08  0.387E-04    4.33      50.7  T
     SCC iter.                  ...        0 min,  0.007 sec
     gradient                   ...        0 min,  0.004 sec
 * total energy  :   -46.4664658 Eh     change       -0.2643567E-04 Eh
   gradient norm :     0.0013555 Eh/α   predicted    -0.2133675E-04 ( -19.29%)
   displ. norm   :     0.0656029 α      lambda       -0.1715479E-04
   maximum displ.:     0.0435617 α      in ANC's #2, #1, #3, ...

........................................................................
.............................. CYCLE   10 ..............................
........................................................................

 iter      E             dE          RMSdq      gap      omega  full diag
   1    -47.1212665 -0.471213E+02  0.255E-02    4.32       0.0  T
   2    -47.1212667 -0.169965E-06  0.151E-02    4.32       1.3  T
   3    -47.1212663  0.355097E-06  0.406E-03    4.32       4.8  T
   4    -47.1212668 -0.435987E-06  0.680E-04    4.32      28.9  T
   5    -47.1212668 -0.226393E-08  0.376E-04    4.32      52.1  T
     SCC iter.                  ...        0 min,  0.007 sec
     gradient                   ...        0 min,  0.004 sec
 * total energy  :   -46.4664811 Eh     change       -0.1528569E-04 Eh
   gradient norm :     0.0011922 Eh/α   predicted    -0.8596128E-05 ( -43.76%)
   displ. norm   :     0.0559251 α      lambda       -0.7998628E-05
   maximum displ.:     0.0386750 α      in ANC's #2, #3, #1, ...

........................................................................
.............................. CYCLE   11 ..............................
........................................................................

 iter      E             dE          RMSdq      gap      omega  full diag
   1    -47.1211790 -0.471212E+02  0.176E-02    4.32       0.0  T
   2    -47.1211791 -0.486867E-07  0.104E-02    4.32       1.9  T
   3    -47.1211790  0.107584E-06  0.213E-03    4.32       9.2  T
   4    -47.1211791 -0.137164E-06  0.393E-04    4.32      49.9  T
   5    -47.1211791 -0.865725E-10  0.188E-04    4.32     104.1  T
     SCC iter.                  ...        0 min,  0.007 sec
     gradient                   ...        0 min,  0.004 sec
 * total energy  :   -46.4664906 Eh     change       -0.9512048E-05 Eh
   gradient norm :     0.0008566 Eh/α   predicted    -0.4005408E-05 ( -57.89%)
   displ. norm   :     0.0852113 α      lambda       -0.9586461E-05
   maximum displ.:     0.0516592 α      in ANC's #2, #3, #1, ...

........................................................................
.............................. CYCLE   12 ..............................
........................................................................

 iter      E             dE          RMSdq      gap      omega  full diag
   1    -47.1212315 -0.471212E+02  0.252E-02    4.32       0.0  T
   2    -47.1212316 -0.829426E-07  0.149E-02    4.32       1.3  T
   3    -47.1212314  0.145245E-06  0.249E-03    4.32       7.9  T
   4    -47.1212316 -0.190016E-06  0.501E-04    4.32      39.1  T
   5    -47.1212316 -0.417195E-09  0.264E-04    4.32      74.2  T
     SCC iter.                  ...        0 min,  0.007 sec
     gradient                   ...        0 min,  0.004 sec
 * total energy  :   -46.4665016 Eh     change       -0.1102286E-04 Eh
   gradient norm :     0.0007003 Eh/α   predicted    -0.4810871E-05 ( -56.36%)
   displ. norm   :     0.0892175 α      lambda       -0.7448466E-05
   maximum displ.:     0.0539720 α      in ANC's #3, #2, #1, ...

........................................................................
.............................. CYCLE   13 ..............................
........................................................................

 iter      E             dE          RMSdq      gap      omega  full diag
   1    -47.1212191 -0.471212E+02  0.259E-02    4.32       0.0  T
   2    -47.1212192 -0.693722E-07  0.153E-02    4.32       1.3  T
   3    -47.1212191  0.802262E-07  0.202E-03    4.32       9.7  T
   4    -47.1212192 -0.114364E-06  0.471E-04    4.32      41.7  T
   5    -47.1212192 -0.378947E-09  0.231E-04    4.32      84.9  T
     SCC iter.                  ...        0 min,  0.007 sec
     gradient                   ...        0 min,  0.004 sec
 * total energy  :   -46.4665109 Eh     change       -0.9340282E-05 Eh
   gradient norm :     0.0007638 Eh/α   predicted    -0.3738458E-05 ( -59.97%)
   displ. norm   :     0.1304489 α      lambda       -0.1001131E-04
   maximum displ.:     0.0807261 α      in ANC's #3, #1, #2, ...

........................................................................
.............................. CYCLE   14 ..............................
........................................................................

 iter      E             dE          RMSdq      gap      omega  full diag
   1    -47.1212043 -0.471212E+02  0.382E-02    4.32       0.0  T
   2    -47.1212044 -0.139881E-06  0.225E-02    4.32       1.0  T
   3    -47.1212042  0.227425E-06  0.315E-03    4.32       6.2  T
   4    -47.1212045 -0.303646E-06  0.650E-04    4.32      30.2  T
   5    -47.1212045 -0.310827E-09  0.315E-04    4.32      62.3  T
     SCC iter.                  ...        0 min,  0.007 sec
     gradient                   ...        0 min,  0.004 sec
 * total energy  :   -46.4665234 Eh     change       -0.1247133E-04 Eh
   gradient norm :     0.0008169 Eh/α   predicted    -0.5044226E-05 ( -59.55%)
   displ. norm   :     0.1891705 α      lambda       -0.1264180E-04
   maximum displ.:     0.1164392 α      in ANC's #3, #1, #2, ...

........................................................................
.............................. CYCLE   15 ..............................
........................................................................

 iter      E             dE          RMSdq      gap      omega  full diag
   1    -47.1210556 -0.471211E+02  0.557E-02    4.32       0.0  T
   2    -47.1210559 -0.306249E-06  0.328E-02    4.32       1.0  T
   3    -47.1210553  0.620732E-06  0.499E-03    4.32       3.9  T
   4    -47.1210561 -0.797915E-06  0.914E-04    4.32      21.5  T
   5    -47.1210561 -0.221135E-09  0.425E-04    4.32      46.1  T
     SCC iter.                  ...        0 min,  0.007 sec
     gradient                   ...        0 min,  0.004 sec
 * total energy  :   -46.4665387 Eh     change       -0.1525658E-04 Eh
   gradient norm :     0.0007811 Eh/α   predicted    -0.6424541E-05 ( -57.89%)
   displ. norm   :     0.1630968 α      lambda       -0.1059329E-04
   maximum displ.:     0.1091098 α      in ANC's #1, #3, #2, ...

........................................................................
.............................. CYCLE   16 ..............................
........................................................................

 iter      E             dE          RMSdq      gap      omega  full diag
   1    -47.1211593 -0.471212E+02  0.489E-02    4.31       0.0  T
   2    -47.1211595 -0.246177E-06  0.288E-02    4.31       1.0  T
   3    -47.1211590  0.552812E-06  0.463E-03    4.31       4.2  T
   4    -47.1211597 -0.699469E-06  0.782E-04    4.31      25.1  T
   5    -47.1211597 -0.137462E-09  0.367E-04    4.31      53.4  T
     SCC iter.                  ...        0 min,  0.007 sec
     gradient                   ...        0 min,  0.004 sec
 * total energy  :   -46.4665526 Eh     change       -0.1395461E-04 Eh
   gradient norm :     0.0006407 Eh/α   predicted    -0.5359925E-05 ( -61.59%)
   displ. norm   :     0.1380859 α      lambda       -0.1152972E-04
   maximum displ.:     0.1044115 α      in ANC's #1, #3, #4, ...

........................................................................
.............................. CYCLE   17 ..............................
........................................................................

 iter      E             dE          RMSdq      gap      omega  full diag
   1    -47.1213741 -0.471214E+02  0.418E-02    4.30       0.0  T
   2    -47.1213743 -0.176961E-06  0.246E-02    4.30       1.0  T
   3    -47.1213740  0.353311E-06  0.379E-03    4.30       5.2  T
   4    -47.1213744 -0.452000E-06  0.642E-04    4.30      30.5  T
   5    -47.1213744 -0.501089E-09  0.315E-04    4.30      62.2  T
     SCC iter.                  ...        0 min,  0.007 sec
     gradient                   ...        0 min,  0.004 sec
 * total energy  :   -46.4665691 Eh     change       -0.1643784E-04 Eh
   gradient norm :     0.0007138 Eh/α   predicted    -0.5815432E-05 ( -64.62%)
   displ. norm   :     0.1135671 α      lambda       -0.1315538E-04
   maximum displ.:     0.0926201 α      in ANC's #1, #3, #4, ...

........................................................................
.............................. CYCLE   18 ..............................
........................................................................

 iter      E             dE          RMSdq      gap      omega  full diag
   1    -47.1215846 -0.471216E+02  0.345E-02    4.29       0.0  T
   2    -47.1215847 -0.129639E-06  0.203E-02    4.29       1.0  T
   3    -47.1215844  0.272998E-06  0.342E-03    4.29       5.7  T
   4    -47.1215848 -0.344161E-06  0.514E-04    4.29      38.2  T
   5    -47.1215848 -0.412847E-09  0.271E-04    4.29      72.3  T
     SCC iter.                  ...        0 min,  0.006 sec
     gradient                   ...        0 min,  0.004 sec
 * total energy  :   -46.4665883 Eh     change       -0.1928881E-04 Eh
   gradient norm :     0.0007872 Eh/α   predicted    -0.6619410E-05 ( -65.68%)
   displ. norm   :     0.1407366 α      lambda       -0.1916937E-04
   maximum displ.:     0.1168501 α      in ANC's #1, #3, #2, ...

........................................................................
.............................. CYCLE   19 ..............................
........................................................................

 iter      E             dE          RMSdq      gap      omega  full diag
   1    -47.1215749 -0.471216E+02  0.420E-02    4.28       0.0  T
   2    -47.1215751 -0.169111E-06  0.247E-02    4.28       1.0  T
   3    -47.1215748  0.311390E-06  0.364E-03    4.28       5.4  T
   4    -47.1215752 -0.399807E-06  0.597E-04    4.28      32.9  T
   5    -47.1215752 -0.682249E-09  0.310E-04    4.28      63.3  T
     SCC iter.                  ...        0 min,  0.006 sec
     gradient                   ...        0 min,  0.004 sec
 * total energy  :   -46.4666161 Eh     change       -0.2771069E-04 Eh
   gradient norm :     0.0010486 Eh/α   predicted    -0.9670864E-05 ( -65.10%)
   displ. norm   :     0.1475983 α      lambda       -0.2122643E-04
   maximum displ.:     0.1225258 α      in ANC's #1, #3, #2, ...

........................................................................
.............................. CYCLE   20 ..............................
........................................................................

 iter      E             dE          RMSdq      gap      omega  full diag
   1    -47.1215460 -0.471215E+02  0.424E-02    4.27       0.0  T
   2    -47.1215461 -0.150343E-06  0.249E-02    4.27       1.0  T
   3    -47.1215458  0.294912E-06  0.351E-03    4.27       5.6  T
   4    -47.1215462 -0.381256E-06  0.591E-04    4.27      33.2  T
   5    -47.1215462 -0.154486E-09  0.289E-04    4.27      67.8  T
     SCC iter.                  ...        0 min,  0.006 sec
     gradient                   ...        0 min,  0.004 sec
 * total energy  :   -46.4666462 Eh     change       -0.3018583E-04 Eh
   gradient norm :     0.0009847 Eh/α   predicted    -0.1071698E-04 ( -64.50%)
   displ. norm   :     0.1493974 α      lambda       -0.2130425E-04
   maximum displ.:     0.1255924 α      in ANC's #1, #3, #2, ...
 * RMSD in coord.:     0.3319086 α      energy gain  -0.1838559E-01 Eh

generating ANC from model Hessian ...
Using Lindh-Hessian (1995)
 Shifting diagonal of input Hessian by   8.770335777400589E-003
 Lowest  eigenvalues of input Hessian
    0.000000    0.000000    0.000000    0.000000    0.000000    0.000000
    0.010000    0.010580    0.010825    0.013914    0.015553    0.017779
    0.021170    0.022283    0.024939    0.030111    0.031359    0.033416
 Highest eigenvalues
    1.894007    1.912925    2.031044    2.077021    2.114389    2.137016
 

........................................................................
.............................. CYCLE   21 ..............................
........................................................................

 iter      E             dE          RMSdq      gap      omega  full diag
   1    -47.1214654 -0.471215E+02  0.421E-02    4.25       0.0  T
   2    -47.1214655 -0.158940E-06  0.247E-02    4.25       1.0  T
   3    -47.1214652  0.313414E-06  0.357E-03    4.25       5.5  T
   4    -47.1214656 -0.399745E-06  0.588E-04    4.25      33.3  T
   5    -47.1214656 -0.465128E-09  0.292E-04    4.25      67.1  T
     SCC iter.                  ...        0 min,  0.006 sec
     gradient                   ...        0 min,  0.004 sec
 * total energy  :   -46.4666762 Eh     change       -0.2991331E-04 Eh
   gradient norm :     0.0008483 Eh/α   predicted     0.0000000E+00 (-100.00%)
   displ. norm   :     0.0384625 α      lambda       -0.8228022E-05
   maximum displ.:     0.0352533 α      in ANC's #1, #4, #6, ...

........................................................................
.............................. CYCLE   22 ..............................
........................................................................

 iter      E             dE          RMSdq      gap      omega  full diag
   1    -47.1214065 -0.471214E+02  0.957E-03    4.25       0.0  T
   2    -47.1214065 -0.276757E-07  0.568E-03    4.25       3.5  T
   3    -47.1214065  0.457871E-07  0.137E-03    4.25      14.3  T
   4    -47.1214066 -0.555909E-07  0.219E-04    4.25      89.4  T
   5    -47.1214066 -0.551438E-09  0.114E-04    4.25     172.5  T
     SCC iter.                  ...        0 min,  0.006 sec
     gradient                   ...        0 min,  0.004 sec
 * total energy  :   -46.4666871 Eh     change       -0.1098065E-04 Eh
   gradient norm :     0.0004050 Eh/α   predicted    -0.4122201E-05 ( -62.46%)
   displ. norm   :     0.0578947 α      lambda       -0.1039315E-04
   maximum displ.:     0.0489283 α      in ANC's #1, #6, #4, ...

........................................................................
.............................. CYCLE   23 ..............................
........................................................................

 iter      E             dE          RMSdq      gap      omega  full diag
   1    -47.1213652 -0.471214E+02  0.142E-02    4.25       0.0  T
   2    -47.1213653 -0.334107E-07  0.840E-03    4.25       2.3  T
   3    -47.1213652  0.444582E-07  0.141E-03    4.25      13.9  T
   4    -47.1213653 -0.570438E-07  0.289E-04    4.25      67.8  T
   5    -47.1213653 -0.485642E-09  0.148E-04    4.25     132.2  T
     SCC iter.                  ...        0 min,  0.006 sec
     gradient                   ...        0 min,  0.004 sec
 * total energy  :   -46.4667009 Eh     change       -0.1380961E-04 Eh
   gradient norm :     0.0005260 Eh/α   predicted    -0.5205005E-05 ( -62.31%)
   displ. norm   :     0.0788075 α      lambda       -0.1196933E-04
   maximum displ.:     0.0642379 α      in ANC's #1, #6, #2, ...

........................................................................
.............................. CYCLE   24 ..............................
........................................................................

 iter      E             dE          RMSdq      gap      omega  full diag
   1    -47.1213249 -0.471213E+02  0.179E-02    4.25       0.0  T
   2    -47.1213249 -0.316190E-07  0.106E-02    4.25       1.9  T
   3    -47.1213249  0.220195E-07  0.117E-03    4.25      16.7  T
   4    -47.1213250 -0.353719E-07  0.349E-04    4.25      56.1  T
   5    -47.1213250 -0.354113E-09  0.167E-04    4.25     117.5  T
     SCC iter.                  ...        0 min,  0.006 sec
     gradient                   ...        0 min,  0.004 sec
 * total energy  :   -46.4667175 Eh     change       -0.1657626E-04 Eh
   gradient norm :     0.0007896 Eh/α   predicted    -0.6009254E-05 ( -63.75%)
   displ. norm   :     0.1072776 α      lambda       -0.1550091E-04
   maximum displ.:     0.0844287 α      in ANC's #1, #6, #2, ...

........................................................................
.............................. CYCLE   25 ..............................
........................................................................

 iter      E             dE          RMSdq      gap      omega  full diag
   1    -47.1212297 -0.471212E+02  0.250E-02    4.24       0.0  T
   2    -47.1212298 -0.516795E-07  0.148E-02    4.24       1.3  T
   3    -47.1212297  0.582304E-07  0.170E-03    4.24      11.6  T
   4    -47.1212298 -0.827615E-07  0.453E-04    4.24      43.3  T
   5    -47.1212298 -0.517367E-09  0.221E-04    4.24      88.6  T
     SCC iter.                  ...        0 min,  0.006 sec
     gradient                   ...        0 min,  0.004 sec
 * total energy  :   -46.4667395 Eh     change       -0.2202630E-04 Eh
   gradient norm :     0.0010490 Eh/α   predicted    -0.7800534E-05 ( -64.59%)
   displ. norm   :     0.1686039 α      lambda       -0.2453241E-04
   maximum displ.:     0.1301027 α      in ANC's #1, #6, #2, ...

........................................................................
.............................. CYCLE   26 ..............................
........................................................................

 iter      E             dE          RMSdq      gap      omega  full diag
   1    -47.1210016 -0.471210E+02  0.409E-02    4.22       0.0  T
   2    -47.1210018 -0.141947E-06  0.242E-02    4.23       1.0  T
   3    -47.1210016  0.201736E-06  0.304E-03    4.22       6.5  T
   4    -47.1210018 -0.272840E-06  0.720E-04    4.23      27.2  T
   5    -47.1210018 -0.109458E-08  0.353E-04    4.23      55.6  T
     SCC iter.                  ...        0 min,  0.006 sec
     gradient                   ...        0 min,  0.004 sec
 * total energy  :   -46.4667740 Eh     change       -0.3445127E-04 Eh
   gradient norm :     0.0014583 Eh/α   predicted    -0.1242222E-04 ( -63.94%)
   displ. norm   :     0.2596546 α      lambda       -0.3779016E-04
   maximum displ.:     0.2003363 α      in ANC's #1, #6, #2, ...

........................................................................
.............................. CYCLE   27 ..............................
........................................................................

 iter      E             dE          RMSdq      gap      omega  full diag
   1    -47.1204360 -0.471204E+02  0.655E-02    4.20       0.0  T
   2    -47.1204365 -0.419763E-06  0.387E-02    4.20       1.0  T
   3    -47.1204358  0.680588E-06  0.545E-03    4.20       3.6  T
   4    -47.1204367 -0.885034E-06  0.114E-03    4.20      17.2  T
   5    -47.1204367 -0.373696E-08  0.595E-04    4.20      33.0  T
   6    -47.1204367 -0.270056E-09  0.236E-04    4.20      83.0  T
     SCC iter.                  ...        0 min,  0.008 sec
     gradient                   ...        0 min,  0.004 sec
 * total energy  :   -46.4668237 Eh     change       -0.4972262E-04 Eh
   gradient norm :     0.0024517 Eh/α   predicted    -0.1946555E-04 ( -60.85%)
   displ. norm   :     0.2072922 α      lambda       -0.4666658E-04
   maximum displ.:     0.1630006 α      in ANC's #1, #6, #2, ...

........................................................................
.............................. CYCLE   28 ..............................
........................................................................

 iter      E             dE          RMSdq      gap      omega  full diag
   1    -47.1201744 -0.471202E+02  0.547E-02    4.18       0.0  T
   2    -47.1201747 -0.269407E-06  0.323E-02    4.18       1.0  T
   3    -47.1201741  0.579703E-06  0.496E-03    4.18       4.0  T
   4    -47.1201748 -0.733268E-06  0.894E-04    4.18      21.9  T
   5    -47.1201748 -0.352571E-09  0.477E-04    4.18      41.1  T
     SCC iter.                  ...        0 min,  0.006 sec
     gradient                   ...        0 min,  0.004 sec
 * total energy  :   -46.4668656 Eh     change       -0.4191659E-04 Eh
   gradient norm :     0.0027340 Eh/α   predicted    -0.2434049E-04 ( -41.93%)
   displ. norm   :     0.3024589 α      lambda       -0.7320839E-04
   maximum displ.:     0.2413149 α      in ANC's #1, #6, #3, ...

........................................................................
.............................. CYCLE   29 ..............................
........................................................................

 iter      E             dE          RMSdq      gap      omega  full diag
   1    -47.1198426 -0.471198E+02  0.828E-02    4.14       0.0  T
   2    -47.1198433 -0.646426E-06  0.488E-02    4.15       1.0  T
   3    -47.1198417  0.152745E-05  0.796E-03    4.14       2.5  T
   4    -47.1198437 -0.190740E-05  0.131E-03    4.15      15.0  T
   5    -47.1198437 -0.131834E-09  0.704E-04    4.15      27.8  T
   6    -47.1198437 -0.404932E-08  0.264E-04    4.15      74.2  T
     SCC iter.                  ...        0 min,  0.008 sec
     gradient                   ...        0 min,  0.004 sec
 * total energy  :   -46.4669290 Eh     change       -0.6331558E-04 Eh
   gradient norm :     0.0027403 Eh/α   predicted    -0.3995314E-04 ( -36.90%)
   displ. norm   :     0.3892254 α      lambda       -0.9500802E-04
   maximum displ.:     0.3152327 α      in ANC's #1, #6, #3, ...

........................................................................
.............................. CYCLE   30 ..............................
........................................................................

 iter      E             dE          RMSdq      gap      omega  full diag
   1    -47.1194166 -0.471194E+02  0.110E-01    4.10       0.0  T
   2    -47.1194178 -0.120350E-05  0.648E-02    4.10       1.0  T
   3    -47.1194147  0.307095E-05  0.113E-02    4.10       1.7  T
   4    -47.1194185 -0.378289E-05  0.170E-03    4.10      11.5  T
   5    -47.1194185 -0.164048E-08  0.978E-04    4.10      20.1  T
   6    -47.1194185 -0.832401E-08  0.381E-04    4.10      51.5  T
     SCC iter.                  ...        0 min,  0.008 sec
     gradient                   ...        0 min,  0.004 sec
 * total energy  :   -46.4670059 Eh     change       -0.7696653E-04 Eh
   gradient norm :     0.0025981 Eh/α   predicted    -0.5470113E-04 ( -28.93%)
   displ. norm   :     0.4026328 α      lambda       -0.9241204E-04
   maximum displ.:     0.3308190 α      in ANC's #1, #3, #6, ...

........................................................................
.............................. CYCLE   31 ..............................
........................................................................

 iter      E             dE          RMSdq      gap      omega  full diag
   1    -47.1196146 -0.471196E+02  0.118E-01    4.05       0.0  T
   2    -47.1196161 -0.152125E-05  0.691E-02    4.05       1.0  T
   3    -47.1196122  0.387311E-05  0.131E-02    4.05       1.5  T
   4    -47.1196170 -0.473516E-05  0.178E-03    4.05      11.0  T
   5    -47.1196170 -0.554531E-08  0.103E-03    4.05      19.0  T
   6    -47.1196170 -0.708600E-08  0.462E-04    4.05      42.4  T
   7    -47.1196170 -0.202903E-08  0.124E-04    4.05     157.9  T
     SCC iter.                  ...        0 min,  0.009 sec
     gradient                   ...        0 min,  0.004 sec
 * total energy  :   -46.4670735 Eh     change       -0.6762615E-04 Eh
   gradient norm :     0.0022164 Eh/α   predicted    -0.5369880E-04 ( -20.59%)
   displ. norm   :     0.3135372 α      lambda       -0.5160069E-04
   maximum displ.:     0.2598119 α      in ANC's #1, #3, #6, ...

........................................................................
.............................. CYCLE   32 ..............................
........................................................................

 iter      E             dE          RMSdq      gap      omega  full diag
   1    -47.1199951 -0.471200E+02  0.929E-02    4.01       0.0  T
   2    -47.1199963 -0.118439E-05  0.545E-02    4.02       1.0  T
   3    -47.1199933  0.297004E-05  0.124E-02    4.01       1.6  T
   4    -47.1199970 -0.360816E-05  0.136E-03    4.02      14.4  T
   5    -47.1199970 -0.508295E-08  0.769E-04    4.02      25.5  T
   6    -47.1199970 -0.187626E-08  0.377E-04    4.02      52.0  T
     SCC iter.                  ...        0 min,  0.008 sec
     gradient                   ...        0 min,  0.004 sec
 * total energy  :   -46.4671082 Eh     change       -0.3462818E-04 Eh
   gradient norm :     0.0017215 Eh/α   predicted    -0.2833753E-04 ( -18.17%)
   displ. norm   :     0.1900743 α      lambda       -0.3523120E-04
   maximum displ.:     0.1543473 α      in ANC's #1, #3, #4, ...

........................................................................
.............................. CYCLE   33 ..............................
........................................................................

 iter      E             dE          RMSdq      gap      omega  full diag
   1    -47.1254329 -0.471254E+02  0.722E-02    4.01       0.0  T
   2    -47.1254361 -0.321565E-05  0.419E-02    4.01       1.0  T
   3    -47.1254330  0.309658E-05  0.169E-02    4.01       1.2  T
   4    -47.1254371 -0.414610E-05  0.190E-03    4.01      10.3  T
   5    -47.1254372 -0.318197E-07  0.806E-04    4.01      24.3  T
   6    -47.1254372 -0.280373E-09  0.376E-04    4.01      52.2  T
     SCC iter.                  ...        0 min,  0.008 sec
     gradient                   ...        0 min,  0.004 sec
 * total energy  :   -46.4670638 Eh     change        0.4441018E-04 Eh
   gradient norm :     0.0069677 Eh/α   predicted    -0.1791590E-04 (-140.34%)
   displ. norm   :     0.1038936 α      lambda       -0.8393106E-04
   maximum displ.:     0.0810169 α      in ANC's #1, #6, #3, ...

........................................................................
.............................. CYCLE   34 ..............................
........................................................................

 iter      E             dE          RMSdq      gap      omega  full diag
   1    -47.1225220 -0.471225E+02  0.313E-02    3.99       0.0  T
   2    -47.1225228 -0.807027E-06  0.181E-02    3.99       1.1  T
   3    -47.1225226  0.208974E-06  0.456E-03    3.99       4.3  T
   4    -47.1225229 -0.287214E-06  0.131E-03    3.99      14.9  T
   5    -47.1225229 -0.320848E-07  0.511E-04    3.99      38.4  T
   6    -47.1225229  0.238700E-09  0.225E-04    3.99      87.1  T
     SCC iter.                  ...        0 min,  0.008 sec
     gradient                   ...        0 min,  0.004 sec
 * total energy  :   -46.4671173 Eh     change       -0.5348866E-04 Eh
   gradient norm :     0.0022353 Eh/α   predicted    -0.4241891E-04 ( -20.70%)
   displ. norm   :     0.0581842 α      lambda       -0.1189079E-04
   maximum displ.:     0.0464862 α      in ANC's #1, #3, #6, ...

........................................................................
.............................. CYCLE   35 ..............................
........................................................................

 iter      E             dE          RMSdq      gap      omega  full diag
   1    -47.1213743 -0.471214E+02  0.209E-02    4.00       0.0  T
   2    -47.1213745 -0.207093E-06  0.122E-02    4.00       1.6  T
   3    -47.1213742  0.292055E-06  0.469E-03    4.00       4.2  T
   4    -47.1213746 -0.375483E-06  0.449E-04    4.00      43.7  T
   5    -47.1213746 -0.182908E-08  0.210E-04    4.00      93.3  T
     SCC iter.                  ...        0 min,  0.006 sec
     gradient                   ...        0 min,  0.004 sec
 * total energy  :   -46.4671243 Eh     change       -0.7010556E-05 Eh
   gradient norm :     0.0006184 Eh/α   predicted    -0.5965805E-05 ( -14.90%)
   displ. norm   :     0.0185222 α      lambda       -0.1581628E-05
   maximum displ.:     0.0098364 α      in ANC's #2, #1, #6, ...

........................................................................
.............................. CYCLE   36 ..............................
........................................................................

 iter      E             dE          RMSdq      gap      omega  full diag
   1    -47.1209949 -0.471210E+02  0.676E-03    4.00       0.0  T
   2    -47.1209949 -0.223675E-07  0.398E-03    4.00       4.9  T
   3    -47.1209948  0.386053E-07  0.169E-03    4.00      11.6  T
   4    -47.1209949 -0.505973E-07  0.143E-04    4.00     137.0  T
   5    -47.1209949 -0.114433E-09  0.759E-05    4.00     258.5  T
     SCC iter.                  ...        0 min,  0.006 sec
     gradient                   ...        0 min,  0.004 sec
 * total energy  :   -46.4671261 Eh     change       -0.1818808E-05 Eh
   gradient norm :     0.0003960 Eh/α   predicted    -0.7913780E-06 ( -56.49%)
   displ. norm   :     0.0362418 α      lambda       -0.2860660E-05
   maximum displ.:     0.0248299 α      in ANC's #2, #6, #4, ...

   *** GEOMETRY OPTIMIZATION CONVERGED AFTER 36 ITERATIONS ***

------------------------------------------------------------------------
 total energy gain   :        -0.0188654 Eh      -11.8382 kcal/mol
 total RMSD          :         0.7568343 a0        0.4005 Å
 total power (kW/mol):        -1.3758662 (step)  -96.9348 (real)
------------------------------------------------------------------------

 ANCopt (total)                0 d,  0 h,  0 min,  0.511 sec
 optimizer setup                ...        0 min,  0.000 sec (  0.036%)
 model hessian                  ...        0 min,  0.013 sec (  2.600%)
 ANC generation                 ...        0 min,  0.002 sec (  0.335%)
 coordinate transformation      ...        0 min,  0.000 sec (  0.070%)
 single point calculation       ...        0 min,  0.485 sec ( 94.950%)
 optimization log               ...        0 min,  0.005 sec (  1.038%)
 hessian update                 ...        0 min,  0.000 sec (  0.078%)
 rational function              ...        0 min,  0.003 sec (  0.541%)

================
 final structure:
================
26
 xtb: 6.6.1 (8d0f1dd)
C           -1.03461194443529        2.04521808805075       -0.75283709265268
C           -1.56718041592995        0.73117419967349       -0.27033592330769
C           -2.93491606474800        0.53448378283604       -0.12802592661705
C           -3.44630732511360       -0.66981420293245        0.31986369952681
C           -2.59292553446398       -1.71028649329292        0.64103581426538
C           -1.23420778815186       -1.51346172500648        0.49825591930839
F           -0.39827468468815       -2.53348472254000        0.79464083277950
C           -0.69733801087007       -0.31493162544557        0.04231374154780
C            0.77032080795703       -0.18961924555459       -0.08948854123898
C            1.58604154954079       -0.22702112480682        1.04832100491053
O            0.97759959919553       -0.30646243609993        2.25687378787897
C            2.96788311481803       -0.15760993216825        0.91829012903685
C            3.55114394398324       -0.05208318418789       -0.33141140655980
C            2.76545607589285       -0.00909211587647       -1.46835667186677
C            1.39234642980717       -0.08076177397390       -1.32473044537984
F            0.62659700359479       -0.05430635187138       -2.43682598811577
H           -0.11136676991673        2.30327612472231       -0.23758615303008
H           -1.76396604851792        2.83518056947074       -0.59334767712942
H           -0.82038002173595        1.99033269023637       -1.82005009774471
H           -3.60861027938231        1.34280903023823       -0.37160041518342
H           -4.51283098777860       -0.80042257824687        0.42227965028350
H           -2.96066259655424       -2.66043616194895        0.99408548311893
H            1.63911000783934       -0.37736868702816        2.95551794719262
H            3.58614807816117       -0.19077691566863        1.80500855736643
H            4.62534065096508       -0.00384181763745       -0.41846267809930
H            3.19559121053149        0.06930660905864       -2.45342755028995
 
 Bond Distances (Angstroems)
 ---------------------------
C1-C2=1.4977         C1-H17=1.0883        C1-H18=1.0869        C1-H19=1.0899        C2-C1=1.4977         C2-C3=1.3891         
C2-C8=1.3960         C3-C2=1.3891         C3-C4=1.3829         C3-H20=1.0801        C4-C3=1.3829         C4-C5=1.3835         
C4-H21=1.0794        C5-C4=1.3835         C5-C6=1.3803         C5-H22=1.0783        C6-C5=1.3803         C6-F7=1.3517         
C6-C8=1.3902         F7-C6=1.3517         C8-C2=1.3960         C8-C6=1.3902         C8-C9=1.4789         C9-C8=1.4789         
C9-C10=1.4005        C9-C15=1.3873        C10-C9=1.4005        C10-O11=1.3554       C10-C12=1.3897       O11-C10=1.3554       
O11-H23=0.9647       C12-C10=1.3897       C12-C13=1.3831       C12-H24=1.0815       C13-C12=1.3831       C13-C14=1.3827       
C13-H25=1.0788       C14-C13=1.3827       C14-C15=1.3825       C14-H26=1.0777       C15-C9=1.3873        C15-C14=1.3825       
C15-F16=1.3505       F16-C15=1.3505       H17-C1=1.0883        H18-C1=1.0869        H19-C1=1.0899        H20-C3=1.0801        
H21-C4=1.0794        H22-C5=1.0783        H23-O11=0.9647       H24-C12=1.0815       H25-C13=1.0788       H26-C14=1.0777       
 C  H  Rav=1.0823 sigma=0.0045  Rmin=1.0777  Rmax=1.0899     9
 C  C  Rav=1.4017 sigma=0.0359  Rmin=1.3803  Rmax=1.4977    14
 O  H  Rav=0.9647 sigma=0.0000  Rmin=0.9647  Rmax=0.9647     1
 O  C  Rav=1.3554 sigma=0.0000  Rmin=1.3554  Rmax=1.3554     1
 F  C  Rav=1.3511 sigma=0.0006  Rmin=1.3505  Rmax=1.3517     2
 
 selected bond angles (degree)
 --------------------
H17-C1-C2=110.93               H18-C1-C2=110.60               H18-C1-H17=109.11              H19-C1-C2=109.95               
H19-C1-H17=107.99              H19-C1-H18=108.19              C3-C2-C1=120.49                C8-C2-C1=120.53                
C8-C2-C3=118.98                C4-C3-C2=121.37                H20-C3-C2=119.02               H20-C3-C4=119.61               
C5-C4-C3=120.13                H21-C4-C3=120.10               H21-C4-C5=119.77               C6-C5-C4=118.42                
H22-C5-C4=121.89               H22-C5-C6=119.69               F7-C6-C5=118.59                C8-C6-C5=122.48                
C8-C6-F7=118.93                C6-C8-C2=118.61                C9-C8-C2=122.34                C9-C8-C6=119.05                
C10-C9-C8=120.22               C15-C9-C8=122.07               C15-C9-C10=117.67              O11-C10-C9=117.68              
C12-C10-C9=120.12              C12-C10-O11=122.19             
 
 selected dihedral angles (degree)
 ---------------------------------
C3-C2-C1-H17=142.56           C3-C2-C1-H18= 21.35           C3-C2-C1-H19=261.94           C8-C2-C1-H17=322.52           
C8-C2-C1-H18=201.31           C8-C2-C1-H19= 81.89           C4-C3-C2-C1=180.20            C4-C3-C2-C8=  0.25            
H20-C3-C2-C1=  0.07           H20-C3-C2-C8=180.12           C5-C4-C3-C2=  0.18            C5-C4-C3-H20=180.31           
H21-C4-C3-C2=180.04           H21-C4-C3-H20=  0.17          C6-C5-C4-C3=359.79            C6-C5-C4-H21=179.93           
H22-C5-C4-C3=179.91           H22-C5-C4-H21=  0.06          F7-C6-C5-C4=180.84            F7-C6-C5-H22=  0.72           
C8-C6-C5-C4=359.82            C8-C6-C5-H22=179.69           C6-C8-C2-C1=179.42            C6-C8-C2-C3=359.38            
C9-C8-C2-C1=359.67            C9-C8-C2-C3=179.63            C2-C8-C6-C5=  0.61            C2-C8-C6-F7=179.58            
C9-C8-C6-C5=180.36            C9-C8-C6-F7=359.33            C10-C9-C8-C2=113.89           C10-C9-C8-C6=294.14           
C15-C9-C8-C2=291.54           C15-C9-C8-C6=111.79           O11-C10-C9-C8=356.47          O11-C10-C9-C15=178.71         
C12-C10-C9-C8=177.68          C12-C10-C9-C15=359.92         
           -------------------------------------------------
          |                Final Singlepoint                |
           -------------------------------------------------

          ...................................................
          :                      SETUP                      :
          :.................................................:
          :  # basis functions                  74          :
          :  # atomic orbitals                  74          :
          :  # shells                           42          :
          :  # electrons                        82          :
          :  max. iterations                   250          :
          :  Hamiltonian                  GFN2-xTB          :
          :  restarted?                      false          :
          :  GBSA solvation                  false          :
          :  PC potential                    false          :
          :  electronic temp.          298.1500000     K    :
          :  accuracy                    1.0000000          :
          :  -> integral cutoff          0.2500000E+02      :
          :  -> integral neglect         0.1000000E-07      :
          :  -> SCF convergence          0.1000000E-05 Eh   :
          :  -> wf. convergence          0.1000000E-03 e    :
          :  Broyden damping             0.4000000          :
          ...................................................

 iter      E             dE          RMSdq      gap      omega  full diag
   1    -47.1209949 -0.471210E+02  0.406E-05    4.00       0.0  T
   2    -47.1209949 -0.709832E-11  0.246E-05    4.00     795.8  T
   3    -47.1209949 -0.298428E-11  0.158E-05    4.00    1241.2  T

   *** convergence criteria satisfied after 3 iterations ***

         #    Occupation            Energy/Eh            Energy/eV
      -------------------------------------------------------------
         1        2.0000           -0.8144967             -22.1636
       ...           ...                  ...                  ...
        35        2.0000           -0.4503072             -12.2535
        36        2.0000           -0.4428824             -12.0514
        37        2.0000           -0.4253268             -11.5737
        38        2.0000           -0.4129506             -11.2370
        39        2.0000           -0.4018047             -10.9337
        40        2.0000           -0.3979777             -10.8295
        41        2.0000           -0.3927814             -10.6881 (HOMO)
        42                         -0.2458870              -6.6909 (LUMO)
        43                         -0.2291563              -6.2357
        44                         -0.2245862              -6.1113
        45                         -0.2205166              -6.0006
        46                         -0.1092154              -2.9719
       ...                                ...                  ...
        74                          0.6741948              18.3458
      -------------------------------------------------------------
                  HL-Gap            0.1468943 Eh            3.9972 eV
             Fermi-level           -0.3193342 Eh           -8.6895 eV

 SCC (total)                   0 d,  0 h,  0 min,  0.010 sec
 SCC setup                      ...        0 min,  0.000 sec (  0.960%)
 Dispersion                     ...        0 min,  0.000 sec (  0.932%)
 classical contributions        ...        0 min,  0.000 sec (  0.185%)
 integral evaluation            ...        0 min,  0.002 sec ( 15.145%)
 iterations                     ...        0 min,  0.004 sec ( 38.971%)
 molecular gradient             ...        0 min,  0.004 sec ( 42.035%)
 printout                       ...        0 min,  0.000 sec (  1.582%)

         :::::::::::::::::::::::::::::::::::::::::::::::::::::
         ::                     SUMMARY                     ::
         :::::::::::::::::::::::::::::::::::::::::::::::::::::
         :: total energy             -46.467126083104 Eh    ::
         :: gradient norm              0.000396315112 Eh/a0 ::
         :: HOMO-LUMO gap              3.997198039737 eV    ::
         ::.................................................::
         :: SCC energy               -47.120994899720 Eh    ::
         :: -> isotropic ES            0.045196484320 Eh    ::
         :: -> anisotropic ES          0.002456014343 Eh    ::
         :: -> anisotropic XC          0.007530165764 Eh    ::
         :: -> dispersion             -0.027405023048 Eh    ::
         :: repulsion energy           0.653637148203 Eh    ::
         :: add. restraining           0.000000000000 Eh    ::
         :: total charge              -0.000000000000 e     ::
         :::::::::::::::::::::::::::::::::::::::::::::::::::::

           -------------------------------------------------
          |                Property Printout                |
           -------------------------------------------------

    * Orbital Energies and Occupations

         #    Occupation            Energy/Eh            Energy/eV
      -------------------------------------------------------------
         1        2.0000           -0.8144967             -22.1636
       ...           ...                  ...                  ...
        29        2.0000           -0.4790925             -13.0368
        30        2.0000           -0.4740252             -12.8989
        31        2.0000           -0.4661027             -12.6833
        32        2.0000           -0.4638002             -12.6206
        33        2.0000           -0.4581530             -12.4670
        34        2.0000           -0.4564547             -12.4208
        35        2.0000           -0.4503072             -12.2535
        36        2.0000           -0.4428824             -12.0514
        37        2.0000           -0.4253268             -11.5737
        38        2.0000           -0.4129506             -11.2370
        39        2.0000           -0.4018047             -10.9337
        40        2.0000           -0.3979777             -10.8295
        41        2.0000           -0.3927814             -10.6881 (HOMO)
        42                         -0.2458870              -6.6909 (LUMO)
        43                         -0.2291563              -6.2357
        44                         -0.2245862              -6.1113
        45                         -0.2205166              -6.0006
        46                         -0.1092154              -2.9719
        47                         -0.0937232              -2.5503
        48                          0.0346514               0.9429
        49                          0.0544993               1.4830
        50                          0.0769990               2.0952
        51                          0.0993271               2.7028
        52                          0.1228328               3.3424
       ...                                ...                  ...
        74                          0.6741948              18.3458
      -------------------------------------------------------------
                  HL-Gap            0.1468943 Eh            3.9972 eV
             Fermi-level           -0.3193342 Eh           -8.6895 eV

     #   Z          covCN         q      C6AA      α(0)
     1   6 C        3.758    -0.109    22.633     6.783
     2   6 C        2.971     0.022    27.511     8.604
     3   6 C        2.924    -0.045    29.128     8.851
     4   6 C        2.923    -0.032    28.788     8.799
     5   6 C        2.917    -0.054    29.341     8.883
     6   6 C        2.791     0.169    24.353     8.084
     7   9 F        0.787    -0.229    11.534     4.012
     8   6 C        2.979     0.003    27.943     8.671
     9   6 C        2.974    -0.014    28.348     8.733
    10   6 C        2.853     0.149    24.762     8.156
    11   8 O        1.660    -0.376    20.395     6.096
    12   6 C        2.916    -0.077    29.925     8.970
    13   6 C        2.924    -0.031    28.774     8.797
    14   6 C        2.916    -0.062    29.551     8.914
    15   6 C        2.790     0.165    24.433     8.097
    16   9 F        0.787    -0.224    11.485     4.003
    17   1 H        0.925     0.045     2.380     2.413
    18   1 H        0.925     0.046     2.376     2.411
    19   1 H        0.925     0.064     2.157     2.297
    20   1 H        0.926     0.042     2.424     2.435
    21   1 H        0.926     0.043     2.414     2.429
    22   1 H        0.926     0.055     2.258     2.350
    23   1 H        0.805     0.305     0.705     1.319
    24   1 H        0.925     0.038     2.475     2.460
    25   1 H        0.926     0.048     2.346     2.395
    26   1 H        0.926     0.059     2.206     2.323

 Mol. C6AA /au·bohr⁶  :       8741.378677
 Mol. C8AA /au·bohr⁸  :     214354.372900
 Mol. α(0) /au        :        147.282952


Wiberg/Mayer (AO) data.
largest (>0.10) Wiberg bond orders for each atom

 ---------------------------------------------------------------------------
     #   Z sym  total        # sym  WBO       # sym  WBO       # sym  WBO
 ---------------------------------------------------------------------------
     1   6 C    3.996 --     2 C    1.029    18 H    0.983    17 H    0.977
                            19 H    0.963
     2   6 C    3.988 --     3 C    1.411     8 C    1.373     1 C    1.029
                             5 C    0.105
     3   6 C    3.990 --     4 C    1.445     2 C    1.411    20 H    0.968
     4   6 C    3.990 --     3 C    1.445     5 C    1.432    21 H    0.970
                             8 C    0.105
     5   6 C    3.988 --     4 C    1.432     6 C    1.403    22 H    0.967
                             2 C    0.105
     6   6 C    3.885 --     5 C    1.403     8 C    1.362     7 F    0.956
     7   9 F    1.086 --     6 C    0.956
     8   6 C    3.988 --     2 C    1.373     6 C    1.362     9 C    1.017
                             4 C    0.105
     9   6 C    3.986 --    15 C    1.375    10 C    1.322     8 C    1.017
                            13 C    0.103
    10   6 C    3.942 --    12 C    1.374     9 C    1.322    11 O    1.088
    11   8 O    2.141 --    10 C    1.088    23 H    0.885
    12   6 C    3.985 --    13 C    1.443    10 C    1.374    24 H    0.965
    13   6 C    3.989 --    12 C    1.443    14 C    1.435    25 H    0.970
                             9 C    0.103
    14   6 C    3.987 --    13 C    1.435    15 C    1.392    26 H    0.967
    15   6 C    3.886 --    14 C    1.392     9 C    1.375    16 F    0.959
    16   9 F    1.091 --    15 C    0.959
    17   1 H    0.998 --     1 C    0.977
    18   1 H    0.998 --     1 C    0.983
    19   1 H    0.996 --     1 C    0.963
    20   1 H    0.998 --     3 C    0.968
    21   1 H    0.998 --     4 C    0.970
    22   1 H    0.996 --     5 C    0.967
    23   1 H    0.906 --    11 O    0.885
    24   1 H    0.998 --    12 C    0.965
    25   1 H    0.997 --    13 C    0.970
    26   1 H    0.996 --    14 C    0.967
 ---------------------------------------------------------------------------

Topologies differ in total number of bonds
Writing topology from bond orders to xtbtopo.mol

molecular dipole:
                 x           y           z       tot (Debye)
 q only:        0.341       0.792       0.596
   full:        0.566       0.772       0.734       3.067
molecular quadrupole (traceless):
                xx          xy          yy          xz          yz          zz
 q only:        9.931      -0.096      -6.604       3.539      -0.477      -3.328
  q+dip:       13.877       0.655      -9.147       4.345      -1.727      -4.729
   full:       11.385       0.313      -7.821       4.800      -0.582      -3.564

           -------------------------------------------------
          |                Geometry Summary                 |
           -------------------------------------------------

      molecular mass/u    :      220.2151854
   center of mass at/Å    :        0.0615067      -0.3129042      -0.0253411
  moments of inertia/u·Å² :        0.5682510E+03   0.1108137E+04   0.1323872E+04
rotational constants/cm⁻¹ :        0.2966582E-01   0.1521259E-01   0.1273358E-01

 * 23 selected distances

     #   Z          #   Z                                           value/Å
     2   6 C        3   6 C                                       1.3891150
     3   6 C        4   6 C                                       1.3829173
     4   6 C        5   6 C                                       1.3834721
     5   6 C        6   6 C                                       1.3803044
     2   6 C        8   6 C                                       1.3959632
     6   6 C        8   6 C                                       1.3901752
     9   6 C       10   6 C                                       1.4005035 (max)
    10   6 C       11   8 O                                       1.3554013
    10   6 C       12   6 C                                       1.3896807
    12   6 C       13   6 C                                       1.3831426
    13   6 C       14   6 C                                       1.3826780
     9   6 C       15   6 C                                       1.3872955
    14   6 C       15   6 C                                       1.3824599
     1   6 C       17   1 H                                       1.0883287
     1   6 C       18   1 H                                       1.0869385
     1   6 C       19   1 H                                       1.0898860
     3   6 C       20   1 H                                       1.0800844
     4   6 C       21   1 H                                       1.0793612
     5   6 C       22   1 H                                       1.0782668
    11   8 O       23   1 H                                       0.9647422 (min)
    12   6 C       24   1 H                                       1.0814904
    13   6 C       25   1 H                                       1.0787974
    14   6 C       26   1 H                                       1.0777418

 * 4 distinct bonds (by element types)

   Z      Z             #   av. dist./Å        max./Å        min./Å
   1 H    6 C           9     1.0823217     1.0898860     1.0777418
   6 C    6 C          12     1.3873090     1.4005035     1.3803044
   1 H    8 O           1     0.9647422     0.9647422     0.9647422
   6 C    8 O           1     1.3554013     1.3554013     1.3554013


optimized geometry written to: xtbopt.xyz


           -------------------------------------------------
          | TOTAL ENERGY              -46.467126083104 Eh   |
          | GRADIENT NORM               0.000396315112 Eh/α |
          | HOMO-LUMO GAP               3.997198039737 eV   |
           -------------------------------------------------

------------------------------------------------------------------------
 * finished run on 2026/07/23 at 12:55:29.347     
------------------------------------------------------------------------
 total:
 * wall-time:     0 d,  0 h,  0 min,  0.578 sec
 *  cpu-time:     0 d,  0 h,  0 min,  2.273 sec
 * ratio c/w:     3.932 speedup
 SCF:
 * wall-time:     0 d,  0 h,  0 min,  0.039 sec
 *  cpu-time:     0 d,  0 h,  0 min,  0.139 sec
 * ratio c/w:     3.613 speedup
 ANC optimizer:
 * wall-time:     0 d,  0 h,  0 min,  0.524 sec
 *  cpu-time:     0 d,  0 h,  0 min,  2.086 sec
 * ratio c/w:     3.980 speedup

