26
 energy: -46.467126083104 gnorm: 0.000396315112 xtb: 6.6.1 (8d0f1dd)
C           -1.03461194443529        2.04521808805075       -0.75283709265268
C           -1.56718041592995        0.73117419967349       -0.27033592330769
C           -2.93491606474800        0.53448378283604       -0.12802592661705
C           -3.44630732511360       -0.66981420293245        0.31986369952681
C           -2.59292553446398       -1.71028649329292        0.64103581426538
C           -1.23420778815186       -1.51346172500648        0.49825591930839
F           -0.39827468468815       -2.53348472254000        0.79464083277950
C           -0.69733801087007       -0.31493162544557        0.04231374154780
C            0.77032080795703       -0.18961924555459       -0.08948854123898
C            1.58604154954079       -0.22702112480682        1.04832100491053
O            0.97759959919553       -0.30646243609993        2.25687378787897
C            2.96788311481803       -0.15760993216825        0.91829012903685
C            3.55114394398324       -0.05208318418789       -0.33141140655980
C            2.76545607589285       -0.00909211587647       -1.46835667186677
C            1.39234642980717       -0.08076177397390       -1.32473044537984
F            0.62659700359479       -0.05430635187138       -2.43682598811577
H           -0.11136676991673        2.30327612472231       -0.23758615303008
H           -1.76396604851792        2.83518056947074       -0.59334767712942
H           -0.82038002173595        1.99033269023637       -1.82005009774471
H           -3.60861027938231        1.34280903023823       -0.37160041518342
H           -4.51283098777860       -0.80042257824687        0.42227965028350
H           -2.96066259655424       -2.66043616194895        0.99408548311893
H            1.63911000783934       -0.37736868702816        2.95551794719262
H            3.58614807816117       -0.19077691566863        1.80500855736643
H            4.62534065096508       -0.00384181763745       -0.41846267809930
H            3.19559121053149        0.06930660905864       -2.45342755028995
