      -----------------------------------------------------------      
     |                   =====================                   |     
     |                           x T B                           |     
     |                   =====================                   |     
     |                         S. Grimme                         |     
     |          Mulliken Center for Theoretical Chemistry        |     
     |                    University of Bonn                     |     
      -----------------------------------------------------------      

   * xtb version 6.6.1 (8d0f1dd) compiled by 'stahn@M-Bot' on 2023-08-01

   xtb is free software: you can redistribute it and/or modify it under
   the terms of the GNU Lesser General Public License as published by
   the Free Software Foundation, either version 3 of the License, or
   (at your option) any later version.
   
   xtb is distributed in the hope that it will be useful,
   but WITHOUT ANY WARRANTY; without even the implied warranty of
   MERCHANTABILITY or FITNESS FOR A PARTICULAR PURPOSE.  See the
   GNU Lesser General Public License for more details.
   
   Cite this work as:
   * C. Bannwarth, E. Caldeweyher, S. Ehlert, A. Hansen, P. Pracht,
     J. Seibert, S. Spicher, S. Grimme, WIREs Comput. Mol. Sci., 2020, 11,
     e01493. DOI: 10.1002/wcms.1493
   
   for GFN2-xTB:
   * C. Bannwarth, S. Ehlert and S. Grimme., J. Chem. Theory Comput., 2019,
     15, 1652-1671. DOI: 10.1021/acs.jctc.8b01176
   for GFN1-xTB:
   * S. Grimme, C. Bannwarth, P. Shushkov, J. Chem. Theory Comput., 2017,
     13, 1989-2009. DOI: 10.1021/acs.jctc.7b00118
   for GFN0-xTB:
   * P. Pracht, E. Caldeweyher, S. Ehlert, S. Grimme, ChemRxiv, 2019, preprint.
     DOI: 10.26434/chemrxiv.8326202.v1
   for GFN-FF:
   * S. Spicher and S. Grimme, Angew. Chem. Int. Ed., 2020, 59, 15665-15673.
     DOI: 10.1002/anie.202004239
   
   for ALPB and GBSA implicit solvation:
   * S. Ehlert, M. Stahn, S. Spicher, S. Grimme, J. Chem. Theory Comput.,
     2021, 17, 4250-4261. DOI: 10.1021/acs.jctc.1c00471
   
   for DFT-D4:
   * E. Caldeweyher, C. Bannwarth and S. Grimme, J. Chem. Phys., 2017,
     147, 034112. DOI: 10.1063/1.4993215
   * E. Caldeweyher, S. Ehlert, A. Hansen, H. Neugebauer, S. Spicher,
     C. Bannwarth and S. Grimme, J. Chem. Phys., 2019, 150, 154122.
     DOI: 10.1063/1.5090222
   * E. Caldeweyher, J.-M. Mewes, S. Ehlert and S. Grimme, Phys. Chem. Chem. Phys.
     2020, 22, 8499-8512. DOI: 10.1039/D0CP00502A
   
   for sTDA-xTB:
   * S. Grimme and C. Bannwarth, J. Chem. Phys., 2016, 145, 054103.
     DOI: 10.1063/1.4959605
   
   in the mass-spec context:
   * V. Asgeirsson, C. Bauer and S. Grimme, Chem. Sci., 2017, 8, 4879.
     DOI: 10.1039/c7sc00601b
   * J. Koopman and S. Grimme, ACS Omega 2019, 4, 12, 15120-15133.
     DOI: 10.1021/acsomega.9b02011
   
   for metadynamics refer to:
   * S. Grimme, J. Chem. Theory Comput., 2019, 155, 2847-2862
     DOI: 10.1021/acs.jctc.9b00143
   
   for SPH calculations refer to:
   * S. Spicher and S. Grimme, J. Chem. Theory Comput., 2021, 17, 1701-1714
     DOI: 10.1021/acs.jctc.0c01306
   
   with help from (in alphabetical order)
   P. Atkinson, C. Bannwarth, F. Bohle, G. Brandenburg, E. Caldeweyher
   M. Checinski, S. Dohm, S. Ehlert, S. Ehrlich, I. Gerasimov, C. Hölzer
   A. Katbashev, J. Koopman, C. Lavigne, S. Lehtola, F. März, M. Müller,
   F. Musil, H. Neugebauer, J. Pisarek, C. Plett, P. Pracht, F. Pultar,
   J. Seibert, P. Shushkov, S. Spicher, M. Stahn, M. Steiner, T. Strunk,
   J. Stückrath, T. Rose, and J. Unsleber
   
 * started run on 2025/08/28 at 10:02:19.884     

           -------------------------------------------------
          |                Calculation Setup                |
           -------------------------------------------------

          program call               : /path/to/xtb /path/to/16.xyz --opt --etemp 298.15 --chrg 0 --uhf 0 -P 4
          hostname                   : semlscpn101
          coordinate file            : /path/to/16.xyz
          omp threads                :                     4

   ID    Z sym.   atoms
    1    6 C      1-6, 8-10, 12-15
    2    9 F      7, 16
    3    8 O      11
    4    1 H      17-26

           -------------------------------------------------
          |                 G F N 2 - x T B                 |
           -------------------------------------------------

        Reference                      10.1021/acs.jctc.8b01176
      * Hamiltonian:
        H0-scaling (s, p, d)           1.850000    2.230000    2.230000
        zeta-weighting                 0.500000
      * Dispersion:
        s8                             2.700000
        a1                             0.520000
        a2                             5.000000
        s9                             5.000000
      * Repulsion:
        kExp                           1.500000    1.000000
        rExp                           1.000000
      * Coulomb:
        alpha                          2.000000
        third order                    shell-resolved
        anisotropic                    true
        a3                             3.000000
        a5                             4.000000
        cn-shift                       1.200000
        cn-exp                         4.000000
        max-rad                        5.000000


          ...................................................
          :                      SETUP                      :
          :.................................................:
          :  # basis functions                  74          :
          :  # atomic orbitals                  74          :
          :  # shells                           42          :
          :  # electrons                        82          :
          :  max. iterations                   250          :
          :  Hamiltonian                  GFN2-xTB          :
          :  restarted?                      false          :
          :  GBSA solvation                  false          :
          :  PC potential                    false          :
          :  electronic temp.          298.1500000     K    :
          :  accuracy                    1.0000000          :
          :  -> integral cutoff          0.2500000E+02      :
          :  -> integral neglect         0.1000000E-07      :
          :  -> SCF convergence          0.1000000E-05 Eh   :
          :  -> wf. convergence          0.1000000E-03 e    :
          :  Broyden damping             0.4000000          :
          ...................................................

 iter      E             dE          RMSdq      gap      omega  full diag
   1    -47.0490291 -0.470490E+02  0.422E+00    4.48       0.0  T
   2    -47.0882817 -0.392526E-01  0.253E+00    4.50       1.0  T
   3    -47.0826218  0.565994E-02  0.136E+00    4.48       1.0  T
   4    -47.1011014 -0.184797E-01  0.253E-01    4.48       1.0  T
   5    -47.1014423 -0.340886E-03  0.103E-01    4.47       1.0  T
   6    -47.1016678 -0.225460E-03  0.445E-02    4.47       1.0  T
   7    -47.1016806 -0.128126E-04  0.196E-02    4.47       1.0  T
   8    -47.1016853 -0.470307E-05  0.783E-03    4.47       2.5  T
   9    -47.1016857 -0.387455E-06  0.182E-03    4.47      10.8  T
  10    -47.1016857 -0.165377E-07  0.902E-04    4.47      21.7  T
  11    -47.1016857 -0.480244E-08  0.360E-04    4.47      54.4  T

   *** convergence criteria satisfied after 11 iterations ***

         #    Occupation            Energy/Eh            Energy/eV
      -------------------------------------------------------------
         1        2.0000           -0.8193718             -22.2962
       ...           ...                  ...                  ...
        35        2.0000           -0.4457884             -12.1305
        36        2.0000           -0.4400933             -11.9755
        37        2.0000           -0.4254887             -11.5781
        38        2.0000           -0.4116642             -11.2020
        39        2.0000           -0.4093950             -11.1402
        40        2.0000           -0.4070806             -11.0772
        41        2.0000           -0.4048111             -11.0155 (HOMO)
        42                         -0.2404475              -6.5429 (LUMO)
        43                         -0.2385689              -6.4918
        44                         -0.2352630              -6.4018
        45                         -0.2251018              -6.1253
        46                         -0.1123448              -3.0571
       ...                                ...                  ...
        74                          0.6913196              18.8118
      -------------------------------------------------------------
                  HL-Gap            0.1643636 Eh            4.4726 eV
             Fermi-level           -0.3226293 Eh           -8.7792 eV

 SCC (total)                   0 d,  0 h,  0 min,  0.105 sec
 SCC setup                      ...        0 min,  0.000 sec (  0.327%)
 Dispersion                     ...        0 min,  0.000 sec (  0.461%)
 classical contributions        ...        0 min,  0.000 sec (  0.120%)
 integral evaluation            ...        0 min,  0.005 sec (  4.779%)
 iterations                     ...        0 min,  0.085 sec ( 81.135%)
 molecular gradient             ...        0 min,  0.013 sec ( 12.762%)
 printout                       ...        0 min,  0.000 sec (  0.396%)

         :::::::::::::::::::::::::::::::::::::::::::::::::::::
         ::                     SUMMARY                     ::
         :::::::::::::::::::::::::::::::::::::::::::::::::::::
         :: total energy             -46.445240950556 Eh    ::
         :: gradient norm              0.100933325219 Eh/a0 ::
         :: HOMO-LUMO gap              4.472561867451 eV    ::
         ::.................................................::
         :: SCC energy               -47.101685711040 Eh    ::
         :: -> isotropic ES            0.049501916523 Eh    ::
         :: -> anisotropic ES          0.002518866430 Eh    ::
         :: -> anisotropic XC          0.008249092643 Eh    ::
         :: -> dispersion             -0.027732527809 Eh    ::
         :: repulsion energy           0.656192837859 Eh    ::
         :: add. restraining           0.000000000000 Eh    ::
         :: total charge              -0.000000000000 e     ::
         :::::::::::::::::::::::::::::::::::::::::::::::::::::

      ----------------------------------------------------------- 
     |                   =====================                   |
     |                        A N C O P T                        |
     |                   =====================                   |
     |               Approximate Normal Coordinate               |
     |                Rational Function Optimizer                |
      ----------------------------------------------------------- 

          ...................................................
          :                      SETUP                      :
          :.................................................:
          :   optimization level            normal          :
          :   max. optcycles                   200          :
          :   ANC micro-cycles                  20          :
          :   degrees of freedom                72          :
          :.................................................:
          :   RF solver                   davidson          :
          :   write xtbopt.log                true          :
          :   linear?                        false          :
          :   energy convergence         0.5000000E-05 Eh   :
          :   grad. convergence          0.1000000E-02 Eh/α :
          :   maxmium RF displ.          1.0000000          :
          :   Hlow (freq-cutoff)         0.1000000E-01      :
          :   Hmax (freq-cutoff)         5.0000000          :
          :   S6 in model hess.         20.0000000          :
          ...................................................

generating ANC from model Hessian ...
Using Lindh-Hessian (1995)
 Shifting diagonal of input Hessian by   8.647883920200815E-003
 Lowest  eigenvalues of input Hessian
    0.000000    0.000000    0.000000    0.000000    0.000000    0.000000
    0.010000    0.010479    0.010828    0.014048    0.015300    0.017071
    0.020749    0.021356    0.024640    0.028806    0.030703    0.031004
 Highest eigenvalues
    1.907290    1.959712    2.063286    2.109838    2.125894    2.185889
 

........................................................................
.............................. CYCLE    1 ..............................
........................................................................

 iter      E             dE          RMSdq      gap      omega  full diag
   1    -47.1016857 -0.471017E+02  0.121E-04    4.47       0.0  T
   2    -47.1016857 -0.538094E-10  0.715E-05    4.47     274.3  T
   3    -47.1016857 -0.131521E-10  0.461E-05    4.47     425.6  T
     SCC iter.                  ...        0 min,  0.011 sec
     gradient                   ...        0 min,  0.014 sec
 * total energy  :   -46.4452410 Eh     change       -0.8848957E-09 Eh
   gradient norm :     0.1009341 Eh/α   predicted     0.0000000E+00 (-100.00%)
   displ. norm   :     0.2600538 α      lambda       -0.1642518E-01
   maximum displ.:     0.0845557 α      in ANC's #40, #25, #38, ...

........................................................................
.............................. CYCLE    2 ..............................
........................................................................

 iter      E             dE          RMSdq      gap      omega  full diag
   1    -47.1099321 -0.471099E+02  0.311E-01    4.40       0.0  T
   2    -47.1100016 -0.695344E-04  0.194E-01    4.39       1.0  T
   3    -47.1098417  0.159874E-03  0.763E-02    4.39       1.0  T
   4    -47.1100320 -0.190265E-03  0.126E-02    4.39       1.6  T
   5    -47.1100343 -0.229449E-05  0.527E-03    4.39       3.7  T
   6    -47.1100348 -0.500529E-06  0.274E-03    4.39       7.2  T
   7    -47.1100348 -0.483992E-07  0.846E-04    4.39      23.2  T
   8    -47.1100348 -0.690599E-08  0.334E-04    4.39      58.8  T
     SCC iter.                  ...        0 min,  0.028 sec
     gradient                   ...        0 min,  0.013 sec
 * total energy  :   -46.4564976 Eh     change       -0.1125664E-01 Eh
   gradient norm :     0.0415878 Eh/α   predicted    -0.8769740E-02 ( -22.09%)
   displ. norm   :     0.2044662 α      lambda       -0.4445272E-02
   maximum displ.:     0.0763842 α      in ANC's #7, #18, #2, ...

........................................................................
.............................. CYCLE    3 ..............................
........................................................................

 iter      E             dE          RMSdq      gap      omega  full diag
   1    -47.1133525 -0.471134E+02  0.209E-01    4.34       0.0  T
   2    -47.1133806 -0.281059E-04  0.128E-01    4.34       1.0  T
   3    -47.1133301  0.505408E-04  0.474E-02    4.34       1.0  T
   4    -47.1133912 -0.610658E-04  0.785E-03    4.33       2.5  T
   5    -47.1133919 -0.702356E-06  0.346E-03    4.33       5.7  T
   6    -47.1133921 -0.259207E-06  0.167E-03    4.34      11.8  T
   7    -47.1133921 -0.158308E-07  0.548E-04    4.34      35.8  T
   8    -47.1133921 -0.356538E-08  0.194E-04    4.34     101.0  T
     SCC iter.                  ...        0 min,  0.027 sec
     gradient                   ...        0 min,  0.014 sec
 * total energy  :   -46.4590178 Eh     change       -0.2520234E-02 Eh
   gradient norm :     0.0100080 Eh/α   predicted    -0.2315917E-02 (  -8.11%)
   displ. norm   :     0.1656130 α      lambda       -0.6753088E-03
   maximum displ.:     0.0680626 α      in ANC's #7, #10, #6, ...

........................................................................
.............................. CYCLE    4 ..............................
........................................................................

 iter      E             dE          RMSdq      gap      omega  full diag
   1    -47.1122796 -0.471123E+02  0.778E-02    4.33       0.0  T
   2    -47.1122892 -0.961711E-05  0.457E-02    4.34       1.0  T
   3    -47.1122841  0.507243E-05  0.222E-02    4.34       1.0  T
   4    -47.1122919 -0.780772E-05  0.474E-03    4.33       4.1  T
   5    -47.1122922 -0.245072E-06  0.222E-03    4.33       8.8  T
   6    -47.1122922 -0.865980E-07  0.101E-03    4.33      19.4  T
   7    -47.1122923 -0.544777E-08  0.430E-04    4.33      45.6  T
   8    -47.1122923 -0.978559E-09  0.153E-04    4.33     128.0  T
     SCC iter.                  ...        0 min,  0.027 sec
     gradient                   ...        0 min,  0.015 sec
 * total energy  :   -46.4595930 Eh     change       -0.5752229E-03 Eh
   gradient norm :     0.0099534 Eh/α   predicted    -0.3469189E-03 ( -39.69%)
   displ. norm   :     0.5031648 α      lambda       -0.1659641E-02
   maximum displ.:     0.2134891 α      in ANC's #7, #10, #6, ...

........................................................................
.............................. CYCLE    5 ..............................
........................................................................

 iter      E             dE          RMSdq      gap      omega  full diag
   1    -47.1049423 -0.471049E+02  0.226E-01    4.33       0.0  T
   2    -47.1050793 -0.136994E-03  0.129E-01    4.35       1.0  T
   3    -47.1050478  0.315196E-04  0.736E-02    4.35       1.0  T
   4    -47.1051197 -0.719449E-04  0.182E-02    4.34       1.1  T
   5    -47.1051228 -0.311106E-05  0.757E-03    4.35       2.6  T
   6    -47.1051239 -0.107750E-05  0.340E-03    4.35       5.8  T
   7    -47.1051240 -0.607843E-07  0.151E-03    4.35      13.0  T
   8    -47.1051240 -0.821315E-08  0.547E-04    4.35      35.9  T
   9    -47.1051240 -0.418470E-08  0.130E-04    4.35     150.7  T
     SCC iter.                  ...        0 min,  0.031 sec
     gradient                   ...        0 min,  0.014 sec
 * total energy  :   -46.4594987 Eh     change        0.9439081E-04 Eh
   gradient norm :     0.0525089 Eh/α   predicted    -0.1039917E-02 (*******%)
   displ. norm   :     0.1899481 α      lambda       -0.2605603E-02
   maximum displ.:     0.0822404 α      in ANC's #10, #8, #7, ...

........................................................................
.............................. CYCLE    6 ..............................
........................................................................

 iter      E             dE          RMSdq      gap      omega  full diag
   1    -47.1119225 -0.471119E+02  0.119E-01    4.36       0.0  T
   2    -47.1119557 -0.331758E-04  0.674E-02    4.35       1.0  T
   3    -47.1119445  0.112182E-04  0.349E-02    4.35       1.0  T
   4    -47.1119650 -0.205629E-04  0.106E-02    4.36       1.8  T
   5    -47.1119660 -0.958400E-06  0.457E-03    4.35       4.3  T
   6    -47.1119663 -0.299760E-06  0.230E-03    4.35       8.5  T
   7    -47.1119663 -0.239657E-07  0.920E-04    4.35      21.3  T
   8    -47.1119663 -0.326894E-08  0.307E-04    4.35      63.8  T
     SCC iter.                  ...        0 min,  0.027 sec
     gradient                   ...        0 min,  0.015 sec
 * total energy  :   -46.4606281 Eh     change       -0.1129465E-02 Eh
   gradient norm :     0.0156517 Eh/α   predicted    -0.1349799E-02 (  19.51%)
   displ. norm   :     0.1668453 α      lambda       -0.5693365E-03
   maximum displ.:     0.1066399 α      in ANC's #2, #6, #3, ...

........................................................................
.............................. CYCLE    7 ..............................
........................................................................

 iter      E             dE          RMSdq      gap      omega  full diag
   1    -47.1127821 -0.471128E+02  0.611E-02    4.36       0.0  T
   2    -47.1127877 -0.563040E-05  0.365E-02    4.36       1.0  T
   3    -47.1127842  0.350148E-05  0.204E-02    4.36       1.0  T
   4    -47.1127906 -0.639211E-05  0.287E-03    4.36       6.8  T
   5    -47.1127907 -0.909948E-07  0.154E-03    4.36      12.7  T
   6    -47.1127907 -0.408789E-07  0.688E-04    4.36      28.5  T
   7    -47.1127907 -0.209636E-08  0.295E-04    4.36      66.4  T
     SCC iter.                  ...        0 min,  0.024 sec
     gradient                   ...        0 min,  0.015 sec
 * total energy  :   -46.4611800 Eh     change       -0.5518954E-03 Eh
   gradient norm :     0.0150789 Eh/α   predicted    -0.2925931E-03 ( -46.98%)
   displ. norm   :     0.7721084 α      lambda       -0.3063675E-02
   maximum displ.:     0.4377339 α      in ANC's #2, #6, #7, ...

........................................................................
.............................. CYCLE    8 ..............................
........................................................................

 iter      E             dE          RMSdq      gap      omega  full diag
   1    -47.1076885 -0.471077E+02  0.310E-01    4.30       0.0  T
   2    -47.1079375 -0.248961E-03  0.181E-01    4.35       1.0  T
   3    -47.1078903  0.471854E-04  0.105E-01    4.34       1.0  T
   4    -47.1080364 -0.146088E-03  0.207E-02    4.35       1.0  T
   5    -47.1080404 -0.397584E-05  0.940E-03    4.35       2.1  T
   6    -47.1080423 -0.192335E-05  0.394E-03    4.35       5.0  T
   7    -47.1080424 -0.702581E-07  0.179E-03    4.35      10.9  T
   8    -47.1080424 -0.141852E-07  0.591E-04    4.35      33.2  T
   9    -47.1080424 -0.463817E-08  0.118E-04    4.35     166.0  T
     SCC iter.                  ...        0 min,  0.031 sec
     gradient                   ...        0 min,  0.014 sec
 * total energy  :   -46.4621740 Eh     change       -0.9939705E-03 Eh
   gradient norm :     0.0516178 Eh/α   predicted    -0.2445187E-02 ( 146.00%)
   displ. norm   :     0.1544258 α      lambda       -0.2922822E-02
   maximum displ.:     0.0770902 α      in ANC's #7, #10, #14, ...

........................................................................
.............................. CYCLE    9 ..............................
........................................................................

 iter      E             dE          RMSdq      gap      omega  full diag
   1    -47.1158237 -0.471158E+02  0.104E-01    4.37       0.0  T
   2    -47.1158475 -0.238187E-04  0.584E-02    4.37       1.0  T
   3    -47.1158372  0.102994E-04  0.310E-02    4.37       1.0  T
   4    -47.1158560 -0.187296E-04  0.921E-03    4.36       2.1  T
   5    -47.1158565 -0.559679E-06  0.421E-03    4.37       4.7  T
   6    -47.1158567 -0.231443E-06  0.215E-03    4.37       9.1  T
   7    -47.1158568 -0.208003E-07  0.795E-04    4.37      24.7  T
   8    -47.1158568 -0.249899E-08  0.268E-04    4.37      73.2  T
     SCC iter.                  ...        0 min,  0.027 sec
     gradient                   ...        0 min,  0.015 sec
 * total energy  :   -46.4635330 Eh     change       -0.1359011E-02 Eh
   gradient norm :     0.0105090 Eh/α   predicted    -0.1496275E-02 (  10.10%)
   displ. norm   :     0.3136956 α      lambda       -0.9560724E-03
   maximum displ.:     0.1926686 α      in ANC's #2, #6, #3, ...

........................................................................
.............................. CYCLE   10 ..............................
........................................................................

 iter      E             dE          RMSdq      gap      omega  full diag
   1    -47.1157470 -0.471157E+02  0.114E-01    4.31       0.0  T
   2    -47.1157676 -0.206143E-04  0.679E-02    4.33       1.0  T
   3    -47.1157562  0.113165E-04  0.354E-02    4.33       1.0  T
   4    -47.1157757 -0.194877E-04  0.526E-03    4.33       3.7  T
   5    -47.1157760 -0.252657E-06  0.266E-03    4.33       7.4  T
   6    -47.1157761 -0.114663E-06  0.128E-03    4.33      15.4  T
   7    -47.1157761 -0.841335E-08  0.554E-04    4.33      35.4  T
   8    -47.1157761 -0.276943E-08  0.169E-04    4.33     115.8  T
     SCC iter.                  ...        0 min,  0.027 sec
     gradient                   ...        0 min,  0.014 sec
 * total energy  :   -46.4643781 Eh     change       -0.8451313E-03 Eh
   gradient norm :     0.0100917 Eh/α   predicted    -0.5250858E-03 ( -37.87%)
   displ. norm   :     0.5638618 α      lambda       -0.1773125E-02
   maximum displ.:     0.2789305 α      in ANC's #2, #6, #3, ...

........................................................................
.............................. CYCLE   11 ..............................
........................................................................

 iter      E             dE          RMSdq      gap      omega  full diag
   1    -47.1147203 -0.471147E+02  0.217E-01    4.23       0.0  T
   2    -47.1148052 -0.848845E-04  0.127E-01    4.26       1.0  T
   3    -47.1147658  0.393854E-04  0.643E-02    4.25       1.0  T
   4    -47.1148328 -0.670332E-04  0.123E-02    4.26       1.6  T
   5    -47.1148342 -0.135005E-05  0.581E-03    4.26       3.4  T
   6    -47.1148348 -0.597739E-06  0.280E-03    4.26       7.0  T
   7    -47.1148348 -0.363895E-07  0.119E-03    4.26      16.5  T
   8    -47.1148348 -0.108237E-07  0.354E-04    4.26      55.4  T
   9    -47.1148348 -0.191578E-08  0.866E-05    4.26     226.5  T
     SCC iter.                  ...        0 min,  0.031 sec
     gradient                   ...        0 min,  0.009 sec
 * total energy  :   -46.4649686 Eh     change       -0.5904369E-03 Eh
   gradient norm :     0.0347059 Eh/α   predicted    -0.1168482E-02 (  97.90%)
   displ. norm   :     0.0846196 α      lambda       -0.1246367E-02
   maximum displ.:     0.0452127 α      in ANC's #1, #10, #7, ...

........................................................................
.............................. CYCLE   12 ..............................
........................................................................

 iter      E             dE          RMSdq      gap      omega  full diag
   1    -47.1191005 -0.471191E+02  0.586E-02    4.28       0.0  T
   2    -47.1191083 -0.777199E-05  0.331E-02    4.27       1.0  T
   3    -47.1191052  0.309116E-05  0.171E-02    4.27       1.1  T
   4    -47.1191110 -0.581641E-05  0.535E-03    4.27       3.7  T
   5    -47.1191112 -0.187687E-06  0.256E-03    4.27       7.6  T
   6    -47.1191113 -0.812439E-07  0.134E-03    4.27      14.6  T
   7    -47.1191113 -0.793078E-08  0.464E-04    4.27      42.3  T
   8    -47.1191113 -0.130105E-08  0.154E-04    4.27     127.5  T
     SCC iter.                  ...        0 min,  0.027 sec
     gradient                   ...        0 min,  0.015 sec
 * total energy  :   -46.4656070 Eh     change       -0.6384030E-03 Eh
   gradient norm :     0.0075524 Eh/α   predicted    -0.6276261E-03 (  -1.69%)
   displ. norm   :     0.1982881 α      lambda       -0.3521545E-03
   maximum displ.:     0.0897945 α      in ANC's #6, #1, #3, ...

........................................................................
.............................. CYCLE   13 ..............................
........................................................................

 iter      E             dE          RMSdq      gap      omega  full diag
   1    -47.1197496 -0.471197E+02  0.759E-02    4.25       0.0  T
   2    -47.1197522 -0.264638E-05  0.452E-02    4.25       1.0  T
   3    -47.1197479  0.425481E-05  0.153E-02    4.25       1.3  T
   4    -47.1197533 -0.539100E-05  0.226E-03    4.25       8.7  T
   5    -47.1197534 -0.236289E-07  0.120E-03    4.25      16.4  T
   6    -47.1197534 -0.601851E-08  0.617E-04    4.25      31.8  T
   7    -47.1197534 -0.327717E-08  0.183E-04    4.25     107.3  T
     SCC iter.                  ...        0 min,  0.024 sec
     gradient                   ...        0 min,  0.015 sec
 * total energy  :   -46.4658955 Eh     change       -0.2885338E-03 Eh
   gradient norm :     0.0065280 Eh/α   predicted    -0.1830666E-03 ( -36.55%)
   displ. norm   :     0.3153903 α      lambda       -0.5192645E-03
   maximum displ.:     0.1531018 α      in ANC's #1, #5, #6, ...

........................................................................
.............................. CYCLE   14 ..............................
........................................................................

 iter      E             dE          RMSdq      gap      omega  full diag
   1    -47.1216547 -0.471217E+02  0.132E-01    4.21       0.0  T
   2    -47.1216609 -0.617271E-05  0.783E-02    4.22       1.0  T
   3    -47.1216524  0.849110E-05  0.219E-02    4.22       1.0  T
   4    -47.1216633 -0.108792E-04  0.396E-03    4.22       5.0  T
   5    -47.1216633 -0.766161E-07  0.210E-03    4.22       9.3  T
   6    -47.1216634 -0.101555E-07  0.109E-03    4.22      17.9  T
   7    -47.1216634 -0.162442E-07  0.316E-04    4.22      62.1  T
   8    -47.1216634 -0.149915E-08  0.110E-04    4.22     178.2  T
     SCC iter.                  ...        0 min,  0.027 sec
     gradient                   ...        0 min,  0.015 sec
 * total energy  :   -46.4661769 Eh     change       -0.2813732E-03 Eh
   gradient norm :     0.0102746 Eh/α   predicted    -0.2856929E-03 (   1.54%)
   displ. norm   :     0.1636401 α      lambda       -0.2434971E-03
   maximum displ.:     0.0974968 α      in ANC's #1, #6, #2, ...

........................................................................
.............................. CYCLE   15 ..............................
........................................................................

 iter      E             dE          RMSdq      gap      omega  full diag
   1    -47.1206835 -0.471207E+02  0.640E-02    4.21       0.0  T
   2    -47.1206850 -0.147694E-05  0.377E-02    4.21       1.0  T
   3    -47.1206846  0.439817E-06  0.616E-03    4.21       3.2  T
   4    -47.1206852 -0.655494E-06  0.197E-03    4.21      10.0  T
   5    -47.1206853 -0.452321E-07  0.908E-04    4.21      21.6  T
   6    -47.1206853  0.137348E-10  0.367E-04    4.21      53.5  T
     SCC iter.                  ...        0 min,  0.021 sec
     gradient                   ...        0 min,  0.015 sec
 * total energy  :   -46.4663339 Eh     change       -0.1570193E-03 Eh
   gradient norm :     0.0054646 Eh/α   predicted    -0.1249918E-03 ( -20.40%)
   displ. norm   :     0.2399368 α      lambda       -0.2699162E-03
   maximum displ.:     0.1842961 α      in ANC's #2, #1, #5, ...

........................................................................
.............................. CYCLE   16 ..............................
........................................................................

 iter      E             dE          RMSdq      gap      omega  full diag
   1    -47.1241542 -0.471242E+02  0.915E-02    4.20       0.0  T
   2    -47.1241569 -0.276093E-05  0.538E-02    4.19       1.0  T
   3    -47.1241551  0.177964E-05  0.951E-03    4.20       2.1  T
   4    -47.1241575 -0.238625E-05  0.276E-03    4.19       7.1  T
   5    -47.1241576 -0.109555E-06  0.136E-03    4.19      14.4  T
   6    -47.1241577 -0.107141E-07  0.703E-04    4.19      27.9  T
   7    -47.1241577 -0.498321E-08  0.259E-04    4.19      75.9  T
     SCC iter.                  ...        0 min,  0.024 sec
     gradient                   ...        0 min,  0.014 sec
 * total energy  :   -46.4664090 Eh     change       -0.7509366E-04 Eh
   gradient norm :     0.0129049 Eh/α   predicted    -0.1427082E-03 (  90.04%)
   displ. norm   :     0.2108320 α      lambda       -0.2330348E-03
   maximum displ.:     0.1229861 α      in ANC's #1, #2, #6, ...

........................................................................
.............................. CYCLE   17 ..............................
........................................................................

 iter      E             dE          RMSdq      gap      omega  full diag
   1    -47.1207100 -0.471207E+02  0.821E-02    4.16       0.0  T
   2    -47.1207119 -0.190002E-05  0.483E-02    4.17       1.0  T
   3    -47.1207111  0.822357E-06  0.737E-03    4.17       2.7  T
   4    -47.1207123 -0.123821E-05  0.279E-03    4.17       7.0  T
   5    -47.1207124 -0.117863E-06  0.139E-03    4.17      14.1  T
   6    -47.1207124 -0.734541E-08  0.703E-04    4.17      27.9  T
   7    -47.1207124 -0.589471E-08  0.192E-04    4.17     101.9  T
     SCC iter.                  ...        0 min,  0.024 sec
     gradient                   ...        0 min,  0.013 sec
 * total energy  :   -46.4665435 Eh     change       -0.1345154E-03 Eh
   gradient norm :     0.0048102 Eh/α   predicted    -0.1216699E-03 (  -9.55%)
   displ. norm   :     0.1099616 α      lambda       -0.8361257E-04
   maximum displ.:     0.0942768 α      in ANC's #2, #1, #3, ...

........................................................................
.............................. CYCLE   18 ..............................
........................................................................

 iter      E             dE          RMSdq      gap      omega  full diag
   1    -47.1210019 -0.471210E+02  0.372E-02    4.17       0.0  T
   2    -47.1210020 -0.116286E-06  0.218E-02    4.17       1.0  T
   3    -47.1210018  0.203803E-06  0.296E-03    4.17       6.6  T
   4    -47.1210021 -0.261994E-06  0.624E-04    4.17      31.4  T
   5    -47.1210021 -0.126339E-08  0.370E-04    4.17      53.0  T
     SCC iter.                  ...        0 min,  0.017 sec
     gradient                   ...        0 min,  0.015 sec
 * total energy  :   -46.4666133 Eh     change       -0.6978002E-04 Eh
   gradient norm :     0.0040326 Eh/α   predicted    -0.4232391E-04 ( -39.35%)
   displ. norm   :     0.1747213 α      lambda       -0.1194075E-03
   maximum displ.:     0.1459201 α      in ANC's #2, #3, #1, ...

........................................................................
.............................. CYCLE   19 ..............................
........................................................................

 iter      E             dE          RMSdq      gap      omega  full diag
   1    -47.1209479 -0.471209E+02  0.571E-02    4.16       0.0  T
   2    -47.1209485 -0.595820E-06  0.337E-02    4.16       1.0  T
   3    -47.1209472  0.129239E-05  0.707E-03    4.16       2.8  T
   4    -47.1209488 -0.156726E-05  0.114E-03    4.16      17.2  T
   5    -47.1209488 -0.633128E-08  0.618E-04    4.16      31.7  T
   6    -47.1209488 -0.187735E-08  0.328E-04    4.16      59.8  T
     SCC iter.                  ...        0 min,  0.020 sec
     gradient                   ...        0 min,  0.015 sec
 * total energy  :   -46.4666950 Eh     change       -0.8174310E-04 Eh
   gradient norm :     0.0024196 Eh/α   predicted    -0.6157191E-04 ( -24.68%)
   displ. norm   :     0.1572992 α      lambda       -0.5124061E-04
   maximum displ.:     0.1313347 α      in ANC's #2, #1, #3, ...

........................................................................
.............................. CYCLE   20 ..............................
........................................................................

 iter      E             dE          RMSdq      gap      omega  full diag
   1    -47.1203991 -0.471204E+02  0.495E-02    4.16       0.0  T
   2    -47.1203993 -0.177618E-06  0.292E-02    4.16       1.0  T
   3    -47.1203991  0.196663E-06  0.373E-03    4.16       5.3  T
   4    -47.1203994 -0.286013E-06  0.855E-04    4.16      22.9  T
   5    -47.1203994  0.977707E-10  0.480E-04    4.16      40.9  T
     SCC iter.                  ...        0 min,  0.017 sec
     gradient                   ...        0 min,  0.014 sec
 * total energy  :   -46.4667333 Eh     change       -0.3827033E-04 Eh
   gradient norm :     0.0024390 Eh/α   predicted    -0.2625878E-04 ( -31.39%)
   displ. norm   :     0.1492368 α      lambda       -0.3457556E-04
   maximum displ.:     0.1203085 α      in ANC's #2, #1, #6, ...
 * RMSD in coord.:     0.5436987 α      energy gain  -0.2149235E-01 Eh

generating ANC from model Hessian ...
Using Lindh-Hessian (1995)
 Shifting diagonal of input Hessian by   8.727756776959111E-003
 Lowest  eigenvalues of input Hessian
    0.000000    0.000000    0.000000    0.000000    0.000000    0.000000
    0.010000    0.010552    0.010833    0.013923    0.015648    0.017694
    0.021247    0.022241    0.024941    0.030006    0.031323    0.033505
 Highest eigenvalues
    1.891969    1.912107    2.029753    2.073627    2.113284    2.135514
 

........................................................................
.............................. CYCLE   21 ..............................
........................................................................

 iter      E             dE          RMSdq      gap      omega  full diag
   1    -47.1203340 -0.471203E+02  0.477E-02    4.15       0.0  T
   2    -47.1203342 -0.203062E-06  0.281E-02    4.15       1.0  T
   3    -47.1203339  0.280217E-06  0.356E-03    4.15       5.5  T
   4    -47.1203343 -0.377188E-06  0.834E-04    4.15      23.5  T
   5    -47.1203343 -0.850775E-09  0.409E-04    4.15      48.0  T
     SCC iter.                  ...        0 min,  0.019 sec
     gradient                   ...        0 min,  0.014 sec
 * total energy  :   -46.4667568 Eh     change       -0.2355077E-04 Eh
   gradient norm :     0.0018908 Eh/α   predicted     0.0000000E+00 (-100.00%)
   displ. norm   :     0.0442825 α      lambda       -0.1988517E-04
   maximum displ.:     0.0317864 α      in ANC's #6, #1, #7, ...

........................................................................
.............................. CYCLE   22 ..............................
........................................................................

 iter      E             dE          RMSdq      gap      omega  full diag
   1    -47.1214749 -0.471215E+02  0.132E-02    4.15       0.0  T
   2    -47.1214750 -0.106368E-06  0.785E-03    4.15       2.5  T
   3    -47.1214749  0.134445E-06  0.350E-03    4.15       5.6  T
   4    -47.1214750 -0.186542E-06  0.405E-04    4.15      48.4  T
   5    -47.1214750 -0.686065E-09  0.215E-04    4.15      91.3  T
     SCC iter.                  ...        0 min,  0.018 sec
     gradient                   ...        0 min,  0.014 sec
 * total energy  :   -46.4667809 Eh     change       -0.2403312E-04 Eh
   gradient norm :     0.0007820 Eh/α   predicted    -0.9977017E-05 ( -58.49%)
   displ. norm   :     0.1455525 α      lambda       -0.4291131E-04
   maximum displ.:     0.1116402 α      in ANC's #6, #1, #2, ...

........................................................................
.............................. CYCLE   23 ..............................
........................................................................

 iter      E             dE          RMSdq      gap      omega  full diag
   1    -47.1219956 -0.471220E+02  0.367E-02    4.15       0.0  T
   2    -47.1219960 -0.348712E-06  0.221E-02    4.15       1.0  T
   3    -47.1219951  0.818935E-06  0.686E-03    4.15       2.9  T
   4    -47.1219961 -0.101604E-05  0.865E-04    4.15      22.7  T
   5    -47.1219962 -0.143724E-08  0.477E-04    4.15      41.2  T
   6    -47.1219962 -0.898559E-09  0.135E-04    4.15     145.1  T
     SCC iter.                  ...        0 min,  0.022 sec
     gradient                   ...        0 min,  0.014 sec
 * total energy  :   -46.4668280 Eh     change       -0.4709350E-04 Eh
   gradient norm :     0.0020190 Eh/α   predicted    -0.2166640E-04 ( -53.99%)
   displ. norm   :     0.0887475 α      lambda       -0.2824369E-04
   maximum displ.:     0.0680086 α      in ANC's #6, #1, #2, ...

........................................................................
.............................. CYCLE   24 ..............................
........................................................................

 iter      E             dE          RMSdq      gap      omega  full diag
   1    -47.1217872 -0.471218E+02  0.212E-02    4.15       0.0  T
   2    -47.1217872 -0.472128E-07  0.127E-02    4.15       1.5  T
   3    -47.1217872  0.489475E-07  0.154E-03    4.15      12.7  T
   4    -47.1217872 -0.674980E-07  0.463E-04    4.15      42.4  T
   5    -47.1217872 -0.135098E-08  0.242E-04    4.15      81.0  T
     SCC iter.                  ...        0 min,  0.018 sec
     gradient                   ...        0 min,  0.016 sec
 * total energy  :   -46.4668537 Eh     change       -0.2573387E-04 Eh
   gradient norm :     0.0020249 Eh/α   predicted    -0.1423591E-04 ( -44.68%)
   displ. norm   :     0.1240497 α      lambda       -0.4112394E-04
   maximum displ.:     0.0913369 α      in ANC's #6, #1, #2, ...

........................................................................
.............................. CYCLE   25 ..............................
........................................................................

 iter      E             dE          RMSdq      gap      omega  full diag
   1    -47.1212756 -0.471213E+02  0.322E-02    4.14       0.0  T
   2    -47.1212757 -0.826320E-07  0.191E-02    4.14       1.0  T
   3    -47.1212756  0.620277E-07  0.187E-03    4.14      10.5  T
   4    -47.1212757 -0.898317E-07  0.616E-04    4.14      31.8  T
   5    -47.1212757 -0.293331E-08  0.321E-04    4.14      61.1  T
     SCC iter.                  ...        0 min,  0.018 sec
     gradient                   ...        0 min,  0.016 sec
 * total energy  :   -46.4668901 Eh     change       -0.3634427E-04 Eh
   gradient norm :     0.0018090 Eh/α   predicted    -0.2087890E-04 ( -42.55%)
   displ. norm   :     0.3149566 α      lambda       -0.6191125E-04
   maximum displ.:     0.2271194 α      in ANC's #6, #1, #2, ...

........................................................................
.............................. CYCLE   26 ..............................
........................................................................

 iter      E             dE          RMSdq      gap      omega  full diag
   1    -47.1189936 -0.471190E+02  0.867E-02    4.11       0.0  T
   2    -47.1189947 -0.105070E-05  0.513E-02    4.11       1.0  T
   3    -47.1189943  0.386254E-06  0.535E-03    4.11       3.7  T
   4    -47.1189949 -0.565639E-06  0.188E-03    4.11      10.4  T
   5    -47.1189949 -0.476943E-07  0.931E-04    4.11      21.1  T
   6    -47.1189949  0.262105E-09  0.363E-04    4.11      54.0  T
     SCC iter.                  ...        0 min,  0.022 sec
     gradient                   ...        0 min,  0.016 sec
 * total energy  :   -46.4669325 Eh     change       -0.4244357E-04 Eh
   gradient norm :     0.0057987 Eh/α   predicted    -0.3232067E-04 ( -23.85%)
   displ. norm   :     0.0273936 α      lambda       -0.4345528E-04
   maximum displ.:     0.0179862 α      in ANC's #3, #1, #7, ...

........................................................................
.............................. CYCLE   27 ..............................
........................................................................

 iter      E             dE          RMSdq      gap      omega  full diag
   1    -47.1197345 -0.471197E+02  0.151E-02    4.11       0.0  T
   2    -47.1197347 -0.267338E-06  0.862E-03    4.11       2.3  T
   3    -47.1197347  0.179714E-07  0.210E-03    4.11       9.3  T
   4    -47.1197348 -0.294316E-07  0.735E-04    4.11      26.7  T
   5    -47.1197348 -0.131613E-07  0.293E-04    4.11      66.9  T
     SCC iter.                  ...        0 min,  0.018 sec
     gradient                   ...        0 min,  0.016 sec
 * total energy  :   -46.4669654 Eh     change       -0.3293093E-04 Eh
   gradient norm :     0.0037107 Eh/α   predicted    -0.2174764E-04 ( -33.96%)
   displ. norm   :     0.1509346 α      lambda       -0.6194504E-04
   maximum displ.:     0.1051177 α      in ANC's #1, #6, #3, ...

........................................................................
.............................. CYCLE   28 ..............................
........................................................................

 iter      E             dE          RMSdq      gap      omega  full diag
   1    -47.1204753 -0.471205E+02  0.531E-02    4.09       0.0  T
   2    -47.1204757 -0.344573E-06  0.312E-02    4.09       1.0  T
   3    -47.1204755  0.227958E-06  0.337E-03    4.09       5.8  T
   4    -47.1204758 -0.303870E-06  0.107E-03    4.09      18.3  T
   5    -47.1204758 -0.162345E-07  0.510E-04    4.09      38.5  T
   6    -47.1204758  0.370520E-09  0.218E-04    4.09      90.1  T
     SCC iter.                  ...        0 min,  0.022 sec
     gradient                   ...        0 min,  0.014 sec
 * total energy  :   -46.4670124 Eh     change       -0.4698020E-04 Eh
   gradient norm :     0.0024886 Eh/α   predicted    -0.3167985E-04 ( -32.57%)
   displ. norm   :     0.3066217 α      lambda       -0.7407485E-04
   maximum displ.:     0.2122010 α      in ANC's #1, #6, #3, ...

........................................................................
.............................. CYCLE   29 ..............................
........................................................................

 iter      E             dE          RMSdq      gap      omega  full diag
   1    -47.1199134 -0.471199E+02  0.999E-02    4.06       0.0  T
   2    -47.1199140 -0.640113E-06  0.589E-02    4.06       1.0  T
   3    -47.1199131  0.923163E-06  0.675E-03    4.06       2.9  T
   4    -47.1199143 -0.121864E-05  0.158E-03    4.06      12.4  T
   5    -47.1199143 -0.708329E-08  0.813E-04    4.06      24.1  T
   6    -47.1199143 -0.154720E-08  0.335E-04    4.06      58.5  T
     SCC iter.                  ...        0 min,  0.022 sec
     gradient                   ...        0 min,  0.015 sec
 * total energy  :   -46.4670697 Eh     change       -0.5734037E-04 Eh
   gradient norm :     0.0029130 Eh/α   predicted    -0.4051955E-04 ( -29.34%)
   displ. norm   :     0.2560847 α      lambda       -0.4740965E-04
   maximum displ.:     0.1828115 α      in ANC's #1, #6, #3, ...

........................................................................
.............................. CYCLE   30 ..............................
........................................................................

 iter      E             dE          RMSdq      gap      omega  full diag
   1    -47.1197798 -0.471198E+02  0.858E-02    4.03       0.0  T
   2    -47.1197806 -0.832820E-06  0.506E-02    4.03       1.0  T
   3    -47.1197789  0.165399E-05  0.913E-03    4.03       2.1  T
   4    -47.1197810 -0.202688E-05  0.142E-03    4.03      13.8  T
   5    -47.1197810 -0.648991E-08  0.762E-04    4.03      25.7  T
   6    -47.1197810 -0.765048E-09  0.353E-04    4.03      55.6  T
     SCC iter.                  ...        0 min,  0.022 sec
     gradient                   ...        0 min,  0.014 sec
 * total energy  :   -46.4670987 Eh     change       -0.2894908E-04 Eh
   gradient norm :     0.0033129 Eh/α   predicted    -0.2525975E-04 ( -12.74%)
   displ. norm   :     0.0961829 α      lambda       -0.3454425E-04
   maximum displ.:     0.0702496 α      in ANC's #1, #3, #6, ...

........................................................................
.............................. CYCLE   31 ..............................
........................................................................

 iter      E             dE          RMSdq      gap      omega  full diag
   1    -47.1216868 -0.471217E+02  0.368E-02    4.02       0.0  T
   2    -47.1216876 -0.726773E-06  0.215E-02    4.03       1.0  T
   3    -47.1216867  0.884686E-06  0.798E-03    4.02       2.5  T
   4    -47.1216878 -0.114364E-05  0.967E-04    4.03      20.3  T
   5    -47.1216878 -0.701865E-08  0.449E-04    4.03      43.7  T
   6    -47.1216878 -0.193140E-09  0.239E-04    4.03      81.9  T
     SCC iter.                  ...        0 min,  0.022 sec
     gradient                   ...        0 min,  0.015 sec
 * total energy  :   -46.4671146 Eh     change       -0.1590080E-04 Eh
   gradient norm :     0.0021083 Eh/α   predicted    -0.1743262E-04 (   9.63%)
   displ. norm   :     0.1266447 α      lambda       -0.1553034E-04
   maximum displ.:     0.0955531 α      in ANC's #1, #6, #3, ...

........................................................................
.............................. CYCLE   32 ..............................
........................................................................

 iter      E             dE          RMSdq      gap      omega  full diag
   1    -47.1210152 -0.471210E+02  0.413E-02    4.01       0.0  T
   2    -47.1210154 -0.265784E-06  0.243E-02    4.01       1.0  T
   3    -47.1210149  0.563364E-06  0.506E-03    4.01       3.9  T
   4    -47.1210155 -0.673463E-06  0.690E-04    4.01      28.4  T
   5    -47.1210156 -0.281528E-08  0.369E-04    4.01      53.1  T
     SCC iter.                  ...        0 min,  0.018 sec
     gradient                   ...        0 min,  0.014 sec
 * total energy  :   -46.4671255 Eh     change       -0.1090403E-04 Eh
   gradient norm :     0.0015257 Eh/α   predicted    -0.7910010E-05 ( -27.46%)
   displ. norm   :     0.1197659 α      lambda       -0.1136093E-04
   maximum displ.:     0.0967214 α      in ANC's #1, #6, #3, ...

........................................................................
.............................. CYCLE   33 ..............................
........................................................................

 iter      E             dE          RMSdq      gap      omega  full diag
   1    -47.1206518 -0.471207E+02  0.379E-02    4.00       0.0  T
   2    -47.1206520 -0.235792E-06  0.224E-02    4.00       1.0  T
   3    -47.1206513  0.695313E-06  0.555E-03    4.00       3.5  T
   4    -47.1206521 -0.829893E-06  0.606E-04    4.00      32.4  T
   5    -47.1206521 -0.742595E-09  0.337E-04    4.00      58.1  T
     SCC iter.                  ...        0 min,  0.018 sec
     gradient                   ...        0 min,  0.014 sec
 * total energy  :   -46.4671347 Eh     change       -0.9222470E-05 Eh
   gradient norm :     0.0013777 Eh/α   predicted    -0.5717251E-05 ( -38.01%)
   displ. norm   :     0.0237605 α      lambda       -0.4234629E-05
   maximum displ.:     0.0126957 α      in ANC's #5, #6, #2, ...

........................................................................
.............................. CYCLE   34 ..............................
........................................................................

 iter      E             dE          RMSdq      gap      omega  full diag
   1    -47.1212240 -0.471212E+02  0.926E-03    4.00       0.0  T
   2    -47.1212240 -0.628506E-07  0.542E-03    4.00       3.6  T
   3    -47.1212240  0.211884E-07  0.142E-03    4.00      13.9  T
   4    -47.1212240 -0.297791E-07  0.415E-04    4.00      47.3  T
   5    -47.1212240 -0.255932E-08  0.172E-04    4.00     114.0  T
     SCC iter.                  ...        0 min,  0.018 sec
     gradient                   ...        0 min,  0.014 sec
 * total energy  :   -46.4671381 Eh     change       -0.3345982E-05 Eh
   gradient norm :     0.0006813 Eh/α   predicted    -0.2118312E-05 ( -36.69%)
   displ. norm   :     0.0533031 α      lambda       -0.1989019E-05
   maximum displ.:     0.0451147 α      in ANC's #1, #6, #3, ...

   *** GEOMETRY OPTIMIZATION CONVERGED AFTER 34 ITERATIONS ***

------------------------------------------------------------------------
 total energy gain   :        -0.0218971 Eh      -13.7407 kcal/mol
 total RMSD          :         0.8068477 a0        0.4270 Å
 total power (kW/mol):        -1.6909082 (step)  -38.1295 (real)
------------------------------------------------------------------------

 ANCopt (total)                0 d,  0 h,  0 min,  1.508 sec
 optimizer setup                ...        0 min,  0.000 sec (  0.013%)
 model hessian                  ...        0 min,  0.028 sec (  1.858%)
 ANC generation                 ...        0 min,  0.004 sec (  0.288%)
 coordinate transformation      ...        0 min,  0.000 sec (  0.027%)
 single point calculation       ...        0 min,  1.453 sec ( 96.357%)
 optimization log               ...        0 min,  0.006 sec (  0.372%)
 hessian update                 ...        0 min,  0.011 sec (  0.731%)
 rational function              ...        0 min,  0.004 sec (  0.234%)

================
 final structure:
================
26
 xtb: 6.6.1 (8d0f1dd)
C            1.30863029543488        0.99763753367529       -1.75582620106821
C            1.65454613847078        0.22103052064003       -0.52312062037472
C            2.98068052328228        0.00827920074638       -0.16964126963913
C            3.31726967923255       -0.70050467657441        0.96936058380273
C            2.32622144894926       -1.21262764034158        1.78725209761707
C            1.00851270483985       -1.00062725475339        1.43423263721624
F            0.03689620109955       -1.51302162785239        2.22176686793285
C            0.64609968903547       -0.29834820519738        0.29095224139923
C           -0.78893515666368       -0.12045000395117       -0.01974078456276
C           -1.60050265279849        0.65671281598932        0.81594500822721
O           -1.00962605278161        1.28323716231295        1.86218799707893
C           -2.95776541163674        0.78593659721283        0.54564101297651
C           -3.51989264046425        0.15116767100629       -0.54671301914009
C           -2.73728926805255       -0.61917993635219       -1.38695930521094
C           -1.38946620661673       -0.74147779460539       -1.10511831160974
F           -0.62867856730102       -1.50733611984964       -1.91663755084598
H            0.47848822604595        1.67540180572753       -1.56526780570643
H            2.16444779867887        1.57252460334335       -2.09984511782406
H            1.01142554669742        0.31926306196740       -2.55484509876411
H            3.76195384936641        0.40833419469227       -0.79903744005902
H            4.35481965378601       -0.85387087304187        1.22442711156924
H            2.55699304071975       -1.76831471777197        2.68202768190475
H           -1.67314864085574        1.73953706582725        2.39314868370942
H           -3.57386353659345        1.38656951555802        1.20086953195895
H           -4.57552983230986        0.25711252319066       -0.74304960229092
H           -3.15228582956482       -1.12698542159810       -2.24200932829690
 
 Bond Distances (Angstroems)
 ---------------------------
C1-C2=1.4974         C1-H17=1.0885        C1-H18=1.0869        C1-H19=1.0895        C2-C1=1.4974         C2-C3=1.3888         
C2-C8=1.3962         C3-C2=1.3888         C3-C4=1.3831         C3-H20=1.0801        C4-C3=1.3831         C4-C5=1.3833         
C4-H21=1.0794        C5-C4=1.3833         C5-C6=1.3806         C5-H22=1.0783        C6-C5=1.3806         C6-F7=1.3516         
C6-C8=1.3898         F7-C6=1.3516         C8-C2=1.3962         C8-C6=1.3898         C8-C9=1.4790         C9-C8=1.4790         
C9-C10=1.4004        C9-C15=1.3872        C10-C9=1.4004        C10-O11=1.3551       C10-C12=1.3899       O11-C10=1.3551       
O11-H23=0.9646       C12-C10=1.3899       C12-C13=1.3828       C12-H24=1.0815       C13-C12=1.3828       C13-C14=1.3827       
C13-H25=1.0790       C14-C13=1.3827       C14-C15=1.3824       C14-H26=1.0776       C15-C9=1.3872        C15-C14=1.3824       
C15-F16=1.3505       F16-C15=1.3505       H17-C1=1.0885        H18-C1=1.0869        H19-C1=1.0895        H20-C3=1.0801        
H21-C4=1.0794        H22-C5=1.0783        H23-O11=0.9646       H24-C12=1.0815       H25-C13=1.0790       H26-C14=1.0776       
 C  H  Rav=1.0823 sigma=0.0044  Rmin=1.0776  Rmax=1.0895     9
 C  C  Rav=1.4017 sigma=0.0359  Rmin=1.3806  Rmax=1.4974    14
 O  H  Rav=0.9646 sigma=0.0000  Rmin=0.9646  Rmax=0.9646     1
 O  C  Rav=1.3551 sigma=0.0000  Rmin=1.3551  Rmax=1.3551     1
 F  C  Rav=1.3511 sigma=0.0005  Rmin=1.3505  Rmax=1.3516     2
 
 selected bond angles (degree)
 --------------------
H17-C1-C2=110.79               H18-C1-C2=110.67               H18-C1-H17=109.06              H19-C1-C2=110.11               
H19-C1-H17=107.94              H19-C1-H18=108.18              C3-C2-C1=120.63                C8-C2-C1=120.40                
C8-C2-C3=118.97                C4-C3-C2=121.36                H20-C3-C2=119.05               H20-C3-C4=119.58               
C5-C4-C3=120.15                H21-C4-C3=120.09               H21-C4-C5=119.76               C6-C5-C4=118.41                
H22-C5-C4=121.88               H22-C5-C6=119.71               F7-C6-C5=118.62                C8-C6-C5=122.47                
C8-C6-F7=118.91                C6-C8-C2=118.64                C9-C8-C2=122.25                C9-C8-C6=119.12                
C10-C9-C8=120.25               C15-C9-C8=122.04               C15-C9-C10=117.68              O11-C10-C9=117.69              
C12-C10-C9=120.10              C12-C10-O11=122.21             
 
 selected dihedral angles (degree)
 ---------------------------------
C3-C2-C1-H17=221.96           C3-C2-C1-H18=343.07           C3-C2-C1-H19=102.62           C8-C2-C1-H17= 41.82           
C8-C2-C1-H18=162.92           C8-C2-C1-H19=282.48           C4-C3-C2-C1=179.65            C4-C3-C2-C8=359.78            
H20-C3-C2-C1=359.78           H20-C3-C2-C8=179.92           C5-C4-C3-C2=359.83            C5-C4-C3-H20=179.69           
H21-C4-C3-C2=179.98           H21-C4-C3-H20=359.84          C6-C5-C4-C3=  0.18            C6-C5-C4-H21=180.03           
H22-C5-C4-C3=180.06           H22-C5-C4-H21=359.91          F7-C6-C5-C4=179.21            F7-C6-C5-H22=359.33           
C8-C6-C5-C4=  0.19            C8-C6-C5-H22=180.30           C6-C8-C2-C1=180.71            C6-C8-C2-C3=  0.57            
C9-C8-C2-C1=  0.42            C9-C8-C2-C3=180.28            C2-C8-C6-C5=359.43            C2-C8-C6-F7=180.41            
C9-C8-C6-C5=179.71            C9-C8-C6-F7=  0.69            C10-C9-C8-C2=246.50           C10-C9-C8-C6= 66.21           
C15-C9-C8-C2= 68.73           C15-C9-C8-C6=248.44           O11-C10-C9-C8=  3.31          O11-C10-C9-C15=181.18         
C12-C10-C9-C8=182.12          C12-C10-C9-C15=  0.00         
           -------------------------------------------------
          |                Final Singlepoint                |
           -------------------------------------------------

          ...................................................
          :                      SETUP                      :
          :.................................................:
          :  # basis functions                  74          :
          :  # atomic orbitals                  74          :
          :  # shells                           42          :
          :  # electrons                        82          :
          :  max. iterations                   250          :
          :  Hamiltonian                  GFN2-xTB          :
          :  restarted?                      false          :
          :  GBSA solvation                  false          :
          :  PC potential                    false          :
          :  electronic temp.          298.1500000     K    :
          :  accuracy                    1.0000000          :
          :  -> integral cutoff          0.2500000E+02      :
          :  -> integral neglect         0.1000000E-07      :
          :  -> SCF convergence          0.1000000E-05 Eh   :
          :  -> wf. convergence          0.1000000E-03 e    :
          :  Broyden damping             0.4000000          :
          ...................................................

 iter      E             dE          RMSdq      gap      omega  full diag
   1    -47.1212240 -0.471212E+02  0.633E-05    4.00       0.0  T
   2    -47.1212240 -0.310010E-10  0.398E-05    4.00     493.2  T
   3    -47.1212240 -0.244640E-10  0.223E-05    4.00     880.2  T

   *** convergence criteria satisfied after 3 iterations ***

         #    Occupation            Energy/Eh            Energy/eV
      -------------------------------------------------------------
         1        2.0000           -0.8146900             -22.1688
       ...           ...                  ...                  ...
        35        2.0000           -0.4503685             -12.2552
        36        2.0000           -0.4430025             -12.0547
        37        2.0000           -0.4253091             -11.5732
        38        2.0000           -0.4129437             -11.2368
        39        2.0000           -0.4017747             -10.9328
        40        2.0000           -0.3980857             -10.8325
        41        2.0000           -0.3928543             -10.6901 (HOMO)
        42                         -0.2457778              -6.6880 (LUMO)
        43                         -0.2291635              -6.2359
        44                         -0.2245812              -6.1112
        45                         -0.2206826              -6.0051
        46                         -0.1091717              -2.9707
       ...                                ...                  ...
        74                          0.6741659              18.3450
      -------------------------------------------------------------
                  HL-Gap            0.1470765 Eh            4.0022 eV
             Fermi-level           -0.3193160 Eh           -8.6890 eV

 SCC (total)                   0 d,  0 h,  0 min,  0.029 sec
 SCC setup                      ...        0 min,  0.000 sec (  0.570%)
 Dispersion                     ...        0 min,  0.000 sec (  0.594%)
 classical contributions        ...        0 min,  0.000 sec (  0.177%)
 integral evaluation            ...        0 min,  0.003 sec (  9.592%)
 iterations                     ...        0 min,  0.011 sec ( 38.374%)
 molecular gradient             ...        0 min,  0.014 sec ( 49.396%)
 printout                       ...        0 min,  0.000 sec (  1.208%)

         :::::::::::::::::::::::::::::::::::::::::::::::::::::
         ::                     SUMMARY                     ::
         :::::::::::::::::::::::::::::::::::::::::::::::::::::
         :: total energy             -46.467138070523 Eh    ::
         :: gradient norm              0.000681119908 Eh/a0 ::
         :: HOMO-LUMO gap              4.002155075393 eV    ::
         ::.................................................::
         :: SCC energy               -47.121224027761 Eh    ::
         :: -> isotropic ES            0.045201693091 Eh    ::
         :: -> anisotropic ES          0.002441249997 Eh    ::
         :: -> anisotropic XC          0.007518343968 Eh    ::
         :: -> dispersion             -0.027408812264 Eh    ::
         :: repulsion energy           0.653853534392 Eh    ::
         :: add. restraining           0.000000000000 Eh    ::
         :: total charge               0.000000000000 e     ::
         :::::::::::::::::::::::::::::::::::::::::::::::::::::

           -------------------------------------------------
          |                Property Printout                |
           -------------------------------------------------

    * Orbital Energies and Occupations

         #    Occupation            Energy/Eh            Energy/eV
      -------------------------------------------------------------
         1        2.0000           -0.8146900             -22.1688
       ...           ...                  ...                  ...
        29        2.0000           -0.4790671             -13.0361
        30        2.0000           -0.4741178             -12.9014
        31        2.0000           -0.4662251             -12.6866
        32        2.0000           -0.4637733             -12.6199
        33        2.0000           -0.4582467             -12.4695
        34        2.0000           -0.4563946             -12.4191
        35        2.0000           -0.4503685             -12.2552
        36        2.0000           -0.4430025             -12.0547
        37        2.0000           -0.4253091             -11.5732
        38        2.0000           -0.4129437             -11.2368
        39        2.0000           -0.4017747             -10.9328
        40        2.0000           -0.3980857             -10.8325
        41        2.0000           -0.3928543             -10.6901 (HOMO)
        42                         -0.2457778              -6.6880 (LUMO)
        43                         -0.2291635              -6.2359
        44                         -0.2245812              -6.1112
        45                         -0.2206826              -6.0051
        46                         -0.1091717              -2.9707
        47                         -0.0938016              -2.5525
        48                          0.0345746               0.9408
        49                          0.0546255               1.4864
        50                          0.0769335               2.0935
        51                          0.0992701               2.7013
        52                          0.1228240               3.3422
       ...                                ...                  ...
        74                          0.6741659              18.3450
      -------------------------------------------------------------
                  HL-Gap            0.1470765 Eh            4.0022 eV
             Fermi-level           -0.3193160 Eh           -8.6890 eV

     #   Z          covCN         q      C6AA      α(0)
     1   6 C        3.758    -0.109    22.637     6.783
     2   6 C        2.971     0.022    27.510     8.603
     3   6 C        2.924    -0.045    29.125     8.850
     4   6 C        2.923    -0.032    28.788     8.799
     5   6 C        2.917    -0.054    29.340     8.882
     6   6 C        2.791     0.169    24.353     8.084
     7   9 F        0.787    -0.229    11.534     4.012
     8   6 C        2.979     0.003    27.944     8.671
     9   6 C        2.974    -0.014    28.346     8.733
    10   6 C        2.853     0.149    24.761     8.156
    11   8 O        1.660    -0.376    20.395     6.097
    12   6 C        2.916    -0.077    29.924     8.970
    13   6 C        2.924    -0.031    28.773     8.797
    14   6 C        2.916    -0.062    29.551     8.914
    15   6 C        2.790     0.165    24.433     8.097
    16   9 F        0.787    -0.224    11.488     4.004
    17   1 H        0.925     0.046     2.375     2.410
    18   1 H        0.925     0.045     2.380     2.413
    19   1 H        0.925     0.064     2.157     2.297
    20   1 H        0.926     0.042     2.425     2.435
    21   1 H        0.926     0.043     2.413     2.429
    22   1 H        0.926     0.055     2.258     2.350
    23   1 H        0.805     0.305     0.705     1.319
    24   1 H        0.925     0.038     2.475     2.460
    25   1 H        0.926     0.048     2.346     2.395
    26   1 H        0.926     0.059     2.207     2.323

 Mol. C6AA /au·bohr⁶  :       8741.330878
 Mol. C8AA /au·bohr⁸  :     214352.916262
 Mol. α(0) /au        :        147.282295


Wiberg/Mayer (AO) data.
largest (>0.10) Wiberg bond orders for each atom

 ---------------------------------------------------------------------------
     #   Z sym  total        # sym  WBO       # sym  WBO       # sym  WBO
 ---------------------------------------------------------------------------
     1   6 C    3.996 --     2 C    1.029    18 H    0.984    17 H    0.976
                            19 H    0.964
     2   6 C    3.988 --     3 C    1.412     8 C    1.372     1 C    1.029
                             5 C    0.105
     3   6 C    3.990 --     4 C    1.444     2 C    1.412    20 H    0.968
     4   6 C    3.990 --     3 C    1.444     5 C    1.433    21 H    0.970
                             8 C    0.105
     5   6 C    3.988 --     4 C    1.433     6 C    1.402    22 H    0.967
                             2 C    0.105
     6   6 C    3.885 --     5 C    1.402     8 C    1.364     7 F    0.956
     7   9 F    1.086 --     6 C    0.956
     8   6 C    3.988 --     2 C    1.372     6 C    1.364     9 C    1.017
                             4 C    0.105
     9   6 C    3.986 --    15 C    1.375    10 C    1.323     8 C    1.017
                            13 C    0.103
    10   6 C    3.942 --    12 C    1.374     9 C    1.323    11 O    1.088
    11   8 O    2.141 --    10 C    1.088    23 H    0.885
    12   6 C    3.985 --    13 C    1.444    10 C    1.374    24 H    0.965
    13   6 C    3.989 --    12 C    1.444    14 C    1.434    25 H    0.970
                             9 C    0.103
    14   6 C    3.987 --    13 C    1.434    15 C    1.392    26 H    0.967
    15   6 C    3.886 --    14 C    1.392     9 C    1.375    16 F    0.959
    16   9 F    1.090 --    15 C    0.959
    17   1 H    0.998 --     1 C    0.976
    18   1 H    0.998 --     1 C    0.984
    19   1 H    0.996 --     1 C    0.964
    20   1 H    0.998 --     3 C    0.968
    21   1 H    0.998 --     4 C    0.970
    22   1 H    0.996 --     5 C    0.967
    23   1 H    0.906 --    11 O    0.885
    24   1 H    0.998 --    12 C    0.965
    25   1 H    0.997 --    13 C    0.970
    26   1 H    0.996 --    14 C    0.967
 ---------------------------------------------------------------------------

Topologies differ in total number of bonds
Writing topology from bond orders to xtbtopo.mol

molecular dipole:
                 x           y           z       tot (Debye)
 q only:       -0.228       1.030      -0.054
   full:       -0.456       1.128       0.047       3.095
molecular quadrupole (traceless):
                xx          xy          yy          xz          yz          zz
 q only:        9.608      -3.998      -5.120      -1.341       1.454      -4.488
  q+dip:       13.201      -5.893      -8.088      -1.055       1.596      -5.112
   full:       10.885      -5.390      -5.774      -1.835       1.866      -5.111

           -------------------------------------------------
          |                Geometry Summary                 |
           -------------------------------------------------

      molecular mass/u    :      220.2151854
   center of mass at/Å    :       -0.1046809      -0.2529445       0.1684997
  moments of inertia/u·Å² :        0.5679892E+03   0.1109479E+04   0.1322039E+04
rotational constants/cm⁻¹ :        0.2967949E-01   0.1519419E-01   0.1275123E-01

 * 23 selected distances

     #   Z          #   Z                                           value/Å
     2   6 C        3   6 C                                       1.3888281
     3   6 C        4   6 C                                       1.3831097
     4   6 C        5   6 C                                       1.3832546
     5   6 C        6   6 C                                       1.3805519
     2   6 C        8   6 C                                       1.3962211
     6   6 C        8   6 C                                       1.3898307
     9   6 C       10   6 C                                       1.4003553 (max)
    10   6 C       11   8 O                                       1.3550988
    10   6 C       12   6 C                                       1.3899373
    12   6 C       13   6 C                                       1.3828074
    13   6 C       14   6 C                                       1.3827211
     9   6 C       15   6 C                                       1.3872122
    14   6 C       15   6 C                                       1.3823959
     1   6 C       17   1 H                                       1.0884912
     1   6 C       18   1 H                                       1.0868615
     1   6 C       19   1 H                                       1.0894742
     3   6 C       20   1 H                                       1.0800795
     4   6 C       21   1 H                                       1.0793935
     5   6 C       22   1 H                                       1.0782705
    11   8 O       23   1 H                                       0.9645679 (min)
    12   6 C       24   1 H                                       1.0815089
    13   6 C       25   1 H                                       1.0789543
    14   6 C       26   1 H                                       1.0775896

 * 4 distinct bonds (by element types)

   Z      Z             #   av. dist./Å        max./Å        min./Å
   1 H    6 C           9     1.0822915     1.0894742     1.0775896
   6 C    6 C          12     1.3872688     1.4003553     1.3805519
   1 H    8 O           1     0.9645679     0.9645679     0.9645679
   6 C    8 O           1     1.3550988     1.3550988     1.3550988


optimized geometry written to: xtbopt.xyz


           -------------------------------------------------
          | TOTAL ENERGY              -46.467138070523 Eh   |
          | GRADIENT NORM               0.000681119908 Eh/α |
          | HOMO-LUMO GAP               4.002155075393 eV   |
           -------------------------------------------------

------------------------------------------------------------------------
 * finished run on 2025/08/28 at 10:02:21.557     
------------------------------------------------------------------------
 total:
 * wall-time:     0 d,  0 h,  0 min,  1.673 sec
 *  cpu-time:     0 d,  0 h,  0 min,  3.284 sec
 * ratio c/w:     1.963 speedup
 SCF:
 * wall-time:     0 d,  0 h,  0 min,  0.105 sec
 *  cpu-time:     0 d,  0 h,  0 min,  0.185 sec
 * ratio c/w:     1.760 speedup
 ANC optimizer:
 * wall-time:     0 d,  0 h,  0 min,  1.543 sec
 *  cpu-time:     0 d,  0 h,  0 min,  3.073 sec
 * ratio c/w:     1.992 speedup

