      -----------------------------------------------------------      
     |                   =====================                   |     
     |                           x T B                           |     
     |                   =====================                   |     
     |                         S. Grimme                         |     
     |          Mulliken Center for Theoretical Chemistry        |     
     |                    University of Bonn                     |     
      -----------------------------------------------------------      

   * xtb version 6.6.1 (8d0f1dd) compiled by 'stahn@M-Bot' on 2023-08-01

   xtb is free software: you can redistribute it and/or modify it under
   the terms of the GNU Lesser General Public License as published by
   the Free Software Foundation, either version 3 of the License, or
   (at your option) any later version.
   
   xtb is distributed in the hope that it will be useful,
   but WITHOUT ANY WARRANTY; without even the implied warranty of
   MERCHANTABILITY or FITNESS FOR A PARTICULAR PURPOSE.  See the
   GNU Lesser General Public License for more details.
   
   Cite this work as:
   * C. Bannwarth, E. Caldeweyher, S. Ehlert, A. Hansen, P. Pracht,
     J. Seibert, S. Spicher, S. Grimme, WIREs Comput. Mol. Sci., 2020, 11,
     e01493. DOI: 10.1002/wcms.1493
   
   for GFN2-xTB:
   * C. Bannwarth, S. Ehlert and S. Grimme., J. Chem. Theory Comput., 2019,
     15, 1652-1671. DOI: 10.1021/acs.jctc.8b01176
   for GFN1-xTB:
   * S. Grimme, C. Bannwarth, P. Shushkov, J. Chem. Theory Comput., 2017,
     13, 1989-2009. DOI: 10.1021/acs.jctc.7b00118
   for GFN0-xTB:
   * P. Pracht, E. Caldeweyher, S. Ehlert, S. Grimme, ChemRxiv, 2019, preprint.
     DOI: 10.26434/chemrxiv.8326202.v1
   for GFN-FF:
   * S. Spicher and S. Grimme, Angew. Chem. Int. Ed., 2020, 59, 15665-15673.
     DOI: 10.1002/anie.202004239
   
   for ALPB and GBSA implicit solvation:
   * S. Ehlert, M. Stahn, S. Spicher, S. Grimme, J. Chem. Theory Comput.,
     2021, 17, 4250-4261. DOI: 10.1021/acs.jctc.1c00471
   
   for DFT-D4:
   * E. Caldeweyher, C. Bannwarth and S. Grimme, J. Chem. Phys., 2017,
     147, 034112. DOI: 10.1063/1.4993215
   * E. Caldeweyher, S. Ehlert, A. Hansen, H. Neugebauer, S. Spicher,
     C. Bannwarth and S. Grimme, J. Chem. Phys., 2019, 150, 154122.
     DOI: 10.1063/1.5090222
   * E. Caldeweyher, J.-M. Mewes, S. Ehlert and S. Grimme, Phys. Chem. Chem. Phys.
     2020, 22, 8499-8512. DOI: 10.1039/D0CP00502A
   
   for sTDA-xTB:
   * S. Grimme and C. Bannwarth, J. Chem. Phys., 2016, 145, 054103.
     DOI: 10.1063/1.4959605
   
   in the mass-spec context:
   * V. Asgeirsson, C. Bauer and S. Grimme, Chem. Sci., 2017, 8, 4879.
     DOI: 10.1039/c7sc00601b
   * J. Koopman and S. Grimme, ACS Omega 2019, 4, 12, 15120-15133.
     DOI: 10.1021/acsomega.9b02011
   
   for metadynamics refer to:
   * S. Grimme, J. Chem. Theory Comput., 2019, 155, 2847-2862
     DOI: 10.1021/acs.jctc.9b00143
   
   for SPH calculations refer to:
   * S. Spicher and S. Grimme, J. Chem. Theory Comput., 2021, 17, 1701-1714
     DOI: 10.1021/acs.jctc.0c01306
   
   with help from (in alphabetical order)
   P. Atkinson, C. Bannwarth, F. Bohle, G. Brandenburg, E. Caldeweyher
   M. Checinski, S. Dohm, S. Ehlert, S. Ehrlich, I. Gerasimov, C. Hölzer
   A. Katbashev, J. Koopman, C. Lavigne, S. Lehtola, F. März, M. Müller,
   F. Musil, H. Neugebauer, J. Pisarek, C. Plett, P. Pracht, F. Pultar,
   J. Seibert, P. Shushkov, S. Spicher, M. Stahn, M. Steiner, T. Strunk,
   J. Stückrath, T. Rose, and J. Unsleber
   
 * started run on 2026/07/23 at 12:55:25.651     

           -------------------------------------------------
          |                Calculation Setup                |
           -------------------------------------------------

          program call               : /path/to/xtb /path/to/atropisomers_workflow/example/reactant_censo/confs/1.xyz --opt --etemp 298.15 --chrg 0 --uhf 0 -P 4
          hostname                   : node
          coordinate file            : /path/to/atropisomers_workflow/example/reactant_censo/confs/1.xyz
          omp threads                :                     4

   ID    Z sym.   atoms
    1    6 C      1-6, 8-10, 12-15
    2    9 F      7, 16
    3    8 O      11
    4    1 H      17-26

           -------------------------------------------------
          |                 G F N 2 - x T B                 |
           -------------------------------------------------

        Reference                      10.1021/acs.jctc.8b01176
      * Hamiltonian:
        H0-scaling (s, p, d)           1.850000    2.230000    2.230000
        zeta-weighting                 0.500000
      * Dispersion:
        s8                             2.700000
        a1                             0.520000
        a2                             5.000000
        s9                             5.000000
      * Repulsion:
        kExp                           1.500000    1.000000
        rExp                           1.000000
      * Coulomb:
        alpha                          2.000000
        third order                    shell-resolved
        anisotropic                    true
        a3                             3.000000
        a5                             4.000000
        cn-shift                       1.200000
        cn-exp                         4.000000
        max-rad                        5.000000


          ...................................................
          :                      SETUP                      :
          :.................................................:
          :  # basis functions                  74          :
          :  # atomic orbitals                  74          :
          :  # shells                           42          :
          :  # electrons                        82          :
          :  max. iterations                   250          :
          :  Hamiltonian                  GFN2-xTB          :
          :  restarted?                      false          :
          :  GBSA solvation                  false          :
          :  PC potential                    false          :
          :  electronic temp.          298.1500000     K    :
          :  accuracy                    1.0000000          :
          :  -> integral cutoff          0.2500000E+02      :
          :  -> integral neglect         0.1000000E-07      :
          :  -> SCF convergence          0.1000000E-05 Eh   :
          :  -> wf. convergence          0.1000000E-03 e    :
          :  Broyden damping             0.4000000          :
          ...................................................

 iter      E             dE          RMSdq      gap      omega  full diag
   1    -47.0582248 -0.470582E+02  0.428E+00    4.53       0.0  T
   2    -47.0962006 -0.379759E-01  0.259E+00    4.44       1.0  T
   3    -47.0898042  0.639647E-02  0.136E+00    4.42       1.0  T
   4    -47.1083267 -0.185226E-01  0.248E-01    4.44       1.0  T
   5    -47.1086376 -0.310865E-03  0.929E-02    4.42       1.0  T
   6    -47.1087851 -0.147539E-03  0.446E-02    4.42       1.0  T
   7    -47.1088004 -0.152421E-04  0.182E-02    4.42       1.1  T
   8    -47.1088038 -0.339987E-05  0.753E-03    4.42       2.6  T
   9    -47.1088042 -0.423354E-06  0.177E-03    4.42      11.1  T
  10    -47.1088042 -0.142958E-07  0.733E-04    4.42      26.8  T
  11    -47.1088042 -0.129670E-08  0.356E-04    4.42      55.2  T

   *** convergence criteria satisfied after 11 iterations ***

         #    Occupation            Energy/Eh            Energy/eV
      -------------------------------------------------------------
         1        2.0000           -0.8176977             -22.2507
       ...           ...                  ...                  ...
        35        2.0000           -0.4488277             -12.2132
        36        2.0000           -0.4410752             -12.0023
        37        2.0000           -0.4252410             -11.5714
        38        2.0000           -0.4112591             -11.1909
        39        2.0000           -0.4069460             -11.0736
        40        2.0000           -0.4059197             -11.0456
        41        2.0000           -0.4016424             -10.9292 (HOMO)
        42                         -0.2390589              -6.5051 (LUMO)
        43                         -0.2367515              -6.4423
        44                         -0.2304753              -6.2716
        45                         -0.2273357              -6.1861
        46                         -0.1095304              -2.9805
       ...                                ...                  ...
        74                          0.6938573              18.8808
      -------------------------------------------------------------
                  HL-Gap            0.1625834 Eh            4.4241 eV
             Fermi-level           -0.3203507 Eh           -8.7172 eV

 SCC (total)                   0 d,  0 h,  0 min,  0.038 sec
 SCC setup                      ...        0 min,  0.000 sec (  0.548%)
 Dispersion                     ...        0 min,  0.000 sec (  0.616%)
 classical contributions        ...        0 min,  0.000 sec (  0.057%)
 integral evaluation            ...        0 min,  0.002 sec (  4.537%)
 iterations                     ...        0 min,  0.031 sec ( 81.773%)
 molecular gradient             ...        0 min,  0.005 sec ( 11.842%)
 printout                       ...        0 min,  0.000 sec (  0.561%)

         :::::::::::::::::::::::::::::::::::::::::::::::::::::
         ::                     SUMMARY                     ::
         :::::::::::::::::::::::::::::::::::::::::::::::::::::
         :: total energy             -46.447290569571 Eh    ::
         :: gradient norm              0.078952141130 Eh/a0 ::
         :: HOMO-LUMO gap              4.424119965335 eV    ::
         ::.................................................::
         :: SCC energy               -47.108804227468 Eh    ::
         :: -> isotropic ES            0.049666242426 Eh    ::
         :: -> anisotropic ES          0.002800069448 Eh    ::
         :: -> anisotropic XC          0.007650420268 Eh    ::
         :: -> dispersion             -0.027864952925 Eh    ::
         :: repulsion energy           0.661250433777 Eh    ::
         :: add. restraining           0.000000000000 Eh    ::
         :: total charge              -0.000000000000 e     ::
         :::::::::::::::::::::::::::::::::::::::::::::::::::::

      ----------------------------------------------------------- 
     |                   =====================                   |
     |                        A N C O P T                        |
     |                   =====================                   |
     |               Approximate Normal Coordinate               |
     |                Rational Function Optimizer                |
      ----------------------------------------------------------- 

          ...................................................
          :                      SETUP                      :
          :.................................................:
          :   optimization level            normal          :
          :   max. optcycles                   200          :
          :   ANC micro-cycles                  20          :
          :   degrees of freedom                72          :
          :.................................................:
          :   RF solver                   davidson          :
          :   write xtbopt.log                true          :
          :   linear?                        false          :
          :   energy convergence         0.5000000E-05 Eh   :
          :   grad. convergence          0.1000000E-02 Eh/α :
          :   maxmium RF displ.          1.0000000          :
          :   Hlow (freq-cutoff)         0.1000000E-01      :
          :   Hmax (freq-cutoff)         5.0000000          :
          :   S6 in model hess.         20.0000000          :
          ...................................................

generating ANC from model Hessian ...
Using Lindh-Hessian (1995)
 Shifting diagonal of input Hessian by   8.589552068522062E-003
 Lowest  eigenvalues of input Hessian
    0.000000    0.000000    0.000000    0.000000    0.000000    0.000000
    0.010000    0.010529    0.010809    0.013990    0.015492    0.017569
    0.020663    0.021917    0.025672    0.027573    0.029991    0.031228
 Highest eigenvalues
    1.925979    1.931588    2.057907    2.119067    2.152232    2.182977
 

........................................................................
.............................. CYCLE    1 ..............................
........................................................................

 iter      E             dE          RMSdq      gap      omega  full diag
   1    -47.1088042 -0.471088E+02  0.126E-04    4.42       0.0  T
   2    -47.1088042 -0.682689E-10  0.788E-05    4.42     248.7  T
   3    -47.1088042 -0.257501E-10  0.505E-05    4.42     388.1  T
     SCC iter.                  ...        0 min,  0.004 sec
     gradient                   ...        0 min,  0.004 sec
 * total energy  :   -46.4472906 Eh     change       -0.1719023E-08 Eh
   gradient norm :     0.0789525 Eh/α   predicted     0.0000000E+00 (-100.00%)
   displ. norm   :     0.2959268 α      lambda       -0.1267940E-01
   maximum displ.:     0.1174540 α      in ANC's #9, #40, #13, ...

........................................................................
.............................. CYCLE    2 ..............................
........................................................................

 iter      E             dE          RMSdq      gap      omega  full diag
   1    -47.1125513 -0.471126E+02  0.197E-01    4.39       0.0  T
   2    -47.1126625 -0.111248E-03  0.127E-01    4.42       1.0  T
   3    -47.1126370  0.255717E-04  0.591E-02    4.41       1.0  T
   4    -47.1126807 -0.437616E-04  0.197E-02    4.41       1.0  T
   5    -47.1126866 -0.586941E-05  0.459E-03    4.41       4.3  T
   6    -47.1126870 -0.429330E-06  0.189E-03    4.41      10.4  T
   7    -47.1126871 -0.372758E-07  0.824E-04    4.41      23.8  T
   8    -47.1126871 -0.210376E-08  0.338E-04    4.41      58.1  T
     SCC iter.                  ...        0 min,  0.011 sec
     gradient                   ...        0 min,  0.004 sec
 * total energy  :   -46.4562829 Eh     change       -0.8992313E-02 Eh
   gradient norm :     0.0304919 Eh/α   predicted    -0.6894902E-02 ( -23.32%)
   displ. norm   :     0.3247101 α      lambda       -0.4829496E-02
   maximum displ.:     0.1518080 α      in ANC's #9, #10, #7, ...

........................................................................
.............................. CYCLE    3 ..............................
........................................................................

 iter      E             dE          RMSdq      gap      omega  full diag
   1    -47.1133338 -0.471133E+02  0.173E-01    4.34       0.0  T
   2    -47.1134361 -0.102327E-03  0.106E-01    4.37       1.0  T
   3    -47.1134314  0.473210E-05  0.544E-02    4.36       1.0  T
   4    -47.1134516 -0.201944E-04  0.164E-02    4.36       1.2  T
   5    -47.1134540 -0.241786E-05  0.405E-03    4.36       4.8  T
   6    -47.1134542 -0.212450E-06  0.218E-03    4.36       9.0  T
   7    -47.1134543 -0.453400E-07  0.104E-03    4.36      18.8  T
   8    -47.1134543 -0.520527E-08  0.404E-04    4.36      48.5  T
   9    -47.1134543 -0.292614E-08  0.910E-05    4.36     215.4  T
     SCC iter.                  ...        0 min,  0.012 sec
     gradient                   ...        0 min,  0.004 sec
 * total energy  :   -46.4594136 Eh     change       -0.3130725E-02 Eh
   gradient norm :     0.0150743 Eh/α   predicted    -0.2669840E-02 ( -14.72%)
   displ. norm   :     0.3113721 α      lambda       -0.1807207E-02
   maximum displ.:     0.1476417 α      in ANC's #10, #9, #5, ...

........................................................................
.............................. CYCLE    4 ..............................
........................................................................

 iter      E             dE          RMSdq      gap      omega  full diag
   1    -47.1103891 -0.471104E+02  0.134E-01    4.32       0.0  T
   2    -47.1104493 -0.601519E-04  0.762E-02    4.34       1.0  T
   3    -47.1104475  0.180866E-05  0.438E-02    4.34       1.0  T
   4    -47.1104622 -0.147996E-04  0.111E-02    4.34       1.8  T
   5    -47.1104632 -0.984891E-06  0.363E-03    4.34       5.4  T
   6    -47.1104634 -0.151939E-06  0.207E-03    4.34       9.5  T
   7    -47.1104634 -0.355863E-07  0.937E-04    4.34      20.9  T
   8    -47.1104634 -0.479773E-08  0.364E-04    4.34      53.9  T
     SCC iter.                  ...        0 min,  0.011 sec
     gradient                   ...        0 min,  0.004 sec
 * total energy  :   -46.4606235 Eh     change       -0.1209922E-02 Eh
   gradient norm :     0.0327248 Eh/α   predicted    -0.9912126E-03 ( -18.08%)
   displ. norm   :     0.2786023 α      lambda       -0.1661842E-02
   maximum displ.:     0.1544520 α      in ANC's #5, #9, #10, ...

........................................................................
.............................. CYCLE    5 ..............................
........................................................................

 iter      E             dE          RMSdq      gap      omega  full diag
   1    -47.1104678 -0.471105E+02  0.104E-01    4.32       0.0  T
   2    -47.1104861 -0.183424E-04  0.611E-02    4.33       1.0  T
   3    -47.1104805  0.560233E-05  0.337E-02    4.33       1.0  T
   4    -47.1104928 -0.122528E-04  0.477E-03    4.33       4.1  T
   5    -47.1104930 -0.241446E-06  0.211E-03    4.33       9.3  T
   6    -47.1104931 -0.680502E-07  0.108E-03    4.33      18.1  T
   7    -47.1104931 -0.757106E-08  0.474E-04    4.33      41.4  T
   8    -47.1104931 -0.225920E-08  0.166E-04    4.33     118.0  T
     SCC iter.                  ...        0 min,  0.011 sec
     gradient                   ...        0 min,  0.004 sec
 * total energy  :   -46.4618993 Eh     change       -0.1275747E-02 Eh
   gradient norm :     0.0300004 Eh/α   predicted    -0.8955047E-03 ( -29.81%)
   displ. norm   :     0.2653837 α      lambda       -0.2203544E-02
   maximum displ.:     0.1619933 α      in ANC's #5, #9, #4, ...

........................................................................
.............................. CYCLE    6 ..............................
........................................................................

 iter      E             dE          RMSdq      gap      omega  full diag
   1    -47.1149905 -0.471150E+02  0.106E-01    4.32       0.0  T
   2    -47.1149992 -0.869379E-05  0.637E-02    4.32       1.0  T
   3    -47.1149870  0.122049E-04  0.314E-02    4.32       1.0  T
   4    -47.1150049 -0.179733E-04  0.483E-03    4.32       4.1  T
   5    -47.1150051 -0.143497E-06  0.299E-03    4.32       6.5  T
   6    -47.1150052 -0.762580E-07  0.906E-04    4.32      21.7  T
   7    -47.1150052 -0.932048E-08  0.395E-04    4.32      49.7  T
     SCC iter.                  ...        0 min,  0.009 sec
     gradient                   ...        0 min,  0.004 sec
 * total energy  :   -46.4633425 Eh     change       -0.1443209E-02 Eh
   gradient norm :     0.0109914 Eh/α   predicted    -0.1179369E-02 ( -18.28%)
   displ. norm   :     0.4589502 α      lambda       -0.2302998E-02
   maximum displ.:     0.2237744 α      in ANC's #10, #5, #8, ...

........................................................................
.............................. CYCLE    7 ..............................
........................................................................

 iter      E             dE          RMSdq      gap      omega  full diag
   1    -47.1086109 -0.471086E+02  0.207E-01    4.28       0.0  T
   2    -47.1086853 -0.744235E-04  0.120E-01    4.30       1.0  T
   3    -47.1086389  0.464183E-04  0.669E-02    4.30       1.0  T
   4    -47.1087182 -0.793293E-04  0.152E-02    4.30       1.3  T
   5    -47.1087204 -0.210752E-05  0.724E-03    4.30       2.7  T
   6    -47.1087212 -0.850730E-06  0.344E-03    4.30       5.7  T
   7    -47.1087212 -0.400917E-07  0.126E-03    4.30      15.5  T
   8    -47.1087213 -0.921199E-08  0.435E-04    4.30      45.1  T
   9    -47.1087213 -0.224832E-08  0.158E-04    4.30     124.1  T
     SCC iter.                  ...        0 min,  0.012 sec
     gradient                   ...        0 min,  0.004 sec
 * total energy  :   -46.4624500 Eh     change        0.8924732E-03 Eh
   gradient norm :     0.0566464 Eh/α   predicted    -0.1394060E-02 (-256.20%)
   displ. norm   :     0.2431293 α      lambda       -0.4664649E-02
   maximum displ.:     0.1197271 α      in ANC's #10, #5, #9, ...

........................................................................
.............................. CYCLE    8 ..............................
........................................................................

 iter      E             dE          RMSdq      gap      omega  full diag
   1    -47.1179972 -0.471180E+02  0.128E-01    4.32       0.0  T
   2    -47.1180222 -0.250085E-04  0.737E-02    4.32       1.0  T
   3    -47.1180048  0.174135E-04  0.361E-02    4.32       1.0  T
   4    -47.1180331 -0.282685E-04  0.102E-02    4.32       1.9  T
   5    -47.1180336 -0.584068E-06  0.524E-03    4.32       3.7  T
   6    -47.1180340 -0.326717E-06  0.270E-03    4.32       7.3  T
   7    -47.1180340 -0.306920E-07  0.826E-04    4.32      23.7  T
   8    -47.1180340 -0.591596E-08  0.308E-04    4.32      63.6  T
     SCC iter.                  ...        0 min,  0.011 sec
     gradient                   ...        0 min,  0.004 sec
 * total energy  :   -46.4645984 Eh     change       -0.2148427E-02 Eh
   gradient norm :     0.0087087 Eh/α   predicted    -0.2470215E-02 (  14.98%)
   displ. norm   :     0.0966785 α      lambda       -0.5429502E-03
   maximum displ.:     0.0355416 α      in ANC's #10, #6, #29, ...

........................................................................
.............................. CYCLE    9 ..............................
........................................................................

 iter      E             dE          RMSdq      gap      omega  full diag
   1    -47.1194316 -0.471194E+02  0.448E-02    4.31       0.0  T
   2    -47.1194338 -0.218208E-05  0.275E-02    4.31       1.0  T
   3    -47.1194312  0.254714E-05  0.131E-02    4.31       1.5  T
   4    -47.1194348 -0.355666E-05  0.227E-03    4.31       8.6  T
   5    -47.1194348 -0.607497E-07  0.125E-03    4.31      15.7  T
   6    -47.1194349 -0.185364E-07  0.610E-04    4.31      32.2  T
   7    -47.1194349 -0.206319E-08  0.153E-04    4.31     128.2  T
     SCC iter.                  ...        0 min,  0.009 sec
     gradient                   ...        0 min,  0.004 sec
 * total energy  :   -46.4650770 Eh     change       -0.4785569E-03 Eh
   gradient norm :     0.0067483 Eh/α   predicted    -0.2740177E-03 ( -42.74%)
   displ. norm   :     0.3288523 α      lambda       -0.1419739E-02
   maximum displ.:     0.1334862 α      in ANC's #10, #6, #29, ...

........................................................................
.............................. CYCLE   10 ..............................
........................................................................

 iter      E             dE          RMSdq      gap      omega  full diag
   1    -47.1169641 -0.471170E+02  0.148E-01    4.29       0.0  T
   2    -47.1169866 -0.224392E-04  0.891E-02    4.30       1.0  T
   3    -47.1169646  0.220052E-04  0.379E-02    4.30       1.0  T
   4    -47.1169945 -0.299361E-04  0.790E-03    4.30       2.5  T
   5    -47.1169952 -0.713917E-06  0.385E-03    4.30       5.1  T
   6    -47.1169954 -0.154861E-06  0.205E-03    4.30       9.6  T
   7    -47.1169954 -0.343137E-07  0.579E-04    4.30      33.9  T
   8    -47.1169954 -0.149521E-08  0.212E-04    4.30      92.4  T
     SCC iter.                  ...        0 min,  0.011 sec
     gradient                   ...        0 min,  0.004 sec
 * total energy  :   -46.4654626 Eh     change       -0.3855914E-03 Eh
   gradient norm :     0.0278367 Eh/α   predicted    -0.7866516E-03 ( 104.01%)
   displ. norm   :     0.0951095 α      lambda       -0.9436954E-03
   maximum displ.:     0.0474908 α      in ANC's #10, #5, #29, ...

........................................................................
.............................. CYCLE   11 ..............................
........................................................................

 iter      E             dE          RMSdq      gap      omega  full diag
   1    -47.1206911 -0.471207E+02  0.588E-02    4.31       0.0  T
   2    -47.1206965 -0.538470E-05  0.344E-02    4.31       1.0  T
   3    -47.1206928  0.365775E-05  0.157E-02    4.31       1.2  T
   4    -47.1206985 -0.570613E-05  0.510E-03    4.31       3.8  T
   5    -47.1206988 -0.239774E-06  0.224E-03    4.31       8.7  T
   6    -47.1206988 -0.373943E-07  0.118E-03    4.31      16.6  T
   7    -47.1206988 -0.871272E-08  0.359E-04    4.31      54.7  T
   8    -47.1206988 -0.681247E-09  0.132E-04    4.31     148.9  T
     SCC iter.                  ...        0 min,  0.011 sec
     gradient                   ...        0 min,  0.004 sec
 * total energy  :   -46.4658396 Eh     change       -0.3769702E-03 Eh
   gradient norm :     0.0037112 Eh/α   predicted    -0.4761143E-03 (  26.30%)
   displ. norm   :     0.0865208 α      lambda       -0.1556433E-03
   maximum displ.:     0.0410999 α      in ANC's #3, #6, #10, ...

........................................................................
.............................. CYCLE   12 ..............................
........................................................................

 iter      E             dE          RMSdq      gap      omega  full diag
   1    -47.1203936 -0.471204E+02  0.327E-02    4.30       0.0  T
   2    -47.1203940 -0.374183E-06  0.198E-02    4.31       1.0  T
   3    -47.1203934  0.620958E-06  0.614E-03    4.31       3.2  T
   4    -47.1203942 -0.822720E-06  0.108E-03    4.31      18.2  T
   5    -47.1203942 -0.239347E-08  0.559E-04    4.31      35.1  T
   6    -47.1203942 -0.448274E-09  0.222E-04    4.31      88.2  T
     SCC iter.                  ...        0 min,  0.008 sec
     gradient                   ...        0 min,  0.004 sec
 * total energy  :   -46.4659712 Eh     change       -0.1316095E-03 Eh
   gradient norm :     0.0034264 Eh/α   predicted    -0.7841202E-04 ( -40.42%)
   displ. norm   :     0.2276152 α      lambda       -0.2898213E-03
   maximum displ.:     0.1253117 α      in ANC's #3, #6, #5, ...

........................................................................
.............................. CYCLE   13 ..............................
........................................................................

 iter      E             dE          RMSdq      gap      omega  full diag
   1    -47.1189839 -0.471190E+02  0.815E-02    4.31       0.0  T
   2    -47.1189853 -0.136786E-05  0.492E-02    4.31       1.0  T
   3    -47.1189836  0.169224E-05  0.976E-03    4.31       2.0  T
   4    -47.1189861 -0.248903E-05  0.261E-03    4.31       7.5  T
   5    -47.1189861 -0.116455E-07  0.120E-03    4.31      16.4  T
   6    -47.1189861 -0.170321E-08  0.440E-04    4.31      44.6  T
   7    -47.1189861 -0.364633E-08  0.125E-04    4.31     156.7  T
     SCC iter.                  ...        0 min,  0.009 sec
     gradient                   ...        0 min,  0.004 sec
 * total energy  :   -46.4661058 Eh     change       -0.1346136E-03 Eh
   gradient norm :     0.0092432 Eh/α   predicted    -0.1524541E-03 (  13.25%)
   displ. norm   :     0.0467924 α      lambda       -0.1023056E-03
   maximum displ.:     0.0290649 α      in ANC's #3, #2, #1, ...

........................................................................
.............................. CYCLE   14 ..............................
........................................................................

 iter      E             dE          RMSdq      gap      omega  full diag
   1    -47.1201617 -0.471202E+02  0.196E-02    4.31       0.0  T
   2    -47.1201621 -0.383540E-06  0.113E-02    4.31       1.7  T
   3    -47.1201618  0.343838E-06  0.429E-03    4.31       4.6  T
   4    -47.1201622 -0.461744E-06  0.118E-03    4.31      16.6  T
   5    -47.1201623 -0.176029E-07  0.544E-04    4.31      36.1  T
   6    -47.1201623 -0.225970E-08  0.307E-04    4.31      64.0  T
     SCC iter.                  ...        0 min,  0.008 sec
     gradient                   ...        0 min,  0.004 sec
 * total energy  :   -46.4661771 Eh     change       -0.7132835E-04 Eh
   gradient norm :     0.0028260 Eh/α   predicted    -0.5125908E-04 ( -28.14%)
   displ. norm   :     0.1465969 α      lambda       -0.8442343E-04
   maximum displ.:     0.0984543 α      in ANC's #3, #2, #6, ...

........................................................................
.............................. CYCLE   15 ..............................
........................................................................

 iter      E             dE          RMSdq      gap      omega  full diag
   1    -47.1205740 -0.471206E+02  0.490E-02    4.31       0.0  T
   2    -47.1205745 -0.531668E-06  0.289E-02    4.31       1.0  T
   3    -47.1205736  0.899049E-06  0.615E-03    4.31       3.2  T
   4    -47.1205747 -0.108757E-05  0.133E-03    4.31      14.7  T
   5    -47.1205747 -0.198219E-07  0.715E-04    4.31      27.4  T
   6    -47.1205748 -0.432698E-08  0.357E-04    4.31      54.9  T
     SCC iter.                  ...        0 min,  0.008 sec
     gradient                   ...        0 min,  0.004 sec
 * total energy  :   -46.4662359 Eh     change       -0.5875465E-04 Eh
   gradient norm :     0.0028499 Eh/α   predicted    -0.4310563E-04 ( -26.63%)
   displ. norm   :     0.1506421 α      lambda       -0.5246873E-04
   maximum displ.:     0.1014899 α      in ANC's #3, #2, #6, ...

........................................................................
.............................. CYCLE   16 ..............................
........................................................................

 iter      E             dE          RMSdq      gap      omega  full diag
   1    -47.1207016 -0.471207E+02  0.501E-02    4.31       0.0  T
   2    -47.1207019 -0.331868E-06  0.296E-02    4.31       1.0  T
   3    -47.1207013  0.556537E-06  0.538E-03    4.31       3.6  T
   4    -47.1207020 -0.709612E-06  0.108E-03    4.31      18.1  T
   5    -47.1207020 -0.326783E-08  0.596E-04    4.31      32.9  T
   6    -47.1207020 -0.171960E-08  0.271E-04    4.31      72.3  T
     SCC iter.                  ...        0 min,  0.008 sec
     gradient                   ...        0 min,  0.004 sec
 * total energy  :   -46.4662740 Eh     change       -0.3810699E-04 Eh
   gradient norm :     0.0026853 Eh/α   predicted    -0.2682336E-04 ( -29.61%)
   displ. norm   :     0.1523391 α      lambda       -0.4084856E-04
   maximum displ.:     0.1024995 α      in ANC's #3, #2, #6, ...

........................................................................
.............................. CYCLE   17 ..............................
........................................................................

 iter      E             dE          RMSdq      gap      omega  full diag
   1    -47.1207836 -0.471208E+02  0.507E-02    4.32       0.0  T
   2    -47.1207838 -0.238542E-06  0.299E-02    4.32       1.0  T
   3    -47.1207834  0.388941E-06  0.456E-03    4.32       4.3  T
   4    -47.1207839 -0.504954E-06  0.907E-04    4.32      21.6  T
   5    -47.1207839 -0.143389E-08  0.464E-04    4.32      42.3  T
     SCC iter.                  ...        0 min,  0.007 sec
     gradient                   ...        0 min,  0.004 sec
 * total energy  :   -46.4663038 Eh     change       -0.2978082E-04 Eh
   gradient norm :     0.0026425 Eh/α   predicted    -0.2089528E-04 ( -29.84%)
   displ. norm   :     0.1495154 α      lambda       -0.4031459E-04
   maximum displ.:     0.0968834 α      in ANC's #3, #2, #6, ...

........................................................................
.............................. CYCLE   18 ..............................
........................................................................

 iter      E             dE          RMSdq      gap      omega  full diag
   1    -47.1212833 -0.471213E+02  0.515E-02    4.32       0.0  T
   2    -47.1212835 -0.232702E-06  0.303E-02    4.32       1.0  T
   3    -47.1212830  0.461463E-06  0.443E-03    4.32       4.4  T
   4    -47.1212836 -0.582969E-06  0.838E-04    4.32      23.4  T
   5    -47.1212836 -0.849781E-09  0.418E-04    4.32      47.0  T
     SCC iter.                  ...        0 min,  0.007 sec
     gradient                   ...        0 min,  0.004 sec
 * total energy  :   -46.4663331 Eh     change       -0.2938691E-04 Eh
   gradient norm :     0.0025275 Eh/α   predicted    -0.2061108E-04 ( -29.86%)
   displ. norm   :     0.1866310 α      lambda       -0.4404280E-04
   maximum displ.:     0.1192833 α      in ANC's #3, #2, #6, ...

........................................................................
.............................. CYCLE   19 ..............................
........................................................................

 iter      E             dE          RMSdq      gap      omega  full diag
   1    -47.1206348 -0.471206E+02  0.633E-02    4.32       0.0  T
   2    -47.1206354 -0.533295E-06  0.373E-02    4.32       1.0  T
   3    -47.1206347  0.627594E-06  0.528E-03    4.32       3.7  T
   4    -47.1206355 -0.805797E-06  0.116E-03    4.32      16.9  T
   5    -47.1206356 -0.108995E-07  0.599E-04    4.32      32.7  T
   6    -47.1206356 -0.454378E-09  0.247E-04    4.32      79.5  T
     SCC iter.                  ...        0 min,  0.008 sec
     gradient                   ...        0 min,  0.004 sec
 * total energy  :   -46.4663615 Eh     change       -0.2831004E-04 Eh
   gradient norm :     0.0029405 Eh/α   predicted    -0.2279164E-04 ( -19.49%)
   displ. norm   :     0.1268346 α      lambda       -0.4820806E-04
   maximum displ.:     0.0812397 α      in ANC's #1, #3, #2, ...

........................................................................
.............................. CYCLE   20 ..............................
........................................................................

 iter      E             dE          RMSdq      gap      omega  full diag
   1    -47.1215035 -0.471215E+02  0.471E-02    4.32       0.0  T
   2    -47.1215041 -0.595238E-06  0.278E-02    4.32       1.0  T
   3    -47.1215034  0.739856E-06  0.623E-03    4.32       3.1  T
   4    -47.1215043 -0.941782E-06  0.119E-03    4.32      16.5  T
   5    -47.1215043 -0.954454E-08  0.600E-04    4.32      32.7  T
   6    -47.1215043 -0.508855E-09  0.263E-04    4.32      74.5  T
     SCC iter.                  ...        0 min,  0.008 sec
     gradient                   ...        0 min,  0.004 sec
 * total energy  :   -46.4663898 Eh     change       -0.2833295E-04 Eh
   gradient norm :     0.0022015 Eh/α   predicted    -0.2449320E-04 ( -13.55%)
   displ. norm   :     0.0815861 α      lambda       -0.2496821E-04
   maximum displ.:     0.0533857 α      in ANC's #1, #3, #6, ...
 * RMSD in coord.:     0.4361238 α      energy gain  -0.1909921E-01 Eh

generating ANC from model Hessian ...
Using Lindh-Hessian (1995)
 Shifting diagonal of input Hessian by   8.790208832324845E-003
 Lowest  eigenvalues of input Hessian
    0.000000    0.000000    0.000000    0.000000    0.000000    0.000000
    0.010000    0.010592    0.010829    0.013902    0.015489    0.017741
    0.021064    0.022342    0.024779    0.030153    0.031386    0.033650
 Highest eigenvalues
    1.894400    1.912783    2.031530    2.077028    2.113958    2.136991
 

........................................................................
.............................. CYCLE   21 ..............................
........................................................................

 iter      E             dE          RMSdq      gap      omega  full diag
   1    -47.1210096 -0.471210E+02  0.267E-02    4.32       0.0  T
   2    -47.1210097 -0.140347E-06  0.158E-02    4.32       1.2  T
   3    -47.1210095  0.204667E-06  0.339E-03    4.32       5.8  T
   4    -47.1210098 -0.258596E-06  0.565E-04    4.32      34.7  T
   5    -47.1210098 -0.150717E-08  0.299E-04    4.32      65.6  T
     SCC iter.                  ...        0 min,  0.007 sec
     gradient                   ...        0 min,  0.004 sec
 * total energy  :   -46.4664104 Eh     change       -0.2063715E-04 Eh
   gradient norm :     0.0019979 Eh/α   predicted     0.0000000E+00 (-100.00%)
   displ. norm   :     0.0496726 α      lambda       -0.1655610E-04
   maximum displ.:     0.0336699 α      in ANC's #2, #1, #6, ...

........................................................................
.............................. CYCLE   22 ..............................
........................................................................

 iter      E             dE          RMSdq      gap      omega  full diag
   1    -47.1211381 -0.471211E+02  0.158E-02    4.32       0.0  T
   2    -47.1211381 -0.554625E-07  0.926E-03    4.32       2.1  T
   3    -47.1211380  0.630272E-07  0.187E-03    4.32      10.5  T
   4    -47.1211381 -0.805625E-07  0.333E-04    4.32      58.8  T
   5    -47.1211381 -0.826908E-09  0.165E-04    4.32     119.0  T
     SCC iter.                  ...        0 min,  0.007 sec
     gradient                   ...        0 min,  0.004 sec
 * total energy  :   -46.4664323 Eh     change       -0.2192633E-04 Eh
   gradient norm :     0.0006197 Eh/α   predicted    -0.8725043E-05 ( -60.21%)
   displ. norm   :     0.1177822 α      lambda       -0.2910669E-04
   maximum displ.:     0.0753896 α      in ANC's #2, #1, #6, ...

........................................................................
.............................. CYCLE   23 ..............................
........................................................................

 iter      E             dE          RMSdq      gap      omega  full diag
   1    -47.1211510 -0.471212E+02  0.345E-02    4.32       0.0  T
   2    -47.1211511 -0.106188E-06  0.203E-02    4.32       1.0  T
   3    -47.1211509  0.198918E-06  0.307E-03    4.32       6.4  T
   4    -47.1211511 -0.249304E-06  0.517E-04    4.32      37.9  T
   5    -47.1211511 -0.767237E-09  0.264E-04    4.32      74.4  T
     SCC iter.                  ...        0 min,  0.007 sec
     gradient                   ...        0 min,  0.004 sec
 * total energy  :   -46.4664679 Eh     change       -0.3559128E-04 Eh
   gradient norm :     0.0014261 Eh/α   predicted    -0.1464509E-04 ( -58.85%)
   displ. norm   :     0.1702586 α      lambda       -0.3102758E-04
   maximum displ.:     0.1069865 α      in ANC's #1, #2, #6, ...

........................................................................
.............................. CYCLE   24 ..............................
........................................................................

 iter      E             dE          RMSdq      gap      omega  full diag
   1    -47.1209627 -0.471210E+02  0.497E-02    4.32       0.0  T
   2    -47.1209629 -0.152893E-06  0.293E-02    4.32       1.0  T
   3    -47.1209625  0.413332E-06  0.393E-03    4.32       5.0  T
   4    -47.1209630 -0.508597E-06  0.672E-04    4.32      29.2  T
   5    -47.1209630  0.963489E-09  0.328E-04    4.32      59.7  T
     SCC iter.                  ...        0 min,  0.007 sec
     gradient                   ...        0 min,  0.004 sec
 * total energy  :   -46.4665055 Eh     change       -0.3759076E-04 Eh
   gradient norm :     0.0018895 Eh/α   predicted    -0.1573601E-04 ( -58.14%)
   displ. norm   :     0.2161357 α      lambda       -0.3088938E-04
   maximum displ.:     0.1365102 α      in ANC's #1, #2, #6, ...

........................................................................
.............................. CYCLE   25 ..............................
........................................................................

 iter      E             dE          RMSdq      gap      omega  full diag
   1    -47.1207237 -0.471207E+02  0.639E-02    4.31       0.0  T
   2    -47.1207240 -0.290562E-06  0.376E-02    4.31       1.0  T
   3    -47.1207233  0.682584E-06  0.491E-03    4.31       4.0  T
   4    -47.1207241 -0.841508E-06  0.915E-04    4.31      21.4  T
   5    -47.1207241 -0.652122E-09  0.479E-04    4.31      41.0  T
     SCC iter.                  ...        0 min,  0.007 sec
     gradient                   ...        0 min,  0.004 sec
 * total energy  :   -46.4665395 Eh     change       -0.3392832E-04 Eh
   gradient norm :     0.0018542 Eh/α   predicted    -0.1576552E-04 ( -53.53%)
   displ. norm   :     0.1496889 α      lambda       -0.1867324E-04
   maximum displ.:     0.1008232 α      in ANC's #1, #2, #6, ...

........................................................................
.............................. CYCLE   26 ..............................
........................................................................

 iter      E             dE          RMSdq      gap      omega  full diag
   1    -47.1210178 -0.471210E+02  0.458E-02    4.31       0.0  T
   2    -47.1210180 -0.213462E-06  0.270E-02    4.31       1.0  T
   3    -47.1210176  0.420257E-06  0.392E-03    4.31       5.0  T
   4    -47.1210181 -0.522714E-06  0.746E-04    4.31      26.3  T
   5    -47.1210182 -0.149468E-08  0.379E-04    4.31      51.8  T
     SCC iter.                  ...        0 min,  0.007 sec
     gradient                   ...        0 min,  0.004 sec
 * total energy  :   -46.4665609 Eh     change       -0.2148106E-04 Eh
   gradient norm :     0.0010815 Eh/α   predicted    -0.9430594E-05 ( -56.10%)
   displ. norm   :     0.1187981 α      lambda       -0.1525294E-04
   maximum displ.:     0.0849683 α      in ANC's #1, #3, #6, ...

........................................................................
.............................. CYCLE   27 ..............................
........................................................................

 iter      E             dE          RMSdq      gap      omega  full diag
   1    -47.1213671 -0.471214E+02  0.374E-02    4.30       0.0  T
   2    -47.1213674 -0.238121E-06  0.221E-02    4.30       1.0  T
   3    -47.1213670  0.427541E-06  0.419E-03    4.30       4.7  T
   4    -47.1213675 -0.528741E-06  0.731E-04    4.30      26.8  T
   5    -47.1213675 -0.268078E-08  0.385E-04    4.30      50.9  T
     SCC iter.                  ...        0 min,  0.007 sec
     gradient                   ...        0 min,  0.004 sec
 * total energy  :   -46.4665791 Eh     change       -0.1815797E-04 Eh
   gradient norm :     0.0005653 Eh/α   predicted    -0.7687454E-05 ( -57.66%)
   displ. norm   :     0.1196447 α      lambda       -0.1420538E-04
   maximum displ.:     0.0860554 α      in ANC's #1, #3, #6, ...

........................................................................
.............................. CYCLE   28 ..............................
........................................................................

 iter      E             dE          RMSdq      gap      omega  full diag
   1    -47.1214318 -0.471214E+02  0.380E-02    4.30       0.0  T
   2    -47.1214321 -0.212723E-06  0.224E-02    4.30       1.0  T
   3    -47.1214316  0.418802E-06  0.413E-03    4.30       4.8  T
   4    -47.1214322 -0.521865E-06  0.716E-04    4.30      27.4  T
   5    -47.1214322 -0.150764E-08  0.361E-04    4.30      54.3  T
     SCC iter.                  ...        0 min,  0.007 sec
     gradient                   ...        0 min,  0.004 sec
 * total energy  :   -46.4665966 Eh     change       -0.1750601E-04 Eh
   gradient norm :     0.0010545 Eh/α   predicted    -0.7148028E-05 ( -59.17%)
   displ. norm   :     0.1263067 α      lambda       -0.1490077E-04
   maximum displ.:     0.0894900 α      in ANC's #1, #3, #6, ...

........................................................................
.............................. CYCLE   29 ..............................
........................................................................

 iter      E             dE          RMSdq      gap      omega  full diag
   1    -47.1214909 -0.471215E+02  0.415E-02    4.29       0.0  T
   2    -47.1214911 -0.223129E-06  0.244E-02    4.29       1.0  T
   3    -47.1214906  0.497860E-06  0.442E-03    4.29       4.4  T
   4    -47.1214912 -0.614259E-06  0.709E-04    4.29      27.7  T
   5    -47.1214912 -0.104680E-08  0.372E-04    4.29      52.8  T
     SCC iter.                  ...        0 min,  0.007 sec
     gradient                   ...        0 min,  0.004 sec
 * total energy  :   -46.4666162 Eh     change       -0.1956239E-04 Eh
   gradient norm :     0.0013867 Eh/α   predicted    -0.7503421E-05 ( -61.64%)
   displ. norm   :     0.1655820 α      lambda       -0.1980658E-04
   maximum displ.:     0.1157592 α      in ANC's #1, #3, #2, ...

........................................................................
.............................. CYCLE   30 ..............................
........................................................................

 iter      E             dE          RMSdq      gap      omega  full diag
   1    -47.1212469 -0.471212E+02  0.543E-02    4.27       0.0  T
   2    -47.1212472 -0.284685E-06  0.319E-02    4.27       1.0  T
   3    -47.1212465  0.688108E-06  0.508E-03    4.27       3.9  T
   4    -47.1212474 -0.853039E-06  0.847E-04    4.27      23.2  T
   5    -47.1212474 -0.187235E-09  0.427E-04    4.27      46.0  T
     SCC iter.                  ...        0 min,  0.007 sec
     gradient                   ...        0 min,  0.004 sec
 * total energy  :   -46.4666434 Eh     change       -0.2723617E-04 Eh
   gradient norm :     0.0012619 Eh/α   predicted    -0.1002452E-04 ( -63.19%)
   displ. norm   :     0.2665784 α      lambda       -0.3371009E-04
   maximum displ.:     0.1840454 α      in ANC's #1, #3, #2, ...

........................................................................
.............................. CYCLE   31 ..............................
........................................................................

 iter      E             dE          RMSdq      gap      omega  full diag
   1    -47.1209889 -0.471210E+02  0.887E-02    4.24       0.0  T
   2    -47.1209895 -0.679335E-06  0.521E-02    4.25       1.0  T
   3    -47.1209878  0.174719E-05  0.801E-03    4.25       2.4  T
   4    -47.1209900 -0.216605E-05  0.135E-03    4.25      14.5  T
   5    -47.1209899  0.264889E-08  0.679E-04    4.25      28.9  T
   6    -47.1209900 -0.533996E-08  0.253E-04    4.25      77.4  T
     SCC iter.                  ...        0 min,  0.008 sec
     gradient                   ...        0 min,  0.004 sec
 * total energy  :   -46.4666883 Eh     change       -0.4490580E-04 Eh
   gradient norm :     0.0012260 Eh/α   predicted    -0.1739166E-04 ( -61.27%)
   displ. norm   :     0.3729340 α      lambda       -0.4391292E-04
   maximum displ.:     0.2580112 α      in ANC's #1, #3, #2, ...

........................................................................
.............................. CYCLE   32 ..............................
........................................................................

 iter      E             dE          RMSdq      gap      omega  full diag
   1    -47.1200081 -0.471200E+02  0.123E-01    4.20       0.0  T
   2    -47.1200094 -0.130537E-05  0.725E-02    4.20       1.0  T
   3    -47.1200062  0.314158E-05  0.109E-02    4.20       1.8  T
   4    -47.1200101 -0.390915E-05  0.187E-03    4.20      10.5  T
   5    -47.1200101  0.762014E-09  0.102E-03    4.20      19.2  T
   6    -47.1200101 -0.717232E-08  0.410E-04    4.20      47.8  T
   7    -47.1200102 -0.295535E-08  0.104E-04    4.20     188.9  T
     SCC iter.                  ...        0 min,  0.009 sec
     gradient                   ...        0 min,  0.004 sec
 * total energy  :   -46.4667408 Eh     change       -0.5250559E-04 Eh
   gradient norm :     0.0017300 Eh/α   predicted    -0.2331744E-04 ( -55.59%)
   displ. norm   :     0.2869247 α      lambda       -0.3657541E-04
   maximum displ.:     0.1972390 α      in ANC's #1, #3, #2, ...

........................................................................
.............................. CYCLE   33 ..............................
........................................................................

 iter      E             dE          RMSdq      gap      omega  full diag
   1    -47.1208147 -0.471208E+02  0.956E-02    4.17       0.0  T
   2    -47.1208155 -0.812331E-06  0.562E-02    4.17       1.0  T
   3    -47.1208137  0.182829E-05  0.853E-03    4.17       2.3  T
   4    -47.1208160 -0.228191E-05  0.153E-03    4.17      12.8  T
   5    -47.1208160 -0.218404E-08  0.846E-04    4.17      23.2  T
   6    -47.1208160 -0.203695E-08  0.400E-04    4.17      49.0  T
     SCC iter.                  ...        0 min,  0.008 sec
     gradient                   ...        0 min,  0.004 sec
 * total energy  :   -46.4667786 Eh     change       -0.3780805E-04 Eh
   gradient norm :     0.0026317 Eh/α   predicted    -0.1895744E-04 ( -49.86%)
   displ. norm   :     0.1265827 α      lambda       -0.2551585E-04
   maximum displ.:     0.0958947 α      in ANC's #1, #3, #2, ...

........................................................................
.............................. CYCLE   34 ..............................
........................................................................

 iter      E             dE          RMSdq      gap      omega  full diag
   1    -47.1211101 -0.471211E+02  0.408E-02    4.16       0.0  T
   2    -47.1211102 -0.130344E-06  0.240E-02    4.16       1.0  T
   3    -47.1211101  0.168698E-06  0.315E-03    4.16       6.2  T
   4    -47.1211103 -0.229940E-06  0.646E-04    4.16      30.3  T
   5    -47.1211103 -0.111282E-08  0.348E-04    4.16      56.3  T
     SCC iter.                  ...        0 min,  0.007 sec
     gradient                   ...        0 min,  0.004 sec
 * total energy  :   -46.4668001 Eh     change       -0.2146904E-04 Eh
   gradient norm :     0.0015224 Eh/α   predicted    -0.1296433E-04 ( -39.61%)
   displ. norm   :     0.1418710 α      lambda       -0.2093410E-04
   maximum displ.:     0.1173976 α      in ANC's #1, #3, #2, ...

........................................................................
.............................. CYCLE   35 ..............................
........................................................................

 iter      E             dE          RMSdq      gap      omega  full diag
   1    -47.1218803 -0.471219E+02  0.456E-02    4.15       0.0  T
   2    -47.1218805 -0.190371E-06  0.269E-02    4.15       1.0  T
   3    -47.1218801  0.358097E-06  0.460E-03    4.15       4.3  T
   4    -47.1218806 -0.453990E-06  0.696E-04    4.15      28.2  T
   5    -47.1218806 -0.948383E-09  0.363E-04    4.15      54.1  T
     SCC iter.                  ...        0 min,  0.007 sec
     gradient                   ...        0 min,  0.004 sec
 * total energy  :   -46.4668255 Eh     change       -0.2542558E-04 Eh
   gradient norm :     0.0009977 Eh/α   predicted    -0.1056187E-04 ( -58.46%)
   displ. norm   :     0.1069947 α      lambda       -0.1630450E-04
   maximum displ.:     0.0939153 α      in ANC's #1, #3, #6, ...

........................................................................
.............................. CYCLE   36 ..............................
........................................................................

 iter      E             dE          RMSdq      gap      omega  full diag
   1    -47.1218611 -0.471219E+02  0.333E-02    4.14       0.0  T
   2    -47.1218612 -0.623283E-07  0.196E-02    4.14       1.0  T
   3    -47.1218611  0.963220E-07  0.213E-03    4.14       9.2  T
   4    -47.1218612 -0.132276E-06  0.477E-04    4.14      41.1  T
   5    -47.1218612  0.102155E-09  0.222E-04    4.14      88.1  T
     SCC iter.                  ...        0 min,  0.007 sec
     gradient                   ...        0 min,  0.004 sec
 * total energy  :   -46.4668481 Eh     change       -0.2256199E-04 Eh
   gradient norm :     0.0011334 Eh/α   predicted    -0.8194596E-05 ( -63.68%)
   displ. norm   :     0.0853172 α      lambda       -0.1754033E-04
   maximum displ.:     0.0724926 α      in ANC's #1, #6, #4, ...

........................................................................
.............................. CYCLE   37 ..............................
........................................................................

 iter      E             dE          RMSdq      gap      omega  full diag
   1    -47.1220097 -0.471220E+02  0.243E-02    4.13       0.0  T
   2    -47.1220097 -0.354834E-07  0.143E-02    4.13       1.4  T
   3    -47.1220097  0.687429E-07  0.170E-03    4.13      11.5  T
   4    -47.1220098 -0.874525E-07  0.350E-04    4.13      56.0  T
   5    -47.1220098 -0.162387E-09  0.182E-04    4.13     107.7  T
     SCC iter.                  ...        0 min,  0.007 sec
     gradient                   ...        0 min,  0.004 sec
 * total energy  :   -46.4668728 Eh     change       -0.2470481E-04 Eh
   gradient norm :     0.0014525 Eh/α   predicted    -0.8800528E-05 ( -64.38%)
   displ. norm   :     0.1490275 α      lambda       -0.3192169E-04
   maximum displ.:     0.1122412 α      in ANC's #1, #6, #3, ...

........................................................................
.............................. CYCLE   38 ..............................
........................................................................

 iter      E             dE          RMSdq      gap      omega  full diag
   1    -47.1217539 -0.471218E+02  0.394E-02    4.12       0.0  T
   2    -47.1217540 -0.796507E-07  0.233E-02    4.12       1.0  T
   3    -47.1217540  0.651852E-07  0.204E-03    4.12       9.6  T
   4    -47.1217541 -0.100371E-06  0.568E-04    4.12      34.5  T
   5    -47.1217541 -0.806978E-09  0.263E-04    4.12      74.5  T
     SCC iter.                  ...        0 min,  0.007 sec
     gradient                   ...        0 min,  0.004 sec
 * total energy  :   -46.4669164 Eh     change       -0.4359881E-04 Eh
   gradient norm :     0.0014760 Eh/α   predicted    -0.1612088E-04 ( -63.02%)
   displ. norm   :     0.2732551 α      lambda       -0.5257616E-04
   maximum displ.:     0.1934941 α      in ANC's #1, #6, #3, ...

........................................................................
.............................. CYCLE   39 ..............................
........................................................................

 iter      E             dE          RMSdq      gap      omega  full diag
   1    -47.1203745 -0.471204E+02  0.687E-02    4.11       0.0  T
   2    -47.1203751 -0.572862E-06  0.407E-02    4.11       1.0  T
   3    -47.1203748  0.224824E-06  0.373E-03    4.11       5.3  T
   4    -47.1203752 -0.336893E-06  0.133E-03    4.11      14.8  T
   5    -47.1203752 -0.222995E-07  0.641E-04    4.11      30.6  T
   6    -47.1203752 -0.321130E-09  0.152E-04    4.11     129.0  T
     SCC iter.                  ...        0 min,  0.008 sec
     gradient                   ...        0 min,  0.004 sec
 * total energy  :   -46.4669710 Eh     change       -0.5460437E-04 Eh
   gradient norm :     0.0032766 Eh/α   predicted    -0.2716105E-04 ( -50.26%)
   displ. norm   :     0.0847897 α      lambda       -0.2382881E-04
   maximum displ.:     0.0622940 α      in ANC's #1, #6, #8, ...

........................................................................
.............................. CYCLE   40 ..............................
........................................................................

 iter      E             dE          RMSdq      gap      omega  full diag
   1    -47.1203099 -0.471203E+02  0.214E-02    4.10       0.0  T
   2    -47.1203100 -0.377952E-07  0.127E-02    4.10       1.5  T
   3    -47.1203099  0.608322E-07  0.177E-03    4.10      11.1  T
   4    -47.1203100 -0.787689E-07  0.359E-04    4.10      54.6  T
   5    -47.1203100 -0.241421E-09  0.194E-04    4.10     101.2  T
     SCC iter.                  ...        0 min,  0.007 sec
     gradient                   ...        0 min,  0.004 sec
 * total energy  :   -46.4669919 Eh     change       -0.2093420E-04 Eh
   gradient norm :     0.0033599 Eh/α   predicted    -0.1200069E-04 ( -42.67%)
   displ. norm   :     0.1881277 α      lambda       -0.6747979E-04
   maximum displ.:     0.1383446 α      in ANC's #1, #6, #3, ...

........................................................................
.............................. CYCLE   41 ..............................
........................................................................

 iter      E             dE          RMSdq      gap      omega  full diag
   1    -47.1205086 -0.471205E+02  0.510E-02    4.08       0.0  T
   2    -47.1205089 -0.310014E-06  0.301E-02    4.08       1.0  T
   3    -47.1205082  0.662120E-06  0.527E-03    4.08       3.7  T
   4    -47.1205090 -0.818337E-06  0.913E-04    4.08      21.5  T
   5    -47.1205090 -0.176764E-08  0.477E-04    4.08      41.1  T
     SCC iter.                  ...        0 min,  0.007 sec
     gradient                   ...        0 min,  0.004 sec
 * total energy  :   -46.4670451 Eh     change       -0.5319430E-04 Eh
   gradient norm :     0.0023222 Eh/α   predicted    -0.3493566E-04 ( -34.32%)
   displ. norm   :     0.2867060 α      lambda       -0.6688039E-04
   maximum displ.:     0.2110866 α      in ANC's #1, #6, #3, ...

........................................................................
.............................. CYCLE   42 ..............................
........................................................................

 iter      E             dE          RMSdq      gap      omega  full diag
   1    -47.1197953 -0.471198E+02  0.767E-02    4.05       0.0  T
   2    -47.1197960 -0.731523E-06  0.453E-02    4.05       1.0  T
   3    -47.1197945  0.151946E-05  0.831E-03    4.05       2.4  T
   4    -47.1197964 -0.187550E-05  0.136E-03    4.05      14.5  T
   5    -47.1197964 -0.590311E-08  0.707E-04    4.05      27.7  T
   6    -47.1197964 -0.677524E-09  0.307E-04    4.05      63.9  T
     SCC iter.                  ...        0 min,  0.008 sec
     gradient                   ...        0 min,  0.004 sec
 * total energy  :   -46.4670893 Eh     change       -0.4413731E-04 Eh
   gradient norm :     0.0032202 Eh/α   predicted    -0.3618933E-04 ( -18.01%)
   displ. norm   :     0.1714898 α      lambda       -0.4770028E-04
   maximum displ.:     0.1221268 α      in ANC's #1, #3, #6, ...
 * RMSD in coord.:     0.5837496 α      energy gain  -0.6994673E-03 Eh

generating ANC from model Hessian ...
Using Lindh-Hessian (1995)
 Shifting diagonal of input Hessian by   8.689495150058787E-003
 Lowest  eigenvalues of input Hessian
    0.000000    0.000000    0.000000    0.000000    0.000000    0.000000
    0.010000    0.010560    0.010907    0.013982    0.015780    0.017835
    0.021256    0.022272    0.024981    0.029998    0.031411    0.033837
 Highest eigenvalues
    1.890138    1.912840    2.029401    2.070912    2.115340    2.135508
 

........................................................................
.............................. CYCLE   43 ..............................
........................................................................

 iter      E             dE          RMSdq      gap      omega  full diag
   1    -47.1204878 -0.471205E+02  0.547E-02    4.03       0.0  T
   2    -47.1204885 -0.729964E-06  0.321E-02    4.03       1.0  T
   3    -47.1204875  0.106740E-05  0.746E-03    4.03       2.6  T
   4    -47.1204888 -0.131518E-05  0.126E-03    4.03      15.6  T
   5    -47.1204888 -0.139614E-07  0.623E-04    4.03      31.5  T
   6    -47.1204888 -0.677787E-10  0.345E-04    4.03      56.9  T
     SCC iter.                  ...        0 min,  0.008 sec
     gradient                   ...        0 min,  0.004 sec
 * total energy  :   -46.4671134 Eh     change       -0.2416158E-04 Eh
   gradient norm :     0.0019289 Eh/α   predicted     0.0000000E+00 (-100.00%)
   displ. norm   :     0.0224544 α      lambda       -0.9452919E-05
   maximum displ.:     0.0127519 α      in ANC's #1, #4, #13, ...

........................................................................
.............................. CYCLE   44 ..............................
........................................................................

 iter      E             dE          RMSdq      gap      omega  full diag
   1    -47.1214980 -0.471215E+02  0.132E-02    4.03       0.0  T
   2    -47.1214981 -0.107161E-06  0.784E-03    4.03       2.5  T
   3    -47.1214979  0.128084E-06  0.353E-03    4.03       5.6  T
   4    -47.1214981 -0.177790E-06  0.301E-04    4.03      65.2  T
   5    -47.1214981 -0.415611E-09  0.150E-04    4.03     130.9  T
     SCC iter.                  ...        0 min,  0.007 sec
     gradient                   ...        0 min,  0.004 sec
 * total energy  :   -46.4671222 Eh     change       -0.8818524E-05 Eh
   gradient norm :     0.0006037 Eh/α   predicted    -0.5289209E-05 ( -40.02%)
   displ. norm   :     0.0193318 α      lambda       -0.2416327E-05
   maximum displ.:     0.0144179 α      in ANC's #1, #3, #6, ...

........................................................................
.............................. CYCLE   45 ..............................
........................................................................

 iter      E             dE          RMSdq      gap      omega  full diag
   1    -47.1214598 -0.471215E+02  0.732E-03    4.03       0.0  T
   2    -47.1214598 -0.192032E-07  0.436E-03    4.03       4.5  T
   3    -47.1214598  0.244571E-07  0.124E-03    4.03      15.8  T
   4    -47.1214598 -0.307146E-07  0.181E-04    4.03     108.5  T
   5    -47.1214598 -0.203755E-09  0.827E-05    4.03     237.1  T
     SCC iter.                  ...        0 min,  0.007 sec
     gradient                   ...        0 min,  0.004 sec
 * total energy  :   -46.4671250 Eh     change       -0.2752111E-05 Eh
   gradient norm :     0.0003252 Eh/α   predicted    -0.1215587E-05 ( -55.83%)
   displ. norm   :     0.0301343 α      lambda       -0.2257863E-05
   maximum displ.:     0.0232037 α      in ANC's #1, #6, #3, ...

   *** GEOMETRY OPTIMIZATION CONVERGED AFTER 45 ITERATIONS ***

------------------------------------------------------------------------
 total energy gain   :        -0.0198344 Eh      -12.4463 kcal/mol
 total RMSD          :         0.8228901 a0        0.4355 Å
 total power (kW/mol):        -1.1572277 (step)  -76.3962 (real)
------------------------------------------------------------------------

 ANCopt (total)                0 d,  0 h,  0 min,  0.682 sec
 optimizer setup                ...        0 min,  0.000 sec (  0.028%)
 model hessian                  ...        0 min,  0.021 sec (  3.101%)
 ANC generation                 ...        0 min,  0.002 sec (  0.346%)
 coordinate transformation      ...        0 min,  0.001 sec (  0.082%)
 single point calculation       ...        0 min,  0.644 sec ( 94.410%)
 optimization log               ...        0 min,  0.006 sec (  0.942%)
 hessian update                 ...        0 min,  0.001 sec (  0.087%)
 rational function              ...        0 min,  0.005 sec (  0.668%)

================
 final structure:
================
26
 xtb: 6.6.1 (8d0f1dd)
C            1.79313188947779       -0.79837945029324       -1.27317219159237
C            1.74465324202395       -0.02868202853681        0.01053251916879
C            2.91085021969055        0.43464435305198        0.60523803076007
C            2.87990598208097        1.15088078207348        1.78815769920054
C            1.67173563070458        1.42380227084402        2.40377375957641
C            0.51333754089917        0.96293132029780        1.81057822515417
F           -0.66880053161258        1.21528725274938        2.41554885550749
C            0.52025943567414        0.23513636664449        0.62706625939994
C           -0.76432990317798       -0.22657904905685        0.05694227675931
C           -1.68267485523808        0.69918601638178       -0.45244715100989
O           -1.32002739079736        2.00523891083665       -0.46284707905937
C           -2.90726581737633        0.26656910906639       -0.94707751367373
C           -3.23189010353785       -1.07767710108693       -0.94048169728132
C           -2.33933786127672       -2.01007577223586       -0.44490893360035
C           -1.12564380109829       -1.56557314053409        0.04540262033418
F           -0.25908735511041       -2.47499256215278        0.54164660573589
H            1.02107296235070       -0.45339766987454       -1.95901862212553
H            1.62221597047403       -1.85714451742665       -1.08102534763236
H            2.76460226633926       -0.69087512324277       -1.74862716830433
H            3.85905269995397        0.23115864217525        0.12984597454907
H            3.79907614361511        1.50082582916454        2.23280584295454
H            1.61486290255382        1.98016249548508        3.32559971594261
H           -2.04914381333546        2.54714960135519       -0.78676809003017
H           -3.60876421110767        0.99231807070460       -1.33507229437315
H           -4.18774699897963       -1.39945128931411       -1.32342099869517
H           -2.57004424318939       -3.06246131707627       -0.42491229766542
 
 Bond Distances (Angstroems)
 ---------------------------
C1-C2=1.4976         C1-H17=1.0888        C1-H18=1.0895        C1-H19=1.0869        C2-C1=1.4976         C2-C3=1.3887         
C2-C8=1.3960         C3-C2=1.3887         C3-C4=1.3832         C3-H20=1.0800        C4-C3=1.3832         C4-C5=1.3832         
C4-H21=1.0794        C5-C4=1.3832         C5-C6=1.3806         C5-H22=1.0782        C6-C5=1.3806         C6-F7=1.3517         
C6-C8=1.3894         F7-C6=1.3517         C8-C2=1.3960         C8-C6=1.3894         C8-C9=1.4793         C9-C8=1.4793         
C9-C10=1.4000        C9-C15=1.3869        C10-C9=1.4000        C10-O11=1.3555       C10-C12=1.3898       O11-C10=1.3555       
O11-H23=0.9645       C12-C10=1.3898       C12-C13=1.3829       C12-H24=1.0814       C13-C12=1.3829       C13-C14=1.3826       
C13-H25=1.0788       C14-C13=1.3826       C14-C15=1.3824       C14-H26=1.0776       C15-C9=1.3869        C15-C14=1.3824       
C15-F16=1.3506       F16-C15=1.3506       H17-C1=1.0888        H18-C1=1.0895        H19-C1=1.0869        H20-C3=1.0800        
H21-C4=1.0794        H22-C5=1.0782        H23-O11=0.9645       H24-C12=1.0814       H25-C13=1.0788       H26-C14=1.0776       
 C  H  Rav=1.0823 sigma=0.0045  Rmin=1.0776  Rmax=1.0895     9
 C  C  Rav=1.4016 sigma=0.0360  Rmin=1.3806  Rmax=1.4976    14
 O  H  Rav=0.9645 sigma=0.0000  Rmin=0.9645  Rmax=0.9645     1
 O  C  Rav=1.3555 sigma=0.0000  Rmin=1.3555  Rmax=1.3555     1
 F  C  Rav=1.3512 sigma=0.0005  Rmin=1.3506  Rmax=1.3517     2
 
 selected bond angles (degree)
 --------------------
H17-C1-C2=110.74               H18-C1-C2=110.07               H18-C1-H17=107.92              H19-C1-C2=110.68               
H19-C1-H17=109.08              H19-C1-H18=108.27              C3-C2-C1=120.76                C8-C2-C1=120.27                
C8-C2-C3=118.97                C4-C3-C2=121.35                H20-C3-C2=119.07               H20-C3-C4=119.58               
C5-C4-C3=120.16                H21-C4-C3=120.07               H21-C4-C5=119.77               C6-C5-C4=118.41                
H22-C5-C4=121.90               H22-C5-C6=119.69               F7-C6-C5=118.63                C8-C6-C5=122.46                
C8-C6-F7=118.91                C6-C8-C2=118.66                C9-C8-C2=122.17                C9-C8-C6=119.17                
C10-C9-C8=120.23               C15-C9-C8=122.06               C15-C9-C10=117.68              O11-C10-C9=117.67              
C12-C10-C9=120.11              C12-C10-O11=122.20             
 
 selected dihedral angles (degree)
 ---------------------------------
C3-C2-C1-H17=223.96           C3-C2-C1-H18=104.71           C3-C2-C1-H19=345.06           C8-C2-C1-H17= 43.88           
C8-C2-C1-H18=284.63           C8-C2-C1-H19=164.98           C4-C3-C2-C1=179.76            C4-C3-C2-C8=359.84            
H20-C3-C2-C1=359.90           H20-C3-C2-C8=179.98           C5-C4-C3-C2=359.82            C5-C4-C3-H20=179.69           
H21-C4-C3-C2=179.97           H21-C4-C3-H20=359.83          C6-C5-C4-C3=  0.14            C6-C5-C4-H21=179.99           
H22-C5-C4-C3=180.05           H22-C5-C4-H21=359.91          F7-C6-C5-C4=179.33            F7-C6-C5-H22=359.41           
C8-C6-C5-C4=  0.24            C8-C6-C5-H22=180.33           C6-C8-C2-C1=180.60            C6-C8-C2-C3=  0.52            
C9-C8-C2-C1=  0.19            C9-C8-C2-C3=180.11            C2-C8-C6-C5=359.43            C2-C8-C6-F7=180.34            
C9-C8-C6-C5=179.83            C9-C8-C6-F7=  0.74            C10-C9-C8-C2=248.20           C10-C9-C8-C6= 67.79           
C15-C9-C8-C2= 70.44           C15-C9-C8-C6=250.03           O11-C10-C9-C8=  3.27          O11-C10-C9-C15=181.14         
C12-C10-C9-C8=182.13          C12-C10-C9-C15=  0.00         
           -------------------------------------------------
          |                Final Singlepoint                |
           -------------------------------------------------

          ...................................................
          :                      SETUP                      :
          :.................................................:
          :  # basis functions                  74          :
          :  # atomic orbitals                  74          :
          :  # shells                           42          :
          :  # electrons                        82          :
          :  max. iterations                   250          :
          :  Hamiltonian                  GFN2-xTB          :
          :  restarted?                      false          :
          :  GBSA solvation                  false          :
          :  PC potential                    false          :
          :  electronic temp.          298.1500000     K    :
          :  accuracy                    1.0000000          :
          :  -> integral cutoff          0.2500000E+02      :
          :  -> integral neglect         0.1000000E-07      :
          :  -> SCF convergence          0.1000000E-05 Eh   :
          :  -> wf. convergence          0.1000000E-03 e    :
          :  Broyden damping             0.4000000          :
          ...................................................

 iter      E             dE          RMSdq      gap      omega  full diag
   1    -47.1214598 -0.471215E+02  0.429E-05    4.03       0.0  T
   2    -47.1214598 -0.898126E-11  0.280E-05    4.03     700.6  T
   3    -47.1214598 -0.749623E-11  0.170E-05    4.03    1151.9  T

   *** convergence criteria satisfied after 3 iterations ***

         #    Occupation            Energy/Eh            Energy/eV
      -------------------------------------------------------------
         1        2.0000           -0.8146869             -22.1688
       ...           ...                  ...                  ...
        35        2.0000           -0.4505266             -12.2595
        36        2.0000           -0.4431605             -12.0590
        37        2.0000           -0.4253892             -11.5754
        38        2.0000           -0.4126004             -11.2274
        39        2.0000           -0.4018364             -10.9345
        40        2.0000           -0.3982762             -10.8376
        41        2.0000           -0.3933685             -10.7041 (HOMO)
        42                         -0.2451882              -6.6719 (LUMO)
        43                         -0.2292724              -6.2388
        44                         -0.2247205              -6.1150
        45                         -0.2214703              -6.0265
        46                         -0.1089241              -2.9640
       ...                                ...                  ...
        74                          0.6742075              18.3461
      -------------------------------------------------------------
                  HL-Gap            0.1481802 Eh            4.0322 eV
             Fermi-level           -0.3192783 Eh           -8.6880 eV

 SCC (total)                   0 d,  0 h,  0 min,  0.011 sec
 SCC setup                      ...        0 min,  0.000 sec (  1.068%)
 Dispersion                     ...        0 min,  0.000 sec (  1.023%)
 classical contributions        ...        0 min,  0.000 sec (  0.188%)
 integral evaluation            ...        0 min,  0.002 sec ( 14.947%)
 iterations                     ...        0 min,  0.004 sec ( 40.213%)
 molecular gradient             ...        0 min,  0.004 sec ( 40.803%)
 printout                       ...        0 min,  0.000 sec (  1.528%)

         :::::::::::::::::::::::::::::::::::::::::::::::::::::
         ::                     SUMMARY                     ::
         :::::::::::::::::::::::::::::::::::::::::::::::::::::
         :: total energy             -46.467124983615 Eh    ::
         :: gradient norm              0.000325201272 Eh/a0 ::
         :: HOMO-LUMO gap              4.032189788917 eV    ::
         ::.................................................::
         :: SCC energy               -47.121459831208 Eh    ::
         :: -> isotropic ES            0.045281954927 Eh    ::
         :: -> anisotropic ES          0.002428324248 Eh    ::
         :: -> anisotropic XC          0.007530001151 Eh    ::
         :: -> dispersion             -0.027407771807 Eh    ::
         :: repulsion energy           0.654099744751 Eh    ::
         :: add. restraining           0.000000000000 Eh    ::
         :: total charge               0.000000000000 e     ::
         :::::::::::::::::::::::::::::::::::::::::::::::::::::

           -------------------------------------------------
          |                Property Printout                |
           -------------------------------------------------

    * Orbital Energies and Occupations

         #    Occupation            Energy/Eh            Energy/eV
      -------------------------------------------------------------
         1        2.0000           -0.8146869             -22.1688
       ...           ...                  ...                  ...
        29        2.0000           -0.4791730             -13.0390
        30        2.0000           -0.4741809             -12.9031
        31        2.0000           -0.4663626             -12.6904
        32        2.0000           -0.4638981             -12.6233
        33        2.0000           -0.4583963             -12.4736
        34        2.0000           -0.4565988             -12.4247
        35        2.0000           -0.4505266             -12.2595
        36        2.0000           -0.4431605             -12.0590
        37        2.0000           -0.4253892             -11.5754
        38        2.0000           -0.4126004             -11.2274
        39        2.0000           -0.4018364             -10.9345
        40        2.0000           -0.3982762             -10.8376
        41        2.0000           -0.3933685             -10.7041 (HOMO)
        42                         -0.2451882              -6.6719 (LUMO)
        43                         -0.2292724              -6.2388
        44                         -0.2247205              -6.1150
        45                         -0.2214703              -6.0265
        46                         -0.1089241              -2.9640
        47                         -0.0944555              -2.5703
        48                          0.0344613               0.9377
        49                          0.0544568               1.4818
        50                          0.0768135               2.0902
        51                          0.0991670               2.6985
        52                          0.1226409               3.3372
       ...                                ...                  ...
        74                          0.6742075              18.3461
      -------------------------------------------------------------
                  HL-Gap            0.1481802 Eh            4.0322 eV
             Fermi-level           -0.3192783 Eh           -8.6880 eV

     #   Z          covCN         q      C6AA      α(0)
     1   6 C        3.758    -0.109    22.636     6.783
     2   6 C        2.971     0.022    27.510     8.603
     3   6 C        2.924    -0.045    29.123     8.850
     4   6 C        2.923    -0.032    28.787     8.799
     5   6 C        2.917    -0.054    29.338     8.882
     6   6 C        2.791     0.169    24.353     8.084
     7   9 F        0.787    -0.229    11.536     4.012
     8   6 C        2.979     0.004    27.938     8.670
     9   6 C        2.974    -0.013    28.340     8.732
    10   6 C        2.853     0.149    24.766     8.157
    11   8 O        1.660    -0.377    20.408     6.098
    12   6 C        2.917    -0.077    29.923     8.970
    13   6 C        2.924    -0.031    28.773     8.797
    14   6 C        2.916    -0.062    29.548     8.914
    15   6 C        2.791     0.165    24.431     8.097
    16   9 F        0.787    -0.224    11.489     4.004
    17   1 H        0.925     0.046     2.370     2.408
    18   1 H        0.925     0.063     2.165     2.301
    19   1 H        0.925     0.045     2.379     2.412
    20   1 H        0.926     0.042     2.425     2.435
    21   1 H        0.926     0.043     2.412     2.429
    22   1 H        0.926     0.055     2.256     2.349
    23   1 H        0.805     0.305     0.705     1.319
    24   1 H        0.925     0.038     2.474     2.460
    25   1 H        0.926     0.048     2.345     2.395
    26   1 H        0.926     0.059     2.205     2.322

 Mol. C6AA /au·bohr⁶  :       8741.146383
 Mol. C8AA /au·bohr⁸  :     214348.332965
 Mol. α(0) /au        :        147.280256


Wiberg/Mayer (AO) data.
largest (>0.10) Wiberg bond orders for each atom

 ---------------------------------------------------------------------------
     #   Z sym  total        # sym  WBO       # sym  WBO       # sym  WBO
 ---------------------------------------------------------------------------
     1   6 C    3.996 --     2 C    1.029    19 H    0.984    17 H    0.976
                            18 H    0.964
     2   6 C    3.987 --     3 C    1.413     8 C    1.372     1 C    1.029
                             5 C    0.105
     3   6 C    3.990 --     4 C    1.443     2 C    1.413    20 H    0.968
     4   6 C    3.990 --     3 C    1.443     5 C    1.434    21 H    0.970
                             8 C    0.106
     5   6 C    3.988 --     4 C    1.434     6 C    1.401    22 H    0.967
                             2 C    0.105
     6   6 C    3.885 --     5 C    1.401     8 C    1.365     7 F    0.956
     7   9 F    1.086 --     6 C    0.956
     8   6 C    3.988 --     2 C    1.372     6 C    1.365     9 C    1.015
                             4 C    0.106
     9   6 C    3.986 --    15 C    1.376    10 C    1.324     8 C    1.015
                            13 C    0.103
    10   6 C    3.942 --    12 C    1.374     9 C    1.324    11 O    1.088
    11   8 O    2.141 --    10 C    1.088    23 H    0.885
    12   6 C    3.985 --    13 C    1.444    10 C    1.374    24 H    0.965
    13   6 C    3.989 --    12 C    1.444    14 C    1.435    25 H    0.970
                             9 C    0.103
    14   6 C    3.987 --    13 C    1.435    15 C    1.392    26 H    0.967
    15   6 C    3.886 --    14 C    1.392     9 C    1.376    16 F    0.959
    16   9 F    1.090 --    15 C    0.959
    17   1 H    0.998 --     1 C    0.976
    18   1 H    0.996 --     1 C    0.964
    19   1 H    0.998 --     1 C    0.984
    20   1 H    0.997 --     3 C    0.968
    21   1 H    0.998 --     4 C    0.970
    22   1 H    0.996 --     5 C    0.967
    23   1 H    0.906 --    11 O    0.885
    24   1 H    0.998 --    12 C    0.965
    25   1 H    0.997 --    13 C    0.970
    26   1 H    0.996 --    14 C    0.967
 ---------------------------------------------------------------------------

Topologies differ in total number of bonds
Writing topology from bond orders to xtbtopo.mol

molecular dipole:
                 x           y           z       tot (Debye)
 q only:       -0.110       0.389      -1.000
   full:       -0.345       0.478      -1.092       3.154
molecular quadrupole (traceless):
                xx          xy          yy          xz          yz          zz
 q only:        8.642      -0.321      -3.887       5.994       0.051      -4.755
  q+dip:       11.413      -0.248      -4.989       8.637       1.255      -6.423
   full:        9.756      -1.011      -4.505       7.400      -0.106      -5.251

           -------------------------------------------------
          |                Geometry Summary                 |
           -------------------------------------------------

      molecular mass/u    :      220.2151854
   center of mass at/Å    :       -0.1665293       0.0069265       0.3873171
  moments of inertia/u·Å² :        0.5677413E+03   0.1116449E+04   0.1314400E+04
rotational constants/cm⁻¹ :        0.2969245E-01   0.1509933E-01   0.1282534E-01

 * 23 selected distances

     #   Z          #   Z                                           value/Å
     2   6 C        3   6 C                                       1.3886546
     3   6 C        4   6 C                                       1.3832033
     4   6 C        5   6 C                                       1.3831649
     5   6 C        6   6 C                                       1.3806410
     2   6 C        8   6 C                                       1.3960138
     6   6 C        8   6 C                                       1.3894007
     9   6 C       10   6 C                                       1.3999558 (max)
    10   6 C       11   8 O                                       1.3555058
    10   6 C       12   6 C                                       1.3897626
    12   6 C       13   6 C                                       1.3829037
    13   6 C       14   6 C                                       1.3826097
     9   6 C       15   6 C                                       1.3869342
    14   6 C       15   6 C                                       1.3824043
     1   6 C       17   1 H                                       1.0887943
     1   6 C       18   1 H                                       1.0895487
     1   6 C       19   1 H                                       1.0869082
     3   6 C       20   1 H                                       1.0800427
     4   6 C       21   1 H                                       1.0793737
     5   6 C       22   1 H                                       1.0782089
    11   8 O       23   1 H                                       0.9644703 (min)
    12   6 C       24   1 H                                       1.0813657
    13   6 C       25   1 H                                       1.0788159
    14   6 C       26   1 H                                       1.0775625

 * 4 distinct bonds (by element types)

   Z      Z             #   av. dist./Å        max./Å        min./Å
   1 H    6 C           9     1.0822912     1.0895487     1.0775625
   6 C    6 C          12     1.3871374     1.3999558     1.3806410
   1 H    8 O           1     0.9644703     0.9644703     0.9644703
   6 C    8 O           1     1.3555058     1.3555058     1.3555058


optimized geometry written to: xtbopt.xyz


           -------------------------------------------------
          | TOTAL ENERGY              -46.467124983615 Eh   |
          | GRADIENT NORM               0.000325201272 Eh/α |
          | HOMO-LUMO GAP               4.032189788917 eV   |
           -------------------------------------------------

------------------------------------------------------------------------
 * finished run on 2026/07/23 at 12:55:26.402     
------------------------------------------------------------------------
 total:
 * wall-time:     0 d,  0 h,  0 min,  0.751 sec
 *  cpu-time:     0 d,  0 h,  0 min,  2.961 sec
 * ratio c/w:     3.942 speedup
 SCF:
 * wall-time:     0 d,  0 h,  0 min,  0.039 sec
 *  cpu-time:     0 d,  0 h,  0 min,  0.140 sec
 * ratio c/w:     3.625 speedup
 ANC optimizer:
 * wall-time:     0 d,  0 h,  0 min,  0.696 sec
 *  cpu-time:     0 d,  0 h,  0 min,  2.771 sec
 * ratio c/w:     3.978 speedup

