%mem=12000MB
%nprocshared=8
# opt=modredundant bp86 empiricaldispersion=GD3BJ def2svp  IOP(1/8=2) nosymm

example

0 1
C -1.1346050000 2.5769610000 -1.1405740000
C -1.5236190000 1.2210280000 -0.5690550000
C -2.9033900000 1.1423160000 -0.2683670000
C -3.5871820000 -0.0535340000 -0.0278800000
C -2.8808300000 -1.2389480000 -0.2316790000
C -1.5160520000 -1.1539910000 -0.5006850000
F -0.9745730000 -2.3660420000 -0.8904960000
C -0.6990440000 0.0202890000 -0.4701400000
C 0.8031690000 -0.0971480000 -0.3453620000
C 1.4982970000 -1.3034520000 0.1002220000
O 0.9318180000 -2.4092610000 0.6360090000
C 2.9123330000 -1.3932860000 0.1059880000
C 3.7261910000 -0.3064290000 -0.1918960000
C 3.1117260000 0.9216790000 -0.4592540000
C 1.7185280000 0.9981710000 -0.4784550000
F 1.2599090000 2.2636840000 -0.5804940000
H -2.0570070000 3.0589260000 -1.5198260000
H -0.6807810000 3.2624330000 -0.4004860000
H -0.4324650000 2.4859850000 -1.9866660000
H -3.4736660000 2.0842820000 -0.2850710000
H -4.6599290000 -0.0608980000 0.2149820000
H -3.3539510000 -2.2313930000 -0.2328410000
H 0.0587620000 -2.5933040000 0.2341570000
H 3.3281290000 -2.3671320000 0.4005350000
H 4.8225270000 -0.3997570000 -0.1790560000
H 3.6755360000 1.8521330000 -0.6143150000

D 7 8 9 11 F
D 1 8 9 16 F

