%mem=12000MB
%nprocshared=8
# opt=modredundant bp86 empiricaldispersion=GD3BJ def2svp  IOP(1/8=2) nosymm

example

0 1
C -1.2468510000 2.6424340000 -0.5711210000
C -1.5769640000 1.2440360000 -0.0723490000
C -2.9216450000 1.1228730000 0.2766930000
C -3.5550340000 -0.0866820000 0.4663490000
C -2.8605040000 -1.2243830000 0.1104100000
C -1.5181260000 -1.1266850000 -0.1960780000
F -1.0171520000 -2.2606420000 -0.7467950000
C -0.7623270000 0.0682350000 -0.0748030000
C 0.7362100000 0.0018390000 0.0339060000
C 1.5086400000 -1.2096320000 0.1789670000
O 1.0305370000 -2.4274760000 0.5953170000
C 2.8896620000 -1.1770950000 -0.0266750000
C 3.5994800000 -0.0113820000 -0.2106240000
C 2.9177450000 1.1780130000 -0.0758320000
C 1.5444540000 1.1564330000 0.0762340000
F 1.0295050000 2.3785080000 0.3438640000
H -2.1378200000 3.0260900000 -1.0649350000
H -0.9946780000 3.3236860000 0.2365450000
H -0.4431260000 2.6331030000 -1.2998810000
H -3.4982800000 2.0317170000 0.3701700000
H -4.5867450000 -0.1357230000 0.7762810000
H -3.3353910000 -2.1896960000 0.0375970000
H 1.7367400000 -3.0800170000 0.5559020000
H 3.4239770000 -2.1187810000 -0.0034460000
H 4.6634180000 -0.0317490000 -0.3816660000
H 3.4199030000 2.1317010000 -0.0695700000

1 F
7 F
8 F
9 F
11 F
16 F

