 Entering Gaussian System, Link 0=/path/to/g16
 Initial command:
 /path/to/g16 "path/to/scratch/gaussian_tmp/Gau-296823.inp" -scrdir="path/to/scratch/gaussian_tmp/"
 Entering Link 1 = /path/to/g16 PID=    296824.
  
 Copyright (c) 1988-2021, Gaussian, Inc.  All Rights Reserved.
  
 This is part of the Gaussian(R) 16 program.  It is based on
 the Gaussian(R) 09 system (copyright 2009, Gaussian, Inc.),
 the Gaussian(R) 03 system (copyright 2003, Gaussian, Inc.),
 the Gaussian(R) 98 system (copyright 1998, Gaussian, Inc.),
 the Gaussian(R) 94 system (copyright 1995, Gaussian, Inc.),
 the Gaussian 92(TM) system (copyright 1992, Gaussian, Inc.),
 the Gaussian 90(TM) system (copyright 1990, Gaussian, Inc.),
 the Gaussian 88(TM) system (copyright 1988, Gaussian, Inc.),
 the Gaussian 86(TM) system (copyright 1986, Carnegie Mellon
 University), and the Gaussian 82(TM) system (copyright 1983,
 Carnegie Mellon University). Gaussian is a federally registered
 trademark of Gaussian, Inc.
  
 This software contains proprietary and confidential information,
 including trade secrets, belonging to Gaussian, Inc.
  
 This software is provided under written license and may be
 used, copied, transmitted, or stored only in accord with that
 written license.
  
 The following legend is applicable only to US Government
 contracts under FAR:
  
                    RESTRICTED RIGHTS LEGEND
  
 Use, reproduction and disclosure by the US Government is
 subject to restrictions as set forth in subparagraphs (a)
 and (c) of the Commercial Computer Software - Restricted
 Rights clause in FAR 52.227-19.
  
 Gaussian, Inc.
 340 Quinnipiac St., Bldg. 40, Wallingford CT 06492
  
  
 ---------------------------------------------------------------
 Warning -- This program may not be used in any manner that
 competes with the business of Gaussian, Inc. or will provide
 assistance to any competitor of Gaussian, Inc.  The licensee
 of this program is prohibited from giving any competitor of
 Gaussian, Inc. access to this program.  By using this program,
 the user acknowledges that Gaussian, Inc. is engaged in the
 business of creating and licensing software in the field of
 computational chemistry and represents and warrants to the
 licensee that it is not a competitor of Gaussian, Inc. and that
 it will not use this program in any manner prohibited above.
 ---------------------------------------------------------------
  

 Cite this work as:
 Gaussian 16, Revision C.02,
 M. J. Frisch, G. W. Trucks, H. B. Schlegel, G. E. Scuseria, 
 M. A. Robb, J. R. Cheeseman, G. Scalmani, V. Barone, 
 G. A. Petersson, H. Nakatsuji, X. Li, M. Caricato, A. V. Marenich, 
 J. Bloino, B. G. Janesko, R. Gomperts, B. Mennucci, H. P. Hratchian, 
 J. V. Ortiz, A. F. Izmaylov, J. L. Sonnenberg, D. Williams-Young, 
 F. Ding, F. Lipparini, F. Egidi, J. Goings, B. Peng, A. Petrone, 
 T. Henderson, D. Ranasinghe, V. G. Zakrzewski, J. Gao, N. Rega, 
 G. Zheng, W. Liang, M. Hada, M. Ehara, K. Toyota, R. Fukuda, 
 J. Hasegawa, M. Ishida, T. Nakajima, Y. Honda, O. Kitao, H. Nakai, 
 T. Vreven, K. Throssell, J. A. Montgomery, Jr., J. E. Peralta, 
 F. Ogliaro, M. J. Bearpark, J. J. Heyd, E. N. Brothers, K. N. Kudin, 
 V. N. Staroverov, T. A. Keith, R. Kobayashi, J. Normand, 
 K. Raghavachari, A. P. Rendell, J. C. Burant, S. S. Iyengar, 
 J. Tomasi, M. Cossi, J. M. Millam, M. Klene, C. Adamo, R. Cammi, 
 J. W. Ochterski, R. L. Martin, K. Morokuma, O. Farkas, 
 J. B. Foresman, and D. J. Fox, Gaussian, Inc., Wallingford CT, 2019.
 
 ******************************************
 Gaussian 16:  ES64L-G16RevC.02  7-Dec-2021
                23-Jul-2026 
 ******************************************
 %mem=12000MB
 %nprocshared=8
 Will use up to    8 processors via shared memory.
 ----------------------------------------------------------------------
 # opt=modredundant bp86 empiricaldispersion=GD3BJ def2svp IOP(1/8=2) n
 osymm
 ----------------------------------------------------------------------
 1/8=2,18=120,19=15,26=3,38=1/1,3;
 2/9=110,12=2,15=1,17=6,18=5,40=1/2;
 3/5=43,7=101,11=2,25=1,30=1,71=1,74=404,124=41/1,2,3;
 4//1;
 5/5=2,38=5/2;
 6/7=2,8=2,9=2,10=2,28=1/1;
 7/30=1/1,2,3,16;
 1/8=2,18=20,19=15,26=3/3(2);
 2/9=110,15=1/2;
 99//99;
 2/9=110,15=1/2;
 3/5=43,7=101,11=2,25=1,30=1,71=1,74=404,124=41/1,2,3;
 4/5=5,16=3,69=1/1;
 5/5=2,38=5/2;
 7/30=1/1,2,3,16;
 1/8=2,18=20,19=15,26=3/3(-5);
 2/9=110,15=1/2;
 6/7=2,8=2,9=2,10=2,19=2,28=1/1;
 99/9=1/99;
 -------
 example
 -------
 Symbolic Z-matrix:
 Charge =  0 Multiplicity = 1
 C                    -1.24685   2.64243  -0.57112 
 C                    -1.57696   1.24404  -0.07235 
 C                    -2.92165   1.12287   0.27669 
 C                    -3.55503  -0.08668   0.46635 
 C                    -2.8605   -1.22438   0.11041 
 C                    -1.51813  -1.12669  -0.19608 
 F                    -1.01715  -2.26064  -0.7468 
 C                    -0.76233   0.06824  -0.0748 
 C                     0.73621   0.00184   0.03391 
 C                     1.50864  -1.20963   0.17897 
 O                     1.03054  -2.42748   0.59532 
 C                     2.88966  -1.1771   -0.02668 
 C                     3.59948  -0.01138  -0.21062 
 C                     2.91775   1.17801  -0.07583 
 C                     1.54445   1.15643   0.07623 
 F                     1.02951   2.37851   0.34386 
 H                    -2.13782   3.02609  -1.06493 
 H                    -0.99468   3.32369   0.23655 
 H                    -0.44313   2.6331   -1.29988 
 H                    -3.49828   2.03172   0.37017 
 H                    -4.58675  -0.13572   0.77628 
 H                    -3.33539  -2.1897    0.0376 
 H                     1.73674  -3.08002   0.5559 
 H                     3.42398  -2.11878  -0.00345 
 H                     4.66342  -0.03175  -0.38167 
 H                     3.4199    2.1317   -0.06957 
 
 The following ModRedundant input section has been read:
 X       1 F                                                                   
 X       7 F                                                                   
 X       8 F                                                                   
 X       9 F                                                                   
 X      11 F                                                                   
 X      16 F                                                                   
 

 GradGradGradGradGradGradGradGradGradGradGradGradGradGradGradGradGradGrad
 Berny optimization.
 Initialization pass.
                           ----------------------------
                           !    Initial Parameters    !
                           ! (Angstroms and Degrees)  !
 --------------------------                            --------------------------
 ! Name  Definition              Value          Derivative Info.                !
 --------------------------------------------------------------------------------
 ! X1    R(1,-1)                -1.2469         Frozen                          !
 ! Y1    R(1,-2)                 2.6424         Frozen                          !
 ! Z1    R(1,-3)                -0.5711         Frozen                          !
 ! X7    R(7,-1)                -1.0172         Frozen                          !
 ! Y7    R(7,-2)                -2.2606         Frozen                          !
 ! Z7    R(7,-3)                -0.7468         Frozen                          !
 ! X8    R(8,-1)                -0.7623         Frozen                          !
 ! Y8    R(8,-2)                 0.0682         Frozen                          !
 ! Z8    R(8,-3)                -0.0748         Frozen                          !
 ! X9    R(9,-1)                 0.7362         Frozen                          !
 ! Y9    R(9,-2)                 0.0018         Frozen                          !
 ! Z9    R(9,-3)                 0.0339         Frozen                          !
 ! X11   R(11,-1)                1.0305         Frozen                          !
 ! Y11   R(11,-2)               -2.4275         Frozen                          !
 ! Z11   R(11,-3)                0.5953         Frozen                          !
 ! X16   R(16,-1)                1.0295         Frozen                          !
 ! Y16   R(16,-2)                2.3785         Frozen                          !
 ! Z16   R(16,-3)                0.3439         Frozen                          !
 ! R1    R(1,2)                  1.5209         estimate D2E/DX2                !
 ! R2    R(1,17)                 1.0885         estimate D2E/DX2                !
 ! R3    R(1,18)                 1.0863         estimate D2E/DX2                !
 ! R4    R(1,19)                 1.085          estimate D2E/DX2                !
 ! R5    R(2,3)                  1.3945         estimate D2E/DX2                !
 ! R6    R(2,8)                  1.4304         estimate D2E/DX2                !
 ! R7    R(3,4)                  1.3785         estimate D2E/DX2                !
 ! R8    R(3,20)                 1.0804         estimate D2E/DX2                !
 ! R9    R(4,5)                  1.3796         estimate D2E/DX2                !
 ! R10   R(4,21)                 1.0784         estimate D2E/DX2                !
 ! R11   R(5,6)                  1.3804         estimate D2E/DX2                !
 ! R12   R(5,22)                 1.0783         estimate D2E/DX2                !
 ! R13   R(6,7)                  1.3565         estimate D2E/DX2                !
 ! R14   R(6,8)                  1.4191         estimate D2E/DX2                !
 ! R15   R(8,9)                  1.5039         estimate D2E/DX2                !
 ! R16   R(9,10)                 1.4441         estimate D2E/DX2                !
 ! R17   R(9,15)                 1.41           estimate D2E/DX2                !
 ! R18   R(10,11)                1.373          estimate D2E/DX2                !
 ! R19   R(10,12)                1.3966         estimate D2E/DX2                !
 ! R20   R(11,23)                0.9623         estimate D2E/DX2                !
 ! R21   R(12,13)                1.3772         estimate D2E/DX2                !
 ! R22   R(12,24)                1.083          estimate D2E/DX2                !
 ! R23   R(13,14)                1.3775         estimate D2E/DX2                !
 ! R24   R(13,25)                1.0778         estimate D2E/DX2                !
 ! R25   R(14,15)                1.3819         estimate D2E/DX2                !
 ! R26   R(14,26)                1.0778         estimate D2E/DX2                !
 ! R27   R(15,16)                1.3529         estimate D2E/DX2                !
 ! A1    A(2,1,17)             107.168          estimate D2E/DX2                !
 ! A2    A(2,1,18)             112.5302         estimate D2E/DX2                !
 ! A3    A(2,1,19)             111.9098         estimate D2E/DX2                !
 ! A4    A(17,1,18)            107.8347         estimate D2E/DX2                !
 ! A5    A(17,1,19)            107.7376         estimate D2E/DX2                !
 ! A6    A(18,1,19)            109.4409         estimate D2E/DX2                !
 ! A7    A(1,2,3)              111.793          estimate D2E/DX2                !
 ! A8    A(1,2,8)              129.1674         estimate D2E/DX2                !
 ! A9    A(3,2,8)              118.5654         estimate D2E/DX2                !
 ! A10   A(2,3,4)              123.6241         estimate D2E/DX2                !
 ! A11   A(2,3,20)             117.5951         estimate D2E/DX2                !
 ! A12   A(4,3,20)             118.7502         estimate D2E/DX2                !
 ! A13   A(3,4,5)              117.1793         estimate D2E/DX2                !
 ! A14   A(3,4,21)             121.2687         estimate D2E/DX2                !
 ! A15   A(5,4,21)             121.2166         estimate D2E/DX2                !
 ! A16   A(4,5,6)              119.24           estimate D2E/DX2                !
 ! A17   A(4,5,22)             122.2734         estimate D2E/DX2                !
 ! A18   A(6,5,22)             118.4676         estimate D2E/DX2                !
 ! A19   A(5,6,7)              112.9619         estimate D2E/DX2                !
 ! A20   A(5,6,8)              123.9561         estimate D2E/DX2                !
 ! A21   A(7,6,8)              122.8126         estimate D2E/DX2                !
 ! A22   A(2,8,6)              112.8909         estimate D2E/DX2                !
 ! A23   A(2,8,9)              127.1297         estimate D2E/DX2                !
 ! A24   A(6,8,9)              119.9794         estimate D2E/DX2                !
 ! A25   A(8,9,10)             125.2589         estimate D2E/DX2                !
 ! A26   A(8,9,15)             122.4916         estimate D2E/DX2                !
 ! A27   A(10,9,15)            112.1684         estimate D2E/DX2                !
 ! A28   A(9,10,11)            126.0387         estimate D2E/DX2                !
 ! A29   A(9,10,12)            119.6423         estimate D2E/DX2                !
 ! A30   A(11,10,12)           114.1826         estimate D2E/DX2                !
 ! A31   A(10,11,23)           109.4815         estimate D2E/DX2                !
 ! A32   A(10,12,13)           123.3019         estimate D2E/DX2                !
 ! A33   A(10,12,24)           117.6749         estimate D2E/DX2                !
 ! A34   A(13,12,24)           118.9865         estimate D2E/DX2                !
 ! A35   A(12,13,14)           117.5619         estimate D2E/DX2                !
 ! A36   A(12,13,25)           120.9306         estimate D2E/DX2                !
 ! A37   A(14,13,25)           121.3577         estimate D2E/DX2                !
 ! A38   A(13,14,15)           119.2824         estimate D2E/DX2                !
 ! A39   A(13,14,26)           122.2744         estimate D2E/DX2                !
 ! A40   A(15,14,26)           118.4367         estimate D2E/DX2                !
 ! A41   A(9,15,14)            125.3908         estimate D2E/DX2                !
 ! A42   A(9,15,16)            121.8325         estimate D2E/DX2                !
 ! A43   A(14,15,16)           112.702          estimate D2E/DX2                !
 ! D1    D(17,1,2,3)           -31.7156         estimate D2E/DX2                !
 ! D2    D(17,1,2,8)           140.1448         estimate D2E/DX2                !
 ! D3    D(18,1,2,3)            86.6568         estimate D2E/DX2                !
 ! D4    D(18,1,2,8)          -101.4829         estimate D2E/DX2                !
 ! D5    D(19,1,2,3)          -149.6165         estimate D2E/DX2                !
 ! D6    D(19,1,2,8)            22.2438         estimate D2E/DX2                !
 ! D7    D(1,2,3,4)            164.7734         estimate D2E/DX2                !
 ! D8    D(1,2,3,20)           -13.1895         estimate D2E/DX2                !
 ! D9    D(8,2,3,4)             -8.0466         estimate D2E/DX2                !
 ! D10   D(8,2,3,20)           173.9905         estimate D2E/DX2                !
 ! D11   D(1,2,8,6)           -149.6077         estimate D2E/DX2                !
 ! D12   D(1,2,8,9)             30.3876         estimate D2E/DX2                !
 ! D13   D(3,2,8,6)             21.7834         estimate D2E/DX2                !
 ! D14   D(3,2,8,9)           -158.2213         estimate D2E/DX2                !
 ! D15   D(2,3,4,5)             -9.1669         estimate D2E/DX2                !
 ! D16   D(2,3,4,21)           177.4058         estimate D2E/DX2                !
 ! D17   D(20,3,4,5)           168.7739         estimate D2E/DX2                !
 ! D18   D(20,3,4,21)           -4.6534         estimate D2E/DX2                !
 ! D19   D(3,4,5,6)             10.7499         estimate D2E/DX2                !
 ! D20   D(3,4,5,22)          -167.6427         estimate D2E/DX2                !
 ! D21   D(21,4,5,6)          -175.8191         estimate D2E/DX2                !
 ! D22   D(21,4,5,22)            5.7883         estimate D2E/DX2                !
 ! D23   D(4,5,6,7)           -169.2851         estimate D2E/DX2                !
 ! D24   D(4,5,6,8)              4.8884         estimate D2E/DX2                !
 ! D25   D(22,5,6,7)             9.1689         estimate D2E/DX2                !
 ! D26   D(22,5,6,8)          -176.6575         estimate D2E/DX2                !
 ! D27   D(5,6,8,2)            -21.0201         estimate D2E/DX2                !
 ! D28   D(5,6,8,9)            158.9841         estimate D2E/DX2                !
 ! D29   D(7,6,8,2)            152.5944         estimate D2E/DX2                !
 ! D30   D(7,6,8,9)            -27.4013         estimate D2E/DX2                !
 ! D31   D(2,8,9,10)           172.5958         estimate D2E/DX2                !
 ! D32   D(2,8,9,15)            -3.8691         estimate D2E/DX2                !
 ! D33   D(6,8,9,10)            -7.4091         estimate D2E/DX2                !
 ! D34   D(6,8,9,15)           176.1259         estimate D2E/DX2                !
 ! D35   D(8,9,10,11)          -18.674          estimate D2E/DX2                !
 ! D36   D(8,9,10,12)          165.8285         estimate D2E/DX2                !
 ! D37   D(15,9,10,11)         158.1066         estimate D2E/DX2                !
 ! D38   D(15,9,10,12)         -17.3909         estimate D2E/DX2                !
 ! D39   D(8,9,15,14)         -167.1837         estimate D2E/DX2                !
 ! D40   D(8,9,15,16)           16.194          estimate D2E/DX2                !
 ! D41   D(10,9,15,14)          15.9329         estimate D2E/DX2                !
 ! D42   D(10,9,15,16)        -160.6895         estimate D2E/DX2                !
 ! D43   D(9,10,11,23)         176.7061         estimate D2E/DX2                !
 ! D44   D(12,10,11,23)         -7.5832         estimate D2E/DX2                !
 ! D45   D(9,10,12,13)           7.9715         estimate D2E/DX2                !
 ! D46   D(9,10,12,24)        -174.2581         estimate D2E/DX2                !
 ! D47   D(11,10,12,13)       -168.0384         estimate D2E/DX2                !
 ! D48   D(11,10,12,24)          9.732          estimate D2E/DX2                !
 ! D49   D(10,12,13,14)          5.3511         estimate D2E/DX2                !
 ! D50   D(10,12,13,25)       -179.0389         estimate D2E/DX2                !
 ! D51   D(24,12,13,14)       -172.3916         estimate D2E/DX2                !
 ! D52   D(24,12,13,25)          3.2184         estimate D2E/DX2                !
 ! D53   D(12,13,14,15)         -7.5877         estimate D2E/DX2                !
 ! D54   D(12,13,14,26)        171.468          estimate D2E/DX2                !
 ! D55   D(25,13,14,15)        176.8222         estimate D2E/DX2                !
 ! D56   D(25,13,14,26)         -4.1221         estimate D2E/DX2                !
 ! D57   D(13,14,15,9)          -3.7333         estimate D2E/DX2                !
 ! D58   D(13,14,15,16)        173.1564         estimate D2E/DX2                !
 ! D59   D(26,14,15,9)         177.1747         estimate D2E/DX2                !
 ! D60   D(26,14,15,16)         -5.9357         estimate D2E/DX2                !
 --------------------------------------------------------------------------------
 Trust Radius=2.00D-02 FncErr=1.00D-07 GrdErr=1.00D-06 EigMax=2.50D+02 EigMin=1.00D-04
 Number of steps in this run=    156 maximum allowed number of steps=    156.
 GradGradGradGradGradGradGradGradGradGradGradGradGradGradGradGradGradGrad

                          Input orientation:                          
 ---------------------------------------------------------------------
 Center     Atomic      Atomic             Coordinates (Angstroms)
 Number     Number       Type             X           Y           Z
 ---------------------------------------------------------------------
      1          6           0       -1.246851    2.642434   -0.571121
      2          6           0       -1.576964    1.244036   -0.072349
      3          6           0       -2.921645    1.122873    0.276693
      4          6           0       -3.555034   -0.086682    0.466349
      5          6           0       -2.860504   -1.224383    0.110410
      6          6           0       -1.518126   -1.126685   -0.196078
      7          9           0       -1.017152   -2.260642   -0.746795
      8          6           0       -0.762327    0.068235   -0.074803
      9          6           0        0.736210    0.001839    0.033906
     10          6           0        1.508640   -1.209632    0.178967
     11          8           0        1.030537   -2.427476    0.595317
     12          6           0        2.889662   -1.177095   -0.026675
     13          6           0        3.599480   -0.011382   -0.210624
     14          6           0        2.917745    1.178013   -0.075832
     15          6           0        1.544454    1.156433    0.076234
     16          9           0        1.029505    2.378508    0.343864
     17          1           0       -2.137820    3.026090   -1.064935
     18          1           0       -0.994678    3.323686    0.236545
     19          1           0       -0.443126    2.633103   -1.299881
     20          1           0       -3.498280    2.031717    0.370170
     21          1           0       -4.586745   -0.135723    0.776281
     22          1           0       -3.335391   -2.189696    0.037597
     23          1           0        1.736740   -3.080017    0.555902
     24          1           0        3.423977   -2.118781   -0.003446
     25          1           0        4.663418   -0.031749   -0.381666
     26          1           0        3.419903    2.131701   -0.069570
 ---------------------------------------------------------------------
                    Distance matrix (angstroms):
                    1          2          3          4          5
     1  C    0.000000
     2  C    1.520942   0.000000
     3  C    2.415117   1.394517   0.000000
     4  C    3.721845   2.444129   1.378468   0.000000
     5  C    4.245072   2.788184   2.353933   1.379648   0.000000
     6  C    3.797434   2.374677   2.693305   2.381052   1.380383
     7  F    4.911596   3.612622   4.015320   3.555090   2.281793
     8  C    2.666007   1.430436   2.428676   2.848869   2.471338
     9  C    3.357280   2.627759   3.833480   4.313887   3.800766
    10  C    4.795182   3.950266   5.007750   5.194651   4.369707
    11  O    5.679002   4.552454   5.322240   5.150088   4.101557
    12  C    5.656497   5.080818   6.257250   6.554859   5.751994
    13  C    5.537113   5.328299   6.636948   7.186865   6.580716
    14  C    4.442263   4.495195   5.850281   6.617423   6.260539
    15  C    3.227794   3.126180   4.470721   5.263298   5.007305
    16  F    2.467519   2.872967   4.146410   5.206742   5.307306
    17  H    1.088517   2.115538   2.456946   3.747356   4.468806
    18  H    1.086287   2.181609   2.925473   4.270696   4.917535
    19  H    1.084966   2.173000   3.302944   4.494527   4.765798
    20  H    2.515539   2.123139   1.080390   2.121341   3.328126
    21  H    4.548466   3.417995   2.146208   1.078374   2.146735
    22  H    5.299247   3.859361   3.346859   2.157484   1.078262
    23  H    6.551217   5.483864   6.280350   6.080374   4.977599
    24  H    6.693882   6.026831   7.131179   7.284005   6.348828
    25  H    6.489871   6.376964   7.700634   8.262270   7.633735
    26  H    4.721334   5.075100   6.430619   7.338813   7.123146
                    6          7          8          9         10
     6  C    0.000000
     7  F    1.356511   0.000000
     8  C    1.419075   2.437248   0.000000
     9  C    2.531500   2.966916   1.503941   0.000000
    10  C    3.051041   2.888128   2.618136   1.444075   0.000000
    11  O    2.968846   2.454003   3.145154   2.510654   1.372980
    12  C    4.411330   4.117747   3.858780   2.455791   1.396628
    13  C    5.237748   5.163327   4.364647   2.873723   2.441146
    14  C    5.000304   5.268582   3.843766   2.480831   2.784124
    15  C    3.829645   4.349207   2.555039   1.410013   2.368565
    16  F    4.366731   5.186526   2.953524   2.414674   3.623743
    17  H    4.287712   5.413561   3.408995   4.314347   5.725845
    18  H    4.501884   5.670289   3.278549   3.751227   5.178889
    19  H    4.063251   4.958241   2.860289   3.177007   4.556643
    20  H    3.770564   5.082121   3.396866   4.707907   5.967592
    21  H    3.368072   4.424594   3.923279   5.376234   6.218021
    22  H    2.118265   2.448374   3.425134   4.623935   4.944203
    23  H    3.869772   3.154729   4.068736   3.281978   1.921575
    24  H    5.044377   4.505144   4.723693   3.423816   2.127990
    25  H    6.280511   6.113114   5.435335   3.949277   3.413846
    26  H    5.917534   6.280029   4.663579   3.427715   3.857357
                   11         12         13         14         15
    11  O    0.000000
    12  C    2.325225   0.000000
    13  C    3.617529   1.377159   0.000000
    14  C    4.124506   2.355788   1.377531   0.000000
    15  C    3.657590   2.695464   2.381011   1.381853   0.000000
    16  F    4.812558   4.029863   3.552999   2.276573   1.352873
    17  H    6.521986   6.634781   6.547724   5.472883   4.284510
    18  H    6.107870   5.951001   5.694640   4.473091   3.342137
    19  H    5.601153   5.219783   4.952014   3.861481   2.832794
    20  H    6.359660   7.159592   7.408763   6.487920   5.126567
    21  H    6.069492   7.591170   8.246437   7.666118   6.304866
    22  H    4.407825   6.307200   7.273177   7.103242   5.917006
    23  H    0.962334   2.299943   3.670679   4.463707   4.267852
    24  H    2.486436   1.082961   2.124819   3.336220   3.777034
    25  H    4.460026   2.141039   1.077791   2.145794   3.368885
    26  H    5.190110   3.351287   2.155214   1.077832   2.118895
                   16         17         18         19         20
    16  F    0.000000
    17  H    3.526475   0.000000
    18  H    2.236559   1.757608   0.000000
    19  H    2.221567   1.755456   1.772490   0.000000
    20  H    4.541122   2.213404   2.820472   3.533370   0.000000
    21  H    6.168517   4.402769   5.016151   5.398743   2.459162
    22  H    6.325710   5.463898   5.992987   5.780435   4.237625
    23  H    5.508234   7.411064   6.969221   6.390265   7.319136
    24  H    5.106832   7.650493   7.014453   6.262238   8.079843
    25  H    4.420527   7.488262   6.607207   5.832782   8.452009
    26  H    2.438410   5.716552   4.582910   4.085102   6.932866
                   21         22         23         24         25
    21  H    0.000000
    22  H    2.516018   0.000000
    23  H    6.978818   5.175696   0.000000
    24  H    8.289280   6.759865   2.020795   0.000000
    25  H    9.322938   8.295388   4.328558   2.456617   0.000000
    26  H    8.364394   8.019972   5.512373   4.250998   2.514806
                   26
    26  H    0.000000
 Symmetry turned off by external request.
 Stoichiometry    C13H10F2O
 Framework group  C1[X(C13H10F2O)]
 Deg. of freedom    72
 Full point group                 C1      NOp   1
 Rotational constants (GHZ):           0.8374706           0.4843246           0.3192197
 Standard basis: def2SVP (5D, 7F)
   274 basis functions,   470 primitive gaussians,   290 cartesian basis functions
    57 alpha electrons       57 beta electrons
       nuclear repulsion energy      1076.6471108028 Hartrees.
 NAtoms=   26 NActive=   26 NUniq=   26 SFac= 1.00D+00 NAtFMM=   60 NAOKFM=F Big=F
 Integral buffers will be    131072 words long.
 Raffenetti 2 integral format.
 Two-electron integral symmetry is turned off.
 Nuclear repulsion after empirical dispersion term =     1076.5955158324 Hartrees.
 One-electron integrals computed using PRISM.
   1 Symmetry operations used in ECPInt.
 ECPInt:  NShTT=    8001 NPrTT=   29641 LenC2=    7607 LenP2D=   20322.
 LDataN:  DoStor=T MaxTD1= 4 Len=   56
 NBasis=   274 RedAO= T EigKep=  2.71D-04  NBF=   274
 NBsUse=   274 1.00D-06 EigRej= -1.00D+00 NBFU=   274
 ExpMin= 1.22D-01 ExpMax= 2.89D+03 ExpMxC= 4.35D+02 IAcc=3 IRadAn=         5 AccDes= 0.00D+00
 Harris functional with IExCor=  404 and IRadAn=       5 diagonalized for initial guess.
 HarFok:  IExCor=  404 AccDes= 0.00D+00 IRadAn=         5 IDoV= 1 UseB2=F ITyADJ=14
 ICtDFT=  3500011 ScaDFX=  1.000000  1.000000  1.000000  1.000000
 FoFCou: FMM=F IPFlag=           0 FMFlag=      100000 FMFlg1=           0
         NFxFlg=           0 DoJE=T BraDBF=F KetDBF=T FulRan=T
         wScrn=  0.000000 ICntrl=       500 IOpCl=  0 I1Cent=   200000004 NGrid=           0
         NMat0=    1 NMatS0=      1 NMatT0=    0 NMatD0=    1 NMtDS0=    0 NMtDT0=    0
 Symmetry not used in FoFCou.
 Requested convergence on RMS density matrix=1.00D-08 within 128 cycles.
 Requested convergence on MAX density matrix=1.00D-06.
 Requested convergence on             energy=1.00D-06.
 No special actions if energy rises.
 Integral accuracy reduced to 1.0D-05 until final iterations.
 Initial convergence to 1.0D-05 achieved.  Increase integral accuracy.
 SCF Done:  E(RB-P86) =  -775.733573527     A.U. after   17 cycles
            NFock= 17  Conv=0.42D-08     -V/T= 2.0095

 **********************************************************************

            Population analysis using the SCF Density.

 **********************************************************************

 Alpha  occ. eigenvalues --  -24.30138 -24.28750 -18.81637  -9.99904  -9.99194
 Alpha  occ. eigenvalues --   -9.98917  -9.94735  -9.94177  -9.93032  -9.92415
 Alpha  occ. eigenvalues --   -9.91716  -9.91269  -9.91257  -9.90691  -9.90457
 Alpha  occ. eigenvalues --   -9.90389  -1.11087  -1.09402  -0.97197  -0.79298
 Alpha  occ. eigenvalues --   -0.77917  -0.71285  -0.69439  -0.67147  -0.66014
 Alpha  occ. eigenvalues --   -0.61718  -0.57879  -0.57521  -0.53747  -0.52973
 Alpha  occ. eigenvalues --   -0.51684  -0.47767  -0.46565  -0.45685  -0.44655
 Alpha  occ. eigenvalues --   -0.42894  -0.42437  -0.41750  -0.40489  -0.39680
 Alpha  occ. eigenvalues --   -0.37860  -0.37396  -0.37001  -0.36907  -0.35324
 Alpha  occ. eigenvalues --   -0.34916  -0.33076  -0.32038  -0.31886  -0.31012
 Alpha  occ. eigenvalues --   -0.30577  -0.29409  -0.28519  -0.26262  -0.21073
 Alpha  occ. eigenvalues --   -0.20581  -0.19487
 Alpha virt. eigenvalues --   -0.08142  -0.03310  -0.02903  -0.01783   0.02094
 Alpha virt. eigenvalues --    0.03584   0.05358   0.05926   0.07597   0.09131
 Alpha virt. eigenvalues --    0.09798   0.10269   0.11613   0.12421   0.13008
 Alpha virt. eigenvalues --    0.13690   0.14690   0.16605   0.19158   0.19349
 Alpha virt. eigenvalues --    0.20491   0.21688   0.25351   0.25721   0.27000
 Alpha virt. eigenvalues --    0.27752   0.29141   0.30193   0.30338   0.31141
 Alpha virt. eigenvalues --    0.33286   0.35456   0.36862   0.37685   0.38447
 Alpha virt. eigenvalues --    0.39767   0.40562   0.41407   0.42761   0.43205
 Alpha virt. eigenvalues --    0.43623   0.43982   0.44884   0.45311   0.46253
 Alpha virt. eigenvalues --    0.47008   0.48260   0.49393   0.50575   0.52063
 Alpha virt. eigenvalues --    0.53236   0.53816   0.54852   0.56171   0.56506
 Alpha virt. eigenvalues --    0.57204   0.58492   0.59706   0.60293   0.60840
 Alpha virt. eigenvalues --    0.61834   0.62170   0.62868   0.63151   0.63682
 Alpha virt. eigenvalues --    0.65043   0.65673   0.66778   0.67006   0.67676
 Alpha virt. eigenvalues --    0.68723   0.69650   0.71302   0.72897   0.73445
 Alpha virt. eigenvalues --    0.73811   0.75143   0.75998   0.77651   0.78669
 Alpha virt. eigenvalues --    0.80302   0.82022   0.84449   0.89005   0.91555
 Alpha virt. eigenvalues --    0.94075   0.94533   0.96757   0.99441   1.01987
 Alpha virt. eigenvalues --    1.03001   1.05585   1.08297   1.09812   1.11373
 Alpha virt. eigenvalues --    1.14200   1.15905   1.16788   1.18939   1.20959
 Alpha virt. eigenvalues --    1.22099   1.22929   1.24002   1.25735   1.27188
 Alpha virt. eigenvalues --    1.29540   1.31334   1.31672   1.33770   1.36637
 Alpha virt. eigenvalues --    1.37627   1.40887   1.42355   1.44146   1.46271
 Alpha virt. eigenvalues --    1.50636   1.53555   1.55422   1.57043   1.57970
 Alpha virt. eigenvalues --    1.59565   1.61248   1.61895   1.63039   1.64408
 Alpha virt. eigenvalues --    1.65299   1.65837   1.66460   1.67616   1.67725
 Alpha virt. eigenvalues --    1.69563   1.70614   1.72553   1.73203   1.73986
 Alpha virt. eigenvalues --    1.74544   1.75293   1.77791   1.78539   1.79312
 Alpha virt. eigenvalues --    1.81654   1.81887   1.83675   1.85635   1.87389
 Alpha virt. eigenvalues --    1.89004   1.89791   1.92340   1.94803   1.95779
 Alpha virt. eigenvalues --    1.96880   1.97184   2.00667   2.00957   2.01695
 Alpha virt. eigenvalues --    2.02916   2.04591   2.05532   2.09336   2.10054
 Alpha virt. eigenvalues --    2.11629   2.11891   2.13864   2.17085   2.19170
 Alpha virt. eigenvalues --    2.20734   2.21132   2.21810   2.22625   2.24670
 Alpha virt. eigenvalues --    2.26684   2.28116   2.29751   2.36432   2.39448
 Alpha virt. eigenvalues --    2.39783   2.40735   2.46266   2.47919   2.49237
 Alpha virt. eigenvalues --    2.50575   2.51483   2.55866   2.58076   2.59987
 Alpha virt. eigenvalues --    2.62258   2.65584   2.67764   2.70039   2.72543
 Alpha virt. eigenvalues --    2.73081   2.80004   2.81648   2.82372   2.85384
 Alpha virt. eigenvalues --    2.88104   2.88153   2.91037   2.92844   2.95953
 Alpha virt. eigenvalues --    2.96423   3.00482   3.02286   3.03398   3.06565
 Alpha virt. eigenvalues --    3.07904   3.15601   3.20542   3.21334   3.23403
 Alpha virt. eigenvalues --    3.37735   3.43887   3.48373   3.50305   3.68033
 Alpha virt. eigenvalues --    3.75938   3.78966
          Condensed to atoms (all electrons):
               1          2          3          4          5          6
     1  C    4.529214   0.436491  -0.077637   0.015574  -0.000317   0.009576
     2  C    0.436491   5.280828   0.325341   0.068057  -0.134352   0.026906
     3  C   -0.077637   0.325341   5.143989   0.256345   0.111911  -0.151384
     4  C    0.015574   0.068057   0.256345   5.124067   0.181931   0.106437
     5  C   -0.000317  -0.134352   0.111911   0.181931   5.306947   0.282919
     6  C    0.009576   0.026906  -0.151384   0.106437   0.282919   5.123103
     7  F   -0.000018   0.001458   0.000019   0.006508  -0.069270   0.378876
     8  C   -0.066969   0.278590   0.052067  -0.099878  -0.006992   0.192258
     9  C   -0.021666  -0.050896   0.016784  -0.000254   0.016601  -0.053426
    10  C   -0.000410   0.011866   0.000286  -0.000293   0.001255  -0.044317
    11  O   -0.000001   0.000129  -0.000005   0.000004  -0.001938   0.002501
    12  C    0.000005   0.000040  -0.000006   0.000003  -0.000077   0.000551
    13  C   -0.000027  -0.000134   0.000002  -0.000000   0.000004  -0.000151
    14  C   -0.000061   0.000511  -0.000032   0.000002  -0.000005   0.000024
    15  C    0.000107  -0.028542   0.000046  -0.000064  -0.000227   0.015737
    16  F    0.005269  -0.004043  -0.000216   0.000003  -0.000002   0.000215
    17  H    0.378683  -0.020240  -0.020152   0.002553  -0.000099   0.000040
    18  H    0.357809   0.000328   0.000745  -0.000186  -0.000027  -0.000309
    19  H    0.368387  -0.002216   0.008681  -0.001094   0.000256  -0.000796
    20  H   -0.020392  -0.075341   0.434577  -0.072770   0.015495  -0.000290
    21  H   -0.000511   0.018063  -0.075785   0.441965  -0.079174   0.015999
    22  H    0.000029  -0.000777   0.014534  -0.075218   0.420509  -0.062854
    23  H    0.000000   0.000023  -0.000000  -0.000001   0.000045  -0.000475
    24  H    0.000000  -0.000000  -0.000000   0.000000   0.000000   0.000060
    25  H    0.000001  -0.000000  -0.000000   0.000000  -0.000000   0.000001
    26  H   -0.000006   0.000042  -0.000001   0.000000  -0.000000   0.000002
               7          8          9         10         11         12
     1  C   -0.000018  -0.066969  -0.021666  -0.000410  -0.000001   0.000005
     2  C    0.001458   0.278590  -0.050896   0.011866   0.000129   0.000040
     3  C    0.000019   0.052067   0.016784   0.000286  -0.000005  -0.000006
     4  C    0.006508  -0.099878  -0.000254  -0.000293   0.000004   0.000003
     5  C   -0.069270  -0.006992   0.016601   0.001255  -0.001938  -0.000077
     6  C    0.378876   0.192258  -0.053426  -0.044317   0.002501   0.000551
     7  F    8.922368  -0.076280   0.003293   0.002490  -0.007643  -0.001007
     8  C   -0.076280   5.578820   0.154934  -0.051357   0.005856   0.015218
     9  C    0.003293   0.154934   5.730344   0.166380  -0.073330   0.039054
    10  C    0.002490  -0.051357   0.166380   5.228659   0.439260   0.240855
    11  O   -0.007643   0.005856  -0.073330   0.439260   7.544852  -0.085108
    12  C   -0.001007   0.015218   0.039054   0.240855  -0.085108   5.361052
    13  C    0.000003  -0.000768  -0.104913   0.106168   0.006514   0.193255
    14  C   -0.000001   0.016224   0.010732  -0.149680   0.000158   0.120427
    15  C    0.000192  -0.051810   0.154831   0.062115   0.000876  -0.170513
    16  F   -0.000000  -0.002911  -0.072838   0.002651  -0.000001  -0.000078
    17  H    0.000002   0.006287  -0.000590   0.000010  -0.000000   0.000000
    18  H    0.000000  -0.000719   0.004010   0.000033   0.000000  -0.000003
    19  H   -0.000004  -0.008384   0.004425   0.000084   0.000000  -0.000011
    20  H    0.000005   0.017618  -0.000317   0.000003   0.000000  -0.000000
    21  H   -0.000098  -0.002203   0.000025   0.000001   0.000000  -0.000000
    22  H    0.001773   0.021024  -0.000481   0.000068   0.000050   0.000000
    23  H    0.001473  -0.000508   0.011878  -0.005255   0.320373  -0.029486
    24  H    0.000000  -0.000417   0.018441  -0.084014  -0.009689   0.415083
    25  H    0.000000   0.000011  -0.002736   0.017707  -0.000128  -0.069819
    26  H   -0.000000  -0.000290   0.022031  -0.001310   0.000007   0.016792
              13         14         15         16         17         18
     1  C   -0.000027  -0.000061   0.000107   0.005269   0.378683   0.357809
     2  C   -0.000134   0.000511  -0.028542  -0.004043  -0.020240   0.000328
     3  C    0.000002  -0.000032   0.000046  -0.000216  -0.020152   0.000745
     4  C   -0.000000   0.000002  -0.000064   0.000003   0.002553  -0.000186
     5  C    0.000004  -0.000005  -0.000227  -0.000002  -0.000099  -0.000027
     6  C   -0.000151   0.000024   0.015737   0.000215   0.000040  -0.000309
     7  F    0.000003  -0.000001   0.000192  -0.000000   0.000002   0.000000
     8  C   -0.000768   0.016224  -0.051810  -0.002911   0.006287  -0.000719
     9  C   -0.104913   0.010732   0.154831  -0.072838  -0.000590   0.004010
    10  C    0.106168  -0.149680   0.062115   0.002651   0.000010   0.000033
    11  O    0.006514   0.000158   0.000876  -0.000001  -0.000000   0.000000
    12  C    0.193255   0.120427  -0.170513  -0.000078   0.000000  -0.000003
    13  C    5.158040   0.162324   0.130549   0.006338  -0.000002   0.000002
    14  C    0.162324   5.303616   0.282125  -0.065284   0.000044  -0.000152
    15  C    0.130549   0.282125   5.143146   0.364322   0.000097  -0.002241
    16  F    0.006338  -0.065284   0.364322   8.927476   0.001750   0.003500
    17  H   -0.000002   0.000044   0.000097   0.001750   0.674626  -0.023083
    18  H    0.000002  -0.000152  -0.002241   0.003500  -0.023083   0.633487
    19  H    0.000107  -0.001397   0.002274  -0.001949  -0.028780  -0.016936
    20  H    0.000000  -0.000000   0.000032  -0.000014   0.004267   0.002382
    21  H   -0.000000   0.000000   0.000000   0.000000  -0.000013   0.000016
    22  H    0.000000  -0.000000   0.000003  -0.000000  -0.000003  -0.000001
    23  H    0.000843  -0.000155   0.000321   0.000001  -0.000000  -0.000000
    24  H   -0.052817   0.016151  -0.000388   0.000004  -0.000000  -0.000000
    25  H    0.440180  -0.078530   0.016612  -0.000098   0.000000   0.000000
    26  H   -0.079618   0.428696  -0.068009   0.001646  -0.000002   0.000021
              19         20         21         22         23         24
     1  C    0.368387  -0.020392  -0.000511   0.000029   0.000000   0.000000
     2  C   -0.002216  -0.075341   0.018063  -0.000777   0.000023  -0.000000
     3  C    0.008681   0.434577  -0.075785   0.014534  -0.000000  -0.000000
     4  C   -0.001094  -0.072770   0.441965  -0.075218  -0.000001   0.000000
     5  C    0.000256   0.015495  -0.079174   0.420509   0.000045   0.000000
     6  C   -0.000796  -0.000290   0.015999  -0.062854  -0.000475   0.000060
     7  F   -0.000004   0.000005  -0.000098   0.001773   0.001473   0.000000
     8  C   -0.008384   0.017618  -0.002203   0.021024  -0.000508  -0.000417
     9  C    0.004425  -0.000317   0.000025  -0.000481   0.011878   0.018441
    10  C    0.000084   0.000003   0.000001   0.000068  -0.005255  -0.084014
    11  O    0.000000   0.000000   0.000000   0.000050   0.320373  -0.009689
    12  C   -0.000011  -0.000000  -0.000000   0.000000  -0.029486   0.415083
    13  C    0.000107   0.000000  -0.000000   0.000000   0.000843  -0.052817
    14  C   -0.001397  -0.000000   0.000000  -0.000000  -0.000155   0.016151
    15  C    0.002274   0.000032   0.000000   0.000003   0.000321  -0.000388
    16  F   -0.001949  -0.000014   0.000000  -0.000000   0.000001   0.000004
    17  H   -0.028780   0.004267  -0.000013  -0.000003  -0.000000  -0.000000
    18  H   -0.016936   0.002382   0.000016  -0.000001  -0.000000  -0.000000
    19  H    0.653721   0.000771   0.000014  -0.000001  -0.000000  -0.000000
    20  H    0.000771   0.728036  -0.014707  -0.000472   0.000000   0.000000
    21  H    0.000014  -0.014707   0.719852  -0.014055   0.000000  -0.000000
    22  H   -0.000001  -0.000472  -0.014055   0.700034  -0.000002  -0.000000
    23  H   -0.000000   0.000000   0.000000  -0.000002   0.513810   0.011491
    24  H   -0.000000   0.000000  -0.000000  -0.000000   0.011491   0.733074
    25  H   -0.000002  -0.000000   0.000000  -0.000000  -0.000050  -0.016416
    26  H    0.000052  -0.000000  -0.000000   0.000000  -0.000006  -0.000436
              25         26
     1  C    0.000001  -0.000006
     2  C   -0.000000   0.000042
     3  C   -0.000000  -0.000001
     4  C    0.000000   0.000000
     5  C   -0.000000  -0.000000
     6  C    0.000001   0.000002
     7  F    0.000000  -0.000000
     8  C    0.000011  -0.000290
     9  C   -0.002736   0.022031
    10  C    0.017707  -0.001310
    11  O   -0.000128   0.000007
    12  C   -0.069819   0.016792
    13  C    0.440180  -0.079618
    14  C   -0.078530   0.428696
    15  C    0.016612  -0.068009
    16  F   -0.000098   0.001646
    17  H    0.000000  -0.000002
    18  H    0.000000   0.000021
    19  H   -0.000002   0.000052
    20  H   -0.000000  -0.000000
    21  H    0.000000  -0.000000
    22  H   -0.000000   0.000000
    23  H   -0.000050  -0.000006
    24  H   -0.016416  -0.000436
    25  H    0.711585  -0.014167
    26  H   -0.014167   0.699540
 Mulliken charges:
               1
     1  C    0.086869
     2  C   -0.132130
     3  C   -0.040109
     4  C    0.046308
     5  C   -0.045394
     6  C    0.158799
     7  F   -0.164138
     8  C    0.030579
     9  C    0.027685
    10  C    0.056746
    11  O   -0.142737
    12  C   -0.046230
    13  C    0.034103
    14  C   -0.045738
    15  C    0.148409
    16  F   -0.165739
    17  H    0.024606
    18  H    0.041323
    19  H    0.022799
    20  H   -0.018882
    21  H   -0.009388
    22  H   -0.004159
    23  H    0.175680
    24  H   -0.030127
    25  H   -0.004151
    26  H   -0.004983
 Sum of Mulliken charges =  -0.00000
 Mulliken charges with hydrogens summed into heavy atoms:
               1
     1  C    0.175597
     2  C   -0.132130
     3  C   -0.058991
     4  C    0.036920
     5  C   -0.049553
     6  C    0.158799
     7  F   -0.164138
     8  C    0.030579
     9  C    0.027685
    10  C    0.056746
    11  O    0.032942
    12  C   -0.076356
    13  C    0.029952
    14  C   -0.050720
    15  C    0.148409
    16  F   -0.165739
 Electronic spatial extent (au):  <R**2>=           3327.1011
 Charge=             -0.0000 electrons
 Dipole moment (field-independent basis, Debye):
    X=              1.4179    Y=             -0.6133    Z=              0.0109  Tot=              1.5449
 Quadrupole moment (field-independent basis, Debye-Ang):
   XX=            -76.8805   YY=            -83.1437   ZZ=            -94.5567
   XY=             -6.1650   XZ=             -0.9763   YZ=             -2.0551
 Traceless Quadrupole moment (field-independent basis, Debye-Ang):
   XX=              7.9798   YY=              1.7166   ZZ=             -9.6964
   XY=             -6.1650   XZ=             -0.9763   YZ=             -2.0551
 Octapole moment (field-independent basis, Debye-Ang**2):
  XXX=             17.6747  YYY=            -37.3441  ZZZ=             -1.1765  XYY=             18.4252
  XXY=            -17.4220  XXZ=              4.2054  XZZ=              1.5426  YZZ=             -3.8664
  YYZ=              3.4946  XYZ=             -2.5182
 Hexadecapole moment (field-independent basis, Debye-Ang**3):
 XXXX=          -2545.9513 YYYY=          -1269.8799 ZZZZ=           -168.5992 XXXY=             44.2256
 XXXZ=            -29.0061 YYYX=            -26.8162 YYYZ=              6.1081 ZZZX=             22.7924
 ZZZY=             24.3794 XXYY=           -605.1203 XXZZ=           -529.0811 YYZZ=           -260.4868
 XXYZ=             -0.1332 YYXZ=             13.5079 ZZXY=             15.0228
 N-N= 1.076595515832D+03 E-N=-3.965568737076D+03  KE= 7.684203607662D+02
   1 Symmetry operations used in ECPInt.
 ECPInt:  NShTT=    8001 NPrTT=   29641 LenC2=    7607 LenP2D=   20322.
 LDataN:  DoStor=T MaxTD1= 5 Len=  102
 Calling FoFJK, ICntrl=      2527 FMM=F ISym2X=0 I1Cent= 0 IOpClX= 0 NMat=1 NMatS=1 NMatT=0.
 -------------------------------------------------------------------
 Center     Atomic                   Forces (Hartrees/Bohr)
 Number     Number              X              Y              Z
 -------------------------------------------------------------------
      1        6           0.001742960   -0.013779492    0.003353827
      2        6           0.000360920    0.010749911   -0.000796913
      3        6          -0.002199435    0.003374362    0.003630407
      4        6          -0.002929838   -0.002012683    0.000418097
      5        6          -0.002523853   -0.002365787    0.004163071
      6        6           0.000724832   -0.014626267   -0.008337438
      7        9           0.009356306    0.005573964    0.003787595
      8        6           0.020384218   -0.006451863    0.002007848
      9        6          -0.022730202   -0.008668682   -0.003917416
     10        6           0.004940436   -0.013352053    0.004406991
     11        8          -0.028477786    0.022999519   -0.002809143
     12        6           0.003868155   -0.004394964   -0.003745541
     13        6           0.001510947   -0.001412193    0.000936644
     14        6           0.001555234    0.004580700   -0.002950409
     15        6           0.003506678    0.012345223    0.004182133
     16        9          -0.003363853   -0.002863537    0.000575765
     17        1          -0.010453257    0.004448380   -0.005827278
     18        1           0.004614869    0.009525945    0.008415785
     19        1           0.009458186    0.002167150   -0.007673648
     20        1          -0.007805106    0.012879438    0.000335901
     21        1          -0.015019797   -0.000660530    0.003619426
     22        1          -0.005500366   -0.014041210   -0.000843515
     23        1           0.011145224   -0.004489367   -0.001450107
     24        1           0.006461811   -0.012909605    0.000389783
     25        1           0.015415681   -0.000347997   -0.001837789
     26        1           0.005957034    0.013731641   -0.000034077
 -------------------------------------------------------------------
 Cartesian Forces:  Max     0.028477786 RMS     0.008584516

 GradGradGradGradGradGradGradGradGradGradGradGradGradGradGradGradGradGrad
 Berny optimization.
 FormGI is forming the generalized inverse of G from B-inverse, IUseBI=4.
 Internal  Forces:  Max     0.020207160 RMS     0.006792237
 Search for a local minimum.
 Step number   1 out of a maximum of  156
 All quantities printed in internal units (Hartrees-Bohrs-Radians)
 Mixed Optimization -- RFO/linear search
 Second derivative matrix not updated -- first step.
 ITU=  0
     Eigenvalues ---    0.00489   0.01508   0.01856   0.02034   0.02049
     Eigenvalues ---    0.02171   0.02204   0.02242   0.02260   0.02267
     Eigenvalues ---    0.02354   0.02358   0.02370   0.02383   0.02393
     Eigenvalues ---    0.02395   0.02616   0.03526   0.06783   0.07511
     Eigenvalues ---    0.15887   0.15949   0.15990   0.15992   0.15994
     Eigenvalues ---    0.15998   0.16000   0.16000   0.16000   0.16000
     Eigenvalues ---    0.22089   0.22162   0.22934   0.23314   0.24482
     Eigenvalues ---    0.29328   0.30611   0.31734   0.34702   0.34985
     Eigenvalues ---    0.35245   0.35401   0.35639   0.35947   0.36192
     Eigenvalues ---    0.36205   0.36257   0.36263   0.38476   0.42290
     Eigenvalues ---    0.43564   0.44226   0.46376   0.47717   0.47791
     Eigenvalues ---    0.48067   0.48708   0.49144   0.49347   0.54974
     Eigenvalues --- 1000.000001000.000001000.000001000.000001000.00000
     Eigenvalues --- 1000.000001000.000001000.000001000.000001000.00000
     Eigenvalues --- 1000.000001000.000001000.000001000.000001000.00000
     Eigenvalues --- 1000.000001000.000001000.000001000.000001000.00000
     Eigenvalues --- 1000.000001000.000001000.000001000.000001000.00000
     Eigenvalues --- 1000.000001000.000001000.000001000.000001000.00000
     Eigenvalues --- 1000.000001000.000001000.000001000.000001000.00000
     Eigenvalues --- 1000.000001000.000001000.000001000.000001000.00000
     Eigenvalues --- 1000.000001000.000001000.000001000.000001000.00000
     Eigenvalues --- 1000.000001000.000001000.000001000.000001000.00000
     Eigenvalues --- 1000.000001000.000001000.000001000.000001000.00000
     Eigenvalues --- 1000.000001000.000001000.000001000.000001000.00000
     Eigenvalues --- 1000.000001000.000001000.000001000.000001000.00000
     Eigenvalues --- 1000.000001000.000001000.000001000.000001000.00000
     Eigenvalues --- 1000.000001000.000001000.000001000.000001000.00000
     Eigenvalues --- 1000.000001000.000001000.000001000.000001000.00000
     Eigenvalues --- 1000.000001000.000001000.000001000.000001000.00000
     Eigenvalues --- 1000.000001000.000001000.00000
 RFO step:  Lambda=-1.59841897D-02 EMin= 4.88922841D-03
 Linear search not attempted -- first point.
 Maximum step size (   0.020) exceeded in Quadratic search.
    -- Step size scaled by   0.100
 Iteration  1 RMS(Cart)=  0.00352048 RMS(Int)=  0.00000234
 Iteration  2 RMS(Cart)=  0.00000469 RMS(Int)=  0.00000141
 Iteration  3 RMS(Cart)=  0.00000104 RMS(Int)=  0.00000147
 Iteration  4 RMS(Cart)=  0.00000000 RMS(Int)=  0.00000147
 Variable       Old X    -DE/DX   Delta X   Delta X   Delta X     New X
                                 (Linear)    (Quad)   (Total)
    X1       -2.35621  -0.00028   0.00000   0.00000   0.00000  -2.35621
    Y1        4.99348   0.00145   0.00000   0.00000   0.00000   4.99348
    Z1       -1.07926   0.00012   0.00000   0.00000   0.00000  -1.07926
    X7       -1.92214   0.00603   0.00000   0.00000   0.00000  -1.92214
    Y7       -4.27199  -0.00151   0.00000   0.00000   0.00000  -4.27199
    Z7       -1.41124   0.00182   0.00000   0.00000   0.00000  -1.41124
    X8       -1.44059  -0.00141   0.00000   0.00000   0.00000  -1.44059
    Y8        0.12895  -0.00516   0.00000   0.00000   0.00000   0.12895
    Z8       -0.14136   0.00314   0.00000   0.00000   0.00000  -0.14136
    X9        1.39124   0.00313   0.00000   0.00000   0.00000   1.39124
    Y9        0.00348  -0.00319   0.00000   0.00000   0.00000   0.00348
    Z9        0.06407  -0.00245   0.00000   0.00000   0.00000   0.06407
   X11        1.94743  -0.00879   0.00000   0.00000   0.00000   1.94743
   Y11       -4.58726   0.00845   0.00000   0.00000   0.00000  -4.58726
   Z11        1.12499  -0.00321   0.00000   0.00000   0.00000   1.12499
   X16        1.94548   0.00131   0.00000   0.00000   0.00000   1.94548
   Y16        4.49473  -0.00003   0.00000   0.00000   0.00000   4.49473
   Z16        0.64981   0.00058   0.00000   0.00000   0.00000   0.64981
    R1        2.87416   0.00267   0.00000   0.00037   0.00037   2.87453
    R2        2.05700   0.01277   0.00000   0.00348   0.00348   2.06048
    R3        2.05279   0.01330   0.00000   0.00360   0.00360   2.05639
    R4        2.05029   0.01214   0.00000   0.00328   0.00328   2.05357
    R5        2.63526   0.01973   0.00000   0.00410   0.00410   2.63935
    R6        2.70313   0.01556   0.00000   0.00363   0.00363   2.70677
    R7        2.60493   0.02007   0.00000   0.00387   0.00387   2.60879
    R8        2.04164   0.01503   0.00000   0.00400   0.00400   2.04564
    R9        2.60716   0.01792   0.00000   0.00345   0.00345   2.61060
   R10        2.03783   0.01544   0.00000   0.00408   0.00408   2.04191
   R11        2.60855   0.01799   0.00000   0.00354   0.00354   2.61209
   R12        2.03762   0.01505   0.00000   0.00397   0.00397   2.04159
   R13        2.56343  -0.00550   0.00000  -0.00068  -0.00067   2.56276
   R14        2.68166   0.01414   0.00000   0.00392   0.00392   2.68558
   R15        2.84204   0.00403   0.00000  -0.00000   0.00000   2.84204
   R16        2.72891   0.01127   0.00000   0.00439   0.00439   2.73330
   R17        2.66454   0.01696   0.00000   0.00399   0.00399   2.66853
   R18        2.59456  -0.00626   0.00000  -0.00016  -0.00015   2.59440
   R19        2.63924   0.01835   0.00000   0.00385   0.00385   2.64310
   R20        1.81855   0.01128   0.00000   0.00199   0.00199   1.82054
   R21        2.60245   0.01782   0.00000   0.00346   0.00346   2.60591
   R22        2.04650   0.01442   0.00000   0.00387   0.00387   2.05037
   R23        2.60316   0.02021   0.00000   0.00391   0.00391   2.60706
   R24        2.03673   0.01552   0.00000   0.00409   0.00409   2.04082
   R25        2.61132   0.01703   0.00000   0.00336   0.00336   2.61468
   R26        2.03681   0.01493   0.00000   0.00394   0.00394   2.04074
   R27        2.55656  -0.00078   0.00000  -0.00008  -0.00008   2.55648
    A1        1.87044  -0.00070   0.00000  -0.00033  -0.00033   1.87010
    A2        1.96402   0.00229   0.00000   0.00128   0.00128   1.96530
    A3        1.95320   0.00243   0.00000   0.00133   0.00133   1.95452
    A4        1.88207  -0.00050   0.00000  -0.00018  -0.00018   1.88189
    A5        1.88038  -0.00071   0.00000  -0.00037  -0.00037   1.88000
    A6        1.91010  -0.00297   0.00000  -0.00180  -0.00180   1.90830
    A7        1.95116   0.00502   0.00000   0.00128   0.00128   1.95244
    A8        2.25440  -0.00807   0.00000  -0.00300  -0.00300   2.25140
    A9        2.06936   0.00297   0.00000   0.00150   0.00150   2.07085
   A10        2.15765  -0.00200   0.00000  -0.00039  -0.00039   2.15726
   A11        2.05242   0.00046   0.00000  -0.00014  -0.00014   2.05228
   A12        2.07258   0.00151   0.00000   0.00047   0.00047   2.07305
   A13        2.04516  -0.00083   0.00000  -0.00002  -0.00002   2.04515
   A14        2.11654   0.00047   0.00000   0.00008   0.00008   2.11662
   A15        2.11563   0.00037   0.00000   0.00002   0.00002   2.11565
   A16        2.08113  -0.00105   0.00000  -0.00005  -0.00005   2.08108
   A17        2.13407   0.00170   0.00000   0.00067   0.00067   2.13475
   A18        2.06765  -0.00068   0.00000  -0.00068  -0.00068   2.06697
   A19        1.97156   0.00567   0.00000   0.00113   0.00113   1.97269
   A20        2.16344   0.00366   0.00000   0.00132   0.00132   2.16476
   A21        2.14348  -0.00925   0.00000  -0.00229  -0.00229   2.14120
   A22        1.97032  -0.00247   0.00000  -0.00165  -0.00165   1.96867
   A23        2.21883   0.00130   0.00000   0.00093   0.00092   2.21976
   A24        2.09404   0.00117   0.00000   0.00073   0.00073   2.09476
   A25        2.18618   0.00186   0.00000   0.00115   0.00115   2.18733
   A26        2.13788   0.00245   0.00000   0.00101   0.00101   2.13889
   A27        1.95771  -0.00431   0.00000  -0.00217  -0.00217   1.95554
   A28        2.19979  -0.01442   0.00000  -0.00314  -0.00314   2.19665
   A29        2.08815   0.00660   0.00000   0.00182   0.00182   2.08997
   A30        1.99286   0.00784   0.00000   0.00135   0.00135   1.99422
   A31        1.91081  -0.00791   0.00000  -0.00449  -0.00449   1.90632
   A32        2.15202  -0.00361   0.00000  -0.00095  -0.00095   2.15107
   A33        2.05381   0.00103   0.00000   0.00001   0.00001   2.05382
   A34        2.07671   0.00255   0.00000   0.00089   0.00089   2.07760
   A35        2.05184  -0.00043   0.00000   0.00032   0.00032   2.05216
   A36        2.11064   0.00017   0.00000  -0.00016  -0.00016   2.11048
   A37        2.11809   0.00027   0.00000  -0.00008  -0.00008   2.11801
   A38        2.08187  -0.00166   0.00000  -0.00027  -0.00027   2.08160
   A39        2.13409   0.00195   0.00000   0.00076   0.00076   2.13485
   A40        2.06711  -0.00030   0.00000  -0.00051  -0.00051   2.06660
   A41        2.18848   0.00353   0.00000   0.00144   0.00144   2.18992
   A42        2.12638  -0.00863   0.00000  -0.00271  -0.00271   2.12367
   A43        1.96702   0.00513   0.00000   0.00133   0.00133   1.96835
    D1       -0.55354   0.00019   0.00000   0.00128   0.00128  -0.55226
    D2        2.44599  -0.00011   0.00000  -0.00041  -0.00041   2.44557
    D3        1.51245   0.00045   0.00000   0.00158   0.00158   1.51402
    D4       -1.77121   0.00015   0.00000  -0.00011  -0.00011  -1.77132
    D5       -2.61130   0.00012   0.00000   0.00119   0.00119  -2.61011
    D6        0.38823  -0.00018   0.00000  -0.00050  -0.00050   0.38773
    D7        2.87584  -0.00122   0.00000  -0.00144  -0.00144   2.87439
    D8       -0.23020  -0.00023   0.00000   0.00062   0.00062  -0.22958
    D9       -0.14044   0.00008   0.00000   0.00046   0.00046  -0.13998
   D10        3.03671   0.00106   0.00000   0.00252   0.00252   3.03923
   D11       -2.61115  -0.00048   0.00000   0.00029   0.00029  -2.61085
   D12        0.53036  -0.00033   0.00000   0.00138   0.00137   0.53174
   D13        0.38019  -0.00074   0.00000  -0.00154  -0.00154   0.37865
   D14       -2.76148  -0.00059   0.00000  -0.00046  -0.00046  -2.76194
   D15       -0.15999   0.00068   0.00000   0.00199   0.00199  -0.15801
   D16        3.09632   0.00058   0.00000   0.00119   0.00119   3.09750
   D17        2.94566  -0.00034   0.00000  -0.00011  -0.00011   2.94555
   D18       -0.08122  -0.00043   0.00000  -0.00091  -0.00091  -0.08213
   D19        0.18762  -0.00134   0.00000  -0.00377  -0.00377   0.18385
   D20       -2.92592  -0.00025   0.00000  -0.00134  -0.00134  -2.92726
   D21       -3.06862  -0.00124   0.00000  -0.00297  -0.00297  -3.07159
   D22        0.10102  -0.00015   0.00000  -0.00054  -0.00054   0.10048
   D23       -2.95458   0.00110   0.00000   0.00170   0.00169  -2.95289
   D24        0.08532   0.00143   0.00000   0.00332   0.00332   0.08864
   D25        0.16003   0.00008   0.00000  -0.00062  -0.00062   0.15941
   D26       -3.08326   0.00042   0.00000   0.00100   0.00100  -3.08225
   D27       -0.36687  -0.00013   0.00000  -0.00034  -0.00034  -0.36721
   D28        2.77480  -0.00027   0.00000  -0.00134  -0.00134   2.77346
   D29        2.66328   0.00117   0.00000   0.00165   0.00165   2.66493
   D30       -0.47824   0.00104   0.00000   0.00066   0.00066  -0.47759
   D31        3.01236  -0.00009   0.00000  -0.00112  -0.00112   3.01124
   D32       -0.06753   0.00018   0.00000  -0.00082  -0.00082  -0.06835
   D33       -0.12931   0.00006   0.00000   0.00003   0.00003  -0.12929
   D34        3.07398   0.00033   0.00000   0.00033   0.00033   3.07431
   D35       -0.32592   0.00072   0.00000   0.00066   0.00066  -0.32526
   D36        2.89425   0.00006   0.00000   0.00006   0.00006   2.89431
   D37        2.75948   0.00066   0.00000   0.00047   0.00047   2.75995
   D38       -0.30353   0.00000   0.00000  -0.00013  -0.00013  -0.30366
   D39       -2.91791  -0.00017   0.00000   0.00023   0.00023  -2.91768
   D40        0.28264  -0.00076   0.00000  -0.00122  -0.00122   0.28142
   D41        0.27808  -0.00010   0.00000   0.00041   0.00041   0.27849
   D42       -2.80456  -0.00070   0.00000  -0.00105  -0.00104  -2.80560
   D43        3.08410   0.00011   0.00000   0.00088   0.00088   3.08498
   D44       -0.13235   0.00075   0.00000   0.00148   0.00148  -0.13087
   D45        0.13913   0.00070   0.00000   0.00149   0.00149   0.14062
   D46       -3.04138   0.00003   0.00000  -0.00012  -0.00012  -3.04150
   D47       -2.93282   0.00109   0.00000   0.00116   0.00116  -2.93167
   D48        0.16986   0.00042   0.00000  -0.00045  -0.00045   0.16941
   D49        0.09339  -0.00058   0.00000  -0.00254  -0.00255   0.09085
   D50       -3.12482  -0.00043   0.00000  -0.00139  -0.00139  -3.12621
   D51       -3.00880   0.00014   0.00000  -0.00090  -0.00090  -3.00970
   D52        0.05617   0.00029   0.00000   0.00026   0.00026   0.05643
   D53       -0.13243   0.00112   0.00000   0.00275   0.00275  -0.12968
   D54        2.99268   0.00015   0.00000   0.00116   0.00116   2.99384
   D55        3.08613   0.00097   0.00000   0.00159   0.00159   3.08772
   D56       -0.07194   0.00001   0.00000   0.00000   0.00000  -0.07194
   D57       -0.06516  -0.00111   0.00000  -0.00209  -0.00209  -0.06725
   D58        3.02215  -0.00098   0.00000  -0.00087  -0.00087   3.02128
   D59        3.09228  -0.00021   0.00000  -0.00057  -0.00057   3.09171
   D60       -0.10360  -0.00007   0.00000   0.00064   0.00064  -0.10295
         Item               Value     Threshold  Converged?
 Maximum Force            0.019656     0.000450     NO 
 RMS     Force            0.007012     0.000300     NO 
 Maximum Displacement     0.015657     0.001800     NO 
 RMS     Displacement     0.003521     0.001200     NO 
 Predicted change in Energy=-1.520029D-03
 GradGradGradGradGradGradGradGradGradGradGradGradGradGradGradGradGradGrad

                          Input orientation:                          
 ---------------------------------------------------------------------
 Center     Atomic      Atomic             Coordinates (Angstroms)
 Number     Number       Type             X           Y           Z
 ---------------------------------------------------------------------
      1          6           0       -1.246851    2.642434   -0.571121
      2          6           0       -1.579242    1.244792   -0.071146
      3          6           0       -2.926317    1.123671    0.277348
      4          6           0       -3.560714   -0.087843    0.466013
      5          6           0       -2.863978   -1.226893    0.111623
      6          6           0       -1.520100   -1.127875   -0.196307
      7          9           0       -1.017152   -2.260642   -0.746795
      8          6           0       -0.762327    0.068235   -0.074803
      9          6           0        0.736210    0.001839    0.033906
     10          6           0        1.511280   -1.210690    0.179184
     11          8           0        1.030537   -2.427476    0.595317
     12          6           0        2.894408   -1.179009   -0.026298
     13          6           0        3.605088   -0.011424   -0.208747
     14          6           0        2.921848    1.179671   -0.075436
     15          6           0        1.546800    1.157347    0.076802
     16          9           0        1.029505    2.378508    0.343864
     17          1           0       -2.138860    3.027424   -1.066084
     18          1           0       -0.992736    3.326099    0.236465
     19          1           0       -0.441834    2.632659   -1.301031
     20          1           0       -3.504227    2.034393    0.369128
     21          1           0       -4.595030   -0.137336    0.774702
     22          1           0       -3.338381   -2.194784    0.038711
     23          1           0        1.739328   -3.078784    0.556249
     24          1           0        3.429169   -2.122780   -0.002486
     25          1           0        4.671409   -0.031582   -0.378626
     26          1           0        3.424006    2.135710   -0.068951
 ---------------------------------------------------------------------
                    Distance matrix (angstroms):
                    1          2          3          4          5
     1  C    0.000000
     2  C    1.521138   0.000000
     3  C    2.418088   1.396685   0.000000
     4  C    3.726126   2.447588   1.380514   0.000000
     5  C    4.248874   2.791626   2.357223   1.381473   0.000000
     6  C    3.798735   2.376703   2.696527   2.384206   1.382257
     7  F    4.911596   3.613934   4.018377   3.558323   2.283919
     8  C    2.666007   1.432358   2.433271   2.854437   2.475691
     9  C    3.357280   2.630074   3.838213   4.319527   3.804888
    10  C    4.797584   3.955172   5.015092   5.202709   4.375810
    11  O    5.679002   4.554193   5.326204   5.154627   4.103975
    12  C    5.661297   5.088258   6.267007   6.565181   5.760236
    13  C    5.542165   5.336130   6.647103   7.197906   6.590054
    14  C    4.445609   4.501563   5.859064   6.627471   6.269156
    15  C    3.229516   3.130762   4.477737   5.271496   5.014057
    16  F    2.467519   2.874562   4.150611   5.212285   5.311502
    17  H    1.090361   2.116802   2.459506   3.751516   4.473477
    18  H    1.088194   2.184136   2.931057   4.278107   4.924110
    19  H    1.086700   2.175428   3.307715   4.500109   4.770588
    20  H    2.519827   2.126706   1.082505   2.125197   3.333498
    21  H    4.555071   3.423554   2.149908   1.080532   2.150198
    22  H    5.305193   3.864884   3.352445   2.161300   1.080365
    23  H    6.551379   5.486333   6.285433   6.086404   4.981729
    24  H    6.700431   6.035680   7.142126   7.295130   6.357620
    25  H    6.497170   6.387042   7.712999   8.275531   7.645336
    26  H    4.725024   5.081952   6.439779   7.349604   7.132913
                    6          7          8          9         10
     6  C    0.000000
     7  F    1.356154   0.000000
     8  C    1.421149   2.437248   0.000000
     9  C    2.533809   2.966916   1.503941   0.000000
    10  C    3.055670   2.890122   2.620963   1.446398   0.000000
    11  O    2.970081   2.454003   3.145154   2.510654   1.372898
    12  C    4.418076   4.121814   3.863895   2.460863   1.398667
    13  C    5.245395   5.168518   4.370194   2.879152   2.443923
    14  C    5.007024   5.272779   3.848173   2.485208   2.787177
    15  C    3.834410   4.351414   2.557580   1.412124   2.370515
    16  F    4.368867   5.186526   2.953524   2.414674   3.625130
    17  H    4.290208   5.415147   3.410906   4.316268   5.730255
    18  H    4.505917   5.672659   3.280800   3.752464   5.182261
    19  H    4.065057   4.958080   2.860528   3.176643   4.558182
    20  H    3.775767   5.087057   3.403067   4.714335   5.976784
    21  H    3.373310   4.429966   3.931098   5.384262   6.228464
    22  H    2.121243   2.451420   3.430772   4.628981   4.950494
    23  H    3.872500   3.156812   4.069427   3.281665   1.919365
    24  H    5.051996   4.510296   4.730160   3.430358   2.131481
    25  H    6.290460   6.120783   5.443138   3.956904   3.418751
    26  H    5.925487   6.285799   4.669034   3.433400   3.862445
                   11         12         13         14         15
    11  O    0.000000
    12  C    2.327894   0.000000
    13  C    3.621069   1.378988   0.000000
    14  C    4.127769   2.359351   1.379599   0.000000
    15  C    3.658735   2.699117   2.384138   1.383630   0.000000
    16  F    4.812558   4.033709   3.556794   2.279032   1.352831
    17  H    6.523899   6.641462   6.554583   5.477805   4.288061
    18  H    6.109503   5.956083   5.698882   4.475311   3.343384
    19  H    5.600801   5.223435   4.955990   3.863628   2.833661
    20  H    6.365808   7.171112   7.420355   6.497894   5.134933
    21  H    6.076506   7.603839   8.259841   7.678588   6.315485
    22  H    4.410374   6.315353   7.282861   7.112696   5.924797
    23  H    0.963386   2.298416   3.670828   4.464506   4.267522
    24  H    2.490711   1.085007   2.128689   3.341987   3.782702
    25  H    4.465962   2.144401   1.079956   2.149423   3.374040
    26  H    5.195442   3.357031   2.159287   1.079915   2.121873
                   16         17         18         19         20
    16  F    0.000000
    17  H    3.528113   0.000000
    18  H    2.235827   1.760523   0.000000
    19  H    2.221511   1.758106   1.774330   0.000000
    20  H    4.546843   2.215890   2.827312   3.539153   0.000000
    21  H    6.176609   4.408738   5.026092   5.406531   2.463889
    22  H    6.331394   5.470912   6.001775   5.786976   4.245305
    23  H    5.507358   7.413372   6.970578   6.389643   7.326286
    24  H    5.112723   7.658903   7.021440   6.267781   8.092723
    25  H    4.426510   7.497325   6.613236   5.839029   8.465720
    26  H    2.441926   5.721443   4.584530   4.087750   6.942809
                   21         22         23         24         25
    21  H    0.000000
    22  H    2.520703   0.000000
    23  H    6.987413   5.180003   0.000000
    24  H    8.302637   6.768058   2.020319   0.000000
    25  H    9.338536   8.307247   4.330881   2.461250   0.000000
    26  H    8.377556   8.030856   5.515430   4.259012   2.519736
                   26
    26  H    0.000000
 Symmetry turned off by external request.
 Stoichiometry    C13H10F2O
 Framework group  C1[X(C13H10F2O)]
 Deg. of freedom    72
 Full point group                 C1      NOp   1
 Rotational constants (GHZ):           0.8369326           0.4830403           0.3185812
 Standard basis: def2SVP (5D, 7F)
   274 basis functions,   470 primitive gaussians,   290 cartesian basis functions
    57 alpha electrons       57 beta electrons
       nuclear repulsion energy      1075.6318468418 Hartrees.
 NAtoms=   26 NActive=   26 NUniq=   26 SFac= 1.00D+00 NAtFMM=   60 NAOKFM=F Big=F
 Integral buffers will be    131072 words long.
 Raffenetti 2 integral format.
 Two-electron integral symmetry is turned off.
 Nuclear repulsion after empirical dispersion term =     1075.5803006211 Hartrees.
 One-electron integrals computed using PRISM.
   1 Symmetry operations used in ECPInt.
 ECPInt:  NShTT=    8001 NPrTT=   29641 LenC2=    7606 LenP2D=   20315.
 LDataN:  DoStor=T MaxTD1= 4 Len=   56
 NBasis=   274 RedAO= T EigKep=  2.74D-04  NBF=   274
 NBsUse=   274 1.00D-06 EigRej= -1.00D+00 NBFU=   274
 Initial guess from the checkpoint file:  "path/to/scratch/gaussian_tmp/Gau-296824.chk"
 B after Tr=     0.000220   -0.000360    0.000611
         Rot=    1.000000   -0.000001    0.000085   -0.000051 Ang=  -0.01 deg.
 Requested convergence on RMS density matrix=1.00D-08 within 128 cycles.
 Requested convergence on MAX density matrix=1.00D-06.
 Requested convergence on             energy=1.00D-06.
 No special actions if energy rises.
 SCF Done:  E(RB-P86) =  -775.735090641     A.U. after    9 cycles
            NFock=  9  Conv=0.73D-08     -V/T= 2.0096
   1 Symmetry operations used in ECPInt.
 ECPInt:  NShTT=    8001 NPrTT=   29641 LenC2=    7606 LenP2D=   20315.
 LDataN:  DoStor=T MaxTD1= 5 Len=  102
 Calling FoFJK, ICntrl=      2527 FMM=F ISym2X=0 I1Cent= 0 IOpClX= 0 NMat=1 NMatS=1 NMatT=0.
 -------------------------------------------------------------------
 Center     Atomic                   Forces (Hartrees/Bohr)
 Number     Number              X              Y              Z
 -------------------------------------------------------------------
      1        6           0.001550617   -0.012589280    0.003102246
      2        6          -0.000160562    0.009781102   -0.000632205
      3        6          -0.001830820    0.002936046    0.003341630
      4        6          -0.002432409   -0.001801991    0.000269421
      5        6          -0.002248250   -0.001985754    0.003875424
      6        6           0.000416244   -0.013454215   -0.007702257
      7        9           0.009070687    0.005448835    0.003788486
      8        6           0.018381196   -0.006671407    0.002205421
      9        6          -0.020387211   -0.008547201   -0.003849699
     10        6           0.004851588   -0.012018074    0.004057624
     11        8          -0.026851383    0.022332886   -0.003088441
     12        6           0.003423309   -0.003872411   -0.003513126
     13        6           0.001118929   -0.001253511    0.000966947
     14        6           0.001364182    0.004030800   -0.002750685
     15        6           0.003546787    0.011190712    0.003876143
     16        9          -0.002899219   -0.002915173    0.000566614
     17        1          -0.009415344    0.004086265   -0.005262627
     18        1           0.004212046    0.008673609    0.007504913
     19        1           0.008508227    0.001993248   -0.006904471
     20        1          -0.006965621    0.011569614    0.000227812
     21        1          -0.013483158   -0.000591033    0.003173654
     22        1          -0.004851142   -0.012627522   -0.000737046
     23        1           0.010216326   -0.004124225   -0.001247810
     24        1           0.005751245   -0.011620359    0.000361091
     25        1           0.013831929   -0.000300893   -0.001591189
     26        1           0.005281809    0.012329933   -0.000037869
 -------------------------------------------------------------------
 Cartesian Forces:  Max     0.026851383 RMS     0.007895529

 GradGradGradGradGradGradGradGradGradGradGradGradGradGradGradGradGradGrad
 Berny optimization.
 Using GEDIIS/GDIIS optimizer.
 FormGI is forming the generalized inverse of G from B-inverse, IUseBI=4.
 Internal  Forces:  Max     0.018030700 RMS     0.006131328
 Search for a local minimum.
 Step number   2 out of a maximum of  156
 All quantities printed in internal units (Hartrees-Bohrs-Radians)
 Mixed Optimization -- RFO/linear search
 Update second derivatives using D2CorX and points    1    2
 DE= -1.52D-03 DEPred=-1.52D-03 R= 9.98D-01
 TightC=F SS=  1.41D+00  RLast= 2.26D-02 DXNew= 3.3636D-02 6.7679D-02
 Trust test= 9.98D-01 RLast= 2.26D-02 DXMaxT set to 5.00D-02
 ITU=  1  0
 Use linear search instead of GDIIS.
     Eigenvalues ---    0.00489   0.01513   0.01856   0.02032   0.02047
     Eigenvalues ---    0.02171   0.02204   0.02240   0.02260   0.02267
     Eigenvalues ---    0.02354   0.02358   0.02371   0.02382   0.02395
     Eigenvalues ---    0.02399   0.02612   0.03527   0.06770   0.07506
     Eigenvalues ---    0.15822   0.15888   0.15951   0.15990   0.15992
     Eigenvalues ---    0.15994   0.15998   0.16000   0.16000   0.16067
     Eigenvalues ---    0.22086   0.22136   0.22922   0.23315   0.24485
     Eigenvalues ---    0.29077   0.30670   0.31633   0.34307   0.34977
     Eigenvalues ---    0.35236   0.35412   0.35668   0.35987   0.36198
     Eigenvalues ---    0.36228   0.36260   0.36666   0.38485   0.42492
     Eigenvalues ---    0.43716   0.44246   0.46434   0.47699   0.47910
     Eigenvalues ---    0.48507   0.49053   0.49320   0.52258   0.54815
     Eigenvalues --- 1000.000001000.000001000.000001000.000001000.00000
     Eigenvalues --- 1000.000001000.000001000.000001000.000001000.00000
     Eigenvalues --- 1000.000001000.000001000.000001000.000001000.00000
     Eigenvalues --- 1000.000001000.000001000.000001000.000001000.00000
     Eigenvalues --- 1000.000001000.000001000.000001000.000001000.00000
     Eigenvalues --- 1000.000001000.000001000.000001000.000001000.00000
     Eigenvalues --- 1000.000001000.000001000.000001000.000001000.00000
     Eigenvalues --- 1000.000001000.000001000.000001000.000001000.00000
     Eigenvalues --- 1000.000001000.000001000.000001000.000001000.00000
     Eigenvalues --- 1000.000001000.000001000.000001000.000001000.00000
     Eigenvalues --- 1000.000001000.000001000.000001000.000001000.00000
     Eigenvalues --- 1000.000001000.000001000.000001000.000001000.00000
     Eigenvalues --- 1000.000001000.000001000.000001000.000001000.00000
     Eigenvalues --- 1000.000001000.000001000.000001000.000001000.00000
     Eigenvalues --- 1000.000001000.000001000.000001000.000001000.00000
     Eigenvalues --- 1000.000001000.000001000.000001000.000001000.00000
     Eigenvalues --- 1000.000001000.000001000.000001000.000001000.00000
     Eigenvalues --- 1000.000001000.000001000.00000
 RFO step:  Lambda=-1.19017121D-02 EMin= 4.88841938D-03
 Quartic linear search produced a step of  2.00000.
 Maximum step size (   0.050) exceeded in Quadratic search.
    -- Step size scaled by   0.619
 Iteration  1 RMS(Cart)=  0.03334629 RMS(Int)=  0.00080385
 Iteration  2 RMS(Cart)=  0.00104211 RMS(Int)=  0.00033037
 New curvilinear step failed, DQL= 6.49D-05 SP=-1.76D-02.
 ITry= 1 IFail=1 DXMaxC= 1.99D-01 DCOld= 1.00D+10 DXMaxT= 5.00D-02 DXLimC= 3.00D+00 Rises=F
 Iteration  1 RMS(Cart)=  0.02996399 RMS(Int)=  0.00064404
 Iteration  2 RMS(Cart)=  0.00083404 RMS(Int)=  0.00026493
 New curvilinear step failed, DQL= 5.30D-05 SP=-1.41D-02.
 ITry= 2 IFail=1 DXMaxC= 1.78D-01 DCOld= 1.00D+10 DXMaxT= 5.00D-02 DXLimC= 3.00D+00 Rises=F
 Iteration  1 RMS(Cart)=  0.02660234 RMS(Int)=  0.00050220
 Iteration  2 RMS(Cart)=  0.00064937 RMS(Int)=  0.00020686
 New curvilinear step failed, DQL= 4.25D-05 SP=-1.09D-02.
 ITry= 3 IFail=1 DXMaxC= 1.58D-01 DCOld= 1.00D+10 DXMaxT= 5.00D-02 DXLimC= 3.00D+00 Rises=F
 Iteration  1 RMS(Cart)=  0.02327026 RMS(Int)=  0.00037830
 Iteration  2 RMS(Cart)=  0.00048765 RMS(Int)=  0.00015616
 New curvilinear step failed, DQL= 3.35D-05 SP=-8.09D-03.
 ITry= 4 IFail=1 DXMaxC= 1.37D-01 DCOld= 1.00D+10 DXMaxT= 5.00D-02 DXLimC= 3.00D+00 Rises=F
 Iteration  1 RMS(Cart)=  0.01998259 RMS(Int)=  0.00027235
 Iteration  2 RMS(Cart)=  0.00034945 RMS(Int)=  0.00011284
 New curvilinear step failed, DQL= 2.60D-05 SP=-5.57D-03.
 ITry= 5 IFail=1 DXMaxC= 1.17D-01 DCOld= 1.00D+10 DXMaxT= 5.00D-02 DXLimC= 3.00D+00 Rises=F
 Iteration  1 RMS(Cart)=  0.01676543 RMS(Int)=  0.00018428
 Iteration  2 RMS(Cart)=  0.00023433 RMS(Int)=  0.00007688
 New curvilinear step failed, DQL= 2.00D-05 SP=-3.46D-03.
 ITry= 6 IFail=1 DXMaxC= 9.66D-02 DCOld= 1.00D+10 DXMaxT= 5.00D-02 DXLimC= 3.00D+00 Rises=F
 Iteration  1 RMS(Cart)=  0.01366869 RMS(Int)=  0.00011407
 Iteration  2 RMS(Cart)=  0.00014227 RMS(Int)=  0.00004833
 New curvilinear step failed, DQL= 1.58D-05 SP=-1.76D-03.
 ITry= 7 IFail=1 DXMaxC= 7.61D-02 DCOld= 1.00D+10 DXMaxT= 5.00D-02 DXLimC= 3.00D+00 Rises=F
 Iteration  1 RMS(Cart)=  0.01079649 RMS(Int)=  0.00006166
 Iteration  2 RMS(Cart)=  0.00007320 RMS(Int)=  0.00002727
 New curvilinear step failed, DQL= 1.42D-05 SP=-5.89D-04.
 ITry= 8 IFail=1 DXMaxC= 5.56D-02 DCOld= 1.00D+10 DXMaxT= 5.00D-02 DXLimC= 3.00D+00 Rises=F
 Iteration  1 RMS(Cart)=  0.00838287 RMS(Int)=  0.00002688
 Iteration  2 RMS(Cart)=  0.00002743 RMS(Int)=  0.00001390
 Iteration  3 RMS(Cart)=  0.00000176 RMS(Int)=  0.00001397
 Iteration  4 RMS(Cart)=  0.00000000 RMS(Int)=  0.00001397
 ITry= 9 IFail=0 DXMaxC= 3.50D-02 DCOld= 1.00D+10 DXMaxT= 5.00D-02 DXLimC= 3.00D+00 Rises=F
 Variable       Old X    -DE/DX   Delta X   Delta X   Delta X     New X
                                 (Linear)    (Quad)   (Total)
    X1       -2.35621  -0.00031   0.00000   0.00000   0.00000  -2.35621
    Y1        4.99348   0.00115   0.00000   0.00000   0.00000   4.99348
    Z1       -1.07926   0.00017   0.00000   0.00000   0.00000  -1.07926
    X7       -1.92214   0.00604   0.00000   0.00000   0.00000  -1.92214
    Y7       -4.27199  -0.00125   0.00000   0.00000   0.00000  -4.27199
    Z7       -1.41124   0.00191   0.00000   0.00000   0.00000  -1.41124
    X8       -1.44059  -0.00122   0.00000   0.00000   0.00000  -1.44059
    Y8        0.12895  -0.00509   0.00000   0.00000   0.00000   0.12895
    Z8       -0.14136   0.00295   0.00000   0.00000   0.00000  -0.14136
    X9        1.39124   0.00292   0.00000   0.00000   0.00000   1.39124
    Y9        0.00348  -0.00313   0.00000   0.00000   0.00000   0.00348
    Z9        0.06407  -0.00233   0.00000   0.00000   0.00000   0.06407
   X11        1.94743  -0.00878   0.00000   0.00000   0.00000   1.94743
   Y11       -4.58726   0.00866   0.00000   0.00000   0.00000  -4.58726
   Z11        1.12499  -0.00326   0.00000   0.00000   0.00000   1.12499
   X16        1.94548   0.00135   0.00000   0.00000   0.00000   1.94548
   Y16        4.49473  -0.00034   0.00000   0.00000   0.00000   4.49473
   Z16        0.64981   0.00056   0.00000   0.00000   0.00000   0.64981
    R1        2.87453   0.00263   0.00074  -0.00879  -0.00097   2.87356
    R2        2.06048   0.01153   0.00697   0.00254   0.00747   2.06795
    R3        2.05639   0.01200   0.00721   0.00263   0.00772   2.06411
    R4        2.05357   0.01092   0.00655   0.00225   0.00700   2.06056
    R5        2.63935   0.01742   0.00820   0.00392   0.00899   2.64834
    R6        2.70677   0.01423   0.00727   0.00098   0.00749   2.71425
    R7        2.60879   0.01795   0.00773   0.00472   0.00868   2.61747
    R8        2.04564   0.01347   0.00799   0.00269   0.00853   2.05417
    R9        2.61060   0.01602   0.00690   0.00484   0.00786   2.61846
   R10        2.04191   0.01384   0.00816   0.00284   0.00873   2.05064
   R11        2.61209   0.01596   0.00708   0.00590   0.00825   2.62034
   R12        2.04159   0.01349   0.00795   0.00279   0.00851   2.05010
   R13        2.56276  -0.00523  -0.00135  -0.00380  -0.00208   2.56068
   R14        2.68558   0.01260   0.00784   0.00537   0.00891   2.69449
   R15        2.84204   0.00366   0.00000  -0.00000   0.00000   2.84204
   R16        2.73330   0.00969   0.00878   0.00300   0.00939   2.74268
   R17        2.66853   0.01535   0.00798   0.00420   0.00882   2.67735
   R18        2.59440  -0.00604  -0.00031  -0.00081  -0.00044   2.59397
   R19        2.64310   0.01625   0.00771   0.00482   0.00867   2.65177
   R20        1.82054   0.01036   0.00398   0.00468   0.00491   1.82544
   R21        2.60591   0.01589   0.00692   0.00540   0.00800   2.61391
   R22        2.05037   0.01295   0.00773   0.00261   0.00826   2.05862
   R23        2.60706   0.01803   0.00782   0.00601   0.00902   2.61608
   R24        2.04082   0.01391   0.00818   0.00291   0.00876   2.04959
   R25        2.61468   0.01508   0.00672   0.00448   0.00761   2.62229
   R26        2.04074   0.01337   0.00787   0.00272   0.00842   2.04916
   R27        2.55648  -0.00070  -0.00016  -0.00081  -0.00029   2.55619
    A1        1.87010  -0.00057  -0.00066   0.00073  -0.00052   1.86958
    A2        1.96530   0.00219   0.00255  -0.00241   0.00206   1.96736
    A3        1.95452   0.00221   0.00265  -0.00343   0.00196   1.95648
    A4        1.88189  -0.00053  -0.00036  -0.00194  -0.00074   1.88115
    A5        1.88000  -0.00069  -0.00074   0.00007  -0.00072   1.87928
    A6        1.90830  -0.00277  -0.00360   0.00691  -0.00221   1.90609
    A7        1.95244   0.00464   0.00256   0.00527   0.00359   1.95603
    A8        2.25140  -0.00730  -0.00600   0.00592  -0.00484   2.24656
    A9        2.07085   0.00258   0.00299  -0.00071   0.00282   2.07367
   A10        2.15726  -0.00181  -0.00078  -0.00683  -0.00216   2.15509
   A11        2.05228   0.00037  -0.00028   0.00486   0.00068   2.05297
   A12        2.07305   0.00142   0.00093   0.00403   0.00173   2.07478
   A13        2.04515  -0.00063  -0.00004  -0.00677  -0.00141   2.04373
   A14        2.11662   0.00036   0.00016   0.00185   0.00054   2.11716
   A15        2.11565   0.00027   0.00004   0.00219   0.00048   2.11613
   A16        2.08108  -0.00097  -0.00010  -0.00199  -0.00056   2.08052
   A17        2.13475   0.00160   0.00135   0.00046   0.00143   2.13618
   A18        2.06697  -0.00066  -0.00136   0.00360  -0.00064   2.06633
   A19        1.97269   0.00535   0.00226  -0.00161   0.00195   1.97463
   A20        2.16476   0.00324   0.00264  -0.00187   0.00223   2.16700
   A21        2.14120  -0.00852  -0.00458  -0.00114  -0.00480   2.13640
   A22        1.96867  -0.00216  -0.00330  -0.00420  -0.00414   1.96453
   A23        2.21976   0.00111   0.00185   0.00847   0.00354   2.22329
   A24        2.09476   0.00105   0.00145  -0.00426   0.00060   2.09536
   A25        2.18733   0.00165   0.00229  -0.00175   0.00193   2.18926
   A26        2.13889   0.00229   0.00202  -0.00303   0.00141   2.14030
   A27        1.95554  -0.00395  -0.00434   0.00584  -0.00316   1.95238
   A28        2.19665  -0.01349  -0.00628  -0.00163  -0.00660   2.19005
   A29        2.08997   0.00610   0.00364  -0.00162   0.00330   2.09327
   A30        1.99422   0.00740   0.00271   0.00237   0.00319   1.99740
   A31        1.90632  -0.00715  -0.00898   0.01499  -0.00599   1.90034
   A32        2.15107  -0.00334  -0.00191  -0.00071  -0.00207   2.14900
   A33        2.05382   0.00092   0.00002   0.00215   0.00044   2.05427
   A34        2.07760   0.00239   0.00178   0.00039   0.00185   2.07945
   A35        2.05216  -0.00034   0.00064  -0.00253   0.00012   2.05228
   A36        2.11048   0.00014  -0.00031   0.00020  -0.00027   2.11021
   A37        2.11801   0.00021  -0.00017  -0.00026  -0.00022   2.11779
   A38        2.08160  -0.00154  -0.00055  -0.00220  -0.00101   2.08059
   A39        2.13485   0.00182   0.00153  -0.00015   0.00150   2.13635
   A40        2.06660  -0.00029  -0.00103   0.00312  -0.00040   2.06619
   A41        2.18992   0.00315   0.00288  -0.00166   0.00252   2.19244
   A42        2.12367  -0.00782  -0.00541  -0.00235  -0.00588   2.11780
   A43        1.96835   0.00469   0.00266   0.00234   0.00313   1.97148
    D1       -0.55226   0.00019   0.00255  -0.07968  -0.01338  -0.56564
    D2        2.44557  -0.00010  -0.00083   0.00838   0.00085   2.44642
    D3        1.51402   0.00043   0.00316  -0.08298  -0.01343   1.50059
    D4       -1.77132   0.00014  -0.00022   0.00509   0.00080  -1.77053
    D5       -2.61011   0.00013   0.00237  -0.07829  -0.01328  -2.62339
    D6        0.38773  -0.00016  -0.00101   0.00977   0.00095   0.38868
    D7        2.87439  -0.00112  -0.00289   0.05220   0.00759   2.88199
    D8       -0.22958  -0.00020   0.00124  -0.01327  -0.00138  -0.23096
    D9       -0.13998   0.00007   0.00092  -0.02628  -0.00435  -0.14433
   D10        3.03923   0.00099   0.00504  -0.09175  -0.01333   3.02590
   D11       -2.61085  -0.00041   0.00059  -0.04581  -0.00855  -2.61940
   D12        0.53174  -0.00033   0.00275  -0.06382  -0.01003   0.52171
   D13        0.37865  -0.00065  -0.00308   0.04782   0.00650   0.38515
   D14       -2.76194  -0.00057  -0.00092   0.02981   0.00502  -2.75692
   D15       -0.15801   0.00063   0.00397  -0.06207  -0.00844  -0.16644
   D16        3.09750   0.00056   0.00238  -0.03536  -0.00470   3.09281
   D17        2.94555  -0.00032  -0.00022   0.00414   0.00062   2.94617
   D18       -0.08213  -0.00040  -0.00182   0.03085   0.00436  -0.07777
   D19        0.18385  -0.00123  -0.00754   0.12490   0.01743   0.20128
   D20       -2.92726  -0.00023  -0.00268   0.04439   0.00619  -2.92107
   D21       -3.07159  -0.00115  -0.00594   0.09818   0.01370  -3.05790
   D22        0.10048  -0.00015  -0.00108   0.01767   0.00245   0.10294
   D23       -2.95289   0.00101   0.00339  -0.05680  -0.00796  -2.96085
   D24        0.08864   0.00134   0.00663  -0.10759  -0.01489   0.07375
   D25        0.15941   0.00008  -0.00124   0.02053   0.00286   0.16227
   D26       -3.08225   0.00041   0.00200  -0.03027  -0.00406  -3.08631
   D27       -0.36721  -0.00015  -0.00069   0.01874   0.00305  -0.36416
   D28        2.77346  -0.00023  -0.00267   0.03532   0.00441   2.77787
   D29        2.66493   0.00106   0.00330  -0.03686  -0.00407   2.66086
   D30       -0.47759   0.00098   0.00132  -0.02027  -0.00271  -0.48029
   D31        3.01124  -0.00005  -0.00225   0.03569   0.00490   3.01614
   D32       -0.06835   0.00025  -0.00164   0.01259   0.00092  -0.06743
   D33       -0.12929   0.00004   0.00005   0.01652   0.00333  -0.12596
   D34        3.07431   0.00033   0.00066  -0.00659  -0.00066   3.07365
   D35       -0.32526   0.00070   0.00132  -0.01830  -0.00232  -0.32758
   D36        2.89431   0.00008   0.00012  -0.00384  -0.00063   2.89368
   D37        2.75995   0.00060   0.00093   0.00246   0.00142   2.76137
   D38       -0.30366  -0.00002  -0.00027   0.01692   0.00310  -0.30056
   D39       -2.91768  -0.00019   0.00046  -0.00633  -0.00082  -2.91850
   D40        0.28142  -0.00071  -0.00244   0.03219   0.00397   0.28538
   D41        0.27849  -0.00008   0.00081  -0.02646  -0.00446   0.27403
   D42       -2.80560  -0.00061  -0.00209   0.01206   0.00033  -2.80528
   D43        3.08498   0.00014   0.00176  -0.03295  -0.00483   3.08015
   D44       -0.13087   0.00075   0.00297  -0.04686  -0.00640  -0.13727
   D45        0.14062   0.00066   0.00297  -0.04934  -0.00689   0.13372
   D46       -3.04150   0.00003  -0.00024   0.00387   0.00054  -3.04096
   D47       -2.93167   0.00102   0.00231  -0.03634  -0.00496  -2.93662
   D48        0.16941   0.00039  -0.00090   0.01687   0.00247   0.17188
   D49        0.09085  -0.00054  -0.00509   0.08409   0.01173   0.10257
   D50       -3.12621  -0.00040  -0.00277   0.04553   0.00633  -3.11987
   D51       -3.00970   0.00014  -0.00180   0.03015   0.00423  -3.00547
   D52        0.05643   0.00027   0.00052  -0.00841  -0.00117   0.05526
   D53       -0.12968   0.00104   0.00550  -0.08845  -0.01219  -0.14187
   D54        2.99384   0.00014   0.00232  -0.03800  -0.00528   2.98857
   D55        3.08772   0.00092   0.00318  -0.04974  -0.00677   3.08095
   D56       -0.07194   0.00001   0.00000   0.00071   0.00014  -0.07180
   D57       -0.06725  -0.00104  -0.00418   0.06500   0.00882  -0.05843
   D58        3.02128  -0.00091  -0.00174   0.02932   0.00411   3.02539
   D59        3.09171  -0.00019  -0.00115   0.01656   0.00216   3.09387
   D60       -0.10295  -0.00007   0.00129  -0.01912  -0.00254  -0.10549
         Item               Value     Threshold  Converged?
 Maximum Force            0.017521     0.000450     NO 
 RMS     Force            0.006289     0.000300     NO 
 Maximum Displacement     0.035044     0.001800     NO 
 RMS     Displacement     0.008375     0.001200     NO 
 Predicted change in Energy=-2.430528D-03
 GradGradGradGradGradGradGradGradGradGradGradGradGradGradGradGradGradGrad

                          Input orientation:                          
 ---------------------------------------------------------------------
 Center     Atomic      Atomic             Coordinates (Angstroms)
 Number     Number       Type             X           Y           Z
 ---------------------------------------------------------------------
      1          6           0       -1.246851    2.642434   -0.571121
      2          6           0       -1.585376    1.245354   -0.075279
      3          6           0       -2.935691    1.125490    0.280137
      4          6           0       -3.569484   -0.090629    0.474769
      5          6           0       -2.872781   -1.231132    0.108948
      6          6           0       -1.523488   -1.131492   -0.194703
      7          9           0       -1.017152   -2.260642   -0.746795
      8          6           0       -0.762327    0.068235   -0.074803
      9          6           0        0.736210    0.001839    0.033906
     10          6           0        1.516435   -1.213485    0.177769
     11          8           0        1.030537   -2.427476    0.595317
     12          6           0        2.904153   -1.183243   -0.028260
     13          6           0        3.614883   -0.011850   -0.217984
     14          6           0        2.930468    1.183240   -0.077205
     15          6           0        1.551304    1.159980    0.074322
     16          9           0        1.029505    2.378508    0.343864
     17          1           0       -2.137502    3.029951   -1.075195
     18          1           0       -0.997579    3.329365    0.240708
     19          1           0       -0.432999    2.634165   -1.296761
     20          1           0       -3.513630    2.040646    0.380568
     21          1           0       -4.605581   -0.141856    0.793247
     22          1           0       -3.348154   -2.203355    0.033204
     23          1           0        1.740805   -3.080647    0.550456
     24          1           0        3.440249   -2.131308   -0.005599
     25          1           0        4.684885   -0.031780   -0.394172
     26          1           0        3.433674    2.143759   -0.070450
 ---------------------------------------------------------------------
                    Distance matrix (angstroms):
                    1          2          3          4          5
     1  C    0.000000
     2  C    1.520622   0.000000
     3  C    2.424446   1.401442   0.000000
     4  C    3.736060   2.454401   1.385107   0.000000
     5  C    4.255662   2.797201   2.363669   1.385629   0.000000
     6  C    3.802727   2.380648   2.704396   2.391168   1.386622
     7  F    4.911596   3.614667   4.025081   3.565890   2.288131
     8  C    2.666007   1.436321   2.442802   2.864856   2.485183
     9  C    3.357280   2.635908   3.847867   4.329193   3.814533
    10  C    4.802572   3.966252   5.030180   5.216856   4.389791
    11  O    5.679002   4.558769   5.334217   5.160967   4.111409
    12  C    5.671097   5.104524   6.287221   6.584438   5.778761
    13  C    5.550350   5.351974   6.667211   7.218119   6.609336
    14  C    4.452325   4.516272   5.877317   6.646563   6.288207
    15  C    3.231708   3.141406   4.491846   5.286478   5.029030
    16  F    2.467519   2.880507   4.158954   5.221539   5.320951
    17  H    1.094312   2.118835   2.470020   3.767091   4.483264
    18  H    1.092281   2.188254   2.935115   4.285538   4.932735
    19  H    1.090402   2.179172   3.320569   4.516676   4.782162
    20  H    2.531037   2.135052   1.087019   2.134087   3.344996
    21  H    4.571088   3.435161   2.158236   1.085150   2.158098
    22  H    5.316235   3.874628   3.363378   2.169696   1.084866
    23  H    6.552685   5.492659   6.295576   6.094678   4.990070
    24  H    6.713966   6.055048   7.165263   7.316521   6.377914
    25  H    6.509088   6.406945   7.737387   8.300189   7.668761
    26  H    4.733567   5.098825   6.459767   7.371158   7.154959
                    6          7          8          9         10
     6  C    0.000000
     7  F    1.355051   0.000000
     8  C    1.425864   2.437248   0.000000
     9  C    2.538294   2.966916   1.503941   0.000000
    10  C    3.063755   2.893167   2.626662   1.451365   0.000000
    11  O    2.970985   2.454003   3.145154   2.510654   1.372668
    12  C    4.431071   4.129615   3.874460   2.471490   1.403255
    13  C    5.258993   5.176143   4.380284   2.889705   2.450313
    14  C    5.020908   5.281324   3.857458   2.494559   2.794422
    15  C    3.844160   4.355669   2.562622   1.416793   2.375975
    16  F    4.373549   5.186526   2.953524   2.414674   3.628651
    17  H    4.297660   5.417878   3.415208   4.319466   5.738286
    18  H    4.512804   5.676594   3.284792   3.757821   5.192467
    19  H    4.072330   4.960124   2.861055   3.172832   4.558393
    20  H    3.788675   5.099454   3.415763   4.726314   5.994335
    21  H    3.384482   4.442725   3.945663   5.397405   6.245501
    22  H    2.128436   2.458709   3.443587   4.641650   4.966384
    23  H    3.874284   3.156199   4.070881   3.282949   1.917167
    24  H    5.066960   4.520456   4.743883   3.444373   2.139412
    25  H    6.308174   6.132324   5.457483   3.971954   3.429668
    26  H    5.942740   6.298098   4.681265   3.446015   3.874081
                   11         12         13         14         15
    11  O    0.000000
    12  C    2.333967   0.000000
    13  C    3.629815   1.383219   0.000000
    14  C    4.135130   2.367136   1.384371   0.000000
    15  C    3.662305   2.707659   2.391022   1.387659   0.000000
    16  F    4.812558   4.042134   3.565623   2.284650   1.352678
    17  H    6.527678   6.653222   6.563330   5.485494   4.292489
    18  H    6.113936   5.971556   5.713924   4.487369   3.351226
    19  H    5.598402   5.226690   4.954847   3.860753   2.826755
    20  H    6.376495   7.193646   7.442224   6.516986   5.150040
    21  H    6.085151   7.625973   8.283449   7.701014   6.333946
    22  H    4.420310   6.335279   7.304087   7.134586   5.942929
    23  H    0.965984   2.299660   3.676981   4.471017   4.271479
    24  H    2.501105   1.089376   2.137220   3.354286   3.795666
    25  H    4.480258   2.151921   1.084594   2.157480   3.385131
    26  H    5.207158   3.369141   2.168236   1.084369   2.128872
                   16         17         18         19         20
    16  F    0.000000
    17  H    3.531011   0.000000
    18  H    2.241392   1.766543   0.000000
    19  H    2.212675   1.763822   1.779288   0.000000
    20  H    4.555828   2.234210   2.830348   3.557525   0.000000
    21  H    6.189376   4.432025   5.037098   5.429997   2.475072
    22  H    6.344594   5.484680   6.014919   5.802460   4.261407
    23  H    5.509174   7.417776   6.977316   6.387230   7.339318
    24  H    5.125646   7.674238   7.040876   6.275259   8.118544
    25  H    4.440269   7.508859   6.632554   5.840777   8.491809
    26  H    2.450876   5.729995   4.597661   4.086012   6.962692
                   21         22         23         24         25
    21  H    0.000000
    22  H    2.531514   0.000000
    23  H    6.998003   5.189864   0.000000
    24  H    8.326552   6.788897   2.024489   0.000000
    25  H    9.366688   8.332353   4.342294   2.471462   0.000000
    26  H    8.402359   8.056136   5.526820   4.275563   2.530473
                   26
    26  H    0.000000
 Symmetry turned off by external request.
 Stoichiometry    C13H10F2O
 Framework group  C1[X(C13H10F2O)]
 Deg. of freedom    72
 Full point group                 C1      NOp   1
 Rotational constants (GHZ):           0.8354503           0.4804848           0.3173359
 Standard basis: def2SVP (5D, 7F)
   274 basis functions,   470 primitive gaussians,   290 cartesian basis functions
    57 alpha electrons       57 beta electrons
       nuclear repulsion energy      1073.4843928221 Hartrees.
 NAtoms=   26 NActive=   26 NUniq=   26 SFac= 1.00D+00 NAtFMM=   60 NAOKFM=F Big=F
 Integral buffers will be    131072 words long.
 Raffenetti 2 integral format.
 Two-electron integral symmetry is turned off.
 Nuclear repulsion after empirical dispersion term =     1073.4329510153 Hartrees.
 One-electron integrals computed using PRISM.
   1 Symmetry operations used in ECPInt.
 ECPInt:  NShTT=    8001 NPrTT=   29641 LenC2=    7598 LenP2D=   20283.
 LDataN:  DoStor=T MaxTD1= 4 Len=   56
 NBasis=   274 RedAO= T EigKep=  2.80D-04  NBF=   274
 NBsUse=   274 1.00D-06 EigRej= -1.00D+00 NBFU=   274
 Initial guess from the checkpoint file:  "path/to/scratch/gaussian_tmp/Gau-296824.chk"
 B after Tr=     0.000332   -0.000979   -0.001101
         Rot=    1.000000   -0.000064   -0.000502   -0.000080 Ang=  -0.06 deg.
 ExpMin= 1.22D-01 ExpMax= 2.89D+03 ExpMxC= 4.35D+02 IAcc=3 IRadAn=         5 AccDes= 0.00D+00
 Harris functional with IExCor=  404 and IRadAn=       5 diagonalized for initial guess.
 HarFok:  IExCor=  404 AccDes= 0.00D+00 IRadAn=         5 IDoV= 1 UseB2=F ITyADJ=14
 ICtDFT=  3500011 ScaDFX=  1.000000  1.000000  1.000000  1.000000
 FoFCou: FMM=F IPFlag=           0 FMFlag=      100000 FMFlg1=           0
         NFxFlg=           0 DoJE=T BraDBF=F KetDBF=T FulRan=T
         wScrn=  0.000000 ICntrl=       500 IOpCl=  0 I1Cent=   200000004 NGrid=           0
         NMat0=    1 NMatS0=      1 NMatT0=    0 NMatD0=    1 NMtDS0=    0 NMtDT0=    0
 Symmetry not used in FoFCou.
 Requested convergence on RMS density matrix=1.00D-08 within 128 cycles.
 Requested convergence on MAX density matrix=1.00D-06.
 Requested convergence on             energy=1.00D-06.
 No special actions if energy rises.
 Integral accuracy reduced to 1.0D-05 until final iterations.
 Initial convergence to 1.0D-05 achieved.  Increase integral accuracy.
 SCF Done:  E(RB-P86) =  -775.737525229     A.U. after   12 cycles
            NFock= 12  Conv=0.35D-08     -V/T= 2.0099
   1 Symmetry operations used in ECPInt.
 ECPInt:  NShTT=    8001 NPrTT=   29641 LenC2=    7598 LenP2D=   20283.
 LDataN:  DoStor=T MaxTD1= 5 Len=  102
 Calling FoFJK, ICntrl=      2527 FMM=F ISym2X=0 I1Cent= 0 IOpClX= 0 NMat=1 NMatS=1 NMatT=0.
 -------------------------------------------------------------------
 Center     Atomic                   Forces (Hartrees/Bohr)
 Number     Number              X              Y              Z
 -------------------------------------------------------------------
      1        6           0.001202708   -0.010154418    0.001830185
      2        6          -0.000822449    0.007794852    0.001019315
      3        6          -0.000941801    0.001536253    0.003471039
      4        6          -0.001676139   -0.001096480   -0.001176486
      5        6          -0.000946891   -0.001330789    0.004658720
      6        6          -0.001356035   -0.010494790   -0.007420454
      7        9           0.008661192    0.004841490    0.003748912
      8        6           0.014137280   -0.007277758    0.002156794
      9        6          -0.015663708   -0.008181732   -0.004015912
     10        6           0.005166657   -0.009146896    0.003729127
     11        8          -0.023375839    0.020722794   -0.003451666
     12        6           0.002303783   -0.002629675   -0.003975335
     13        6           0.000240948   -0.000934013    0.002098750
     14        6           0.000643968    0.002707012   -0.003385054
     15        6           0.004089460    0.008442371    0.004150361
     16        9          -0.001922583   -0.002930715    0.000598638
     17        1          -0.007288196    0.003317085   -0.004120521
     18        1           0.003422884    0.006836459    0.005658986
     19        1           0.006410083    0.001882549   -0.005224281
     20        1          -0.005213642    0.008864177   -0.000201515
     21        1          -0.010309049   -0.000419285    0.002125931
     22        1          -0.003442043   -0.009677817   -0.000470562
     23        1           0.008094764   -0.002947433   -0.000955468
     24        1           0.004222820   -0.008908347    0.000267113
     25        1           0.010524160   -0.000213094   -0.000991957
     26        1           0.003837668    0.009398200   -0.000124664
 -------------------------------------------------------------------
 Cartesian Forces:  Max     0.023375839 RMS     0.006520793

 GradGradGradGradGradGradGradGradGradGradGradGradGradGradGradGradGradGrad
 Berny optimization.
 Using GEDIIS/GDIIS optimizer.
 FormGI is forming the generalized inverse of G from B-inverse, IUseBI=4.
 Internal  Forces:  Max     0.013272659 RMS     0.004746273
 Search for a local minimum.
 Step number   3 out of a maximum of  156
 All quantities printed in internal units (Hartrees-Bohrs-Radians)
 Mixed Optimization -- RFO/linear search
 Update second derivatives using D2CorX and points    1    2    3
 DE= -2.43D-03 DEPred=-2.43D-03 R= 1.00D+00
 TightC=F SS=  1.41D+00  RLast= 6.79D-02 DXNew= 8.4090D-02 2.0374D-01
 Trust test= 1.00D+00 RLast= 6.79D-02 DXMaxT set to 8.41D-02
 ITU=  1  1  0
 Use linear search instead of GDIIS.
 Linear search step of   0.086 exceeds DXMaxT=   0.084 but not scaled.
 Quartic linear search produced a step of  2.00000.
 Iteration  1 RMS(Cart)=  0.01673327 RMS(Int)=  0.00011802
 Iteration  2 RMS(Cart)=  0.00011015 RMS(Int)=  0.00007468
 New curvilinear step failed, DQL= 8.00D-05 SP=-3.11D-04.
 ITry= 1 IFail=1 DXMaxC= 7.01D-02 DCOld= 1.00D+10 DXMaxT= 8.41D-02 DXLimC= 3.00D+00 Rises=F
 Iteration  1 RMS(Cart)=  0.01673327 RMS(Int)=  0.00011802
 Iteration  2 RMS(Cart)=  0.00011015 RMS(Int)=  0.00007468
 New curvilinear step failed, DQL= 8.00D-05 SP=-3.11D-04.
 ITry= 2 IFail=1 DXMaxC= 7.01D-02 DCOld= 1.00D+10 DXMaxT= 8.41D-02 DXLimC= 3.00D+00 Rises=F
 Iteration  1 RMS(Cart)=  0.01673327 RMS(Int)=  0.00011802
 Iteration  2 RMS(Cart)=  0.00011015 RMS(Int)=  0.00007468
 New curvilinear step failed, DQL= 8.00D-05 SP=-3.11D-04.
 ITry= 3 IFail=1 DXMaxC= 7.01D-02 DCOld= 1.00D+10 DXMaxT= 8.41D-02 DXLimC= 3.00D+00 Rises=F
 Iteration  1 RMS(Cart)=  0.01673327 RMS(Int)=  0.00011802
 Iteration  2 RMS(Cart)=  0.00011015 RMS(Int)=  0.00007468
 New curvilinear step failed, DQL= 8.00D-05 SP=-3.11D-04.
 ITry= 4 IFail=1 DXMaxC= 7.01D-02 DCOld= 1.00D+10 DXMaxT= 8.41D-02 DXLimC= 3.00D+00 Rises=F
 Iteration  1 RMS(Cart)=  0.01673327 RMS(Int)=  0.00011802
 Iteration  2 RMS(Cart)=  0.00011015 RMS(Int)=  0.00007468
 New curvilinear step failed, DQL= 8.00D-05 SP=-3.11D-04.
 ITry= 5 IFail=1 DXMaxC= 7.01D-02 DCOld= 1.00D+10 DXMaxT= 8.41D-02 DXLimC= 3.00D+00 Rises=F
 Iteration  1 RMS(Cart)=  0.01673327 RMS(Int)=  0.00011802
 Iteration  2 RMS(Cart)=  0.00011015 RMS(Int)=  0.00007468
 New curvilinear step failed, DQL= 8.00D-05 SP=-3.11D-04.
 ITry= 6 IFail=1 DXMaxC= 7.01D-02 DCOld= 1.00D+10 DXMaxT= 8.41D-02 DXLimC= 3.00D+00 Rises=F
 Iteration  1 RMS(Cart)=  0.01673327 RMS(Int)=  0.00011802
 Iteration  2 RMS(Cart)=  0.00011015 RMS(Int)=  0.00007468
 New curvilinear step failed, DQL= 8.00D-05 SP=-3.11D-04.
 ITry= 7 IFail=1 DXMaxC= 7.01D-02 DCOld= 1.00D+10 DXMaxT= 8.41D-02 DXLimC= 3.00D+00 Rises=F
 Iteration  1 RMS(Cart)=  0.01673327 RMS(Int)=  0.00011802
 Iteration  2 RMS(Cart)=  0.00011015 RMS(Int)=  0.00007468
 New curvilinear step failed, DQL= 8.00D-05 SP=-3.11D-04.
 ITry= 8 IFail=1 DXMaxC= 7.01D-02 DCOld= 1.00D+10 DXMaxT= 8.41D-02 DXLimC= 3.00D+00 Rises=F
 Iteration  1 RMS(Cart)=  0.01673327 RMS(Int)=  0.00011802
 Iteration  2 RMS(Cart)=  0.00011015 RMS(Int)=  0.00007468
 New curvilinear step failed, DQL= 8.00D-05 SP=-3.11D-04.
 ITry= 9 IFail=1 DXMaxC= 7.01D-02 DCOld= 1.00D+10 DXMaxT= 8.41D-02 DXLimC= 3.00D+00 Rises=F
 Iteration  1 RMS(Cart)=  0.01673327 RMS(Int)=  0.00011802
 Iteration  2 RMS(Cart)=  0.00011015 RMS(Int)=  0.00007468
 New curvilinear step failed, DQL= 8.00D-05 SP=-3.11D-04.
 ITry=10 IFail=1 DXMaxC= 7.01D-02 DCOld= 1.00D+10 DXMaxT= 8.41D-02 DXLimC= 3.00D+00 Rises=F
 RedQX1 iteration     1 Try  1 RMS(Cart)=  0.00334665 RMS(Int)=  0.00893309 XScale=  5.00212600
 RedQX1 iteration     1 Try  2 RMS(Cart)=  0.00334633 RMS(Int)=  0.00670273 XScale=  2.50199161
 RedQX1 iteration     1 Try  3 RMS(Cart)=  0.00334506 RMS(Int)=  0.00447347 XScale=  1.66843674
 RedQX1 iteration     1 Try  4 RMS(Cart)=  0.00334191 RMS(Int)=  0.00224422 XScale=  1.25142399
 RedQX1 iteration     1 Try  5 RMS(Cart)=  0.00333324 RMS(Int)=  0.00007433 XScale=  1.00074871
 RedQX1 iteration     1 Try  6 RMS(Cart)=  0.00004267 RMS(Int)=  0.00006567 XScale=  0.99997211
 RedQX1 iteration     2 Try  1 RMS(Cart)=  0.00000016 RMS(Int)=  0.00006567 XScale=  0.99997647
 RedQX1 iteration     1 Try  1 RMS(Cart)=  0.00000487 RMS(Int)=  0.00001408 XScale=  7.11075846
 Variable       Old X    -DE/DX   Delta X   Delta X   Delta X     New X
                                 (Linear)    (Quad)   (Total)
    X1       -2.35621  -0.00039   0.00000   0.00000  -0.00001  -2.35622
    Y1        4.99348   0.00062   0.00000   0.00000  -0.00009   4.99339
    Z1       -1.07926   0.00021   0.00000   0.00000   0.00002  -1.07924
    X7       -1.92214   0.00602   0.00000   0.00000  -0.00003  -1.92217
    Y7       -4.27199  -0.00081   0.00000   0.00000   0.00004  -4.27195
    Z7       -1.41124   0.00209   0.00000   0.00000   0.00000  -1.41124
    X8       -1.44059  -0.00084   0.00000   0.00000   0.00002  -1.44057
    Y8        0.12895  -0.00496   0.00000   0.00000   0.00004   0.12898
    Z8       -0.14136   0.00258   0.00000   0.00000  -0.00007  -0.14143
    X9        1.39124   0.00243   0.00000   0.00000  -0.00002   1.39121
    Y9        0.00348  -0.00302   0.00000   0.00000   0.00000   0.00348
    Z9        0.06407  -0.00208   0.00000   0.00000   0.00006   0.06413
   X11        1.94743  -0.00870   0.00000   0.00000   0.00002   1.94745
   Y11       -4.58726   0.00918   0.00000   0.00000   0.00006  -4.58721
   Z11        1.12499  -0.00339   0.00000   0.00000  -0.00001   1.12498
   X16        1.94548   0.00149   0.00000   0.00000   0.00003   1.94551
   Y16        4.49473  -0.00101   0.00000   0.00000  -0.00005   4.49467
   Z16        0.64981   0.00059   0.00000   0.00000  -0.00001   0.64980
    R1        2.87356   0.00275  -0.00195   0.00000  -0.00184   2.87172
    R2        2.06795   0.00900   0.01493   0.00000   0.01493   2.08288
    R3        2.06411   0.00929   0.01545   0.00000   0.01544   2.07956
    R4        2.06056   0.00825   0.01399   0.00000   0.01399   2.07456
    R5        2.64834   0.01264   0.01798   0.00000   0.01803   2.66637
    R6        2.71425   0.01117   0.01498   0.00000   0.01509   2.72934
    R7        2.61747   0.01327   0.01736   0.00000   0.01737   2.63485
    R8        2.05417   0.01022   0.01706   0.00000   0.01706   2.07123
    R9        2.61846   0.01194   0.01571   0.00000   0.01566   2.63412
   R10        2.05064   0.01049   0.01745   0.00000   0.01745   2.06809
   R11        2.62034   0.01129   0.01650   0.00000   0.01645   2.63678
   R12        2.05010   0.01021   0.01701   0.00000   0.01701   2.06711
   R13        2.56068  -0.00439  -0.00417   0.00000  -0.00411   2.55656
   R14        2.69449   0.00939   0.01782   0.00000   0.01784   2.71233
   R15        2.84204   0.00284   0.00000   0.00000  -0.00003   2.84200
   R16        2.74268   0.00633   0.01878   0.00000   0.01882   2.76151
   R17        2.67735   0.01187   0.01765   0.00000   0.01768   2.69503
   R18        2.59397  -0.00558  -0.00087   0.00000  -0.00080   2.59317
   R19        2.65177   0.01164   0.01734   0.00000   0.01735   2.66912
   R20        1.82544   0.00799   0.00982   0.00000   0.00982   1.83526
   R21        2.61391   0.01156   0.01599   0.00000   0.01600   2.62990
   R22        2.05862   0.00984   0.01651   0.00000   0.01651   2.07513
   R23        2.61608   0.01325   0.01803   0.00000   0.01803   2.63411
   R24        2.04959   0.01055   0.01753   0.00000   0.01753   2.06711
   R25        2.62229   0.01072   0.01522   0.00000   0.01522   2.63751
   R26        2.04916   0.01010   0.01683   0.00000   0.01683   2.06599
   R27        2.55619  -0.00041  -0.00058   0.00000  -0.00050   2.55569
    A1        1.86958  -0.00040  -0.00105   0.00000  -0.00105   1.86854
    A2        1.96736   0.00191   0.00412   0.00000   0.00412   1.97148
    A3        1.95648   0.00211   0.00391   0.00000   0.00391   1.96039
    A4        1.88115  -0.00054  -0.00148   0.00000  -0.00148   1.87968
    A5        1.87928  -0.00074  -0.00144   0.00000  -0.00144   1.87784
    A6        1.90609  -0.00250  -0.00442   0.00000  -0.00443   1.90166
    A7        1.95603   0.00376   0.00719   0.00000   0.00705   1.96308
    A8        2.24656  -0.00559  -0.00967   0.00000  -0.00984   2.23672
    A9        2.07367   0.00173   0.00563   0.00000   0.00546   2.07912
   A10        2.15509  -0.00131  -0.00433   0.00000  -0.00443   2.15067
   A11        2.05297   0.00005   0.00137   0.00000   0.00131   2.05428
   A12        2.07478   0.00124   0.00346   0.00000   0.00341   2.07819
   A13        2.04373  -0.00024  -0.00283   0.00000  -0.00295   2.04079
   A14        2.11716   0.00017   0.00108   0.00000   0.00112   2.11828
   A15        2.11613   0.00010   0.00097   0.00000   0.00101   2.11714
   A16        2.08052  -0.00075  -0.00111   0.00000  -0.00141   2.07911
   A17        2.13618   0.00144   0.00287   0.00000   0.00286   2.13904
   A18        2.06633  -0.00071  -0.00129   0.00000  -0.00130   2.06503
   A19        1.97463   0.00474   0.00389   0.00000   0.00392   1.97855
   A20        2.16700   0.00249   0.00447   0.00000   0.00430   2.17130
   A21        2.13640  -0.00714  -0.00960   0.00000  -0.00959   2.12681
   A22        1.96453  -0.00159  -0.00827   0.00000  -0.00825   1.95628
   A23        2.22329   0.00065   0.00707   0.00000   0.00706   2.23036
   A24        2.09536   0.00094   0.00120   0.00000   0.00118   2.09655
   A25        2.18926   0.00128   0.00386   0.00000   0.00384   2.19309
   A26        2.14030   0.00204   0.00282   0.00000   0.00277   2.14307
   A27        1.95238  -0.00333  -0.00631   0.00000  -0.00628   1.94610
   A28        2.19005  -0.01158  -0.01320   0.00000  -0.01316   2.17689
   A29        2.09327   0.00511   0.00660   0.00000   0.00654   2.09981
   A30        1.99740   0.00648   0.00637   0.00000   0.00639   2.00379
   A31        1.90034  -0.00605  -0.01198   0.00000  -0.01198   1.88836
   A32        2.14900  -0.00277  -0.00413   0.00000  -0.00423   2.14477
   A33        2.05427   0.00065   0.00089   0.00000   0.00087   2.05513
   A34        2.07945   0.00210   0.00371   0.00000   0.00369   2.08314
   A35        2.05228  -0.00012   0.00024   0.00000   0.00014   2.05242
   A36        2.11021   0.00005  -0.00055   0.00000  -0.00054   2.10967
   A37        2.11779   0.00008  -0.00044   0.00000  -0.00043   2.11735
   A38        2.08059  -0.00122  -0.00202   0.00000  -0.00213   2.07845
   A39        2.13635   0.00156   0.00300   0.00000   0.00299   2.13935
   A40        2.06619  -0.00035  -0.00081   0.00000  -0.00081   2.06538
   A41        2.19244   0.00242   0.00505   0.00000   0.00496   2.19740
   A42        2.11780  -0.00614  -0.01175   0.00000  -0.01174   2.10606
   A43        1.97148   0.00374   0.00626   0.00000   0.00628   1.97776
    D1       -0.56564   0.00048  -0.02676   0.00000  -0.02671  -0.59235
    D2        2.44642  -0.00020   0.00170   0.00000   0.00165   2.44807
    D3        1.50059   0.00066  -0.02686   0.00000  -0.02682   1.47377
    D4       -1.77053  -0.00002   0.00159   0.00000   0.00154  -1.76899
    D5       -2.62339   0.00044  -0.02655   0.00000  -0.02650  -2.64989
    D6        0.38868  -0.00024   0.00190   0.00000   0.00186   0.39053
    D7        2.88199  -0.00114   0.01519   0.00000   0.01546   2.89745
    D8       -0.23096  -0.00002  -0.00276   0.00000  -0.00253  -0.23349
    D9       -0.14433   0.00009  -0.00871   0.00000  -0.00877  -0.15311
   D10        3.02590   0.00121  -0.02665   0.00000  -0.02676   2.99914
   D11       -2.61940  -0.00003  -0.01710   0.00000  -0.01694  -2.63634
   D12        0.52171   0.00003  -0.02005   0.00000  -0.01994   0.50177
   D13        0.38515  -0.00067   0.01300   0.00000   0.01307   0.39822
   D14       -2.75692  -0.00061   0.01005   0.00000   0.01007  -2.74685
   D15       -0.16644   0.00092  -0.01687   0.00000  -0.01685  -0.18330
   D16        3.09281   0.00067  -0.00940   0.00000  -0.00943   3.08337
   D17        2.94617  -0.00024   0.00124   0.00000   0.00134   2.94751
   D18       -0.07777  -0.00048   0.00872   0.00000   0.00875  -0.06901
   D19        0.20128  -0.00168   0.03486   0.00000   0.03481   0.23609
   D20       -2.92107  -0.00040   0.01237   0.00000   0.01230  -2.90877
   D21       -3.05790  -0.00143   0.02739   0.00000   0.02740  -3.03049
   D22        0.10294  -0.00015   0.00491   0.00000   0.00489   0.10783
   D23       -2.96085   0.00114  -0.01593   0.00000  -0.01586  -2.97671
   D24        0.07375   0.00168  -0.02977   0.00000  -0.02983   0.04392
   D25        0.16227  -0.00006   0.00572   0.00000   0.00574   0.16801
   D26       -3.08631   0.00048  -0.00812   0.00000  -0.00823  -3.09454
   D27       -0.36416  -0.00030   0.00611   0.00000   0.00614  -0.35802
   D28        2.77787  -0.00036   0.00882   0.00000   0.00888   2.78675
   D29        2.66086   0.00105  -0.00813   0.00000  -0.00808   2.65279
   D30       -0.48029   0.00099  -0.00541   0.00000  -0.00534  -0.48563
   D31        3.01614  -0.00006   0.00980   0.00000   0.00987   3.02601
   D32       -0.06743   0.00034   0.00183   0.00000   0.00187  -0.06556
   D33       -0.12596   0.00000   0.00665   0.00000   0.00665  -0.11931
   D34        3.07365   0.00041  -0.00132   0.00000  -0.00135   3.07231
   D35       -0.32758   0.00069  -0.00463   0.00000  -0.00461  -0.33219
   D36        2.89368   0.00011  -0.00127   0.00000  -0.00127   2.89241
   D37        2.76137   0.00046   0.00284   0.00000   0.00284   2.76421
   D38       -0.30056  -0.00012   0.00621   0.00000   0.00618  -0.29437
   D39       -2.91850  -0.00014  -0.00165   0.00000  -0.00165  -2.92015
   D40        0.28538  -0.00075   0.00794   0.00000   0.00787   0.29326
   D41        0.27403   0.00010  -0.00892   0.00000  -0.00890   0.26513
   D42       -2.80528  -0.00051   0.00066   0.00000   0.00062  -2.80465
   D43        3.08015   0.00021  -0.00967   0.00000  -0.00968   3.07047
   D44       -0.13727   0.00077  -0.01280   0.00000  -0.01279  -0.15006
   D45        0.13372   0.00079  -0.01378   0.00000  -0.01380   0.11993
   D46       -3.04096   0.00001   0.00108   0.00000   0.00104  -3.03992
   D47       -2.93662   0.00107  -0.00991   0.00000  -0.00990  -2.94652
   D48        0.17188   0.00030   0.00495   0.00000   0.00494   0.17682
   D49        0.10257  -0.00084   0.02345   0.00000   0.02345   0.12602
   D50       -3.11987  -0.00054   0.01266   0.00000   0.01266  -3.10721
   D51       -3.00547  -0.00003   0.00845   0.00000   0.00843  -2.99704
   D52        0.05526   0.00028  -0.00233   0.00000  -0.00235   0.05291
   D53       -0.14187   0.00133  -0.02438   0.00000  -0.02440  -0.16627
   D54        2.98857   0.00030  -0.01055   0.00000  -0.01056   2.97801
   D55        3.08095   0.00103  -0.01354   0.00000  -0.01356   3.06739
   D56       -0.07180  -0.00001   0.00029   0.00000   0.00029  -0.07151
   D57       -0.05843  -0.00123   0.01764   0.00000   0.01764  -0.04078
   D58        3.02539  -0.00097   0.00823   0.00000   0.00816   3.03355
   D59        3.09387  -0.00025   0.00433   0.00000   0.00436   3.09824
   D60       -0.10549   0.00001  -0.00508   0.00000  -0.00512  -0.11061
         Item               Value     Threshold  Converged?
 Maximum Force            0.012860     0.000450     NO 
 RMS     Force            0.004747     0.000300     NO 
 Maximum Displacement     0.070167     0.001800     NO 
 RMS     Displacement     0.016702     0.001200     NO 
 Predicted change in Energy=-2.468529D-03
 GradGradGradGradGradGradGradGradGradGradGradGradGradGradGradGradGradGrad

                          Input orientation:                          
 ---------------------------------------------------------------------
 Center     Atomic      Atomic             Coordinates (Angstroms)
 Number     Number       Type             X           Y           Z
 ---------------------------------------------------------------------
      1          6           0       -1.246859    2.642388   -0.571109
      2          6           0       -1.597677    1.246436   -0.083690
      3          6           0       -2.954419    1.129117    0.285584
      4          6           0       -3.586730   -0.096270    0.492180
      5          6           0       -2.890333   -1.239457    0.103390
      6          6           0       -1.530261   -1.138699   -0.191548
      7          9           0       -1.017168   -2.260620   -0.746794
      8          6           0       -0.762316    0.068255   -0.074839
      9          6           0        0.736198    0.001840    0.033939
     10          6           0        1.526737   -1.219075    0.174964
     11          8           0        1.030547   -2.427445    0.595314
     12          6           0        2.923643   -1.191693   -0.032108
     13          6           0        3.634281   -0.012712   -0.236509
     14          6           0        2.947695    1.190330   -0.080683
     15          6           0        1.560300    1.165242    0.069371
     16          9           0        1.029519    2.378480    0.343857
     17          1           0       -2.134492    3.035101   -1.093375
     18          1           0       -1.007257    3.335825    0.249095
     19          1           0       -0.415428    2.637044   -1.287961
     20          1           0       -3.532127    2.053069    0.403414
     21          1           0       -4.626101   -0.151122    0.830377
     22          1           0       -3.367673   -2.220300    0.021891
     23          1           0        1.743651   -3.084312    0.538772
     24          1           0        3.462402   -2.148342   -0.011746
     25          1           0        4.711528   -0.032182   -0.425476
     26          1           0        3.453008    2.159793   -0.073383
 ---------------------------------------------------------------------
                    Distance matrix (angstroms):
                    1          2          3          4          5
     1  C    0.000000
     2  C    1.519649   0.000000
     3  C    2.437145   1.410983   0.000000
     4  C    3.755773   2.467958   1.394300   0.000000
     5  C    4.269038   2.808135   2.376436   1.393917   0.000000
     6  C    3.810643   2.388524   2.720086   2.404829   1.395326
     7  F    4.911529   3.616095   4.038448   3.580798   2.296591
     8  C    2.665939   1.444306   2.461838   2.885462   2.504063
     9  C    3.357245   2.647609   3.867135   4.348254   3.833715
    10  C    4.812521   3.988435   5.060336   5.244889   4.417696
    11  O    5.678938   4.567934   5.350236   5.173419   4.126331
    12  C    5.690675   5.137068   6.327614   6.622671   5.815750
    13  C    5.566600   5.383511   6.707258   7.258165   6.647632
    14  C    4.465789   4.545720   5.913785   6.684476   6.326161
    15  C    3.236096   3.162727   4.520038   5.316210   5.058841
    16  F    2.467530   2.892486   4.175651   5.239860   5.339712
    17  H    1.102215   2.122959   2.491301   3.798482   4.502820
    18  H    1.100454   2.196562   2.943183   4.300237   4.949789
    19  H    1.097807   2.186727   3.346096   4.549402   4.805026
    20  H    2.553321   2.151749   1.096046   2.151864   3.367884
    21  H    4.602950   3.458329   2.174934   1.094385   2.173908
    22  H    5.338093   3.893879   3.385101   2.186472   1.093868
    23  H    6.555157   5.505208   6.315770   6.110935   5.006681
    24  H    6.741003   6.093775   7.211500   7.359021   6.418455
    25  H    6.532756   6.446530   7.785946   8.349088   7.715277
    26  H    4.750724   5.132617   6.499713   7.414013   7.198898
                    6          7          8          9         10
     6  C    0.000000
     7  F    1.352875   0.000000
     8  C    1.435304   2.437238   0.000000
     9  C    2.547255   2.966911   1.503924   0.000000
    10  C    3.079940   2.899294   2.638064   1.461326   0.000000
    11  O    2.972837   2.454021   3.145152   2.510620   1.372245
    12  C    4.457072   4.145282   3.895585   2.492749   1.412435
    13  C    5.286053   5.191286   4.400313   2.910710   2.462998
    14  C    5.048639   5.298386   3.875986   2.513238   2.808862
    15  C    3.863650   4.364172   2.572688   1.426150   2.386890
    16  F    4.382884   5.186491   2.953492   2.414643   3.635677
    17  H    4.312655   5.423393   3.423808   4.325780   5.754242
    18  H    4.526484   5.684372   3.292711   3.768472   5.212843
    19  H    4.086711   4.964078   2.861936   3.165117   4.558707
    20  H    3.814293   5.124052   3.440940   4.750016   6.029198
    21  H    3.406444   4.467869   3.974466   5.423280   6.279133
    22  H    2.142779   2.473333   3.469110   4.666884   4.998113
    23  H    3.877793   3.154880   4.073704   3.285446   1.912725
    24  H    5.096900   4.540864   4.771323   3.472399   2.155272
    25  H    6.343424   6.155252   5.485982   4.001932   3.451396
    26  H    5.977206   6.322658   4.705687   3.471216   3.897300
                   11         12         13         14         15
    11  O    0.000000
    12  C    2.346178   0.000000
    13  C    3.647231   1.391683   0.000000
    14  C    4.149786   2.382639   1.393912   0.000000
    15  C    3.669422   2.724728   2.404690   1.395712   0.000000
    16  F    4.812499   4.058964   3.583212   2.295939   1.352412
    17  H    6.535178   6.676586   6.580435   5.500669   4.301144
    18  H    6.122728   6.002455   5.743900   4.511491   3.366910
    19  H    5.593445   5.233144   4.952464   3.855010   2.812837
    20  H    6.397643   7.238448   7.485610   6.554904   5.180023
    21  H    6.102014   7.669765   8.330145   7.745445   6.370519
    22  H    4.440278   6.375076   7.346262   7.178216   5.979052
    23  H    0.971179   2.302236   3.689209   4.483972   4.279330
    24  H    2.521971   1.098113   2.154292   3.378817   3.821571
    25  H    4.508760   2.166965   1.093869   2.173596   3.407188
    26  H    5.230510   3.393286   2.186149   1.093277   2.142862
                   16         17         18         19         20
    16  F    0.000000
    17  H    3.536630   0.000000
    18  H    2.252542   1.778572   0.000000
    19  H    2.194894   1.775245   1.789161   0.000000
    20  H    4.573626   2.271156   2.836238   3.593827   0.000000
    21  H    6.214630   4.478946   5.058925   5.476404   2.497506
    22  H    6.370850   5.512149   6.041002   5.833117   4.293517
    23  H    5.512718   7.426380   6.990677   6.382201   7.365110
    24  H    5.151455   7.704753   7.079687   6.290168   8.169923
    25  H    4.467701   7.531421   6.671058   5.844170   8.543604
    26  H    2.468849   5.746887   4.623961   4.082618   7.002203
                   21         22         23         24         25
    21  H    0.000000
    22  H    2.553192   0.000000
    23  H    7.018717   5.209541   0.000000
    24  H    8.373884   6.830537   2.033031   0.000000
    25  H    9.422453   8.382212   4.365038   2.491911   0.000000
    26  H    8.451575   8.106540   5.549529   4.308586   2.551979
                   26
    26  H    0.000000
 Symmetry turned off by external request.
 Stoichiometry    C13H10F2O
 Framework group  C1[X(C13H10F2O)]
 Deg. of freedom    72
 Full point group                 C1      NOp   1
 Rotational constants (GHZ):           0.8325093           0.4754509           0.3148771
 Standard basis: def2SVP (5D, 7F)
   274 basis functions,   470 primitive gaussians,   290 cartesian basis functions
    57 alpha electrons       57 beta electrons
       nuclear repulsion energy      1069.2353381198 Hartrees.
 NAtoms=   26 NActive=   26 NUniq=   26 SFac= 1.00D+00 NAtFMM=   60 NAOKFM=F Big=F
 Integral buffers will be    131072 words long.
 Raffenetti 2 integral format.
 Two-electron integral symmetry is turned off.
 Nuclear repulsion after empirical dispersion term =     1069.1841123313 Hartrees.
 One-electron integrals computed using PRISM.
   1 Symmetry operations used in ECPInt.
 ECPInt:  NShTT=    8001 NPrTT=   29641 LenC2=    7590 LenP2D=   20247.
 LDataN:  DoStor=T MaxTD1= 4 Len=   56
 NBasis=   274 RedAO= T EigKep=  2.94D-04  NBF=   274
 NBsUse=   274 1.00D-06 EigRej= -1.00D+00 NBFU=   274
 Initial guess from the checkpoint file:  "path/to/scratch/gaussian_tmp/Gau-296824.chk"
 B after Tr=     0.000689   -0.001959   -0.002257
         Rot=    0.999999   -0.000131   -0.000987   -0.000158 Ang=  -0.12 deg.
 ExpMin= 1.22D-01 ExpMax= 2.89D+03 ExpMxC= 4.35D+02 IAcc=3 IRadAn=         5 AccDes= 0.00D+00
 Harris functional with IExCor=  404 and IRadAn=       5 diagonalized for initial guess.
 HarFok:  IExCor=  404 AccDes= 0.00D+00 IRadAn=         5 IDoV= 1 UseB2=F ITyADJ=14
 ICtDFT=  3500011 ScaDFX=  1.000000  1.000000  1.000000  1.000000
 FoFCou: FMM=F IPFlag=           0 FMFlag=      100000 FMFlg1=           0
         NFxFlg=           0 DoJE=T BraDBF=F KetDBF=T FulRan=T
         wScrn=  0.000000 ICntrl=       500 IOpCl=  0 I1Cent=   200000004 NGrid=           0
         NMat0=    1 NMatS0=      1 NMatT0=    0 NMatD0=    1 NMtDS0=    0 NMtDT0=    0
 Symmetry not used in FoFCou.
 Requested convergence on RMS density matrix=1.00D-08 within 128 cycles.
 Requested convergence on MAX density matrix=1.00D-06.
 Requested convergence on             energy=1.00D-06.
 No special actions if energy rises.
 Integral accuracy reduced to 1.0D-05 until final iterations.
 Initial convergence to 1.0D-05 achieved.  Increase integral accuracy.
 SCF Done:  E(RB-P86) =  -775.740047200     A.U. after   12 cycles
            NFock= 12  Conv=0.75D-08     -V/T= 2.0103
   1 Symmetry operations used in ECPInt.
 ECPInt:  NShTT=    8001 NPrTT=   29641 LenC2=    7590 LenP2D=   20247.
 LDataN:  DoStor=T MaxTD1= 5 Len=  102
 Calling FoFJK, ICntrl=      2527 FMM=F ISym2X=0 I1Cent= 0 IOpClX= 0 NMat=1 NMatS=1 NMatT=0.
 -------------------------------------------------------------------
 Center     Atomic                   Forces (Hartrees/Bohr)
 Number     Number              X              Y              Z
 -------------------------------------------------------------------
      1        6           0.000566295   -0.005400121   -0.000669660
      2        6          -0.001890459    0.004052028    0.004378322
      3        6           0.000809882   -0.001202324    0.003836396
      4        6          -0.000291003    0.000326963   -0.004054582
      5        6           0.001632369   -0.000164435    0.006346144
      6        6          -0.004734549   -0.004793282   -0.006971960
      7        9           0.007853539    0.003614956    0.003644409
      8        6           0.005911487   -0.008414788    0.002040362
      9        6          -0.006545958   -0.007456357   -0.004407880
     10        6           0.005655951   -0.003651227    0.003124439
     11        8          -0.016566474    0.017563722   -0.004266990
     12        6           0.000110466   -0.000222862   -0.004960290
     13        6          -0.001386758   -0.000360891    0.004393462
     14        6          -0.000837242    0.000200330   -0.004704528
     15        6           0.005080889    0.003192276    0.004729428
     16        9           0.000035923   -0.002938889    0.000678900
     17        1          -0.003237764    0.001821383   -0.001813351
     18        1           0.001969078    0.003279447    0.002076840
     19        1           0.002239315    0.001638979   -0.002073032
     20        1          -0.001880954    0.003639320   -0.001149182
     21        1          -0.004257601   -0.000057827   -0.000038805
     22        1          -0.000745640   -0.003997729    0.000099367
     23        1           0.003970077   -0.000688521   -0.000286295
     24        1           0.001285340   -0.003670851    0.000093339
     25        1           0.004180769   -0.000049352    0.000263391
     26        1           0.001073022    0.003740050   -0.000308243
 -------------------------------------------------------------------
 Cartesian Forces:  Max     0.017563722 RMS     0.004404216

 GradGradGradGradGradGradGradGradGradGradGradGradGradGradGradGradGradGrad
 Berny optimization.
 Using GEDIIS/GDIIS optimizer.
 FormGI is forming the generalized inverse of G from B-inverse, IUseBI=4.
 Internal  Forces:  Max     0.010106237 RMS     0.002418709
 Search for a local minimum.
 Step number   4 out of a maximum of  156
 All quantities printed in internal units (Hartrees-Bohrs-Radians)
 Mixed Optimization -- RFO/linear search
 Update second derivatives using D2CorX and points    1    2    3    4
 ITU=  0  1  1  0
 Use linear search instead of GDIIS.
     Eigenvalues ---    0.00490   0.01506   0.01864   0.02031   0.02044
     Eigenvalues ---    0.02174   0.02204   0.02255   0.02260   0.02264
     Eigenvalues ---    0.02351   0.02357   0.02382   0.02385   0.02397
     Eigenvalues ---    0.02437   0.02620   0.03508   0.06705   0.07486
     Eigenvalues ---    0.15836   0.15866   0.15929   0.15998   0.15999
     Eigenvalues ---    0.16000   0.16000   0.16000   0.16002   0.16076
     Eigenvalues ---    0.22017   0.22097   0.23003   0.23346   0.24873
     Eigenvalues ---    0.29255   0.30758   0.31793   0.34362   0.34914
     Eigenvalues ---    0.35200   0.35437   0.35660   0.35970   0.36196
     Eigenvalues ---    0.36222   0.36258   0.36365   0.38457   0.42499
     Eigenvalues ---    0.43731   0.44193   0.46401   0.47391   0.47847
     Eigenvalues ---    0.48502   0.48819   0.49275   0.50733   0.54813
     Eigenvalues --- 1000.000001000.000001000.000001000.000001000.00000
     Eigenvalues --- 1000.000001000.000001000.000001000.000001000.00000
     Eigenvalues --- 1000.000001000.000001000.000001000.000001000.00000
     Eigenvalues --- 1000.000001000.000001000.000001000.000001000.00000
     Eigenvalues --- 1000.000001000.000001000.000001000.000001000.00000
     Eigenvalues --- 1000.000001000.000001000.000001000.000001000.00000
     Eigenvalues --- 1000.000001000.000001000.000001000.000001000.00000
     Eigenvalues --- 1000.000001000.000001000.000001000.000001000.00000
     Eigenvalues --- 1000.000001000.000001000.000001000.000001000.00000
     Eigenvalues --- 1000.000001000.000001000.000001000.000001000.00000
     Eigenvalues --- 1000.000001000.000001000.000001000.000001000.00000
     Eigenvalues --- 1000.000001000.000001000.000001000.000001000.00000
     Eigenvalues --- 1000.000001000.000001000.000001000.000001000.00000
     Eigenvalues --- 1000.000001000.000001000.000001000.000001000.00000
     Eigenvalues --- 1000.000001000.000001000.000001000.000001000.00000
     Eigenvalues --- 1000.000001000.000001000.000001000.000001000.00000
     Eigenvalues --- 1000.000001000.000001000.000001000.000001000.00000
     Eigenvalues --- 1000.000001000.000001000.00000
 RFO step:  Lambda=-3.05202864D-03 EMin= 4.90408066D-03
 Quartic linear search produced a step of  0.31883.
 Iteration  1 RMS(Cart)=  0.03114405 RMS(Int)=  0.00067464
 Iteration  2 RMS(Cart)=  0.00081672 RMS(Int)=  0.00026764
 New curvilinear step failed, DQL= 1.14D-04 SP=-9.86D-03.
 ITry= 1 IFail=1 DXMaxC= 1.61D-01 DCOld= 1.00D+10 DXMaxT= 8.41D-02 DXLimC= 3.00D+00 Rises=F
 Iteration  1 RMS(Cart)=  0.02788972 RMS(Int)=  0.00053656
 Iteration  2 RMS(Cart)=  0.00064798 RMS(Int)=  0.00021521
 New curvilinear step failed, DQL= 9.56D-05 SP=-7.42D-03.
 ITry= 2 IFail=1 DXMaxC= 1.42D-01 DCOld= 1.00D+10 DXMaxT= 8.41D-02 DXLimC= 3.00D+00 Rises=F
 Iteration  1 RMS(Cart)=  0.02464725 RMS(Int)=  0.00041447
 Iteration  2 RMS(Cart)=  0.00049893 RMS(Int)=  0.00016892
 New curvilinear step failed, DQL= 7.98D-05 SP=-5.28D-03.
 ITry= 3 IFail=1 DXMaxC= 1.24D-01 DCOld= 1.00D+10 DXMaxT= 8.41D-02 DXLimC= 3.00D+00 Rises=F
 Iteration  1 RMS(Cart)=  0.02142200 RMS(Int)=  0.00030839
 Iteration  2 RMS(Cart)=  0.00036957 RMS(Int)=  0.00012881
 New curvilinear step failed, DQL= 6.64D-05 SP=-3.50D-03.
 ITry= 4 IFail=1 DXMaxC= 1.06D-01 DCOld= 1.00D+10 DXMaxT= 8.41D-02 DXLimC= 3.00D+00 Rises=F
 Iteration  1 RMS(Cart)=  0.01822315 RMS(Int)=  0.00021840
 Iteration  2 RMS(Cart)=  0.00025989 RMS(Int)=  0.00009495
 New curvilinear step failed, DQL= 5.54D-05 SP=-2.07D-03.
 ITry= 5 IFail=1 DXMaxC= 8.84D-02 DCOld= 1.00D+10 DXMaxT= 8.41D-02 DXLimC= 3.00D+00 Rises=F
 Iteration  1 RMS(Cart)=  0.01506750 RMS(Int)=  0.00014461
 Iteration  2 RMS(Cart)=  0.00016988 RMS(Int)=  0.00006751
 New curvilinear step failed, DQL= 4.72D-05 SP=-1.03D-03.
 ITry= 6 IFail=1 DXMaxC= 7.04D-02 DCOld= 1.00D+10 DXMaxT= 8.41D-02 DXLimC= 3.00D+00 Rises=F
 Iteration  1 RMS(Cart)=  0.01198922 RMS(Int)=  0.00008734
 Iteration  2 RMS(Cart)=  0.00009950 RMS(Int)=  0.00004676
 New curvilinear step failed, DQL= 4.26D-05 SP=-3.71D-04.
 ITry= 7 IFail=1 DXMaxC= 5.25D-02 DCOld= 1.00D+10 DXMaxT= 8.41D-02 DXLimC= 3.00D+00 Rises=F
 Iteration  1 RMS(Cart)=  0.00906747 RMS(Int)=  0.00004752
 Iteration  2 RMS(Cart)=  0.00004842 RMS(Int)=  0.00003308
 New curvilinear step failed, DQL= 4.42D-05 SP=-8.73D-05.
 ITry= 8 IFail=1 DXMaxC= 3.47D-02 DCOld= 1.00D+10 DXMaxT= 8.41D-02 DXLimC= 3.00D+00 Rises=F
 Iteration  1 RMS(Cart)=  0.00651630 RMS(Int)=  0.00002731
 Iteration  2 RMS(Cart)=  0.00001378 RMS(Int)=  0.00002616
 Iteration  3 RMS(Cart)=  0.00000929 RMS(Int)=  0.00002669
 Iteration  4 RMS(Cart)=  0.00000000 RMS(Int)=  0.00002669
 ITry= 9 IFail=0 DXMaxC= 2.73D-02 DCOld= 1.00D+10 DXMaxT= 8.41D-02 DXLimC= 3.00D+00 Rises=F
 Variable       Old X    -DE/DX   Delta X   Delta X   Delta X     New X
                                 (Linear)    (Quad)   (Total)
    X1       -2.35622  -0.00057  -0.00000   0.00000   0.00000  -2.35622
    Y1        4.99339  -0.00035  -0.00003   0.00000   0.00000   4.99339
    Z1       -1.07924   0.00027   0.00001   0.00000   0.00000  -1.07924
    X7       -1.92217   0.00596  -0.00001   0.00000   0.00000  -1.92217
    Y7       -4.27195  -0.00002   0.00001   0.00000   0.00000  -4.27195
    Z7       -1.41124   0.00244   0.00000   0.00000   0.00000  -1.41124
    X8       -1.44057  -0.00011   0.00001   0.00000   0.00000  -1.44057
    Y8        0.12898  -0.00469   0.00001   0.00000   0.00000   0.12898
    Z8       -0.14143   0.00190  -0.00002   0.00000   0.00000  -0.14143
    X9        1.39121   0.00147  -0.00001   0.00000   0.00000   1.39121
    Y9        0.00348  -0.00279   0.00000   0.00000   0.00000   0.00348
    Z9        0.06413  -0.00164   0.00002   0.00000   0.00000   0.06413
   X11        1.94745  -0.00855   0.00001   0.00000   0.00000   1.94745
   Y11       -4.58721   0.01011   0.00002   0.00000   0.00000  -4.58721
   Z11        1.12498  -0.00363  -0.00000   0.00000   0.00000   1.12498
   X16        1.94551   0.00179   0.00001   0.00000   0.00000   1.94551
   Y16        4.49467  -0.00226  -0.00002   0.00000   0.00000   4.49467
   Z16        0.64980   0.00066  -0.00000   0.00000   0.00000   0.64980
    R1        2.87172   0.00292  -0.00059   0.00624   0.00075   2.87247
    R2        2.08288   0.00412   0.00476   0.00818   0.00638   2.08926
    R3        2.07956   0.00404   0.00492   0.00754   0.00640   2.08596
    R4        2.07456   0.00304   0.00446   0.00442   0.00533   2.07989
    R5        2.66637   0.00349   0.00575   0.00147   0.00606   2.67243
    R6        2.72934   0.00521   0.00481   0.00843   0.00654   2.73588
    R7        2.63485   0.00424   0.00554   0.00288   0.00612   2.64096
    R8        2.07123   0.00394   0.00544   0.00589   0.00662   2.07784
    R9        2.63412   0.00411   0.00499   0.00295   0.00557   2.63969
   R10        2.06809   0.00403   0.00556   0.00599   0.00676   2.07485
   R11        2.63678   0.00229   0.00524  -0.00157   0.00492   2.64170
   R12        2.06711   0.00390   0.00542   0.00574   0.00657   2.07368
   R13        2.55656  -0.00279  -0.00131  -0.00242  -0.00174   2.55482
   R14        2.71233   0.00323   0.00569   0.00936   0.00754   2.71988
   R15        2.84200   0.00124  -0.00001  -0.00000   0.00000   2.84200
   R16        2.76151  -0.00017   0.00600   0.00979   0.00797   2.76948
   R17        2.69503   0.00513   0.00564   0.00873   0.00739   2.70242
   R18        2.59317  -0.00478  -0.00025   0.00002  -0.00018   2.59298
   R19        2.66912   0.00276   0.00553   0.00011   0.00555   2.67467
   R20        1.83526   0.00340   0.00313   0.00457   0.00403   1.83929
   R21        2.62990   0.00320   0.00510   0.00110   0.00532   2.63522
   R22        2.07513   0.00383   0.00526   0.00595   0.00645   2.08159
   R23        2.63411   0.00405   0.00575   0.00204   0.00616   2.64027
   R24        2.06711   0.00407   0.00559   0.00609   0.00681   2.07392
   R25        2.63751   0.00228   0.00485  -0.00125   0.00460   2.64211
   R26        2.06599   0.00381   0.00537   0.00545   0.00646   2.07245
   R27        2.55569   0.00008  -0.00016  -0.00070  -0.00024   2.55545
    A1        1.86854  -0.00008  -0.00033   0.00062  -0.00024   1.86830
    A2        1.97148   0.00136   0.00131   0.00853   0.00299   1.97447
    A3        1.96039   0.00191   0.00125   0.01189   0.00359   1.96398
    A4        1.87968  -0.00057  -0.00047  -0.00444  -0.00133   1.87835
    A5        1.87784  -0.00084  -0.00046  -0.00601  -0.00164   1.87620
    A6        1.90166  -0.00195  -0.00141  -0.01167  -0.00372   1.89793
    A7        1.96308   0.00201   0.00225   0.00099   0.00240   1.96549
    A8        2.23672  -0.00222  -0.00314  -0.01077  -0.00531   2.23141
    A9        2.07912   0.00009   0.00174   0.00295   0.00227   2.08140
   A10        2.15067  -0.00034  -0.00141   0.00590  -0.00026   2.15041
   A11        2.05428  -0.00056   0.00042  -0.00851  -0.00130   2.05298
   A12        2.07819   0.00089   0.00109   0.00211   0.00150   2.07969
   A13        2.04079   0.00049  -0.00094   0.00843   0.00071   2.04150
   A14        2.11828  -0.00020   0.00036  -0.00263  -0.00016   2.11812
   A15        2.11714  -0.00023   0.00032  -0.00292  -0.00025   2.11690
   A16        2.07911  -0.00033  -0.00045   0.00292   0.00005   2.07917
   A17        2.13904   0.00112   0.00091   0.00493   0.00189   2.14093
   A18        2.06503  -0.00079  -0.00041  -0.00764  -0.00195   2.06308
   A19        1.97855   0.00354   0.00125   0.00699   0.00265   1.98120
   A20        2.17130   0.00104   0.00137   0.00369   0.00205   2.17335
   A21        2.12681  -0.00444  -0.00306  -0.00481  -0.00401   2.12280
   A22        1.95628  -0.00046  -0.00263   0.00027  -0.00256   1.95372
   A23        2.23036  -0.00025   0.00225  -0.00602   0.00103   2.23138
   A24        2.09655   0.00071   0.00038   0.00580   0.00154   2.09808
   A25        2.19309   0.00056   0.00122   0.00450   0.00210   2.19520
   A26        2.14307   0.00155   0.00088   0.00582   0.00203   2.14510
   A27        1.94610  -0.00212  -0.00200  -0.01115  -0.00421   1.94189
   A28        2.17689  -0.00786  -0.00420  -0.00706  -0.00559   2.17130
   A29        2.09981   0.00321   0.00208   0.00531   0.00312   2.10293
   A30        2.00379   0.00467   0.00204   0.00258   0.00256   2.00635
   A31        1.88836  -0.00382  -0.00382  -0.01948  -0.00773   1.88062
   A32        2.14477  -0.00166  -0.00135  -0.00159  -0.00170   2.14307
   A33        2.05513   0.00012   0.00028  -0.00437  -0.00060   2.05453
   A34        2.08314   0.00152   0.00118   0.00530   0.00223   2.08537
   A35        2.05242   0.00030   0.00005   0.00606   0.00123   2.05366
   A36        2.10967  -0.00010  -0.00017  -0.00139  -0.00045   2.10922
   A37        2.11735  -0.00015  -0.00014  -0.00189  -0.00051   2.11684
   A38        2.07845  -0.00060  -0.00068   0.00042  -0.00063   2.07782
   A39        2.13935   0.00105   0.00095   0.00451   0.00186   2.14120
   A40        2.06538  -0.00045  -0.00026  -0.00484  -0.00123   2.06416
   A41        2.19740   0.00101   0.00158   0.00520   0.00259   2.19999
   A42        2.10606  -0.00286  -0.00374  -0.00542  -0.00482   2.10124
   A43        1.97776   0.00188   0.00200   0.00254   0.00251   1.98028
    D1       -0.59235   0.00104  -0.00852   0.09235   0.00995  -0.58240
    D2        2.44807  -0.00036   0.00053   0.01173   0.00288   2.45095
    D3        1.47377   0.00108  -0.00855   0.09222   0.00990   1.48367
    D4       -1.76899  -0.00033   0.00049   0.01159   0.00282  -1.76617
    D5       -2.64989   0.00103  -0.00845   0.09257   0.01007  -2.63982
    D6        0.39053  -0.00037   0.00059   0.01195   0.00300   0.39353
    D7        2.89745  -0.00128   0.00493  -0.05099  -0.00523   2.89222
    D8       -0.23349   0.00026  -0.00081   0.00485   0.00020  -0.23329
    D9       -0.15311   0.00015  -0.00280   0.02243   0.00167  -0.15144
   D10        2.99914   0.00168  -0.00853   0.07828   0.00710   3.00623
   D11       -2.63634   0.00068  -0.00540   0.04474   0.00358  -2.63276
   D12        0.50177   0.00071  -0.00636   0.06147   0.00589   0.50766
   D13        0.39822  -0.00073   0.00417  -0.04073  -0.00394   0.39428
   D14       -2.74685  -0.00069   0.00321  -0.02400  -0.00164  -2.74849
   D15       -0.18330   0.00148  -0.00537   0.05412   0.00546  -0.17783
   D16        3.08337   0.00092  -0.00301   0.02854   0.00270   3.08607
   D17        2.94751  -0.00008   0.00043  -0.00251  -0.00006   2.94744
   D18       -0.06901  -0.00064   0.00279  -0.02810  -0.00282  -0.07184
   D19        0.23609  -0.00251   0.01110  -0.11049  -0.01101   0.22508
   D20       -2.90877  -0.00072   0.00392  -0.03643  -0.00337  -2.91214
   D21       -3.03049  -0.00195   0.00874  -0.08490  -0.00824  -3.03874
   D22        0.10783  -0.00016   0.00156  -0.01084  -0.00061   0.10723
   D23       -2.97671   0.00139  -0.00506   0.04395   0.00373  -2.97298
   D24        0.04392   0.00236  -0.00951   0.09773   0.01005   0.05397
   D25        0.16801  -0.00033   0.00183  -0.02698  -0.00357   0.16444
   D26       -3.09454   0.00064  -0.00262   0.02680   0.00275  -3.09180
   D27       -0.35802  -0.00060   0.00196  -0.01931  -0.00193  -0.35995
   D28        2.78675  -0.00064   0.00283  -0.03458  -0.00404   2.78271
   D29        2.65279   0.00101  -0.00257   0.03967   0.00535   2.65814
   D30       -0.48563   0.00098  -0.00170   0.02441   0.00325  -0.48238
   D31        3.02601  -0.00010   0.00315  -0.03466  -0.00377   3.02224
   D32       -0.06556   0.00053   0.00060  -0.01166  -0.00165  -0.06721
   D33       -0.11931  -0.00007   0.00212  -0.01674  -0.00130  -0.12061
   D34        3.07231   0.00057  -0.00043   0.00626   0.00082   3.07312
   D35       -0.33219   0.00066  -0.00147   0.01713   0.00202  -0.33017
   D36        2.89241   0.00018  -0.00040   0.00431   0.00050   2.89291
   D37        2.76421   0.00017   0.00091  -0.00328   0.00024   2.76445
   D38       -0.29437  -0.00031   0.00197  -0.01610  -0.00128  -0.29566
   D39       -2.92015  -0.00005  -0.00052   0.00696   0.00083  -2.91932
   D40        0.29326  -0.00081   0.00251  -0.03568  -0.00469   0.28857
   D41        0.26513   0.00045  -0.00284   0.02670   0.00254   0.26767
   D42       -2.80465  -0.00031   0.00020  -0.01593  -0.00297  -2.80763
   D43        3.07047   0.00036  -0.00309   0.02075   0.00105   3.07152
   D44       -0.15006   0.00079  -0.00408   0.03309   0.00255  -0.14751
   D45        0.11993   0.00104  -0.00440   0.04168   0.00395   0.12388
   D46       -3.03992  -0.00002   0.00033  -0.00085   0.00017  -3.03974
   D47       -2.94652   0.00119  -0.00316   0.03054   0.00295  -2.94358
   D48        0.17682   0.00012   0.00157  -0.01199  -0.00083   0.17599
   D49        0.12602  -0.00143   0.00748  -0.06967  -0.00646   0.11956
   D50       -3.10721  -0.00081   0.00404  -0.03587  -0.00314  -3.11035
   D51       -2.99704  -0.00034   0.00269  -0.02639  -0.00259  -2.99963
   D52        0.05291   0.00029  -0.00075   0.00741   0.00073   0.05364
   D53       -0.16627   0.00188  -0.00778   0.07579   0.00738  -0.15889
   D54        2.97801   0.00059  -0.00337   0.03302   0.00324   2.98125
   D55        3.06739   0.00125  -0.00432   0.04181   0.00404   3.07143
   D56       -0.07151  -0.00004   0.00009  -0.00096  -0.00010  -0.07161
   D57       -0.04078  -0.00162   0.00563  -0.06001  -0.00639  -0.04718
   D58        3.03355  -0.00107   0.00260  -0.02038  -0.00147   3.03208
   D59        3.09824  -0.00038   0.00139  -0.01905  -0.00243   3.09580
   D60       -0.11061   0.00017  -0.00163   0.02058   0.00248  -0.10813
         Item               Value     Threshold  Converged?
 Maximum Force            0.005450     0.000450     NO 
 RMS     Force            0.001910     0.000300     NO 
 Maximum Displacement     0.027281     0.001800     NO 
 RMS     Displacement     0.006518     0.001200     NO 
 Predicted change in Energy=-7.125799D-04
 GradGradGradGradGradGradGradGradGradGradGradGradGradGradGradGradGradGrad

                          Input orientation:                          
 ---------------------------------------------------------------------
 Center     Atomic      Atomic             Coordinates (Angstroms)
 Number     Number       Type             X           Y           Z
 ---------------------------------------------------------------------
      1          6           0       -1.246859    2.642388   -0.571109
      2          6           0       -1.601180    1.248217   -0.079904
      3          6           0       -2.961823    1.130449    0.287127
      4          6           0       -3.596272   -0.098113    0.490155
      5          6           0       -2.895816   -1.243962    0.105940
      6          6           0       -1.534167   -1.140801   -0.193179
      7          9           0       -1.017168   -2.260620   -0.746794
      8          6           0       -0.762316    0.068255   -0.074839
      9          6           0        0.736198    0.001840    0.033939
     10          6           0        1.531573   -1.220891    0.175804
     11          8           0        1.030547   -2.427445    0.595314
     12          6           0        2.931593   -1.194851   -0.030474
     13          6           0        3.643583   -0.012637   -0.230640
     14          6           0        2.954525    1.193274   -0.078790
     15          6           0        1.564768    1.166789    0.071838
     16          9           0        1.029519    2.378480    0.343857
     17          1           0       -2.138657    3.039547   -1.090041
     18          1           0       -0.997989    3.340184    0.247188
     19          1           0       -0.417947    2.636374   -1.295162
     20          1           0       -3.541409    2.057913    0.400687
     21          1           0       -4.640538   -0.153515    0.824767
     22          1           0       -3.371658   -2.229358    0.023856
     23          1           0        1.748325   -3.082427    0.539409
     24          1           0        3.470544   -2.155287   -0.009023
     25          1           0        4.725012   -0.031606   -0.416629
     26          1           0        3.459317    2.166856   -0.071131
 ---------------------------------------------------------------------
                    Distance matrix (angstroms):
                    1          2          3          4          5
     1  C    0.000000
     2  C    1.520047   0.000000
     3  C    2.442055   1.414188   0.000000
     4  C    3.762495   2.473451   1.397537   0.000000
     5  C    4.275649   2.814529   2.382229   1.396865   0.000000
     6  C    3.812859   2.392640   2.725339   2.409652   1.397928
     7  F    4.911529   3.619081   4.043516   3.585842   2.300015
     8  C    2.665939   1.447767   2.469232   2.894513   2.511258
     9  C    3.357245   2.651368   3.874690   4.357571   3.840408
    10  C    4.816896   3.997001   5.072652   5.258730   4.428000
    11  O    5.678938   4.570820   5.356548   5.181150   4.129946
    12  C    5.698786   5.149472   6.343520   6.639798   5.829213
    13  C    5.575079   5.396297   6.723549   7.276150   6.662821
    14  C    4.471458   4.556037   5.927985   6.701069   6.340405
    15  C    3.239756   3.170629   4.531854   5.330226   5.070473
    16  F    2.467530   2.894416   4.182297   5.249081   5.346676
    17  H    1.105590   2.125588   2.493762   3.803494   4.511331
    18  H    1.103842   2.201626   2.956547   4.316480   4.963476
    19  H    1.100629   2.191774   3.353021   4.557030   4.812476
    20  H    2.559484   2.156632   1.099548   2.158579   3.377284
    21  H    4.613307   3.467128   2.180758   1.097964   2.179413
    22  H    5.348146   3.903701   3.394934   2.193192   1.097346
    23  H    6.555752   5.509738   6.324355   6.121543   5.013571
    24  H    6.751853   6.108294   7.229046   7.377062   6.432283
    25  H    6.545025   6.463130   7.805964   8.370810   7.734333
    26  H    4.756490   5.143210   6.514102   7.431451   7.214759
                    6          7          8          9         10
     6  C    0.000000
     7  F    1.351952   0.000000
     8  C    1.439296   2.437238   0.000000
     9  C    2.551816   2.966911   1.503924   0.000000
    10  C    3.088903   2.903154   2.643226   1.465543   0.000000
    11  O    2.975724   2.454021   3.145152   2.510620   1.372147
    12  C    4.469050   4.152311   3.904148   2.501196   1.415375
    13  C    5.299363   5.200234   4.409395   2.919435   2.466913
    14  C    5.060567   5.305653   3.883373   2.520555   2.813859
    15  C    3.872803   4.368488   2.577521   1.430060   2.390173
    16  F    4.387052   5.186491   2.953492   2.414643   3.638099
    17  H    4.317995   5.428382   3.428342   4.330795   5.764051
    18  H    4.534384   5.688354   3.296174   3.767946   5.216050
    19  H    4.089910   4.963902   2.864090   3.168489   4.565398
    20  H    3.822757   5.132079   3.450829   4.760238   6.044524
    21  H    3.414746   4.476439   3.987365   5.436804   6.297253
    22  H    2.146727   2.477600   3.478136   4.674701   5.008170
    23  H    3.883471   3.158739   4.075220   3.285210   1.909059
    24  H    5.109816   4.549171   4.781796   3.483058   2.160294
    25  H    6.360626   6.168480   5.498870   4.014321   3.458820
    26  H    5.990857   6.332296   4.714480   3.480475   3.905637
                   11         12         13         14         15
    11  O    0.000000
    12  C    2.350505   0.000000
    13  C    3.652595   1.394499   0.000000
    14  C    4.155203   2.388724   1.397169   0.000000
    15  C    3.671231   2.730572   2.409151   1.398146   0.000000
    16  F    4.812499   4.065305   3.588986   2.299781   1.352287
    17  H    6.540052   6.690310   6.594596   5.511067   4.309588
    18  H    6.123863   6.007101   5.745774   4.509751   3.364836
    19  H    5.595918   5.243772   4.964523   3.864668   2.821263
    20  H    6.407738   7.257144   7.503990   6.570742   5.193774
    21  H    6.114296   7.691098   8.352268   7.766288   6.388735
    22  H    4.443559   6.387811   7.361537   7.193437   5.992030
    23  H    0.973310   2.299528   3.688982   4.485388   4.278803
    24  H    2.528414   1.101529   2.161020   3.388806   3.830759
    25  H    4.518091   2.172236   1.097471   2.179241   3.414952
    26  H    5.239339   3.403120   2.193078   1.096693   2.147065
                   16         17         18         19         20
    16  F    0.000000
    17  H    3.539832   0.000000
    18  H    2.246109   1.783168   0.000000
    19  H    2.201829   1.779176   1.791826   0.000000
    20  H    4.582507   2.270151   2.852502   3.600908   0.000000
    21  H    6.228307   4.485705   5.080128   5.487063   2.505663
    22  H    6.380041   5.524710   6.058381   5.842907   4.307147
    23  H    5.511481   7.432517   6.991249   6.384596   7.377237
    24  H    5.161218   7.721272   7.087569   6.303533   8.190629
    25  H    4.477000   7.549531   6.675505   5.860031   8.565502
    26  H    2.474049   5.756482   4.620130   4.092905   7.017453
                   21         22         23         24         25
    21  H    0.000000
    22  H    2.561374   0.000000
    23  H    7.034026   5.216105   0.000000
    24  H    8.395948   6.842682   2.031355   0.000000
    25  H    9.448252   8.401203   4.368316   2.499971   0.000000
    26  H    8.473158   8.123911   5.554748   4.322604   2.560194
                   26
    26  H    0.000000
 Symmetry turned off by external request.
 Stoichiometry    C13H10F2O
 Framework group  C1[X(C13H10F2O)]
 Deg. of freedom    72
 Full point group                 C1      NOp   1
 Rotational constants (GHZ):           0.8315794           0.4733864           0.3138213
 Standard basis: def2SVP (5D, 7F)
   274 basis functions,   470 primitive gaussians,   290 cartesian basis functions
    57 alpha electrons       57 beta electrons
       nuclear repulsion energy      1067.5809330839 Hartrees.
 NAtoms=   26 NActive=   26 NUniq=   26 SFac= 1.00D+00 NAtFMM=   60 NAOKFM=F Big=F
 Integral buffers will be    131072 words long.
 Raffenetti 2 integral format.
 Two-electron integral symmetry is turned off.
 Nuclear repulsion after empirical dispersion term =     1067.5297986391 Hartrees.
 One-electron integrals computed using PRISM.
   1 Symmetry operations used in ECPInt.
 ECPInt:  NShTT=    8001 NPrTT=   29641 LenC2=    7588 LenP2D=   20230.
 LDataN:  DoStor=T MaxTD1= 4 Len=   56
 NBasis=   274 RedAO= T EigKep=  3.01D-04  NBF=   274
 NBsUse=   274 1.00D-06 EigRej= -1.00D+00 NBFU=   274
 Initial guess from the checkpoint file:  "path/to/scratch/gaussian_tmp/Gau-296824.chk"
 B after Tr=     0.000480   -0.000502    0.001725
         Rot=    1.000000   -0.000045    0.000274   -0.000082 Ang=  -0.03 deg.
 ExpMin= 1.22D-01 ExpMax= 2.89D+03 ExpMxC= 4.35D+02 IAcc=3 IRadAn=         5 AccDes= 0.00D+00
 Harris functional with IExCor=  404 and IRadAn=       5 diagonalized for initial guess.
 HarFok:  IExCor=  404 AccDes= 0.00D+00 IRadAn=         5 IDoV= 1 UseB2=F ITyADJ=14
 ICtDFT=  3500011 ScaDFX=  1.000000  1.000000  1.000000  1.000000
 FoFCou: FMM=F IPFlag=           0 FMFlag=      100000 FMFlg1=           0
         NFxFlg=           0 DoJE=T BraDBF=F KetDBF=T FulRan=T
         wScrn=  0.000000 ICntrl=       500 IOpCl=  0 I1Cent=   200000004 NGrid=           0
         NMat0=    1 NMatS0=      1 NMatT0=    0 NMatD0=    1 NMtDS0=    0 NMtDT0=    0
 Symmetry not used in FoFCou.
 Requested convergence on RMS density matrix=1.00D-08 within 128 cycles.
 Requested convergence on MAX density matrix=1.00D-06.
 Requested convergence on             energy=1.00D-06.
 No special actions if energy rises.
 Integral accuracy reduced to 1.0D-05 until final iterations.
 Initial convergence to 1.0D-05 achieved.  Increase integral accuracy.
 SCF Done:  E(RB-P86) =  -775.740763141     A.U. after   12 cycles
            NFock= 12  Conv=0.37D-08     -V/T= 2.0105
   1 Symmetry operations used in ECPInt.
 ECPInt:  NShTT=    8001 NPrTT=   29641 LenC2=    7588 LenP2D=   20230.
 LDataN:  DoStor=T MaxTD1= 5 Len=  102
 Calling FoFJK, ICntrl=      2527 FMM=F ISym2X=0 I1Cent= 0 IOpClX= 0 NMat=1 NMatS=1 NMatT=0.
 -------------------------------------------------------------------
 Center     Atomic                   Forces (Hartrees/Bohr)
 Number     Number              X              Y              Z
 -------------------------------------------------------------------
      1        6           0.000015427   -0.003100327   -0.000839726
      2        6          -0.002257059    0.002410192    0.004147504
      3        6           0.001232237   -0.001674193    0.003305415
      4        6           0.000378829    0.000517835   -0.003983839
      5        6           0.001721186    0.000445511    0.005569864
      6        6          -0.004374667   -0.002567002   -0.005582412
      7        9           0.007392401    0.003255069    0.003485725
      8        6           0.002690085   -0.008844851    0.002383372
      9        6          -0.002655783   -0.007242332   -0.004151762
     10        6           0.004831115   -0.001517990    0.002584857
     11        8          -0.013634789    0.016286928   -0.004784727
     12        6          -0.000436121    0.000480794   -0.004485198
     13        6          -0.001668469   -0.000129176    0.004201086
     14        6          -0.000937562   -0.000592986   -0.004186935
     15        6           0.004331486    0.001331870    0.003974819
     16        9           0.000785865   -0.002963577    0.000664081
     17        1          -0.001550062    0.001126526   -0.000823970
     18        1           0.001288047    0.001829062    0.000623476
     19        1           0.000933021    0.001167389   -0.000908921
     20        1          -0.000708198    0.001575647   -0.001259255
     21        1          -0.001929027    0.000057099   -0.000705056
     22        1           0.000110056   -0.001807094    0.000312242
     23        1           0.002221486    0.000009149    0.000099072
     24        1           0.000293930   -0.001645486    0.000047637
     25        1           0.001783899    0.000006598    0.000624073
     26        1           0.000142668    0.001585342   -0.000311422
 -------------------------------------------------------------------
 Cartesian Forces:  Max     0.016286928 RMS     0.003682147

 GradGradGradGradGradGradGradGradGradGradGradGradGradGradGradGradGradGrad
 Berny optimization.
 Using GEDIIS/GDIIS optimizer.
 FormGI is forming the generalized inverse of G from B-inverse, IUseBI=4.
 Internal  Forces:  Max     0.010335333 RMS     0.001875994
 Search for a local minimum.
 Step number   5 out of a maximum of  156
 All quantities printed in internal units (Hartrees-Bohrs-Radians)
 Mixed Optimization -- En-DIIS/RFO-DIIS
 Update second derivatives using D2CorX and points    1    2    3    4    5
 DE= -7.16D-04 DEPred=-7.13D-04 R= 1.00D+00
 TightC=F SS=  1.41D+00  RLast= 4.87D-02 DXNew= 1.4142D-01 1.4615D-01
 Trust test= 1.00D+00 RLast= 4.87D-02 DXMaxT set to 1.41D-01
 ITU=  1  0  1  1  0
 Use linear search instead of GDIIS.
     Eigenvalues ---    0.00494   0.01522   0.01864   0.02025   0.02044
     Eigenvalues ---    0.02174   0.02203   0.02257   0.02261   0.02266
     Eigenvalues ---    0.02350   0.02358   0.02380   0.02383   0.02396
     Eigenvalues ---    0.02448   0.02613   0.03510   0.06671   0.07470
     Eigenvalues ---    0.15730   0.15872   0.15934   0.15997   0.15999
     Eigenvalues ---    0.16000   0.16000   0.16000   0.16022   0.16124
     Eigenvalues ---    0.22029   0.22092   0.22974   0.23338   0.24771
     Eigenvalues ---    0.28965   0.30931   0.31758   0.33802   0.34988
     Eigenvalues ---    0.35238   0.35385   0.35655   0.35974   0.36197
     Eigenvalues ---    0.36219   0.36256   0.36341   0.38467   0.42561
     Eigenvalues ---    0.43787   0.44250   0.46473   0.47623   0.47850
     Eigenvalues ---    0.48503   0.48966   0.49262   0.50560   0.54809
     Eigenvalues --- 1000.000001000.000001000.000001000.000001000.00000
     Eigenvalues --- 1000.000001000.000001000.000001000.000001000.00000
     Eigenvalues --- 1000.000001000.000001000.000001000.000001000.00000
     Eigenvalues --- 1000.000001000.000001000.000001000.000001000.00000
     Eigenvalues --- 1000.000001000.000001000.000001000.000001000.00000
     Eigenvalues --- 1000.000001000.000001000.000001000.000001000.00000
     Eigenvalues --- 1000.000001000.000001000.000001000.000001000.00000
     Eigenvalues --- 1000.000001000.000001000.000001000.000001000.00000
     Eigenvalues --- 1000.000001000.000001000.000001000.000001000.00000
     Eigenvalues --- 1000.000001000.000001000.000001000.000001000.00000
     Eigenvalues --- 1000.000001000.000001000.000001000.000001000.00000
     Eigenvalues --- 1000.000001000.000001000.000001000.000001000.00000
     Eigenvalues --- 1000.000001000.000001000.000001000.000001000.00000
     Eigenvalues --- 1000.000001000.000001000.000001000.000001000.00000
     Eigenvalues --- 1000.000001000.000001000.000001000.000001000.00000
     Eigenvalues --- 1000.000001000.000001000.000001000.000001000.00000
     Eigenvalues --- 1000.000001000.000001000.000001000.000001000.00000
     Eigenvalues --- 1000.000001000.000001000.00000
 RFO step:  Lambda=-1.22118627D-03 EMin= 4.93770158D-03
 Quartic linear search produced a step of  1.02664.
 Iteration  1 RMS(Cart)=  0.02587140 RMS(Int)=  0.00042670
 Iteration  2 RMS(Cart)=  0.00055424 RMS(Int)=  0.00017421
 New curvilinear step failed, DQL= 3.43D-05 SP=-6.69D-03.
 ITry= 1 IFail=1 DXMaxC= 1.58D-01 DCOld= 1.00D+10 DXMaxT= 1.41D-01 DXLimC= 3.00D+00 Rises=F
 Iteration  1 RMS(Cart)=  0.02371557 RMS(Int)=  0.00035673
 Iteration  2 RMS(Cart)=  0.00046247 RMS(Int)=  0.00014685
 New curvilinear step failed, DQL= 3.03D-05 SP=-5.42D-03.
 ITry= 2 IFail=1 DXMaxC= 1.44D-01 DCOld= 1.00D+10 DXMaxT= 1.41D-01 DXLimC= 3.00D+00 Rises=F
 Iteration  1 RMS(Cart)=  0.02157259 RMS(Int)=  0.00029319
 Iteration  2 RMS(Cart)=  0.00037919 RMS(Int)=  0.00012198
 New curvilinear step failed, DQL= 2.67D-05 SP=-4.26D-03.
 ITry= 3 IFail=1 DXMaxC= 1.30D-01 DCOld= 1.00D+10 DXMaxT= 1.41D-01 DXLimC= 3.00D+00 Rises=F
 Iteration  1 RMS(Cart)=  0.01944581 RMS(Int)=  0.00023606
 Iteration  2 RMS(Cart)=  0.00030433 RMS(Int)=  0.00009961
 New curvilinear step failed, DQL= 2.35D-05 SP=-3.21D-03.
 ITry= 4 IFail=1 DXMaxC= 1.16D-01 DCOld= 1.00D+10 DXMaxT= 1.41D-01 DXLimC= 3.00D+00 Rises=F
 Iteration  1 RMS(Cart)=  0.01734378 RMS(Int)=  0.00018542
 Iteration  2 RMS(Cart)=  0.00023806 RMS(Int)=  0.00007975
 New curvilinear step failed, DQL= 2.07D-05 SP=-2.30D-03.
 ITry= 5 IFail=1 DXMaxC= 1.02D-01 DCOld= 1.00D+10 DXMaxT= 1.41D-01 DXLimC= 3.00D+00 Rises=F
 Iteration  1 RMS(Cart)=  0.01527674 RMS(Int)=  0.00014126
 Iteration  2 RMS(Cart)=  0.00018040 RMS(Int)=  0.00006241
 New curvilinear step failed, DQL= 1.83D-05 SP=-1.50D-03.
 ITry= 6 IFail=1 DXMaxC= 8.78D-02 DCOld= 1.00D+10 DXMaxT= 1.41D-01 DXLimC= 3.00D+00 Rises=F
 Iteration  1 RMS(Cart)=  0.01326105 RMS(Int)=  0.00010361
 Iteration  2 RMS(Cart)=  0.00013139 RMS(Int)=  0.00004762
 New curvilinear step failed, DQL= 1.65D-05 SP=-9.16D-04.
 ITry= 7 IFail=1 DXMaxC= 7.37D-02 DCOld= 1.00D+10 DXMaxT= 1.41D-01 DXLimC= 3.00D+00 Rises=F
 Iteration  1 RMS(Cart)=  0.01132418 RMS(Int)=  0.00007249
 Iteration  2 RMS(Cart)=  0.00009106 RMS(Int)=  0.00003538
 New curvilinear step failed, DQL= 1.54D-05 SP=-4.71D-04.
 ITry= 8 IFail=1 DXMaxC= 5.97D-02 DCOld= 1.00D+10 DXMaxT= 1.41D-01 DXLimC= 3.00D+00 Rises=F
 Iteration  1 RMS(Cart)=  0.00951437 RMS(Int)=  0.00004794
 Iteration  2 RMS(Cart)=  0.00005947 RMS(Int)=  0.00002572
 Iteration  3 RMS(Cart)=  0.00000186 RMS(Int)=  0.00002575
 Iteration  4 RMS(Cart)=  0.00000000 RMS(Int)=  0.00002575
 ITry= 9 IFail=0 DXMaxC= 4.56D-02 DCOld= 1.00D+10 DXMaxT= 1.41D-01 DXLimC= 3.00D+00 Rises=F
 Variable       Old X    -DE/DX   Delta X   Delta X   Delta X     New X
                                 (Linear)    (Quad)   (Total)
    X1       -2.35622  -0.00058   0.00000   0.00000   0.00000  -2.35622
    Y1        4.99339  -0.00080   0.00000   0.00000   0.00000   4.99339
    Z1       -1.07924   0.00038   0.00000   0.00000   0.00000  -1.07924
    X7       -1.92217   0.00602   0.00000   0.00000   0.00000  -1.92217
    Y7       -4.27195   0.00039   0.00000   0.00000   0.00000  -4.27195
    Z7       -1.41124   0.00255   0.00000   0.00000   0.00000  -1.41124
    X8       -1.44057   0.00022   0.00000   0.00000   0.00000  -1.44057
    Y8        0.12898  -0.00454   0.00000   0.00000   0.00000   0.12898
    Z8       -0.14143   0.00167   0.00000   0.00000   0.00000  -0.14143
    X9        1.39121   0.00113   0.00000   0.00000   0.00000   1.39121
    Y9        0.00348  -0.00270   0.00000   0.00000   0.00000   0.00348
    Z9        0.06413  -0.00146   0.00000   0.00000   0.00000   0.06413
   X11        1.94745  -0.00858   0.00000   0.00000   0.00000   1.94745
   Y11       -4.58721   0.01034   0.00000   0.00000   0.00000  -4.58721
   Z11        1.12498  -0.00368   0.00000   0.00000   0.00000   1.12498
   X16        1.94551   0.00179   0.00000   0.00000   0.00000   1.94551
   Y16        4.49467  -0.00268   0.00000   0.00000   0.00000   4.49467
   Z16        0.64980   0.00056   0.00000   0.00000   0.00000   0.64980
    R1        2.87247   0.00272   0.00077   0.00341   0.00151   2.87398
    R2        2.08926   0.00204   0.00655  -0.00084   0.00637   2.09564
    R3        2.08596   0.00191   0.00657  -0.00131   0.00629   2.09225
    R4        2.07989   0.00129   0.00547  -0.00165   0.00514   2.08502
    R5        2.67243   0.00030   0.00622  -0.00644   0.00494   2.67737
    R6        2.73588   0.00312   0.00672   0.00074   0.00691   2.74279
    R7        2.64096   0.00108   0.00628  -0.00516   0.00525   2.64621
    R8        2.07784   0.00157   0.00679  -0.00278   0.00624   2.08408
    R9        2.63969   0.00118   0.00572  -0.00482   0.00474   2.64444
   R10        2.07485   0.00162   0.00694  -0.00282   0.00638   2.08123
   R11        2.64170  -0.00033   0.00505  -0.00633   0.00377   2.64547
   R12        2.07368   0.00155   0.00675  -0.00278   0.00619   2.07987
   R13        2.55482  -0.00224  -0.00179  -0.00065  -0.00188   2.55294
   R14        2.71988   0.00052   0.00774  -0.00117   0.00750   2.72738
   R15        2.84200   0.00060   0.00000  -0.00000   0.00000   2.84200
   R16        2.76948  -0.00270   0.00818  -0.00082   0.00803   2.77751
   R17        2.70242   0.00246   0.00759  -0.00106   0.00739   2.70981
   R18        2.59298  -0.00451  -0.00019   0.00018  -0.00012   2.59287
   R19        2.67467  -0.00007   0.00570  -0.00621   0.00446   2.67913
   R20        1.83929   0.00163   0.00413  -0.00067   0.00399   1.84328
   R21        2.63522   0.00038   0.00546  -0.00544   0.00437   2.63959
   R22        2.08159   0.00158   0.00663  -0.00244   0.00614   2.08773
   R23        2.64027   0.00087   0.00632  -0.00565   0.00518   2.64545
   R24        2.07392   0.00165   0.00699  -0.00274   0.00644   2.08036
   R25        2.64211  -0.00024   0.00472  -0.00602   0.00352   2.64563
   R26        2.07245   0.00147   0.00663  -0.00294   0.00604   2.07849
   R27        2.55545   0.00017  -0.00024  -0.00045  -0.00029   2.55516
    A1        1.86830   0.00012  -0.00024   0.00236   0.00021   1.86851
    A2        1.97447   0.00119   0.00307   0.00575   0.00421   1.97868
    A3        1.96398   0.00126   0.00369   0.00243   0.00415   1.96812
    A4        1.87835  -0.00056  -0.00136  -0.00223  -0.00179   1.87656
    A5        1.87620  -0.00064  -0.00168  -0.00198  -0.00207   1.87413
    A6        1.89793  -0.00150  -0.00382  -0.00672  -0.00516   1.89277
    A7        1.96549   0.00135   0.00247  -0.00160   0.00208   1.96757
    A8        2.23141  -0.00101  -0.00545  -0.00304  -0.00609   2.22532
    A9        2.08140  -0.00045   0.00233   0.00028   0.00233   2.08373
   A10        2.15041  -0.00009  -0.00027   0.00437   0.00056   2.15097
   A11        2.05298  -0.00055  -0.00133  -0.00474  -0.00230   2.05068
   A12        2.07969   0.00062   0.00153  -0.00017   0.00148   2.08117
   A13        2.04150   0.00068   0.00073   0.00574   0.00182   2.04332
   A14        2.11812  -0.00031  -0.00016  -0.00211  -0.00056   2.11756
   A15        2.11690  -0.00031  -0.00026  -0.00217  -0.00067   2.11623
   A16        2.07917  -0.00017   0.00005   0.00235   0.00041   2.07957
   A17        2.14093   0.00084   0.00194   0.00173   0.00227   2.14320
   A18        2.06308  -0.00067  -0.00200  -0.00425  -0.00287   2.06021
   A19        1.98120   0.00286   0.00272   0.00190   0.00310   1.98430
   A20        2.17335   0.00042   0.00211   0.00011   0.00204   2.17539
   A21        2.12280  -0.00318  -0.00412   0.00124  -0.00387   2.11892
   A22        1.95372   0.00001  -0.00263   0.00205  -0.00219   1.95152
   A23        2.23138  -0.00051   0.00105  -0.00422   0.00018   2.23157
   A24        2.09808   0.00050   0.00158   0.00218   0.00201   2.10009
   A25        2.19520   0.00022   0.00216   0.00172   0.00249   2.19769
   A26        2.14510   0.00123   0.00209   0.00221   0.00251   2.14762
   A27        1.94189  -0.00147  -0.00432  -0.00459  -0.00523   1.93667
   A28        2.17130  -0.00631  -0.00574   0.00046  -0.00564   2.16567
   A29        2.10293   0.00245   0.00320   0.00108   0.00340   2.10633
   A30        2.00635   0.00388   0.00262  -0.00080   0.00247   2.00882
   A31        1.88062  -0.00248  -0.00794  -0.00629  -0.00921   1.87142
   A32        2.14307  -0.00122  -0.00174   0.00040  -0.00171   2.14137
   A33        2.05453   0.00003  -0.00062  -0.00284  -0.00119   2.05334
   A34        2.08537   0.00117   0.00229   0.00182   0.00265   2.08803
   A35        2.05366   0.00029   0.00127   0.00348   0.00192   2.05557
   A36        2.10922  -0.00009  -0.00046  -0.00067  -0.00059   2.10863
   A37        2.11684  -0.00016  -0.00053  -0.00107  -0.00074   2.11610
   A38        2.07782  -0.00036  -0.00064   0.00117  -0.00046   2.07737
   A39        2.14120   0.00076   0.00191   0.00162   0.00223   2.14343
   A40        2.06416  -0.00040  -0.00126  -0.00283  -0.00183   2.06233
   A41        2.19999   0.00041   0.00266   0.00127   0.00287   2.20286
   A42        2.10124  -0.00149  -0.00494   0.00101  -0.00475   2.09650
   A43        1.98028   0.00110   0.00258  -0.00106   0.00236   1.98264
    D1       -0.58240   0.00091   0.01022   0.03727   0.01765  -0.56475
    D2        2.45095  -0.00037   0.00295  -0.01064   0.00084   2.45179
    D3        1.48367   0.00099   0.01016   0.03939   0.01802   1.50169
    D4       -1.76617  -0.00030   0.00289  -0.00852   0.00121  -1.76496
    D5       -2.63982   0.00090   0.01034   0.03682   0.01770  -2.62213
    D6        0.39353  -0.00039   0.00308  -0.01109   0.00089   0.39442
    D7        2.89222  -0.00106  -0.00537  -0.02862  -0.01115   2.88108
    D8       -0.23329   0.00031   0.00021   0.01061   0.00227  -0.23102
    D9       -0.15144   0.00015   0.00171   0.01494   0.00473  -0.14671
   D10        3.00623   0.00153   0.00729   0.05416   0.01814   3.02438
   D11       -2.63276   0.00069   0.00368   0.02482   0.00860  -2.62416
   D12        0.50766   0.00060   0.00604   0.03235   0.01244   0.52010
   D13        0.39428  -0.00058  -0.00405  -0.02600  -0.00926   0.38502
   D14       -2.74849  -0.00067  -0.00168  -0.01847  -0.00541  -2.75390
   D15       -0.17783   0.00133   0.00561   0.03547   0.01272  -0.16512
   D16        3.08607   0.00086   0.00277   0.02225   0.00724   3.09331
   D17        2.94744  -0.00007  -0.00006  -0.00436  -0.00095   2.94649
   D18       -0.07184  -0.00054  -0.00290  -0.01759  -0.00643  -0.07826
   D19        0.22508  -0.00220  -0.01130  -0.07266  -0.02584   0.19924
   D20       -2.91214  -0.00065  -0.00346  -0.02545  -0.00853  -2.92068
   D21       -3.03874  -0.00173  -0.00846  -0.05944  -0.02036  -3.05910
   D22        0.10723  -0.00017  -0.00062  -0.01223  -0.00305   0.10417
   D23       -2.97298   0.00122   0.00383   0.03289   0.01035  -2.96263
   D24        0.05397   0.00208   0.01031   0.06478   0.02329   0.07726
   D25        0.16444  -0.00026  -0.00367  -0.01219  -0.00612   0.15832
   D26       -3.09180   0.00061   0.00282   0.01970   0.00682  -3.08498
   D27       -0.35995  -0.00058  -0.00198  -0.01368  -0.00473  -0.36468
   D28        2.78271  -0.00050  -0.00415  -0.02056  -0.00825   2.77447
   D29        2.65814   0.00075   0.00550   0.02071   0.00962   2.66776
   D30       -0.48238   0.00083   0.00334   0.01383   0.00610  -0.47628
   D31        3.02224   0.00000  -0.00387  -0.02093  -0.00808   3.01416
   D32       -0.06721   0.00064  -0.00169  -0.00362  -0.00239  -0.06959
   D33       -0.12061  -0.00010  -0.00134  -0.01284  -0.00394  -0.12456
   D34        3.07312   0.00054   0.00084   0.00446   0.00175   3.07487
   D35       -0.33017   0.00060   0.00207   0.01512   0.00511  -0.32505
   D36        2.89291   0.00019   0.00051   0.00366   0.00127   2.89418
   D37        2.76445   0.00008   0.00025  -0.00032   0.00018   2.76463
   D38       -0.29566  -0.00033  -0.00132  -0.01178  -0.00367  -0.29933
   D39       -2.91932  -0.00009   0.00085   0.00170   0.00117  -2.91815
   D40        0.28857  -0.00064  -0.00481  -0.02246  -0.00930   0.27927
   D41        0.26767   0.00044   0.00261   0.01662   0.00593   0.27360
   D42       -2.80763  -0.00012  -0.00305  -0.00753  -0.00454  -2.81217
   D43        3.07152   0.00043   0.00108   0.02407   0.00589   3.07742
   D44       -0.14751   0.00079   0.00261   0.03504   0.00961  -0.13790
   D45        0.12388   0.00095   0.00406   0.03142   0.01034   0.13422
   D46       -3.03974  -0.00002   0.00018  -0.00107  -0.00001  -3.03976
   D47       -2.94358   0.00103   0.00303   0.02095   0.00720  -2.93638
   D48        0.17599   0.00007  -0.00085  -0.01154  -0.00316   0.17283
   D49        0.11956  -0.00131  -0.00663  -0.05089  -0.01682   0.10274
   D50       -3.11035  -0.00075  -0.00322  -0.02879  -0.00898  -3.11934
   D51       -2.99963  -0.00031  -0.00266  -0.01779  -0.00622  -3.00585
   D52        0.05364   0.00024   0.00075   0.00431   0.00162   0.05526
   D53       -0.15889   0.00170   0.00757   0.05265   0.01812  -0.14077
   D54        2.98125   0.00054   0.00333   0.02301   0.00793   2.98918
   D55        3.07143   0.00113   0.00414   0.03042   0.01024   3.08167
   D56       -0.07161  -0.00002  -0.00010   0.00078   0.00005  -0.07156
   D57       -0.04718  -0.00141  -0.00656  -0.03894  -0.01436  -0.06153
   D58        3.03208  -0.00097  -0.00151  -0.01617  -0.00471   3.02737
   D59        3.09580  -0.00031  -0.00250  -0.01063  -0.00465   3.09116
   D60       -0.10813   0.00013   0.00255   0.01215   0.00500  -0.10313
         Item               Value     Threshold  Converged?
 Maximum Force            0.002779     0.000450     NO 
 RMS     Force            0.000998     0.000300     NO 
 Maximum Displacement     0.045586     0.001800     NO 
 RMS     Displacement     0.009515     0.001200     NO 
 Predicted change in Energy=-5.277202D-04
 GradGradGradGradGradGradGradGradGradGradGradGradGradGradGradGradGradGrad

                          Input orientation:                          
 ---------------------------------------------------------------------
 Center     Atomic      Atomic             Coordinates (Angstroms)
 Number     Number       Type             X           Y           Z
 ---------------------------------------------------------------------
      1          6           0       -1.246859    2.642388   -0.571109
      2          6           0       -1.604063    1.250660   -0.072638
      3          6           0       -2.969264    1.131571    0.287053
      4          6           0       -3.607180   -0.099703    0.481753
      5          6           0       -2.900075   -1.249004    0.111134
      6          6           0       -1.538519   -1.142425   -0.196417
      7          9           0       -1.017168   -2.260620   -0.746794
      8          6           0       -0.762316    0.068255   -0.074839
      9          6           0        0.736198    0.001840    0.033939
     10          6           0        1.536804   -1.222288    0.178277
     11          8           0        1.030547   -2.427445    0.595314
     12          6           0        2.939488   -1.197685   -0.026287
     13          6           0        3.653639   -0.012239   -0.215457
     14          6           0        2.961137    1.196172   -0.074257
     15          6           0        1.569610    1.167961    0.077000
     16          9           0        1.029519    2.378480    0.343857
     17          1           0       -2.143923    3.044220   -1.084534
     18          1           0       -0.985018    3.346430    0.242273
     19          1           0       -0.422928    2.634652   -1.304904
     20          1           0       -3.552116    2.062299    0.388558
     21          1           0       -4.658591   -0.155105    0.804887
     22          1           0       -3.372840   -2.239604    0.030060
     23          1           0        1.755543   -3.078095    0.545448
     24          1           0        3.478079   -2.161982   -0.002152
     25          1           0        4.740034   -0.030466   -0.392506
     26          1           0        3.464501    2.174084   -0.065945
 ---------------------------------------------------------------------
                    Distance matrix (angstroms):
                    1          2          3          4          5
     1  C    0.000000
     2  C    1.520847   0.000000
     3  C    2.446567   1.416804   0.000000
     4  C    3.768117   2.478571   1.400315   0.000000
     5  C    4.282699   2.821656   2.388069   1.399375   0.000000
     6  C    3.814482   2.397181   2.729805   2.413823   1.399922
     7  F    4.911529   3.623261   4.048022   3.589855   2.303204
     8  C    2.665939   1.451422   2.476333   2.903663   2.517890
     9  C    3.357245   2.654756   3.882114   4.367584   3.846174
    10  C    4.821419   4.005430   5.084991   5.273791   4.437468
    11  O    5.678938   4.573378   5.362846   5.190357   4.131942
    12  C    5.706881   5.161434   6.359007   6.657518   5.841406
    13  C    5.584658   5.409134   6.739708   7.294741   6.677381
    14  C    4.477235   4.565525   5.941748   6.717978   6.353507
    15  C    3.244453   3.178274   4.543877   5.345087   5.081434
    16  F    2.467530   2.895029   4.189065   5.259219   5.352990
    17  H    1.108963   2.128906   2.494126   3.805079   4.520305
    18  H    1.107170   2.207857   2.974027   4.336925   4.980226
    19  H    1.103348   2.197496   3.358185   4.561612   4.819150
    20  H    2.563528   2.160179   1.102848   2.164710   3.386274
    21  H    4.621607   3.475107   2.185752   1.101340   2.184099
    22  H    5.358643   3.914214   3.404959   2.199573   1.100622
    23  H    6.556298   5.514263   6.333392   6.134629   5.020854
    24  H    6.762450   6.122031   7.245645   7.395138   6.444161
    25  H    6.558882   6.480059   7.825944   8.393159   7.753048
    26  H    4.761450   5.151999   6.527233   7.448406   7.228881
                    6          7          8          9         10
     6  C    0.000000
     7  F    1.350956   0.000000
     8  C    1.443267   2.437238   0.000000
     9  C    2.556706   2.966911   1.503924   0.000000
    10  C    3.099095   2.908034   2.648683   1.469793   0.000000
    11  O    2.979634   2.454021   3.145152   2.510620   1.372086
    12  C    4.481579   4.159818   3.912584   2.509378   1.417736
    13  C    5.313774   5.210947   4.418926   2.928115   2.469865
    14  C    5.072560   5.313061   3.890539   2.527545   2.818056
    15  C    3.882410   4.373239   2.582690   1.433969   2.392619
    16  F    4.391297   5.186491   2.953492   2.414643   3.640093
    17  H    4.322414   5.433689   3.432884   4.336145   5.774559
    18  H    4.544077   5.693707   3.300998   3.767263   5.218895
    19  H    4.091405   4.962690   2.866119   3.172975   4.573440
    20  H    3.829756   5.138348   3.460337   4.770837   6.060515
    21  H    3.422318   4.483400   4.000596   5.451857   6.317787
    22  H    2.149378   2.480551   3.485980   4.680628   5.016124
    23  H    3.892046   3.166398   4.077240   3.284312   1.904384
    24  H    5.122841   4.557572   4.791679   3.493042   2.164285
    25  H    6.379274   6.184212   5.512396   4.026611   3.465100
    26  H    6.003871   6.341570   4.722349   3.488876   3.912927
                   11         12         13         14         15
    11  O    0.000000
    12  C    2.354305   0.000000
    13  C    3.656662   1.396810   0.000000
    14  C    4.160060   2.394435   1.399912   0.000000
    15  C    3.672354   2.735602   2.412795   1.400008   0.000000
    16  F    4.812499   4.071111   3.593658   2.303002   1.352134
    17  H    6.545095   6.704828   6.611275   5.522461   4.319703
    18  H    6.125747   6.010229   5.745199   4.505101   3.361423
    19  H    5.598950   5.256188   4.981096   3.877578   2.833910
    20  H    6.418828   7.276024   7.522729   6.586868   5.208549
    21  H    6.129743   7.714184   8.375839   7.788394   6.408651
    22  H    4.443491   6.397989   7.375150   7.206573   6.003459
    23  H    0.975423   2.294461   3.685270   4.484065   4.275863
    24  H    2.533347   1.104777   2.167421   3.398474   3.838886
    25  H    4.525659   2.176805   1.100878   2.184124   3.421733
    26  H    5.247424   3.412629   2.199576   1.099890   2.150193
                   16         17         18         19         20
    16  F    0.000000
    17  H    3.543197   0.000000
    18  H    2.237321   1.787403   0.000000
    19  H    2.212157   1.782732   1.793413   0.000000
    20  H    4.592749   2.262117   2.874088   3.603778   0.000000
    21  H    6.243892   4.486551   5.106116   5.493159   2.512866
    22  H    6.387952   5.538172   6.078693   5.851708   4.320537
    23  H    5.508353   7.439450   6.991216   6.387880   7.390501
    24  H    5.170200   7.738411   7.093771   6.318442   8.211020
    25  H    4.484771   7.571094   6.677019   5.881454   8.587752
    26  H    2.477671   5.766202   4.611682   4.106001   7.032210
                   21         22         23         24         25
    21  H    0.000000
    22  H    2.568784   0.000000
    23  H    7.053530   5.221973   0.000000
    24  H    8.419279   6.851434   2.026391   0.000000
    25  H    9.475412   8.418882   4.367492   2.507642   0.000000
    26  H    8.495180   8.138740   5.556952   4.336557   2.567814
                   26
    26  H    0.000000
 Symmetry turned off by external request.
 Stoichiometry    C13H10F2O
 Framework group  C1[X(C13H10F2O)]
 Deg. of freedom    72
 Full point group                 C1      NOp   1
 Rotational constants (GHZ):           0.8308855           0.4713419           0.3127477
 Standard basis: def2SVP (5D, 7F)
   274 basis functions,   470 primitive gaussians,   290 cartesian basis functions
    57 alpha electrons       57 beta electrons
       nuclear repulsion energy      1066.0173440355 Hartrees.
 NAtoms=   26 NActive=   26 NUniq=   26 SFac= 1.00D+00 NAtFMM=   60 NAOKFM=F Big=F
 Integral buffers will be    131072 words long.
 Raffenetti 2 integral format.
 Two-electron integral symmetry is turned off.
 Nuclear repulsion after empirical dispersion term =     1065.9663001763 Hartrees.
 One-electron integrals computed using PRISM.
   1 Symmetry operations used in ECPInt.
 ECPInt:  NShTT=    8001 NPrTT=   29641 LenC2=    7584 LenP2D=   20211.
 LDataN:  DoStor=T MaxTD1= 4 Len=   56
 NBasis=   274 RedAO= T EigKep=  3.09D-04  NBF=   274
 NBsUse=   274 1.00D-06 EigRej= -1.00D+00 NBFU=   274
 Initial guess from the checkpoint file:  "path/to/scratch/gaussian_tmp/Gau-296824.chk"
 B after Tr=     0.000606   -0.000312    0.003352
         Rot=    1.000000    0.000003    0.000809   -0.000105 Ang=   0.09 deg.
 ExpMin= 1.22D-01 ExpMax= 2.89D+03 ExpMxC= 4.35D+02 IAcc=3 IRadAn=         5 AccDes= 0.00D+00
 Harris functional with IExCor=  404 and IRadAn=       5 diagonalized for initial guess.
 HarFok:  IExCor=  404 AccDes= 0.00D+00 IRadAn=         5 IDoV= 1 UseB2=F ITyADJ=14
 ICtDFT=  3500011 ScaDFX=  1.000000  1.000000  1.000000  1.000000
 FoFCou: FMM=F IPFlag=           0 FMFlag=      100000 FMFlg1=           0
         NFxFlg=           0 DoJE=T BraDBF=F KetDBF=T FulRan=T
         wScrn=  0.000000 ICntrl=       500 IOpCl=  0 I1Cent=   200000004 NGrid=           0
         NMat0=    1 NMatS0=      1 NMatT0=    0 NMatD0=    1 NMtDS0=    0 NMtDT0=    0
 Symmetry not used in FoFCou.
 Requested convergence on RMS density matrix=1.00D-08 within 128 cycles.
 Requested convergence on MAX density matrix=1.00D-06.
 Requested convergence on             energy=1.00D-06.
 No special actions if energy rises.
 Integral accuracy reduced to 1.0D-05 until final iterations.
 Initial convergence to 1.0D-05 achieved.  Increase integral accuracy.
 SCF Done:  E(RB-P86) =  -775.741298047     A.U. after   12 cycles
            NFock= 12  Conv=0.45D-08     -V/T= 2.0106
   1 Symmetry operations used in ECPInt.
 ECPInt:  NShTT=    8001 NPrTT=   29641 LenC2=    7584 LenP2D=   20211.
 LDataN:  DoStor=T MaxTD1= 5 Len=  102
 Calling FoFJK, ICntrl=      2527 FMM=F ISym2X=0 I1Cent= 0 IOpClX= 0 NMat=1 NMatS=1 NMatT=0.
 -------------------------------------------------------------------
 Center     Atomic                   Forces (Hartrees/Bohr)
 Number     Number              X              Y              Z
 -------------------------------------------------------------------
      1        6          -0.000514093   -0.000687684   -0.000746831
      2        6          -0.002465084    0.000723868    0.003048352
      3        6           0.001448589   -0.001723810    0.002295758
      4        6           0.000997585    0.000493842   -0.003164718
      5        6           0.001295589    0.001035728    0.003899855
      6        6          -0.003078596   -0.000411165   -0.003499975
      7        9           0.006917864    0.002929790    0.003269204
      8        6          -0.000433682   -0.009197391    0.002909438
      9        6           0.001289932   -0.007041023   -0.003606159
     10        6           0.003367094    0.000479624    0.001807932
     11        8          -0.010639126    0.015052857   -0.005327528
     12        6          -0.000781571    0.000989916   -0.003397661
     13        6          -0.001679439    0.000102944    0.003286007
     14        6          -0.000765633   -0.001201999   -0.003012277
     15        6           0.002936104   -0.000362303    0.002667760
     16        9           0.001492139   -0.002965648    0.000667793
     17        1           0.000105555    0.000378755    0.000129130
     18        1           0.000526923    0.000374502   -0.000687758
     19        1          -0.000229517    0.000563130    0.000196558
     20        1           0.000345947   -0.000392095   -0.001129182
     21        1           0.000291065    0.000142027   -0.001135052
     22        1           0.000783353    0.000269368    0.000474852
     23        1           0.000441260    0.000555347    0.000494201
     24        1          -0.000552322    0.000273697    0.000004827
     25        1          -0.000461696    0.000051925    0.000819893
     26        1          -0.000638241   -0.000434203   -0.000264416
 -------------------------------------------------------------------
 Cartesian Forces:  Max     0.015052857 RMS     0.003120375

 GradGradGradGradGradGradGradGradGradGradGradGradGradGradGradGradGradGrad
 Berny optimization.
 Using GEDIIS/GDIIS optimizer.
 FormGI is forming the generalized inverse of G from B-inverse, IUseBI=4.
 Internal  Forces:  Max     0.010465487 RMS     0.001765036
 Search for a local minimum.
 Step number   6 out of a maximum of  156
 All quantities printed in internal units (Hartrees-Bohrs-Radians)
 Mixed Optimization -- En-DIIS/RFO-DIIS
 Swapping is turned off.
 Update second derivatives using D2CorX and points    1    2    3    4    5
                                                      6
 DE= -5.35D-04 DEPred=-5.28D-04 R= 1.01D+00
 TightC=F SS=  1.41D+00  RLast= 8.40D-02 DXNew= 2.3784D-01 2.5213D-01
 Trust test= 1.01D+00 RLast= 8.40D-02 DXMaxT set to 2.38D-01
 ITU=  1  1  0  1  1  0
     Eigenvalues ---    0.00497   0.01559   0.01860   0.01995   0.02042
     Eigenvalues ---    0.02171   0.02201   0.02256   0.02262   0.02271
     Eigenvalues ---    0.02343   0.02358   0.02373   0.02380   0.02393
     Eigenvalues ---    0.02487   0.02598   0.03517   0.06628   0.07447
     Eigenvalues ---    0.15608   0.15883   0.15945   0.15993   0.15996
     Eigenvalues ---    0.15997   0.15999   0.16000   0.16033   0.16165
     Eigenvalues ---    0.22059   0.22106   0.22928   0.23323   0.24707
     Eigenvalues ---    0.28766   0.31067   0.31738   0.33614   0.35008
     Eigenvalues ---    0.35250   0.35392   0.35658   0.35979   0.36197
     Eigenvalues ---    0.36219   0.36256   0.36357   0.38484   0.42600
     Eigenvalues ---    0.43817   0.44306   0.46497   0.47693   0.47863
     Eigenvalues ---    0.48509   0.49060   0.49272   0.50663   0.54805
     Eigenvalues --- 1000.000001000.000001000.000001000.000001000.00000
     Eigenvalues --- 1000.000001000.000001000.000001000.000001000.00000
     Eigenvalues --- 1000.000001000.000001000.000001000.000001000.00000
     Eigenvalues --- 1000.000001000.000001000.000001000.000001000.00000
     Eigenvalues --- 1000.000001000.000001000.000001000.000001000.00000
     Eigenvalues --- 1000.000001000.000001000.000001000.000001000.00000
     Eigenvalues --- 1000.000001000.000001000.000001000.000001000.00000
     Eigenvalues --- 1000.000001000.000001000.000001000.000001000.00000
     Eigenvalues --- 1000.000001000.000001000.000001000.000001000.00000
     Eigenvalues --- 1000.000001000.000001000.000001000.000001000.00000
     Eigenvalues --- 1000.000001000.000001000.000001000.000001000.00000
     Eigenvalues --- 1000.000001000.000001000.000001000.000001000.00000
     Eigenvalues --- 1000.000001000.000001000.000001000.000001000.00000
     Eigenvalues --- 1000.000001000.000001000.000001000.000001000.00000
     Eigenvalues --- 1000.000001000.000001000.000001000.000001000.00000
     Eigenvalues --- 1000.000001000.000001000.000001000.000001000.00000
     Eigenvalues --- 1000.000001000.000001000.000001000.000001000.00000
     Eigenvalues --- 1000.000001000.000001000.00000
 En-DIIS/RFO-DIIS/Sim-DIIS IScMMF=       -3 using points:     6    5
 RFO step:  Lambda=-1.05678770D-03.
 DidBck=F Rises=F RFO-DIIS coefs:    3.00000   -2.00000
 Iteration  1 RMS(Cart)=  0.02376551 RMS(Int)=  0.00035336
 Iteration  2 RMS(Cart)=  0.00043365 RMS(Int)=  0.00014645
 New curvilinear step failed, DQL= 2.99D-05 SP=-7.03D-03.
 ITry= 1 IFail=1 DXMaxC= 1.45D-01 DCOld= 1.00D+10 DXMaxT= 2.38D-01 DXLimC= 3.00D+00 Rises=F
 Iteration  1 RMS(Cart)=  0.02296988 RMS(Int)=  0.00033234
 Iteration  2 RMS(Cart)=  0.00040549 RMS(Int)=  0.00014193
 New curvilinear step failed, DQL= 3.04D-05 SP=-6.08D-03.
 ITry= 2 IFail=1 DXMaxC= 1.40D-01 DCOld= 1.00D+10 DXMaxT= 2.38D-01 DXLimC= 3.00D+00 Rises=F
 Iteration  1 RMS(Cart)=  0.02223064 RMS(Int)=  0.00031259
 Iteration  2 RMS(Cart)=  0.00037907 RMS(Int)=  0.00013776
 New curvilinear step failed, DQL= 3.13D-05 SP=-5.16D-03.
 ITry= 3 IFail=1 DXMaxC= 1.35D-01 DCOld= 1.00D+10 DXMaxT= 2.38D-01 DXLimC= 3.00D+00 Rises=F
 Iteration  1 RMS(Cart)=  0.02155369 RMS(Int)=  0.00029410
 Iteration  2 RMS(Cart)=  0.00035450 RMS(Int)=  0.00013394
 New curvilinear step failed, DQL= 3.26D-05 SP=-4.35D-03.
 ITry= 4 IFail=1 DXMaxC= 1.29D-01 DCOld= 1.00D+10 DXMaxT= 2.38D-01 DXLimC= 3.00D+00 Rises=F
 Iteration  1 RMS(Cart)=  0.02094517 RMS(Int)=  0.00027687
 Iteration  2 RMS(Cart)=  0.00033184 RMS(Int)=  0.00013046
 New curvilinear step failed, DQL= 3.43D-05 SP=-3.60D-03.
 ITry= 5 IFail=1 DXMaxC= 1.24D-01 DCOld= 1.00D+10 DXMaxT= 2.38D-01 DXLimC= 3.00D+00 Rises=F
 Iteration  1 RMS(Cart)=  0.02040815 RMS(Int)=  0.00026087
 Iteration  2 RMS(Cart)=  0.00031097 RMS(Int)=  0.00012733
 New curvilinear step failed, DQL= 3.65D-05 SP=-2.91D-03.
 ITry= 6 IFail=1 DXMaxC= 1.19D-01 DCOld= 1.00D+10 DXMaxT= 2.38D-01 DXLimC= 3.00D+00 Rises=F
 Iteration  1 RMS(Cart)=  0.01995050 RMS(Int)=  0.00024614
 Iteration  2 RMS(Cart)=  0.00029208 RMS(Int)=  0.00012453
 New curvilinear step failed, DQL= 3.94D-05 SP=-2.32D-03.
 ITry= 7 IFail=1 DXMaxC= 1.14D-01 DCOld= 1.00D+10 DXMaxT= 2.38D-01 DXLimC= 3.00D+00 Rises=F
 Iteration  1 RMS(Cart)=  0.01957957 RMS(Int)=  0.00023270
 Iteration  2 RMS(Cart)=  0.00027538 RMS(Int)=  0.00012207
 New curvilinear step failed, DQL= 4.29D-05 SP=-1.81D-03.
 ITry= 8 IFail=1 DXMaxC= 1.08D-01 DCOld= 1.00D+10 DXMaxT= 2.38D-01 DXLimC= 3.00D+00 Rises=F
 Iteration  1 RMS(Cart)=  0.01930035 RMS(Int)=  0.00022052
 Iteration  2 RMS(Cart)=  0.00026096 RMS(Int)=  0.00011995
 New curvilinear step failed, DQL= 4.72D-05 SP=-1.39D-03.
 ITry= 9 IFail=1 DXMaxC= 1.03D-01 DCOld= 1.00D+10 DXMaxT= 2.38D-01 DXLimC= 3.00D+00 Rises=F
 Iteration  1 RMS(Cart)=  0.01911686 RMS(Int)=  0.00020957
 Iteration  2 RMS(Cart)=  0.00024886 RMS(Int)=  0.00011816
 New curvilinear step failed, DQL= 5.25D-05 SP=-1.05D-03.
 ITry=10 IFail=1 DXMaxC= 9.80D-02 DCOld= 1.00D+10 DXMaxT= 2.38D-01 DXLimC= 3.00D+00 Rises=F
 RedQX1 iteration     1 Try  1 RMS(Cart)=  0.00475793 RMS(Int)=  0.01434325 XScale=  4.99893789
 RedQX1 iteration     1 Try  2 RMS(Cart)=  0.00475767 RMS(Int)=  0.01075566 XScale=  2.49905997
 RedQX1 iteration     1 Try  3 RMS(Cart)=  0.00475681 RMS(Int)=  0.00716835 XScale=  1.66587001
 RedQX1 iteration     1 Try  4 RMS(Cart)=  0.00475514 RMS(Int)=  0.00358366 XScale=  1.24936008
 RedQX1 iteration     1 Try  5 RMS(Cart)=  0.00475228 RMS(Int)=  0.00018431 XScale=  0.99955866
 RedQX1 iteration     1 Try  6 RMS(Cart)=  0.00015760 RMS(Int)=  0.00014261 XScale=  0.99979533
 RedQX1 iteration     2 Try  1 RMS(Cart)=  0.00000130 RMS(Int)=  0.00014259 XScale=  0.99983314
 RedQX1 iteration     1 Try  1 RMS(Cart)=  0.00000900 RMS(Int)=  0.00002676 XScale=  6.85285670
 Variable       Old X    -DE/DX   Delta X   Delta X   Delta X     New X
                                 (Linear)    (Quad)   (Total)
    X1       -2.35622  -0.00057   0.00000   0.00000  -0.00003  -2.35625
    Y1        4.99339  -0.00127   0.00000   0.00000  -0.00011   4.99328
    Z1       -1.07924   0.00051   0.00000   0.00000  -0.00001  -1.07925
    X7       -1.92217   0.00614   0.00000   0.00000  -0.00005  -1.92222
    Y7       -4.27195   0.00081  -0.00000   0.00000   0.00004  -4.27191
    Z7       -1.41124   0.00264  -0.00000   0.00000  -0.00001  -1.41124
    X8       -1.44057   0.00055   0.00000   0.00000   0.00004  -1.44053
    Y8        0.12898  -0.00435   0.00000   0.00000   0.00005   0.12904
    Z8       -0.14143   0.00148   0.00000   0.00000  -0.00003  -0.14146
    X9        1.39121   0.00084   0.00000   0.00000  -0.00002   1.39119
    Y9        0.00348  -0.00261   0.00000   0.00000   0.00002   0.00350
    Z9        0.06413  -0.00133   0.00000   0.00000   0.00004   0.06417
   X11        1.94745  -0.00867   0.00000   0.00000   0.00002   1.94748
   Y11       -4.58721   0.01047   0.00000   0.00000   0.00001  -4.58720
   Z11        1.12498  -0.00373   0.00000   0.00000  -0.00000   1.12498
   X16        1.94551   0.00172   0.00000   0.00000   0.00004   1.94554
   Y16        4.49467  -0.00304   0.00000   0.00000  -0.00002   4.49465
   Z16        0.64980   0.00042  -0.00000   0.00000   0.00001   0.64981
    R1        2.87398   0.00238   0.00302   0.00007   0.00324   2.87723
    R2        2.09564  -0.00001   0.01275  -0.01278  -0.00003   2.09561
    R3        2.09225  -0.00014   0.01258  -0.01290  -0.00032   2.09193
    R4        2.08502  -0.00031   0.01028  -0.01067  -0.00040   2.08463
    R5        2.67737  -0.00244   0.00989  -0.01512  -0.00510   2.67227
    R6        2.74279   0.00120   0.01381  -0.01131   0.00273   2.74552
    R7        2.64621  -0.00164   0.01050  -0.01434  -0.00382   2.64239
    R8        2.08408  -0.00062   0.01247  -0.01403  -0.00156   2.08252
    R9        2.64444  -0.00145   0.00949  -0.01345  -0.00408   2.64035
   R10        2.08123  -0.00062   0.01276  -0.01430  -0.00154   2.07969
   R11        2.64547  -0.00229   0.00753  -0.01196  -0.00456   2.64090
   R12        2.07987  -0.00061   0.01238  -0.01389  -0.00151   2.07837
   R13        2.55294  -0.00171  -0.00376   0.00266  -0.00103   2.55190
   R14        2.72738  -0.00221   0.01501  -0.01547  -0.00047   2.72691
   R15        2.84200   0.00000   0.00000  -0.00000  -0.00006   2.84195
   R16        2.77751  -0.00511   0.01606  -0.01558   0.00054   2.77805
   R17        2.70981  -0.00012   0.01478  -0.01464   0.00017   2.70998
   R18        2.59287  -0.00429  -0.00023   0.00016  -0.00004   2.59283
   R19        2.67913  -0.00236   0.00892  -0.01352  -0.00458   2.67455
   R20        1.84328  -0.00007   0.00799  -0.00801  -0.00002   1.84326
   R21        2.63959  -0.00201   0.00873  -0.01296  -0.00427   2.63532
   R22        2.08773  -0.00051   0.01228  -0.01348  -0.00121   2.08652
   R23        2.64545  -0.00189   0.01037  -0.01475  -0.00444   2.64101
   R24        2.08036  -0.00059   0.01288  -0.01432  -0.00144   2.07892
   R25        2.64563  -0.00216   0.00704  -0.01143  -0.00441   2.64122
   R26        2.07849  -0.00068   0.01208  -0.01378  -0.00170   2.07679
   R27        2.55516   0.00021  -0.00058  -0.00007  -0.00059   2.55457
    A1        1.86851   0.00028   0.00043   0.00226   0.00267   1.87118
    A2        1.97868   0.00093   0.00841  -0.00168   0.00672   1.98540
    A3        1.96812   0.00046   0.00829  -0.00698   0.00131   1.96943
    A4        1.87656  -0.00049  -0.00358   0.00127  -0.00234   1.87422
    A5        1.87413  -0.00035  -0.00415   0.00256  -0.00159   1.87254
    A6        1.89277  -0.00092  -0.01032   0.00314  -0.00720   1.88558
    A7        1.96757   0.00069   0.00417  -0.00519  -0.00140   1.96617
    A8        2.22532   0.00012  -0.01218   0.00807  -0.00442   2.22090
    A9        2.08373  -0.00091   0.00466  -0.00396   0.00031   2.08404
   A10        2.15097   0.00008   0.00112   0.00246   0.00318   2.15415
   A11        2.05068  -0.00040  -0.00460   0.00054  -0.00425   2.04643
   A12        2.08117   0.00029   0.00296  -0.00326  -0.00049   2.08068
   A13        2.04332   0.00076   0.00365   0.00167   0.00489   2.04821
   A14        2.11756  -0.00038  -0.00113  -0.00091  -0.00187   2.11569
   A15        2.11623  -0.00035  -0.00134  -0.00075  -0.00192   2.11430
   A16        2.07957  -0.00004   0.00081   0.00121   0.00111   2.08069
   A17        2.14320   0.00048   0.00454  -0.00287   0.00161   2.14482
   A18        2.06021  -0.00046  -0.00573   0.00149  -0.00431   2.05591
   A19        1.98430   0.00211   0.00621  -0.00418   0.00209   1.98639
   A20        2.17539  -0.00017   0.00407  -0.00420  -0.00076   2.17463
   A21        2.11892  -0.00188  -0.00775   0.00878   0.00102   2.11994
   A22        1.95152   0.00049  -0.00439   0.00574   0.00141   1.95293
   A23        2.23157  -0.00072   0.00037  -0.00381  -0.00349   2.22808
   A24        2.10009   0.00023   0.00401  -0.00193   0.00205   2.10214
   A25        2.19769  -0.00016   0.00498  -0.00278   0.00216   2.19984
   A26        2.14762   0.00087   0.00502  -0.00257   0.00233   2.14995
   A27        1.93667  -0.00073  -0.01045   0.00505  -0.00539   1.93128
   A28        2.16567  -0.00477  -0.01127   0.01093  -0.00035   2.16532
   A29        2.10633   0.00170   0.00680  -0.00509   0.00158   2.10791
   A30        2.00882   0.00308   0.00494  -0.00549  -0.00050   2.00832
   A31        1.87142  -0.00093  -0.01842   0.01220  -0.00622   1.86520
   A32        2.14137  -0.00078  -0.00341   0.00337  -0.00044   2.14093
   A33        2.05334   0.00002  -0.00238  -0.00028  -0.00273   2.05062
   A34        2.08803   0.00074   0.00530  -0.00340   0.00184   2.08986
   A35        2.05557   0.00016   0.00383  -0.00078   0.00269   2.05826
   A36        2.10863  -0.00002  -0.00118   0.00063  -0.00049   2.10814
   A37        2.11610  -0.00011  -0.00147   0.00050  -0.00091   2.11520
   A38        2.07737  -0.00013  -0.00091   0.00192   0.00061   2.07798
   A39        2.14343   0.00041   0.00446  -0.00273   0.00171   2.14514
   A40        2.06233  -0.00029  -0.00366   0.00074  -0.00293   2.05940
   A41        2.20286  -0.00018   0.00574  -0.00408   0.00143   2.20429
   A42        2.09650  -0.00013  -0.00950   0.00980   0.00024   2.09674
   A43        1.98264   0.00032   0.00472  -0.00562  -0.00089   1.98175
    D1       -0.56475   0.00066   0.03530   0.01675   0.05199  -0.51277
    D2        2.45179  -0.00032   0.00168   0.00607   0.00781   2.45960
    D3        1.50169   0.00078   0.03604   0.01882   0.05481   1.55649
    D4       -1.76496  -0.00019   0.00243   0.00814   0.01063  -1.75432
    D5       -2.62213   0.00064   0.03539   0.01614   0.05148  -2.57064
    D6        0.39442  -0.00033   0.00178   0.00546   0.00731   0.40173
    D7        2.88108  -0.00069  -0.02229  -0.00375  -0.02614   2.85494
    D8       -0.23102   0.00033   0.00454   0.00714   0.01156  -0.21946
    D9       -0.14671   0.00012   0.00946   0.00499   0.01456  -0.13215
   D10        3.02438   0.00114   0.03629   0.01588   0.05226   3.07664
   D11       -2.62416   0.00062   0.01720   0.00558   0.02267  -2.60149
   D12        0.52010   0.00035   0.02489   0.00458   0.02938   0.54948
   D13        0.38502  -0.00030  -0.01851  -0.00572  -0.02429   0.36073
   D14       -2.75390  -0.00058  -0.01082  -0.00672  -0.01758  -2.77149
   D15       -0.16512   0.00098   0.02543   0.00744   0.03296  -0.13216
   D16        3.09331   0.00069   0.01448   0.00744   0.02199   3.11530
   D17        2.94649  -0.00007  -0.00191  -0.00357  -0.00550   2.94099
   D18       -0.07826  -0.00036  -0.01286  -0.00357  -0.01647  -0.09473
   D19        0.19924  -0.00153  -0.05167  -0.01669  -0.06844   0.13080
   D20       -2.92068  -0.00047  -0.01706  -0.00762  -0.02463  -2.94531
   D21       -3.05910  -0.00124  -0.04072  -0.01670  -0.05747  -3.11657
   D22        0.10417  -0.00018  -0.00610  -0.00763  -0.01367   0.09050
   D23       -2.96263   0.00090   0.02071   0.01025   0.03085  -2.93178
   D24        0.07726   0.00149   0.04657   0.01514   0.06169   0.13895
   D25        0.15832  -0.00010  -0.01223   0.00156  -0.01066   0.14766
   D26       -3.08498   0.00049   0.01363   0.00645   0.02019  -3.06480
   D27       -0.36468  -0.00050  -0.00946  -0.00409  -0.01350  -0.37818
   D28        2.77447  -0.00025  -0.01650  -0.00318  -0.01966   2.75481
   D29        2.66776   0.00036   0.01924   0.00038   0.01964   2.68740
   D30       -0.47628   0.00061   0.01220   0.00129   0.01348  -0.46280
   D31        3.01416   0.00017  -0.01616  -0.00463  -0.02085   2.99331
   D32       -0.06959   0.00078  -0.00477   0.00254  -0.00223  -0.07183
   D33       -0.12456  -0.00012  -0.00789  -0.00572  -0.01364  -0.13820
   D34        3.07487   0.00049   0.00350   0.00146   0.00498   3.07986
   D35       -0.32505   0.00050   0.01023   0.00706   0.01728  -0.30777
   D36        2.89418   0.00018   0.00253   0.00176   0.00429   2.89847
   D37        2.76463  -0.00001   0.00035   0.00044   0.00082   2.76545
   D38       -0.29933  -0.00032  -0.00734  -0.00486  -0.01217  -0.31149
   D39       -2.91815  -0.00017   0.00234  -0.00229   0.00003  -2.91812
   D40        0.27927  -0.00039  -0.01861  -0.00467  -0.02327   0.25600
   D41        0.27360   0.00036   0.01186   0.00413   0.01593   0.28953
   D42       -2.81217   0.00013  -0.00908   0.00175  -0.00737  -2.81954
   D43        3.07742   0.00048   0.01179   0.01676   0.02858   3.10599
   D44       -0.13790   0.00075   0.01923   0.02176   0.04098  -0.09692
   D45        0.13422   0.00073   0.02069   0.01086   0.03154   0.16576
   D46       -3.03976  -0.00000  -0.00003  -0.00045  -0.00043  -3.04019
   D47       -2.93638   0.00077   0.01440   0.00531   0.01967  -2.91671
   D48        0.17283   0.00004  -0.00632  -0.00600  -0.01230   0.16053
   D49        0.10274  -0.00096  -0.03364  -0.01593  -0.04961   0.05313
   D50       -3.11934  -0.00058  -0.01797  -0.01102  -0.02901   3.13484
   D51       -3.00585  -0.00020  -0.01243  -0.00446  -0.01687  -3.02272
   D52        0.05526   0.00017   0.00324   0.00045   0.00373   0.05899
   D53       -0.14077   0.00126   0.03624   0.01418   0.05047  -0.09030
   D54        2.98918   0.00039   0.01586   0.00634   0.02219   3.01137
   D55        3.08167   0.00088   0.02047   0.00924   0.02976   3.11143
   D56       -0.07156   0.00001   0.00010   0.00140   0.00148  -0.07009
   D57       -0.06153  -0.00099  -0.02871  -0.00831  -0.03702  -0.09855
   D58        3.02737  -0.00079  -0.00942  -0.00563  -0.01501   3.01236
   D59        3.09116  -0.00017  -0.00930  -0.00081  -0.01015   3.08100
   D60       -0.10313   0.00004   0.01000   0.00186   0.01185  -0.09128
         Item               Value     Threshold  Converged?
 Maximum Force            0.002506     0.000450     NO 
 RMS     Force            0.000719     0.000300     NO 
 Maximum Displacement     0.145093     0.001800     NO 
 RMS     Displacement     0.023763     0.001200     NO 
 Predicted change in Energy=-5.527771D-04
 GradGradGradGradGradGradGradGradGradGradGradGradGradGradGradGradGradGrad

                          Input orientation:                          
 ---------------------------------------------------------------------
 Center     Atomic      Atomic             Coordinates (Angstroms)
 Number     Number       Type             X           Y           Z
 ---------------------------------------------------------------------
      1          6           0       -1.246875    2.642331   -0.571114
      2          6           0       -1.601891    1.253856   -0.057014
      3          6           0       -2.969986    1.130814    0.278952
      4          6           0       -3.612953   -0.098722    0.452317
      5          6           0       -2.894336   -1.250985    0.123552
      6          6           0       -1.540294   -1.140160   -0.204034
      7          9           0       -1.017193   -2.260596   -0.746797
      8          6           0       -0.762294    0.068284   -0.074855
      9          6           0        0.736186    0.001853    0.033960
     10          6           0        1.538957   -1.220095    0.187371
     11          8           0        1.030560   -2.427440    0.595312
     12          6           0        2.939922   -1.195974   -0.012178
     13          6           0        3.657644   -0.010565   -0.168559
     14          6           0        2.960736    1.195899   -0.059249
     15          6           0        1.571421    1.166207    0.090481
     16          9           0        1.029537    2.378467    0.343863
     17          1           0       -2.153676    3.053082   -1.059744
     18          1           0       -0.951087    3.350936    0.226281
     19          1           0       -0.445031    2.626404   -1.328549
     20          1           0       -3.559396    2.059764    0.343013
     21          1           0       -4.674435   -0.152094    0.737903
     22          1           0       -3.359834   -2.244806    0.051122
     23          1           0        1.768080   -3.065554    0.577827
     24          1           0        3.476040   -2.160679    0.020101
     25          1           0        4.747740   -0.027544   -0.315726
     26          1           0        3.459894    2.174935   -0.048869
 ---------------------------------------------------------------------
                    Distance matrix (angstroms):
                    1          2          3          4          5
     1  C    0.000000
     2  C    1.522562   0.000000
     3  C    2.444669   1.414106   0.000000
     4  C    3.762859   2.476541   1.398292   0.000000
     5  C    4.284227   2.824403   2.388062   1.397214   0.000000
     6  C    3.811572   2.399317   2.726649   2.410664   1.397507
     7  F    4.911448   3.628919   4.045643   3.584626   2.302279
     8  C    2.665861   1.452868   2.475491   2.903801   2.515043
     9  C    3.357197   2.653751   3.882047   4.370371   3.841656
    10  C    4.822292   4.005632   5.085836   5.279190   4.433860
    11  O    5.678895   4.572447   5.363360   5.196690   4.124490
    12  C    5.707387   5.160595   6.358122   6.660322   5.836096
    13  C    5.590547   5.410537   6.740066   7.297591   6.674760
    14  C    4.478634   4.562996   5.940714   6.719459   6.348427
    15  C    3.249530   3.177946   4.545453   5.348710   5.078080
    16  F    2.467562   2.889613   4.190112   5.263168   5.349602
    17  H    1.108947   2.132404   2.480642   3.788098   4.524794
    18  H    1.107001   2.213943   3.001278   4.363114   4.996443
    19  H    1.103139   2.199775   3.346079   4.542414   4.810596
    20  H    2.553970   2.154376   1.102024   2.161915   3.384010
    21  H    4.611996   3.471184   2.182117   1.100524   2.180308
    22  H    5.360586   3.916975   3.405686   2.197885   1.099825
    23  H    6.556674   5.515164   6.336252   6.146003   5.023659
    24  H    6.761980   6.119671   7.242387   7.395424   6.435832
    25  H    6.567257   6.482802   7.826795   8.396197   7.751845
    26  H    4.758664   5.144912   6.522347   7.446198   7.221004
                    6          7          8          9         10
     6  C    0.000000
     7  F    1.350409   0.000000
     8  C    1.443020   2.437245   0.000000
     9  C    2.557967   2.966917   1.503893   0.000000
    10  C    3.105057   2.913626   2.650365   1.470079   0.000000
    11  O    2.984181   2.454055   3.145169   2.510625   1.372066
    12  C    4.484670   4.163154   3.912631   2.508659   1.415311
    13  C    5.319380   5.220259   4.421634   2.928496   2.465458
    14  C    5.073205   5.314509   3.890079   2.526471   2.814126
    15  C    3.884435   4.375493   2.584375   1.434061   2.388488
    16  F    4.391464   5.186478   2.953461   2.414620   3.637808
    17  H    4.323396   5.442859   3.437291   4.342521   5.783673
    18  H    4.549975   5.695660   3.301837   3.755028   5.205396
    19  H    4.080580   4.954652   2.866424   3.184333   4.585824
    20  H    3.823028   5.129912   3.458958   4.773106   6.064231
    21  H    3.418532   4.474991   4.001749   5.458394   6.328504
    22  H    2.143846   2.474852   3.480441   4.671740   5.006671
    23  H    3.906890   3.187527   4.080407   3.281704   1.900177
    24  H    5.123993   4.559304   4.789651   3.490492   2.159853
    25  H    6.386686   6.197321   5.516128   4.026873   3.459995
    26  H    6.001318   6.340769   4.718636   3.485360   3.907945
                   11         12         13         14         15
    11  O    0.000000
    12  C    2.351854   0.000000
    13  C    3.650528   1.394552   0.000000
    14  C    4.157237   2.392427   1.397564   0.000000
    15  C    3.669017   2.731892   2.409196   1.397676   0.000000
    16  F    4.812481   4.068533   3.588453   2.300108   1.351819
    17  H    6.550931   6.715401   6.629599   5.532389   4.331242
    18  H    6.119864   5.989257   5.718041   4.475273   3.339839
    19  H    5.605350   5.272695   5.013096   3.905985   2.865641
    20  H    6.423889   7.277852   7.525532   6.589400   5.214163
    21  H    6.143656   7.722095   8.382438   7.794125   6.416213
    22  H    4.427760   6.386782   7.367842   7.197238   5.996151
    23  H    0.975413   2.283999   3.668856   4.470825   4.264268
    24  H    2.526341   1.104138   2.166002   3.396830   3.834149
    25  H    4.517401   2.173838   1.100115   2.180820   3.417462
    26  H    5.243901   3.410974   2.197690   1.098990   2.145526
                   16         17         18         19         20
    16  F    0.000000
    17  H    3.543736   0.000000
    18  H    2.209613   1.785720   0.000000
    19  H    2.243387   1.781510   1.788444   0.000000
    20  H    4.599987   2.220463   2.912735   3.579730   0.000000
    21  H    6.252544   4.456334   5.137733   5.466089   2.508299
    22  H    6.381766   5.545850   6.094675   5.841939   4.319068
    23  H    5.498868   7.449799   6.977735   6.397696   7.396352
    24  H    5.166628   7.748746   7.072472   6.333231   8.210589
    25  H    4.477609   7.594298   6.647144   5.918963   8.590652
    26  H    2.470283   5.771064   4.573340   4.133987   7.031164
                   21         22         23         24         25
    21  H    0.000000
    22  H    2.565012   0.000000
    23  H    7.072473   5.219823   0.000000
    24  H    8.424957   6.836462   2.011711   0.000000
    25  H    9.481721   8.413298   4.348139   2.506046   0.000000
    26  H    8.497140   8.127288   5.542356   4.336193   2.565282
                   26
    26  H    0.000000
 Symmetry turned off by external request.
 Stoichiometry    C13H10F2O
 Framework group  C1[X(C13H10F2O)]
 Deg. of freedom    72
 Full point group                 C1      NOp   1
 Rotational constants (GHZ):           0.8320147           0.4712807           0.3126127
 Standard basis: def2SVP (5D, 7F)
   274 basis functions,   470 primitive gaussians,   290 cartesian basis functions
    57 alpha electrons       57 beta electrons
       nuclear repulsion energy      1066.3636386407 Hartrees.
 NAtoms=   26 NActive=   26 NUniq=   26 SFac= 1.00D+00 NAtFMM=   60 NAOKFM=F Big=F
 Integral buffers will be    131072 words long.
 Raffenetti 2 integral format.
 Two-electron integral symmetry is turned off.
 Nuclear repulsion after empirical dispersion term =     1066.3125894382 Hartrees.
 One-electron integrals computed using PRISM.
   1 Symmetry operations used in ECPInt.
 ECPInt:  NShTT=    8001 NPrTT=   29641 LenC2=    7583 LenP2D=   20202.
 LDataN:  DoStor=T MaxTD1= 4 Len=   56
 NBasis=   274 RedAO= T EigKep=  3.18D-04  NBF=   274
 NBsUse=   274 1.00D-06 EigRej= -1.00D+00 NBFU=   274
 Initial guess from the checkpoint file:  "path/to/scratch/gaussian_tmp/Gau-296824.chk"
 B after Tr=     0.000855    0.001024    0.008889
         Rot=    0.999996    0.000261    0.002683   -0.000108 Ang=   0.31 deg.
 ExpMin= 1.22D-01 ExpMax= 2.89D+03 ExpMxC= 4.35D+02 IAcc=3 IRadAn=         5 AccDes= 0.00D+00
 Harris functional with IExCor=  404 and IRadAn=       5 diagonalized for initial guess.
 HarFok:  IExCor=  404 AccDes= 0.00D+00 IRadAn=         5 IDoV= 1 UseB2=F ITyADJ=14
 ICtDFT=  3500011 ScaDFX=  1.000000  1.000000  1.000000  1.000000
 FoFCou: FMM=F IPFlag=           0 FMFlag=      100000 FMFlg1=           0
         NFxFlg=           0 DoJE=T BraDBF=F KetDBF=T FulRan=T
         wScrn=  0.000000 ICntrl=       500 IOpCl=  0 I1Cent=   200000004 NGrid=           0
         NMat0=    1 NMatS0=      1 NMatT0=    0 NMatD0=    1 NMtDS0=    0 NMtDT0=    0
 Symmetry not used in FoFCou.
 Requested convergence on RMS density matrix=1.00D-08 within 128 cycles.
 Requested convergence on MAX density matrix=1.00D-06.
 Requested convergence on             energy=1.00D-06.
 No special actions if energy rises.
 Integral accuracy reduced to 1.0D-05 until final iterations.
 Initial convergence to 1.0D-05 achieved.  Increase integral accuracy.
 SCF Done:  E(RB-P86) =  -775.741865021     A.U. after   12 cycles
            NFock= 12  Conv=0.85D-08     -V/T= 2.0106
   1 Symmetry operations used in ECPInt.
 ECPInt:  NShTT=    8001 NPrTT=   29641 LenC2=    7583 LenP2D=   20202.
 LDataN:  DoStor=T MaxTD1= 5 Len=  102
 Calling FoFJK, ICntrl=      2527 FMM=F ISym2X=0 I1Cent= 0 IOpClX= 0 NMat=1 NMatS=1 NMatT=0.
 -------------------------------------------------------------------
 Center     Atomic                   Forces (Hartrees/Bohr)
 Number     Number              X              Y              Z
 -------------------------------------------------------------------
      1        6          -0.000523086    0.000223876    0.000769416
      2        6          -0.001599493    0.000303990   -0.000740043
      3        6           0.000549423    0.000091701    0.000079059
      4        6           0.000493852   -0.000357930    0.000163507
      5        6          -0.000889803    0.000663663   -0.000115249
      6        6           0.001009279   -0.000394576   -0.000162215
      7        9           0.006889640    0.003050505    0.002977978
      8        6          -0.000376568   -0.008769388    0.003680842
      9        6           0.002012016   -0.007029964   -0.002113936
     10        6           0.000498496    0.000026979    0.000346021
     11        8          -0.010311728    0.014992039   -0.005358513
     12        6           0.000040117    0.000049860   -0.000421077
     13        6          -0.000319035    0.000149802    0.000047253
     14        6           0.000378513   -0.000311222    0.000007325
     15        6           0.000112577    0.000082989   -0.000041717
     16        9           0.001318832   -0.002880152    0.000627363
     17        1           0.000163040    0.000074048    0.000054343
     18        1           0.000063774    0.000191458   -0.000392338
     19        1           0.000395087   -0.000117404   -0.000000803
     20        1          -0.000036995   -0.000153124   -0.000093985
     21        1           0.000010409    0.000018423   -0.000176957
     22        1           0.000119938   -0.000037129    0.000232379
     23        1           0.000209898    0.000139244    0.000496893
     24        1          -0.000060948    0.000001027    0.000012030
     25        1          -0.000033794    0.000019014    0.000150056
     26        1          -0.000113442   -0.000027730   -0.000027633
 -------------------------------------------------------------------
 Cartesian Forces:  Max     0.014992039 RMS     0.002758453

 GradGradGradGradGradGradGradGradGradGradGradGradGradGradGradGradGradGrad
 Berny optimization.
 Using GEDIIS/GDIIS optimizer.
 FormGI is forming the generalized inverse of G from B-inverse, IUseBI=4.
 Internal  Forces:  Max     0.010067827 RMS     0.001629964
 Search for a local minimum.
 Step number   7 out of a maximum of  156
 All quantities printed in internal units (Hartrees-Bohrs-Radians)
 Mixed Optimization -- En-DIIS/RFO-DIIS
 Swapping is turned off.
 Update second derivatives using D2CorX and points    1    2    3    4    5
                                                      6    7
 DE= -5.67D-04 DEPred=-5.53D-04 R= 1.03D+00
 TightC=F SS=  1.41D+00  RLast= 2.18D-01 DXNew= 4.0000D-01 6.5449D-01
 Trust test= 1.03D+00 RLast= 2.18D-01 DXMaxT set to 4.00D-01
 ITU=  1  1  1  0  1  1  0
     Eigenvalues ---    0.00508   0.01637   0.01681   0.01860   0.02037
     Eigenvalues ---    0.02158   0.02198   0.02256   0.02265   0.02280
     Eigenvalues ---    0.02330   0.02359   0.02363   0.02378   0.02389
     Eigenvalues ---    0.02551   0.02778   0.03558   0.06592   0.07407
     Eigenvalues ---    0.15315   0.15898   0.15961   0.15973   0.15976
     Eigenvalues ---    0.15983   0.15990   0.16000   0.16047   0.16304
     Eigenvalues ---    0.22120   0.22160   0.22819   0.23266   0.24500
     Eigenvalues ---    0.28831   0.31234   0.31785   0.33597   0.35045
     Eigenvalues ---    0.35313   0.35395   0.35677   0.35998   0.36198
     Eigenvalues ---    0.36226   0.36259   0.36576   0.38520   0.42628
     Eigenvalues ---    0.43830   0.44422   0.46509   0.47761   0.47917
     Eigenvalues ---    0.48525   0.49246   0.49309   0.50887   0.54791
     Eigenvalues --- 1000.000001000.000001000.000001000.000001000.00000
     Eigenvalues --- 1000.000001000.000001000.000001000.000001000.00000
     Eigenvalues --- 1000.000001000.000001000.000001000.000001000.00000
     Eigenvalues --- 1000.000001000.000001000.000001000.000001000.00000
     Eigenvalues --- 1000.000001000.000001000.000001000.000001000.00000
     Eigenvalues --- 1000.000001000.000001000.000001000.000001000.00000
     Eigenvalues --- 1000.000001000.000001000.000001000.000001000.00000
     Eigenvalues --- 1000.000001000.000001000.000001000.000001000.00000
     Eigenvalues --- 1000.000001000.000001000.000001000.000001000.00000
     Eigenvalues --- 1000.000001000.000001000.000001000.000001000.00000
     Eigenvalues --- 1000.000001000.000001000.000001000.000001000.00000
     Eigenvalues --- 1000.000001000.000001000.000001000.000001000.00000
     Eigenvalues --- 1000.000001000.000001000.000001000.000001000.00000
     Eigenvalues --- 1000.000001000.000001000.000001000.000001000.00000
     Eigenvalues --- 1000.000001000.000001000.000001000.000001000.00000
     Eigenvalues --- 1000.000001000.000001000.000001000.000001000.00000
     Eigenvalues --- 1000.000001000.000001000.000001000.000001000.00000
     Eigenvalues --- 1000.000001000.000001000.00000
 En-DIIS/RFO-DIIS/Sim-DIIS IScMMF=       -3 using points:     7    6    5
 RFO step:  Lambda=-6.34051890D-05.
 DidBck=F Rises=F RFO-DIIS coefs:    0.80539    0.91541   -0.72080
 Iteration  1 RMS(Cart)=  0.00619525 RMS(Int)=  0.00006426
 Iteration  2 RMS(Cart)=  0.00003444 RMS(Int)=  0.00005621
 Iteration  3 RMS(Cart)=  0.00000045 RMS(Int)=  0.00005621
 Variable       Old X    -DE/DX   Delta X   Delta X   Delta X     New X
                                 (Linear)    (Quad)   (Total)
    X1       -2.35625  -0.00048   0.00001   0.00000   0.00000  -2.35625
    Y1        4.99328  -0.00141   0.00002   0.00000   0.00000   4.99328
    Z1       -1.07925   0.00070   0.00000   0.00000   0.00000  -1.07925
    X7       -1.92222   0.00647   0.00001   0.00000   0.00000  -1.92222
    Y7       -4.27191   0.00096  -0.00001   0.00000   0.00000  -4.27191
    Z7       -1.41124   0.00259   0.00000   0.00000   0.00000  -1.41124
    X8       -1.44053   0.00057  -0.00001   0.00000   0.00000  -1.44053
    Y8        0.12904  -0.00419  -0.00001   0.00000   0.00000   0.12904
    Z8       -0.14146   0.00164   0.00001   0.00000   0.00000  -0.14146
    X9        1.39119   0.00103   0.00000   0.00000   0.00000   1.39119
    Y9        0.00350  -0.00259  -0.00000   0.00000   0.00000   0.00350
    Z9        0.06417  -0.00139  -0.00001   0.00000   0.00000   0.06417
   X11        1.94748  -0.00903  -0.00000   0.00000   0.00000   1.94748
   Y11       -4.58720   0.01007  -0.00000   0.00000   0.00000  -4.58720
   Z11        1.12498  -0.00368   0.00000   0.00000   0.00000   1.12498
   X16        1.94554   0.00144  -0.00001   0.00000   0.00000   1.94554
   Y16        4.49465  -0.00284   0.00000   0.00000   0.00000   4.49465
   Z16        0.64981   0.00013  -0.00000   0.00000   0.00000   0.64981
    R1        2.87723   0.00186   0.00046  -0.00087  -0.00033   2.87689
    R2        2.09561  -0.00013   0.00460  -0.00432   0.00028   2.09589
    R3        2.09193  -0.00014   0.00460  -0.00433   0.00024   2.09217
    R4        2.08463   0.00029   0.00378  -0.00282   0.00096   2.08558
    R5        2.67227  -0.00059   0.00456  -0.00541  -0.00081   2.67146
    R6        2.74552   0.00165   0.00445  -0.00249   0.00205   2.74757
    R7        2.64239   0.00017   0.00453  -0.00467  -0.00014   2.64225
    R8        2.08252  -0.00011   0.00480  -0.00454   0.00026   2.08278
    R9        2.64035  -0.00028   0.00421  -0.00485  -0.00068   2.63967
   R10        2.07969  -0.00006   0.00490  -0.00453   0.00037   2.08006
   R11        2.64090   0.00035   0.00360  -0.00284   0.00072   2.64162
   R12        2.07837  -0.00003   0.00476  -0.00436   0.00040   2.07877
   R13        2.55190  -0.00172  -0.00116   0.00026  -0.00085   2.55106
   R14        2.72691  -0.00245   0.00550  -0.00519   0.00030   2.72721
   R15        2.84195   0.00016   0.00001  -0.00000   0.00000   2.84195
   R16        2.77805  -0.00483   0.00568  -0.00465   0.00106   2.77910
   R17        2.70998   0.00006   0.00529  -0.00443   0.00088   2.71086
   R18        2.59283  -0.00441  -0.00008  -0.00006  -0.00012   2.59271
   R19        2.67455  -0.00026   0.00411  -0.00410   0.00001   2.67456
   R20        1.84326   0.00006   0.00288  -0.00247   0.00041   1.84368
   R21        2.63532  -0.00020   0.00398  -0.00416  -0.00020   2.63513
   R22        2.08652  -0.00003   0.00466  -0.00424   0.00042   2.08694
   R23        2.64101  -0.00023   0.00460  -0.00493  -0.00035   2.64066
   R24        2.07892  -0.00005   0.00492  -0.00453   0.00039   2.07931
   R25        2.64122   0.00018   0.00339  -0.00322   0.00017   2.64140
   R26        2.07679  -0.00008   0.00468  -0.00439   0.00030   2.07709
   R27        2.55457   0.00011  -0.00009  -0.00013  -0.00019   2.55438
    A1        1.87118   0.00019  -0.00037   0.00168   0.00129   1.87248
    A2        1.98540   0.00060   0.00172   0.00137   0.00307   1.98847
    A3        1.96943  -0.00039   0.00274  -0.00438  -0.00166   1.96776
    A4        1.87422  -0.00025  -0.00084   0.00016  -0.00067   1.87354
    A5        1.87254   0.00009  -0.00119   0.00146   0.00027   1.87281
    A6        1.88558  -0.00025  -0.00232  -0.00003  -0.00234   1.88323
    A7        1.96617   0.00072   0.00178  -0.00065   0.00096   1.96713
    A8        2.22090  -0.00008  -0.00353   0.00241  -0.00122   2.21968
    A9        2.08404  -0.00063   0.00162  -0.00072   0.00076   2.08479
   A10        2.15415  -0.00014  -0.00022   0.00011  -0.00024   2.15391
   A11        2.04643   0.00016  -0.00083   0.00108   0.00019   2.04662
   A12        2.08068  -0.00002   0.00116  -0.00125  -0.00015   2.08053
   A13        2.04821   0.00028   0.00036   0.00013   0.00033   2.04855
   A14        2.11569  -0.00016  -0.00004  -0.00029  -0.00028   2.11541
   A15        2.11430  -0.00013  -0.00011  -0.00020  -0.00025   2.11406
   A16        2.08069  -0.00015   0.00008   0.00069   0.00045   2.08113
   A17        2.14482   0.00013   0.00132  -0.00093   0.00036   2.14517
   A18        2.05591   0.00002  -0.00123   0.00044  -0.00082   2.05509
   A19        1.98639   0.00163   0.00183  -0.00191  -0.00007   1.98632
   A20        2.17463   0.00003   0.00162  -0.00170  -0.00032   2.17431
   A21        2.11994  -0.00167  -0.00299   0.00337   0.00036   2.12031
   A22        1.95293   0.00057  -0.00186   0.00076  -0.00106   1.95188
   A23        2.22808  -0.00052   0.00081   0.00073   0.00150   2.22957
   A24        2.10214  -0.00004   0.00105  -0.00146  -0.00043   2.10171
   A25        2.19984  -0.00040   0.00138  -0.00056   0.00080   2.20065
   A26        2.14995   0.00061   0.00136  -0.00086   0.00045   2.15040
   A27        1.93128  -0.00022  -0.00272   0.00123  -0.00148   1.92980
   A28        2.16532  -0.00459  -0.00400   0.00333  -0.00067   2.16465
   A29        2.10791   0.00167   0.00214  -0.00125   0.00086   2.10877
   A30        2.00832   0.00292   0.00188  -0.00194  -0.00005   2.00827
   A31        1.86520  -0.00013  -0.00543   0.00403  -0.00140   1.86380
   A32        2.14093  -0.00073  -0.00114   0.00099  -0.00028   2.14064
   A33        2.05062   0.00031  -0.00033  -0.00014  -0.00048   2.05013
   A34        2.08986   0.00041   0.00155  -0.00103   0.00050   2.09036
   A35        2.05826  -0.00036   0.00086  -0.00051   0.00023   2.05848
   A36        2.10814   0.00020  -0.00033   0.00030  -0.00000   2.10814
   A37        2.11520   0.00016  -0.00035   0.00016  -0.00017   2.11502
   A38        2.07798  -0.00019  -0.00045   0.00075   0.00017   2.07815
   A39        2.14514   0.00018   0.00127  -0.00076   0.00051   2.14565
   A40        2.05940   0.00001  -0.00075  -0.00001  -0.00076   2.05864
   A41        2.20429  -0.00017   0.00179  -0.00102   0.00068   2.20498
   A42        2.09674  -0.00011  -0.00347   0.00304  -0.00046   2.09627
   A43        1.98175   0.00027   0.00188  -0.00209  -0.00023   1.98153
    D1       -0.51277  -0.00009   0.00260  -0.01099  -0.00843  -0.52120
    D2        2.45960  -0.00013  -0.00091  -0.00392  -0.00480   2.45480
    D3        1.55649   0.00007   0.00232  -0.00886  -0.00657   1.54992
    D4       -1.75432   0.00004  -0.00119  -0.00179  -0.00294  -1.75727
    D5       -2.57064  -0.00010   0.00274  -0.01134  -0.00864  -2.57928
    D6        0.40173  -0.00014  -0.00078  -0.00428  -0.00501   0.39672
    D7        2.85494   0.00002  -0.00295   0.00629   0.00324   2.85818
    D8       -0.21946   0.00012  -0.00061   0.00752   0.00680  -0.21267
    D9       -0.13215   0.00001   0.00058  -0.00050   0.00014  -0.13201
   D10        3.07664   0.00010   0.00291   0.00073   0.00369   3.08033
   D11       -2.60149   0.00011   0.00178  -0.00554  -0.00384  -2.60533
   D12        0.54948  -0.00044   0.00325  -0.00875  -0.00559   0.54389
   D13        0.36073   0.00019  -0.00195   0.00198   0.00000   0.36074
   D14       -2.77149  -0.00035  -0.00048  -0.00122  -0.00174  -2.77323
   D15       -0.13216   0.00003   0.00275  -0.00125   0.00154  -0.13062
   D16        3.11530   0.00015   0.00094   0.00257   0.00356   3.11886
   D17        2.94099  -0.00006   0.00038  -0.00242  -0.00207   2.93892
   D18       -0.09473   0.00007  -0.00143   0.00141  -0.00005  -0.09478
   D19        0.13080   0.00015  -0.00530   0.00183  -0.00349   0.12732
   D20       -2.94531   0.00003  -0.00135  -0.00185  -0.00316  -2.94847
   D21       -3.11657   0.00003  -0.00349  -0.00200  -0.00551  -3.12208
   D22        0.09050  -0.00009   0.00046  -0.00568  -0.00518   0.08532
   D23       -2.93178   0.00018   0.00146   0.00318   0.00454  -2.92724
   D24        0.13895  -0.00001   0.00478  -0.00062   0.00416   0.14311
   D25        0.14766   0.00029  -0.00233   0.00661   0.00427   0.15193
   D26       -3.06480   0.00011   0.00098   0.00282   0.00390  -3.06090
   D27       -0.37818  -0.00016  -0.00078  -0.00120  -0.00198  -0.38016
   D28        2.75481   0.00034  -0.00212   0.00175  -0.00037   2.75444
   D29        2.68740  -0.00023   0.00311  -0.00549  -0.00240   2.68499
   D30       -0.46280   0.00027   0.00177  -0.00254  -0.00079  -0.46359
   D31        2.99331   0.00052  -0.00177   0.00160  -0.00021   2.99310
   D32       -0.07183   0.00088  -0.00129   0.00494   0.00368  -0.06814
   D33       -0.13820  -0.00007  -0.00019  -0.00186  -0.00209  -0.14028
   D34        3.07986   0.00029   0.00029   0.00148   0.00180   3.08166
   D35       -0.30777   0.00026   0.00032   0.00502   0.00534  -0.30243
   D36        2.89847   0.00013   0.00008   0.00240   0.00249   2.90097
   D37        2.76545  -0.00002  -0.00003   0.00196   0.00192   2.76737
   D38       -0.31149  -0.00016  -0.00028  -0.00066  -0.00092  -0.31241
   D39       -2.91812  -0.00033   0.00084  -0.00443  -0.00361  -2.92173
   D40        0.25600   0.00007  -0.00218  -0.00122  -0.00338   0.25262
   D41        0.28953  -0.00000   0.00117  -0.00148  -0.00033   0.28920
   D42       -2.81954   0.00039  -0.00184   0.00172  -0.00011  -2.81964
   D43        3.10599   0.00043  -0.00131   0.01784   0.01654   3.12253
   D44       -0.09692   0.00054  -0.00104   0.02033   0.01927  -0.07765
   D45        0.16576   0.00009   0.00132   0.00322   0.00453   0.17029
   D46       -3.04019   0.00004   0.00007  -0.00020  -0.00008  -3.04027
   D47       -2.91671   0.00023   0.00136   0.00064   0.00196  -2.91475
   D48        0.16053   0.00018   0.00012  -0.00278  -0.00266   0.15787
   D49        0.05313   0.00013  -0.00247  -0.00382  -0.00630   0.04683
   D50        3.13484  -0.00001  -0.00083  -0.00455  -0.00539   3.12945
   D51       -3.02272   0.00019  -0.00120  -0.00036  -0.00155  -3.02427
   D52        0.05899   0.00005   0.00044  -0.00110  -0.00063   0.05836
   D53       -0.09030   0.00010   0.00324   0.00162   0.00490  -0.08540
   D54        3.01137  -0.00008   0.00140   0.00103   0.00243   3.01380
   D55        3.11143   0.00024   0.00159   0.00236   0.00397   3.11540
   D56       -0.07009   0.00006  -0.00025   0.00176   0.00150  -0.06858
   D57       -0.09855  -0.00002  -0.00314   0.00123  -0.00191  -0.10046
   D58        3.01236  -0.00040  -0.00047  -0.00171  -0.00213   3.01022
   D59        3.08100   0.00015  -0.00137   0.00181   0.00040   3.08141
   D60       -0.09128  -0.00023   0.00130  -0.00113   0.00018  -0.09109
         Item               Value     Threshold  Converged?
 Maximum Force            0.000733     0.000450     NO 
 RMS     Force            0.000185     0.000300     YES
 Maximum Displacement     0.034643     0.001800     NO 
 RMS     Displacement     0.006196     0.001200     NO 
 Predicted change in Energy=-2.791627D-05
 GradGradGradGradGradGradGradGradGradGradGradGradGradGradGradGradGradGrad

                          Input orientation:                          
 ---------------------------------------------------------------------
 Center     Atomic      Atomic             Coordinates (Angstroms)
 Number     Number       Type             X           Y           Z
 ---------------------------------------------------------------------
      1          6           0       -1.246875    2.642331   -0.571114
      2          6           0       -1.604102    1.253652   -0.059625
      3          6           0       -2.972225    1.130301    0.274303
      4          6           0       -3.614373   -0.099468    0.448441
      5          6           0       -2.894153   -1.251647    0.124446
      6          6           0       -1.539881   -1.140643   -0.203753
      7          9           0       -1.017193   -2.260596   -0.746797
      8          6           0       -0.762294    0.068284   -0.074855
      9          6           0        0.736186    0.001853    0.033960
     10          6           0        1.540062   -1.219687    0.190173
     11          8           0        1.030560   -2.427440    0.595312
     12          6           0        2.941442   -1.195697   -0.006480
     13          6           0        3.659761   -0.010059   -0.157361
     14          6           0        2.961938    1.196103   -0.053032
     15          6           0        1.572081    1.166208    0.092430
     16          9           0        1.029537    2.378467    0.343863
     17          1           0       -2.149261    3.052459   -1.068696
     18          1           0       -0.957423    3.353865    0.226177
     19          1           0       -0.437427    2.625629   -1.321143
     20          1           0       -3.563348    2.058695    0.332734
     21          1           0       -4.677315   -0.153051    0.729275
     22          1           0       -3.357910   -2.246774    0.055654
     23          1           0        1.772727   -3.060721    0.595069
     24          1           0        3.477208   -2.160769    0.028163
     25          1           0        4.751011   -0.026622   -0.297394
     26          1           0        3.460250    2.175729   -0.041032
 ---------------------------------------------------------------------
                    Distance matrix (angstroms):
                    1          2          3          4          5
     1  C    0.000000
     2  C    1.522387   0.000000
     3  C    2.444953   1.413677   0.000000
     4  C    3.763243   2.475935   1.398217   0.000000
     5  C    4.284903   2.823940   2.387934   1.396856   0.000000
     6  C    3.812046   2.399488   2.727147   2.410999   1.397888
     7  F    4.911448   3.628582   4.045118   3.583910   2.302178
     8  C    2.665861   1.453950   2.476608   2.904537   2.515306
     9  C    3.357197   2.655693   3.883744   4.371433   3.841720
    10  C    4.823045   4.008187   5.088246   5.281078   4.434817
    11  O    5.678895   4.573929   5.364965   5.197733   4.124024
    12  C    5.708877   5.163729   6.360861   6.662385   5.837331
    13  C    5.592982   5.414311   6.743144   7.299864   6.676432
    14  C    4.480412   4.566407   5.943548   6.721447   6.349550
    15  C    3.250499   3.181022   4.548085   5.350513   5.078809
    16  F    2.467562   2.892069   4.192476   5.264694   5.349880
    17  H    1.109095   2.133338   2.485077   3.792480   4.528111
    18  H    1.107130   2.216026   3.000996   4.362831   4.997201
    19  H    1.103644   2.198836   3.347635   4.544290   4.812329
    20  H    2.554138   2.154225   1.102160   2.161865   3.383721
    21  H    4.612276   3.470709   2.182046   1.100720   2.180000
    22  H    5.362150   3.916901   3.406052   2.197948   1.100036
    23  H    6.557651   5.517736   6.338937   6.149094   5.027325
    24  H    6.763569   6.122555   7.244784   7.397034   6.436615
    25  H    6.570607   6.487148   7.830305   8.398882   7.754171
    26  H    4.759804   5.147643   6.524499   7.447576   7.221684
                    6          7          8          9         10
     6  C    0.000000
     7  F    1.349961   0.000000
     8  C    1.443177   2.437245   0.000000
     9  C    2.557789   2.966917   1.503893   0.000000
    10  C    3.106038   2.915640   2.651405   1.470638   0.000000
    11  O    2.983542   2.454055   3.145169   2.510625   1.372005
    12  C    4.486000   4.165677   3.914074   2.509763   1.415314
    13  C    5.321339   5.223624   4.423518   2.929852   2.465179
    14  C    5.074394   5.316349   3.891318   2.527405   2.813703
    15  C    3.885047   4.376258   2.585097   1.434525   2.388111
    16  F    4.391575   5.186478   2.953461   2.414620   3.637440
    17  H    4.324531   5.441852   3.437543   4.341411   5.783345
    18  H    4.552438   5.698458   3.305108   3.760484   5.211151
    19  H    4.080290   4.953908   2.863353   3.177715   4.580502
    20  H    3.823349   5.128798   3.460314   4.775548   6.067364
    21  H    3.418973   4.474040   4.002875   5.460170   6.331202
    22  H    2.143839   2.474485   3.480481   4.671019   5.006309
    23  H    3.911290   3.197570   4.082376   3.281557   1.899337
    24  H    5.124999   4.561816   4.790893   3.491441   2.159726
    25  H    6.389455   6.201998   5.518610   4.028576   3.459960
    26  H    6.002175   6.342443   4.719358   3.485955   3.907611
                   11         12         13         14         15
    11  O    0.000000
    12  C    2.351768   0.000000
    13  C    3.650061   1.394448   0.000000
    14  C    4.156999   2.392342   1.397379   0.000000
    15  C    3.668848   2.731946   2.409234   1.397768   0.000000
    16  F    4.812481   4.068510   3.588086   2.299931   1.351719
    17  H    6.550533   6.714937   6.629802   5.531906   4.330651
    18  H    6.124689   5.996148   5.725510   4.482776   3.346956
    19  H    5.600116   5.267602   5.008811   3.899658   2.857660
    20  H    6.426379   7.281375   7.529491   6.593348   5.217941
    21  H    6.145782   7.724889   8.385309   7.796821   6.418798
    22  H    4.425217   6.386740   7.368580   7.197617   5.996216
    23  H    0.975631   2.281681   3.665186   4.467081   4.261436
    24  H    2.525639   1.104359   2.166402   3.397159   3.834373
    25  H    4.516924   2.173916   1.100323   2.180723   3.417661
    26  H    5.243805   3.411286   2.197955   1.099147   2.145256
                   16         17         18         19         20
    16  F    0.000000
    17  H    3.543211   0.000000
    18  H    2.216587   1.785503   0.000000
    19  H    2.232783   1.782214   1.787435   0.000000
    20  H    4.604017   2.225133   2.911987   3.581635   0.000000
    21  H    6.255021   4.460836   5.137039   5.468266   2.507985
    22  H    6.381662   5.550393   6.095783   5.845092   4.319263
    23  H    5.495472   7.451246   6.981168   6.394625   7.399387
    24  H    5.166761   7.748418   7.079289   6.328870   8.213772
    25  H    4.477168   7.595354   6.654925   5.916282   8.595009
    26  H    2.469334   5.769866   4.579873   4.127103   7.034510
                   21         22         23         24         25
    21  H    0.000000
    22  H    2.564814   0.000000
    23  H    7.076411   5.222730   0.000000
    24  H    8.427261   6.835714   2.009117   0.000000
    25  H    9.484902   8.414768   4.344241   2.506620   0.000000
    26  H    8.499209   8.127434   5.538300   4.337083   2.565567
                   26
    26  H    0.000000
 Symmetry turned off by external request.
 Stoichiometry    C13H10F2O
 Framework group  C1[X(C13H10F2O)]
 Deg. of freedom    72
 Full point group                 C1      NOp   1
 Rotational constants (GHZ):           0.8322088           0.4709504           0.3124431
 Standard basis: def2SVP (5D, 7F)
   274 basis functions,   470 primitive gaussians,   290 cartesian basis functions
    57 alpha electrons       57 beta electrons
       nuclear repulsion energy      1066.2395840762 Hartrees.
 NAtoms=   26 NActive=   26 NUniq=   26 SFac= 1.00D+00 NAtFMM=   60 NAOKFM=F Big=F
 Integral buffers will be    131072 words long.
 Raffenetti 2 integral format.
 Two-electron integral symmetry is turned off.
 Nuclear repulsion after empirical dispersion term =     1066.1885457049 Hartrees.
 One-electron integrals computed using PRISM.
   1 Symmetry operations used in ECPInt.
 ECPInt:  NShTT=    8001 NPrTT=   29641 LenC2=    7583 LenP2D=   20202.
 LDataN:  DoStor=T MaxTD1= 4 Len=   56
 NBasis=   274 RedAO= T EigKep=  3.21D-04  NBF=   274
 NBsUse=   274 1.00D-06 EigRej= -1.00D+00 NBFU=   274
 Initial guess from the checkpoint file:  "path/to/scratch/gaussian_tmp/Gau-296824.chk"
 B after Tr=     0.000321   -0.000056    0.002404
         Rot=    1.000000    0.000213    0.000808   -0.000091 Ang=   0.10 deg.
 ExpMin= 1.22D-01 ExpMax= 2.89D+03 ExpMxC= 4.35D+02 IAcc=3 IRadAn=         5 AccDes= 0.00D+00
 Harris functional with IExCor=  404 and IRadAn=       5 diagonalized for initial guess.
 HarFok:  IExCor=  404 AccDes= 0.00D+00 IRadAn=         5 IDoV= 1 UseB2=F ITyADJ=14
 ICtDFT=  3500011 ScaDFX=  1.000000  1.000000  1.000000  1.000000
 FoFCou: FMM=F IPFlag=           0 FMFlag=      100000 FMFlg1=           0
         NFxFlg=           0 DoJE=T BraDBF=F KetDBF=T FulRan=T
         wScrn=  0.000000 ICntrl=       500 IOpCl=  0 I1Cent=   200000004 NGrid=           0
         NMat0=    1 NMatS0=      1 NMatT0=    0 NMatD0=    1 NMtDS0=    0 NMtDT0=    0
 Symmetry not used in FoFCou.
 Requested convergence on RMS density matrix=1.00D-08 within 128 cycles.
 Requested convergence on MAX density matrix=1.00D-06.
 Requested convergence on             energy=1.00D-06.
 No special actions if energy rises.
 Integral accuracy reduced to 1.0D-05 until final iterations.
 Initial convergence to 1.0D-05 achieved.  Increase integral accuracy.
 SCF Done:  E(RB-P86) =  -775.741894303     A.U. after   11 cycles
            NFock= 11  Conv=0.74D-08     -V/T= 2.0106
   1 Symmetry operations used in ECPInt.
 ECPInt:  NShTT=    8001 NPrTT=   29641 LenC2=    7583 LenP2D=   20202.
 LDataN:  DoStor=T MaxTD1= 5 Len=  102
 Calling FoFJK, ICntrl=      2527 FMM=F ISym2X=0 I1Cent= 0 IOpClX= 0 NMat=1 NMatS=1 NMatT=0.
 -------------------------------------------------------------------
 Center     Atomic                   Forces (Hartrees/Bohr)
 Number     Number              X              Y              Z
 -------------------------------------------------------------------
      1        6          -0.000082504    0.000253109    0.000026305
      2        6          -0.000761957    0.000168878   -0.000293273
      3        6           0.000388173    0.000260392   -0.000212383
      4        6           0.000171792   -0.000358368    0.000232835
      5        6          -0.000631619    0.000335751   -0.000248059
      6        6           0.000786009   -0.000033953    0.000020974
      7        9           0.007080526    0.002814410    0.003009269
      8        6          -0.000895332   -0.008617957    0.003459436
      9        6           0.002574560   -0.006813513   -0.001885463
     10        6          -0.000037615    0.000103315    0.000023173
     11        8          -0.010016772    0.014816937   -0.005252658
     12        6           0.000014679   -0.000033675    0.000030319
     13        6          -0.000060970    0.000147333   -0.000194178
     14        6           0.000286231   -0.000137663    0.000224577
     15        6          -0.000163154   -0.000144734   -0.000148471
     16        9           0.001330589   -0.002771309    0.000694993
     17        1           0.000147611   -0.000030257    0.000119563
     18        1           0.000016634   -0.000051630   -0.000178020
     19        1          -0.000080824   -0.000008345    0.000070332
     20        1           0.000050934   -0.000214573    0.000008400
     21        1           0.000164266    0.000009369   -0.000063659
     22        1           0.000103776    0.000118340    0.000129461
     23        1          -0.000000043    0.000187124    0.000416396
     24        1          -0.000096915    0.000137529   -0.000032754
     25        1          -0.000177485    0.000009959    0.000049748
     26        1          -0.000110591   -0.000146469   -0.000006864
 -------------------------------------------------------------------
 Cartesian Forces:  Max     0.014816937 RMS     0.002706596

 GradGradGradGradGradGradGradGradGradGradGradGradGradGradGradGradGradGrad
 Berny optimization.
 Using GEDIIS/GDIIS optimizer.
 FormGI is forming the generalized inverse of G from B-inverse, IUseBI=4.
 Internal  Forces:  Max     0.010002800 RMS     0.001625601
 Search for a local minimum.
 Step number   8 out of a maximum of  156
 All quantities printed in internal units (Hartrees-Bohrs-Radians)
 Mixed Optimization -- En-DIIS/RFO-DIIS
 Swapping is turned off.
 Update second derivatives using D2CorX and points    1    2    3    4    5
                                                      6    7    8
 DE= -2.93D-05 DEPred=-2.79D-05 R= 1.05D+00
 TightC=F SS=  1.41D+00  RLast= 3.85D-02 DXNew= 6.7272D-01 1.1549D-01
 Trust test= 1.05D+00 RLast= 3.85D-02 DXMaxT set to 4.00D-01
 ITU=  1  1  1  1  0  1  1  0
     Eigenvalues ---    0.00549   0.01077   0.01645   0.01859   0.02035
     Eigenvalues ---    0.02191   0.02231   0.02265   0.02278   0.02291
     Eigenvalues ---    0.02350   0.02359   0.02372   0.02388   0.02415
     Eigenvalues ---    0.02544   0.02947   0.03720   0.06659   0.07405
     Eigenvalues ---    0.15629   0.15895   0.15958   0.15972   0.15977
     Eigenvalues ---    0.15981   0.15990   0.16001   0.16066   0.16707
     Eigenvalues ---    0.22143   0.22183   0.22816   0.23271   0.25075
     Eigenvalues ---    0.29553   0.30997   0.31938   0.33793   0.34963
     Eigenvalues ---    0.35226   0.35616   0.35750   0.35982   0.36197
     Eigenvalues ---    0.36223   0.36258   0.36420   0.38529   0.42465
     Eigenvalues ---    0.43792   0.44195   0.46463   0.47524   0.47835
     Eigenvalues ---    0.48525   0.48819   0.49290   0.50215   0.54844
     Eigenvalues --- 1000.000001000.000001000.000001000.000001000.00000
     Eigenvalues --- 1000.000001000.000001000.000001000.000001000.00000
     Eigenvalues --- 1000.000001000.000001000.000001000.000001000.00000
     Eigenvalues --- 1000.000001000.000001000.000001000.000001000.00000
     Eigenvalues --- 1000.000001000.000001000.000001000.000001000.00000
     Eigenvalues --- 1000.000001000.000001000.000001000.000001000.00000
     Eigenvalues --- 1000.000001000.000001000.000001000.000001000.00000
     Eigenvalues --- 1000.000001000.000001000.000001000.000001000.00000
     Eigenvalues --- 1000.000001000.000001000.000001000.000001000.00000
     Eigenvalues --- 1000.000001000.000001000.000001000.000001000.00000
     Eigenvalues --- 1000.000001000.000001000.000001000.000001000.00000
     Eigenvalues --- 1000.000001000.000001000.000001000.000001000.00000
     Eigenvalues --- 1000.000001000.000001000.000001000.000001000.00000
     Eigenvalues --- 1000.000001000.000001000.000001000.000001000.00000
     Eigenvalues --- 1000.000001000.000001000.000001000.000001000.00000
     Eigenvalues --- 1000.000001000.000001000.000001000.000001000.00000
     Eigenvalues --- 1000.000001000.000001000.000001000.000001000.00000
     Eigenvalues --- 1000.000001000.000001000.00000
 En-DIIS/RFO-DIIS/Sim-DIIS IScMMF=       -3 using points:     8    7    6    5
 RFO step:  Lambda=-4.08691001D-05.
 DidBck=F Rises=F RFO-DIIS coefs:    1.73570   -0.84730    0.62835   -0.51675
 Iteration  1 RMS(Cart)=  0.00586436 RMS(Int)=  0.00006801
 Iteration  2 RMS(Cart)=  0.00005548 RMS(Int)=  0.00004428
 Iteration  3 RMS(Cart)=  0.00000006 RMS(Int)=  0.00004428
 Variable       Old X    -DE/DX   Delta X   Delta X   Delta X     New X
                                 (Linear)    (Quad)   (Total)
    X1       -2.35625  -0.00043   0.00000   0.00000   0.00000  -2.35625
    Y1        4.99328  -0.00147   0.00001   0.00000   0.00000   4.99328
    Z1       -1.07925   0.00068   0.00000   0.00000   0.00000  -1.07925
    X7       -1.92222   0.00654   0.00001   0.00000   0.00000  -1.92222
    Y7       -4.27191   0.00093  -0.00000   0.00000   0.00000  -4.27191
    Z7       -1.41124   0.00267   0.00000   0.00000   0.00000  -1.41124
    X8       -1.44053   0.00060  -0.00000   0.00000   0.00000  -1.44053
    Y8        0.12904  -0.00415  -0.00001   0.00000   0.00000   0.12904
    Z8       -0.14146   0.00168   0.00000   0.00000   0.00000  -0.14146
    X9        1.39119   0.00104   0.00000   0.00000   0.00000   1.39119
    Y9        0.00350  -0.00253  -0.00000   0.00000   0.00000   0.00350
    Z9        0.06417  -0.00144  -0.00000   0.00000   0.00000   0.06417
   X11        1.94748  -0.00913  -0.00000   0.00000   0.00000   1.94748
   Y11       -4.58720   0.01000  -0.00000   0.00000   0.00000  -4.58720
   Z11        1.12498  -0.00375   0.00000   0.00000   0.00000   1.12498
   X16        1.94554   0.00139  -0.00000   0.00000   0.00000   1.94554
   Y16        4.49465  -0.00280   0.00000   0.00000   0.00000   4.49465
   Z16        0.64981   0.00016  -0.00000   0.00000   0.00000   0.64981
    R1        2.87689   0.00180   0.00018  -0.00067  -0.00043   2.87647
    R2        2.09589  -0.00018   0.00350  -0.00371  -0.00021   2.09568
    R3        2.09217  -0.00016   0.00347  -0.00361  -0.00017   2.09201
    R4        2.08558  -0.00011   0.00340  -0.00315   0.00025   2.08583
    R5        2.67146  -0.00045   0.00253  -0.00391  -0.00135   2.67011
    R6        2.74757   0.00112   0.00477  -0.00334   0.00150   2.74907
    R7        2.64225   0.00031   0.00303  -0.00319  -0.00016   2.64209
    R8        2.08278  -0.00021   0.00359  -0.00387  -0.00028   2.08250
    R9        2.63967  -0.00014   0.00241  -0.00341  -0.00104   2.63864
   R10        2.08006  -0.00018   0.00374  -0.00390  -0.00016   2.07990
   R11        2.64162   0.00017   0.00299  -0.00230   0.00065   2.64228
   R12        2.07877  -0.00016   0.00366  -0.00377  -0.00011   2.07865
   R13        2.55106  -0.00149  -0.00148   0.00081  -0.00063   2.55043
   R14        2.72721  -0.00255   0.00415  -0.00460  -0.00047   2.72674
   R15        2.84195   0.00014   0.00001  -0.00000   0.00000   2.84195
   R16        2.77910  -0.00506   0.00487  -0.00452   0.00036   2.77946
   R17        2.71086  -0.00018   0.00444  -0.00420   0.00026   2.71112
   R18        2.59271  -0.00440  -0.00014  -0.00009  -0.00021   2.59250
   R19        2.67456  -0.00028   0.00282  -0.00311  -0.00028   2.67427
   R20        1.84368  -0.00012   0.00237  -0.00232   0.00004   1.84372
   R21        2.63513  -0.00015   0.00259  -0.00302  -0.00045   2.63468
   R22        2.08694  -0.00017   0.00361  -0.00374  -0.00012   2.08681
   R23        2.64066  -0.00019   0.00292  -0.00372  -0.00082   2.63984
   R24        2.07931  -0.00018   0.00378  -0.00394  -0.00016   2.07915
   R25        2.64140   0.00013   0.00244  -0.00244  -0.00000   2.64139
   R26        2.07709  -0.00018   0.00353  -0.00374  -0.00021   2.07687
   R27        2.55438   0.00015  -0.00022   0.00000  -0.00019   2.55419
    A1        1.87248   0.00002   0.00076   0.00006   0.00080   1.87328
    A2        1.98847   0.00012   0.00368  -0.00142   0.00225   1.99071
    A3        1.96776  -0.00005   0.00077  -0.00172  -0.00097   1.96679
    A4        1.87354  -0.00005  -0.00116   0.00063  -0.00052   1.87302
    A5        1.87281   0.00001  -0.00069   0.00079   0.00010   1.87291
    A6        1.88323  -0.00006  -0.00359   0.00187  -0.00171   1.88152
    A7        1.96713   0.00043   0.00194  -0.00072   0.00111   1.96824
    A8        2.21968   0.00027  -0.00355   0.00286  -0.00076   2.21891
    A9        2.08479  -0.00071   0.00173  -0.00134   0.00028   2.08507
   A10        2.15391  -0.00013  -0.00024  -0.00008  -0.00043   2.15348
   A11        2.04662   0.00014  -0.00058   0.00119   0.00057   2.04719
   A12        2.08053  -0.00001   0.00071  -0.00090  -0.00024   2.08028
   A13        2.04855   0.00018   0.00064  -0.00018   0.00034   2.04889
   A14        2.11541  -0.00010  -0.00029  -0.00006  -0.00030   2.11512
   A15        2.11406  -0.00009  -0.00031  -0.00002  -0.00029   2.11377
   A16        2.08113  -0.00023   0.00041   0.00024   0.00040   2.08153
   A17        2.14517   0.00012   0.00126  -0.00092   0.00030   2.14547
   A18        2.05509   0.00011  -0.00160   0.00107  -0.00056   2.05453
   A19        1.98632   0.00162   0.00132  -0.00124   0.00009   1.98642
   A20        2.17431   0.00009   0.00090  -0.00157  -0.00086   2.17345
   A21        2.12031  -0.00172  -0.00185   0.00260   0.00075   2.12105
   A22        1.95188   0.00072  -0.00207   0.00162  -0.00043   1.95145
   A23        2.22957  -0.00071   0.00159  -0.00050   0.00106   2.23063
   A24        2.10171  -0.00001   0.00049  -0.00111  -0.00062   2.10109
   A25        2.20065  -0.00054   0.00164  -0.00106   0.00056   2.20121
   A26        2.15040   0.00057   0.00137  -0.00099   0.00035   2.15075
   A27        1.92980  -0.00005  -0.00318   0.00204  -0.00114   1.92866
   A28        2.16465  -0.00435  -0.00337   0.00326  -0.00011   2.16454
   A29        2.10877   0.00155   0.00221  -0.00156   0.00062   2.10939
   A30        2.00827   0.00280   0.00129  -0.00173  -0.00043   2.00784
   A31        1.86380  -0.00001  -0.00509   0.00406  -0.00104   1.86276
   A32        2.14064  -0.00067  -0.00104   0.00110  -0.00005   2.14059
   A33        2.05013   0.00033  -0.00067   0.00026  -0.00042   2.04971
   A34        2.09036   0.00034   0.00153  -0.00118   0.00033   2.09070
   A35        2.05848  -0.00044   0.00086  -0.00079  -0.00004   2.05845
   A36        2.10814   0.00023  -0.00025   0.00032   0.00009   2.10822
   A37        2.11502   0.00020  -0.00041   0.00033  -0.00006   2.11496
   A38        2.07815  -0.00021  -0.00018   0.00045   0.00016   2.07831
   A39        2.14565   0.00013   0.00134  -0.00087   0.00046   2.14611
   A40        2.05864   0.00007  -0.00118   0.00054  -0.00064   2.05800
   A41        2.20498  -0.00020   0.00183  -0.00114   0.00062   2.20560
   A42        2.09627   0.00001  -0.00282   0.00280  -0.00005   2.09623
   A43        1.98153   0.00018   0.00115  -0.00174  -0.00059   1.98093
    D1       -0.52120   0.00008  -0.00288   0.00349   0.00057  -0.52062
    D2        2.45480  -0.00004  -0.00397   0.00904   0.00509   2.45989
    D3        1.54992   0.00011  -0.00164   0.00347   0.00181   1.55173
    D4       -1.75727  -0.00001  -0.00272   0.00902   0.00633  -1.75093
    D5       -2.57928   0.00009  -0.00296   0.00348   0.00050  -2.57878
    D6        0.39672  -0.00003  -0.00404   0.00902   0.00502   0.40174
    D7        2.85818  -0.00004  -0.00046   0.00420   0.00367   2.86185
    D8       -0.21267  -0.00000   0.00488   0.00070   0.00550  -0.20716
    D9       -0.13201  -0.00002   0.00092  -0.00132  -0.00035  -0.13236
   D10        3.08033   0.00002   0.00626  -0.00481   0.00149   3.08182
   D11       -2.60533   0.00028  -0.00091  -0.00223  -0.00320  -2.60853
   D12        0.54389  -0.00022  -0.00096  -0.00329  -0.00433   0.53956
   D13        0.36074   0.00025  -0.00207   0.00374   0.00165   0.36238
   D14       -2.77323  -0.00024  -0.00212   0.00267   0.00052  -2.77271
   D15       -0.13062  -0.00001   0.00402  -0.00450  -0.00045  -0.13107
   D16        3.11886   0.00008   0.00391  -0.00180   0.00214   3.12100
   D17        2.93892  -0.00004  -0.00140  -0.00086  -0.00229   2.93664
   D18       -0.09478   0.00005  -0.00152   0.00184   0.00030  -0.09447
   D19        0.12732   0.00023  -0.00828   0.00816  -0.00012   0.12720
   D20       -2.94847   0.00007  -0.00398   0.00109  -0.00286  -2.95133
   D21       -3.12208   0.00014  -0.00816   0.00546  -0.00271  -3.12479
   D22        0.08532  -0.00002  -0.00386  -0.00161  -0.00545   0.07987
   D23       -2.92724   0.00006   0.00525  -0.00322   0.00196  -2.92529
   D24        0.14311  -0.00009   0.00821  -0.00655   0.00166   0.14477
   D25        0.15193   0.00021   0.00117   0.00341   0.00458   0.15651
   D26       -3.06090   0.00006   0.00414   0.00008   0.00429  -3.05661
   D27       -0.38016  -0.00021  -0.00240   0.00027  -0.00213  -0.38229
   D28        2.75444   0.00025  -0.00234   0.00124  -0.00109   2.75335
   D29        2.68499  -0.00023   0.00101  -0.00347  -0.00247   2.68252
   D30       -0.46359   0.00022   0.00107  -0.00249  -0.00144  -0.46503
   D31        2.99310   0.00052  -0.00200   0.00146  -0.00057   2.99253
   D32       -0.06814   0.00088   0.00172   0.00167   0.00342  -0.06472
   D33       -0.14028  -0.00001  -0.00205   0.00031  -0.00178  -0.14206
   D34        3.08166   0.00035   0.00167   0.00051   0.00221   3.08387
   D35       -0.30243   0.00019   0.00464   0.00043   0.00507  -0.29736
   D36        2.90097   0.00012   0.00201   0.00121   0.00324   2.90420
   D37        2.76737  -0.00011   0.00142   0.00014   0.00156   2.76893
   D38       -0.31241  -0.00018  -0.00122   0.00093  -0.00028  -0.31269
   D39       -2.92173  -0.00030  -0.00206  -0.00239  -0.00446  -2.92619
   D40        0.25262   0.00012  -0.00470   0.00104  -0.00366   0.24896
   D41        0.28920   0.00004   0.00104  -0.00211  -0.00108   0.28811
   D42       -2.81964   0.00045  -0.00160   0.00132  -0.00027  -2.81992
   D43        3.12253   0.00037   0.01202   0.01168   0.02372  -3.13693
   D44       -0.07765   0.00041   0.01457   0.01093   0.02549  -0.05216
   D45        0.17029   0.00001   0.00516  -0.00245   0.00271   0.17300
   D46       -3.04027   0.00006  -0.00002   0.00042   0.00044  -3.03983
   D47       -2.91475   0.00019   0.00297  -0.00190   0.00103  -2.91373
   D48        0.15787   0.00024  -0.00222   0.00097  -0.00124   0.15663
   D49        0.04683   0.00026  -0.00779   0.00438  -0.00343   0.04340
   D50        3.12945   0.00009  -0.00537   0.00168  -0.00370   3.12576
   D51       -3.02427   0.00021  -0.00247   0.00138  -0.00108  -3.02534
   D52        0.05836   0.00004  -0.00004  -0.00132  -0.00135   0.05702
   D53       -0.08540  -0.00002   0.00733  -0.00532   0.00204  -0.08336
   D54        3.01380  -0.00013   0.00341  -0.00192   0.00148   3.01528
   D55        3.11540   0.00015   0.00489  -0.00261   0.00230   3.11770
   D56       -0.06858   0.00004   0.00097   0.00079   0.00175  -0.06684
   D57       -0.10046   0.00003  -0.00469   0.00477   0.00008  -0.10038
   D58        3.01022  -0.00036  -0.00233   0.00161  -0.00067   3.00955
   D59        3.08141   0.00014  -0.00097   0.00158   0.00058   3.08199
   D60       -0.09109  -0.00025   0.00140  -0.00158  -0.00017  -0.09126
         Item               Value     Threshold  Converged?
 Maximum Force            0.000514     0.000450     NO 
 RMS     Force            0.000117     0.000300     YES
 Maximum Displacement     0.044507     0.001800     NO 
 RMS     Displacement     0.005864     0.001200     NO 
 Predicted change in Energy=-1.719040D-05
 GradGradGradGradGradGradGradGradGradGradGradGradGradGradGradGradGradGrad

                          Input orientation:                          
 ---------------------------------------------------------------------
 Center     Atomic      Atomic             Coordinates (Angstroms)
 Number     Number       Type             X           Y           Z
 ---------------------------------------------------------------------
      1          6           0       -1.246875    2.642331   -0.571114
      2          6           0       -1.605665    1.253542   -0.061693
      3          6           0       -2.972882    1.130048    0.272862
      4          6           0       -3.613680   -0.099999    0.449330
      5          6           0       -2.893285   -1.251785    0.126691
      6          6           0       -1.539033   -1.140956   -0.203120
      7          9           0       -1.017193   -2.260596   -0.746797
      8          6           0       -0.762294    0.068284   -0.074855
      9          6           0        0.736186    0.001853    0.033960
     10          6           0        1.540667   -1.219171    0.192862
     11          8           0        1.030560   -2.427440    0.595312
     12          6           0        2.942417   -1.195109   -0.000040
     13          6           0        3.661228   -0.009496   -0.146522
     14          6           0        2.962800    1.196107   -0.045685
     15          6           0        1.572412    1.166032    0.094548
     16          9           0        1.029537    2.378467    0.343863
     17          1           0       -2.148575    3.055357   -1.067293
     18          1           0       -0.954077    3.353451    0.225201
     19          1           0       -0.437956    2.624603   -1.321884
     20          1           0       -3.565363    2.057582    0.328286
     21          1           0       -4.676896   -0.153860    0.728741
     22          1           0       -3.355645   -2.247793    0.062356
     23          1           0        1.778003   -3.054088    0.618620
     24          1           0        3.477726   -2.160299    0.036259
     25          1           0        4.753188   -0.025714   -0.280257
     26          1           0        3.460244    2.176024   -0.031920
 ---------------------------------------------------------------------
                    Distance matrix (angstroms):
                    1          2          3          4          5
     1  C    0.000000
     2  C    1.522161   0.000000
     3  C    2.445076   1.412962   0.000000
     4  C    3.763435   2.474943   1.398134   0.000000
     5  C    4.285060   2.823139   2.387641   1.396307   0.000000
     6  C    3.812354   2.399596   2.727626   2.411108   1.398234
     7  F    4.911448   3.628338   4.044860   3.583385   2.302261
     8  C    2.665861   1.454746   2.476884   2.904048   2.514822
     9  C    3.357197   2.657093   3.884210   4.370840   3.840999
    10  C    4.823407   4.009802   5.088945   5.280683   4.434566
    11  O    5.678895   4.575037   5.365375   5.196851   4.122904
    12  C    5.709837   5.165727   6.361729   6.662102   5.837353
    13  C    5.594814   5.416883   6.744321   7.299830   6.676794
    14  C    4.482076   4.568854   5.944591   6.721237   6.349459
    15  C    3.251299   3.183118   4.548933   5.350164   5.078319
    16  F    2.467562   2.893825   4.193203   5.264350   5.349246
    17  H    1.108984   2.133663   2.486426   3.795122   4.531188
    18  H    1.107041   2.217317   3.003559   4.364635   4.997843
    19  H    1.103775   2.198052   3.347052   4.543773   4.811797
    20  H    2.554650   2.153829   1.102009   2.161514   3.382933
    21  H    4.612304   3.469586   2.181721   1.100636   2.179259
    22  H    5.362976   3.916269   3.405970   2.197578   1.099976
    23  H    6.558547   5.519756   6.340146   6.150247   5.031026
    24  H    6.764319   6.124113   7.245185   7.396181   6.436098
    25  H    6.572962   6.489937   7.831596   8.398946   7.754832
    26  H    4.760792   5.149300   6.524728   7.446629   7.220967
                    6          7          8          9         10
     6  C    0.000000
     7  F    1.349628   0.000000
     8  C    1.442927   2.437245   0.000000
     9  C    2.557116   2.966917   1.503893   0.000000
    10  C    3.106038   2.917220   2.651950   1.470829   0.000000
    11  O    2.982507   2.454055   3.145169   2.510625   1.371892
    12  C    4.486376   4.167903   3.914925   2.510244   1.415165
    13  C    5.322230   5.226415   4.424786   2.930627   2.464808
    14  C    5.074757   5.317961   3.892192   2.527923   2.812995
    15  C    3.884829   4.376722   2.585459   1.434663   2.387440
    16  F    4.391251   5.186478   2.953461   2.414620   3.636902
    17  H    4.327515   5.444456   3.439377   4.342637   5.785334
    18  H    4.552508   5.697920   3.304412   3.758560   5.208998
    19  H    4.079637   4.952919   2.862698   3.177379   4.580830
    20  H    3.823487   5.127927   3.460784   4.776607   6.068525
    21  H    3.418904   4.473139   4.002403   5.459709   6.330888
    22  H    2.143745   2.474520   3.479728   4.669560   5.004894
    23  H    3.916383   3.210469   4.084509   3.281156   1.898556
    24  H    5.124864   4.563719   4.791314   3.491553   2.159269
    25  H    6.390757   6.205615   5.520106   4.029367   3.459549
    26  H    6.002036   6.343665   4.719559   3.485950   3.906745
                   11         12         13         14         15
    11  O    0.000000
    12  C    2.351229   0.000000
    13  C    3.649272   1.394212   0.000000
    14  C    4.156263   2.391739   1.396943   0.000000
    15  C    3.668434   2.731455   2.408970   1.397766   0.000000
    16  F    4.812481   4.067902   3.587289   2.299398   1.351618
    17  H    6.552268   6.717416   6.632869   5.534135   4.331878
    18  H    6.123273   5.993562   5.722642   4.479892   3.344401
    19  H    5.599582   5.269192   5.012311   3.903131   2.859246
    20  H    6.427226   7.282787   7.531393   6.595370   5.219791
    21  H    6.145081   7.724587   8.385180   7.796608   6.418580
    22  H    4.422116   6.385735   7.368183   7.196865   5.995080
    23  H    0.975654   2.279123   3.660809   4.461973   4.257503
    24  H    2.524385   1.104294   2.166342   3.396664   3.833810
    25  H    4.515846   2.173684   1.100238   2.180220   3.417320
    26  H    5.242963   3.410821   2.197732   1.099034   2.144758
                   16         17         18         19         20
    16  F    0.000000
    17  H    3.542589   0.000000
    18  H    2.213458   1.785000   0.000000
    19  H    2.233569   1.782297   1.786358   0.000000
    20  H    4.606117   2.224968   2.916970   3.581235   0.000000
    21  H    6.254933   4.462872   5.139471   5.467497   2.507259
    22  H    6.380545   5.554866   6.096555   5.845449   4.318676
    23  H    5.490751   7.455577   6.976789   6.397152   7.400339
    24  H    5.166106   7.750881   7.076582   6.330277   8.214676
    25  H    4.476069   7.599129   6.651851   5.920908   8.597019
    26  H    2.467900   5.770968   4.575879   4.130520   7.035831
                   21         22         23         24         25
    21  H    0.000000
    22  H    2.564045   0.000000
    23  H    7.077370   5.226268   0.000000
    24  H    8.426338   6.833980   2.006754   0.000000
    25  H    9.484777   8.414761   4.339442   2.506679   0.000000
    26  H    8.498236   8.126216   5.532378   4.336894   2.565351
                   26
    26  H    0.000000
 Symmetry turned off by external request.
 Stoichiometry    C13H10F2O
 Framework group  C1[X(C13H10F2O)]
 Deg. of freedom    72
 Full point group                 C1      NOp   1
 Rotational constants (GHZ):           0.8323408           0.4708359           0.3123990
 Standard basis: def2SVP (5D, 7F)
   274 basis functions,   470 primitive gaussians,   290 cartesian basis functions
    57 alpha electrons       57 beta electrons
       nuclear repulsion energy      1066.2434794180 Hartrees.
 NAtoms=   26 NActive=   26 NUniq=   26 SFac= 1.00D+00 NAtFMM=   60 NAOKFM=F Big=F
 Integral buffers will be    131072 words long.
 Raffenetti 2 integral format.
 Two-electron integral symmetry is turned off.
 Nuclear repulsion after empirical dispersion term =     1066.1924451559 Hartrees.
 One-electron integrals computed using PRISM.
   1 Symmetry operations used in ECPInt.
 ECPInt:  NShTT=    8001 NPrTT=   29641 LenC2=    7583 LenP2D=   20201.
 LDataN:  DoStor=T MaxTD1= 4 Len=   56
 NBasis=   274 RedAO= T EigKep=  3.22D-04  NBF=   274
 NBsUse=   274 1.00D-06 EigRej= -1.00D+00 NBFU=   274
 Initial guess from the checkpoint file:  "path/to/scratch/gaussian_tmp/Gau-296824.chk"
 B after Tr=     0.000659    0.000125    0.003966
         Rot=    1.000000    0.000203    0.000579   -0.000071 Ang=   0.07 deg.
 ExpMin= 1.22D-01 ExpMax= 2.89D+03 ExpMxC= 4.35D+02 IAcc=3 IRadAn=         5 AccDes= 0.00D+00
 Harris functional with IExCor=  404 and IRadAn=       5 diagonalized for initial guess.
 HarFok:  IExCor=  404 AccDes= 0.00D+00 IRadAn=         5 IDoV= 1 UseB2=F ITyADJ=14
 ICtDFT=  3500011 ScaDFX=  1.000000  1.000000  1.000000  1.000000
 FoFCou: FMM=F IPFlag=           0 FMFlag=      100000 FMFlg1=           0
         NFxFlg=           0 DoJE=T BraDBF=F KetDBF=T FulRan=T
         wScrn=  0.000000 ICntrl=       500 IOpCl=  0 I1Cent=   200000004 NGrid=           0
         NMat0=    1 NMatS0=      1 NMatT0=    0 NMatD0=    1 NMtDS0=    0 NMtDT0=    0
 Symmetry not used in FoFCou.
 Requested convergence on RMS density matrix=1.00D-08 within 128 cycles.
 Requested convergence on MAX density matrix=1.00D-06.
 Requested convergence on             energy=1.00D-06.
 No special actions if energy rises.
 Integral accuracy reduced to 1.0D-05 until final iterations.
 Initial convergence to 1.0D-05 achieved.  Increase integral accuracy.
 SCF Done:  E(RB-P86) =  -775.741912505     A.U. after   11 cycles
            NFock= 11  Conv=0.75D-08     -V/T= 2.0106
   1 Symmetry operations used in ECPInt.
 ECPInt:  NShTT=    8001 NPrTT=   29641 LenC2=    7583 LenP2D=   20201.
 LDataN:  DoStor=T MaxTD1= 5 Len=  102
 Calling FoFJK, ICntrl=      2527 FMM=F ISym2X=0 I1Cent= 0 IOpClX= 0 NMat=1 NMatS=1 NMatT=0.
 -------------------------------------------------------------------
 Center     Atomic                   Forces (Hartrees/Bohr)
 Number     Number              X              Y              Z
 -------------------------------------------------------------------
      1        6           0.000058503    0.000304282   -0.000285377
      2        6           0.000102927    0.000126168    0.000111600
      3        6           0.000153583    0.000276800   -0.000361635
      4        6          -0.000153758   -0.000296027    0.000169663
      5        6          -0.000259522   -0.000015627   -0.000203514
      6        6           0.000413092    0.000168098    0.000107476
      7        9           0.007249952    0.002671681    0.003056150
      8        6          -0.001017842   -0.008444937    0.003214420
      9        6           0.002812134   -0.006605056   -0.001739908
     10        6          -0.000366769    0.000074903   -0.000147574
     11        8          -0.010012241    0.014688053   -0.005074656
     12        6           0.000001227   -0.000123385    0.000282440
     13        6           0.000181995    0.000093132   -0.000243628
     14        6           0.000132307    0.000063561    0.000258452
     15        6          -0.000306251   -0.000205534   -0.000195247
     16        9           0.001283848   -0.002710465    0.000675643
     17        1           0.000057155   -0.000063105    0.000068920
     18        1          -0.000073971   -0.000155655   -0.000010024
     19        1          -0.000160882   -0.000000176    0.000035794
     20        1           0.000045564   -0.000118891    0.000070989
     21        1           0.000129997   -0.000000911    0.000060890
     22        1           0.000022782    0.000108644    0.000001846
     23        1          -0.000062473    0.000159331    0.000258836
     24        1          -0.000060822    0.000108997   -0.000070029
     25        1          -0.000127984   -0.000004933   -0.000046361
     26        1          -0.000042550   -0.000098947    0.000004835
 -------------------------------------------------------------------
 Cartesian Forces:  Max     0.014688053 RMS     0.002677715

 GradGradGradGradGradGradGradGradGradGradGradGradGradGradGradGradGradGrad
 Berny optimization.
 Using GEDIIS/GDIIS optimizer.
 FormGI is forming the generalized inverse of G from B-inverse, IUseBI=4.
 Internal  Forces:  Max     0.009887968 RMS     0.001621064
 Search for a local minimum.
 Step number   9 out of a maximum of  156
 All quantities printed in internal units (Hartrees-Bohrs-Radians)
 Mixed Optimization -- En-DIIS/RFO-DIIS
 Swapping is turned off.
 Update second derivatives using D2CorX and points    1    2    3    4    5
                                                      6    7    8    9
 DE= -1.82D-05 DEPred=-1.72D-05 R= 1.06D+00
 TightC=F SS=  1.41D+00  RLast= 4.10D-02 DXNew= 6.7272D-01 1.2286D-01
 Trust test= 1.06D+00 RLast= 4.10D-02 DXMaxT set to 4.00D-01
 ITU=  1  1  1  1  1  0  1  1  0
     Eigenvalues ---    0.00632   0.00812   0.01686   0.01870   0.02030
     Eigenvalues ---    0.02192   0.02229   0.02266   0.02284   0.02306
     Eigenvalues ---    0.02358   0.02359   0.02374   0.02389   0.02494
     Eigenvalues ---    0.02542   0.02734   0.03712   0.06690   0.07411
     Eigenvalues ---    0.15676   0.15888   0.15948   0.15959   0.15974
     Eigenvalues ---    0.15983   0.15992   0.16018   0.16056   0.17039
     Eigenvalues ---    0.22156   0.22169   0.22963   0.23286   0.24930
     Eigenvalues ---    0.29207   0.31000   0.31846   0.33850   0.35027
     Eigenvalues ---    0.35216   0.35549   0.35649   0.35968   0.36197
     Eigenvalues ---    0.36220   0.36255   0.36318   0.38612   0.42658
     Eigenvalues ---    0.43882   0.44149   0.46551   0.47649   0.48084
     Eigenvalues ---    0.48447   0.48530   0.49324   0.52278   0.54945
     Eigenvalues --- 1000.000001000.000001000.000001000.000001000.00000
     Eigenvalues --- 1000.000001000.000001000.000001000.000001000.00000
     Eigenvalues --- 1000.000001000.000001000.000001000.000001000.00000
     Eigenvalues --- 1000.000001000.000001000.000001000.000001000.00000
     Eigenvalues --- 1000.000001000.000001000.000001000.000001000.00000
     Eigenvalues --- 1000.000001000.000001000.000001000.000001000.00000
     Eigenvalues --- 1000.000001000.000001000.000001000.000001000.00000
     Eigenvalues --- 1000.000001000.000001000.000001000.000001000.00000
     Eigenvalues --- 1000.000001000.000001000.000001000.000001000.00000
     Eigenvalues --- 1000.000001000.000001000.000001000.000001000.00000
     Eigenvalues --- 1000.000001000.000001000.000001000.000001000.00000
     Eigenvalues --- 1000.000001000.000001000.000001000.000001000.00000
     Eigenvalues --- 1000.000001000.000001000.000001000.000001000.00000
     Eigenvalues --- 1000.000001000.000001000.000001000.000001000.00000
     Eigenvalues --- 1000.000001000.000001000.000001000.000001000.00000
     Eigenvalues --- 1000.000001000.000001000.000001000.000001000.00000
     Eigenvalues --- 1000.000001000.000001000.000001000.000001000.00000
     Eigenvalues --- 1000.000001000.000001000.00000
 En-DIIS/RFO-DIIS/Sim-DIIS IScMMF=       -3 using points:     9    8    7    6    5
 RFO step:  Lambda=-1.70996731D-05.
 DidBck=F Rises=F RFO-DIIS coefs:    1.86284   -0.89954    0.04633   -0.10790    0.09827
 Iteration  1 RMS(Cart)=  0.00427404 RMS(Int)=  0.00005002
 Iteration  2 RMS(Cart)=  0.00005134 RMS(Int)=  0.00000938
 Iteration  3 RMS(Cart)=  0.00000026 RMS(Int)=  0.00000938
 Variable       Old X    -DE/DX   Delta X   Delta X   Delta X     New X
                                 (Linear)    (Quad)   (Total)
    X1       -2.35625  -0.00044  -0.00000   0.00000   0.00000  -2.35625
    Y1        4.99328  -0.00148  -0.00000   0.00000   0.00000   4.99328
    Z1       -1.07925   0.00070  -0.00000   0.00000   0.00000  -1.07925
    X7       -1.92222   0.00661  -0.00000   0.00000   0.00000  -1.92222
    Y7       -4.27191   0.00090   0.00000   0.00000   0.00000  -4.27191
    Z7       -1.41124   0.00269  -0.00000   0.00000   0.00000  -1.41124
    X8       -1.44053   0.00064   0.00000   0.00000   0.00000  -1.44053
    Y8        0.12904  -0.00411   0.00000   0.00000   0.00000   0.12904
    Z8       -0.14146   0.00171  -0.00000   0.00000   0.00000  -0.14146
    X9        1.39119   0.00109  -0.00000   0.00000   0.00000   1.39119
    Y9        0.00350  -0.00246   0.00000   0.00000   0.00000   0.00350
    Z9        0.06417  -0.00143   0.00000   0.00000   0.00000   0.06417
   X11        1.94748  -0.00925   0.00000   0.00000   0.00000   1.94748
   Y11       -4.58720   0.00989   0.00000   0.00000   0.00000  -4.58720
   Z11        1.12498  -0.00378  -0.00000   0.00000   0.00000   1.12498
   X16        1.94554   0.00134   0.00000   0.00000   0.00000   1.94554
   Y16        4.49465  -0.00274  -0.00000   0.00000   0.00000   4.49465
   Z16        0.64981   0.00012   0.00000   0.00000   0.00000   0.64981
    R1        2.87647   0.00180  -0.00047  -0.00018  -0.00066   2.87580
    R2        2.09568  -0.00010  -0.00082   0.00039  -0.00043   2.09525
    R3        2.09201  -0.00013  -0.00077   0.00019  -0.00058   2.09143
    R4        2.08583  -0.00014  -0.00033   0.00015  -0.00018   2.08566
    R5        2.67011  -0.00006  -0.00167   0.00080  -0.00088   2.66923
    R6        2.74907   0.00080   0.00057  -0.00003   0.00052   2.74959
    R7        2.64209   0.00054  -0.00068   0.00102   0.00034   2.64243
    R8        2.08250  -0.00012  -0.00088   0.00038  -0.00050   2.08199
    R9        2.63864   0.00014  -0.00138   0.00049  -0.00087   2.63776
   R10        2.07990  -0.00011  -0.00079   0.00039  -0.00041   2.07949
   R11        2.64228   0.00006   0.00012   0.00039   0.00052   2.64280
   R12        2.07865  -0.00011  -0.00073   0.00035  -0.00038   2.07827
   R13        2.55043  -0.00137  -0.00034  -0.00010  -0.00044   2.54998
   R14        2.72674  -0.00242  -0.00116   0.00044  -0.00071   2.72603
   R15        2.84195   0.00015  -0.00000   0.00000   0.00000   2.84195
   R16        2.77946  -0.00508  -0.00051  -0.00000  -0.00051   2.77895
   R17        2.71112  -0.00022  -0.00053   0.00011  -0.00042   2.71070
   R18        2.59250  -0.00436  -0.00017  -0.00009  -0.00026   2.59224
   R19        2.67427  -0.00014  -0.00073   0.00059  -0.00014   2.67413
   R20        1.84372  -0.00014  -0.00037   0.00007  -0.00030   1.84342
   R21        2.63468   0.00004  -0.00085   0.00076  -0.00008   2.63459
   R22        2.08681  -0.00013  -0.00074   0.00029  -0.00045   2.08636
   R23        2.63984   0.00007  -0.00125   0.00071  -0.00053   2.63931
   R24        2.07915  -0.00012  -0.00080   0.00036  -0.00044   2.07871
   R25        2.64139   0.00021  -0.00040   0.00051   0.00011   2.64151
   R26        2.07687  -0.00011  -0.00081   0.00038  -0.00042   2.07645
   R27        2.55419   0.00016  -0.00014   0.00010  -0.00004   2.55415
    A1        1.87328  -0.00005   0.00065  -0.00066  -0.00001   1.87326
    A2        1.99071  -0.00016   0.00148  -0.00132   0.00016   1.99088
    A3        1.96679   0.00007  -0.00117   0.00096  -0.00021   1.96658
    A4        1.87302   0.00006  -0.00027   0.00008  -0.00019   1.87284
    A5        1.87291  -0.00000   0.00027  -0.00011   0.00016   1.87307
    A6        1.88152   0.00009  -0.00095   0.00104   0.00009   1.88161
    A7        1.96824   0.00026   0.00070  -0.00063   0.00010   1.96834
    A8        2.21891   0.00047  -0.00006   0.00015   0.00011   2.21902
    A9        2.08507  -0.00075  -0.00001  -0.00014  -0.00014   2.08493
   A10        2.15348  -0.00009  -0.00039   0.00046   0.00010   2.15357
   A11        2.04719   0.00009   0.00067  -0.00016   0.00052   2.04771
   A12        2.08028   0.00000  -0.00036  -0.00011  -0.00046   2.07983
   A13        2.04889   0.00007   0.00015  -0.00038  -0.00020   2.04869
   A14        2.11512  -0.00004  -0.00021   0.00027   0.00005   2.11516
   A15        2.11377  -0.00003  -0.00019   0.00027   0.00006   2.11383
   A16        2.08153  -0.00031   0.00030  -0.00028   0.00008   2.08161
   A17        2.14547   0.00013   0.00004   0.00004   0.00008   2.14555
   A18        2.05453   0.00019  -0.00021   0.00023   0.00002   2.05455
   A19        1.98642   0.00156  -0.00020  -0.00042  -0.00063   1.98579
   A20        2.17345   0.00028  -0.00094   0.00069  -0.00021   2.17325
   A21        2.12105  -0.00184   0.00102  -0.00024   0.00078   2.12184
   A22        1.95145   0.00075  -0.00010   0.00022   0.00012   1.95157
   A23        2.23063  -0.00080   0.00081  -0.00060   0.00020   2.23084
   A24        2.10109   0.00005  -0.00070   0.00038  -0.00032   2.10077
   A25        2.20121  -0.00064   0.00023  -0.00023   0.00000   2.20121
   A26        2.15075   0.00055   0.00006  -0.00003   0.00003   2.15078
   A27        1.92866   0.00007  -0.00047   0.00033  -0.00014   1.92853
   A28        2.16454  -0.00424   0.00048   0.00005   0.00054   2.16508
   A29        2.10939   0.00149   0.00019  -0.00010   0.00009   2.10948
   A30        2.00784   0.00275  -0.00061  -0.00002  -0.00064   2.00720
   A31        1.86276   0.00000   0.00000  -0.00066  -0.00066   1.86210
   A32        2.14059  -0.00065   0.00013   0.00014   0.00029   2.14089
   A33        2.04971   0.00035  -0.00026   0.00007  -0.00018   2.04953
   A34        2.09070   0.00031   0.00003   0.00004   0.00007   2.09077
   A35        2.05845  -0.00050  -0.00020  -0.00025  -0.00043   2.05802
   A36        2.10822   0.00025   0.00013   0.00005   0.00017   2.10839
   A37        2.11496   0.00025   0.00001   0.00020   0.00021   2.11517
   A38        2.07831  -0.00024   0.00018  -0.00017   0.00004   2.07835
   A39        2.14611   0.00011   0.00017   0.00007   0.00024   2.14635
   A40        2.05800   0.00013  -0.00037   0.00017  -0.00020   2.05780
   A41        2.20560  -0.00019   0.00024   0.00009   0.00035   2.20595
   A42        2.09623   0.00001   0.00044  -0.00014   0.00031   2.09654
   A43        1.98093   0.00017  -0.00075   0.00004  -0.00070   1.98023
    D1       -0.52062   0.00015  -0.00043   0.00265   0.00223  -0.51839
    D2        2.45989  -0.00007   0.00456  -0.00187   0.00269   2.46258
    D3        1.55173   0.00010   0.00056   0.00152   0.00209   1.55382
    D4       -1.75093  -0.00012   0.00555  -0.00300   0.00254  -1.74839
    D5       -2.57878   0.00016  -0.00050   0.00265   0.00216  -2.57662
    D6        0.40174  -0.00007   0.00450  -0.00187   0.00262   0.40436
    D7        2.86185  -0.00009   0.00389  -0.00145   0.00245   2.86430
    D8       -0.20716  -0.00009   0.00439  -0.00457  -0.00017  -0.20733
    D9       -0.13236  -0.00000  -0.00063   0.00265   0.00201  -0.13034
   D10        3.08182  -0.00000  -0.00013  -0.00047  -0.00061   3.08120
   D11       -2.60853   0.00035  -0.00325   0.00235  -0.00088  -2.60941
   D12        0.53956  -0.00014  -0.00447   0.00265  -0.00181   0.53776
   D13        0.36238   0.00020   0.00210  -0.00248  -0.00037   0.36201
   D14       -2.77271  -0.00029   0.00088  -0.00218  -0.00130  -2.77400
   D15       -0.13107   0.00000  -0.00138  -0.00174  -0.00312  -0.13419
   D16        3.12100   0.00004   0.00122  -0.00340  -0.00219   3.11881
   D17        2.93664   0.00000  -0.00186   0.00144  -0.00041   2.93623
   D18       -0.09447   0.00004   0.00074  -0.00022   0.00052  -0.09396
   D19        0.12720   0.00021   0.00190   0.00079   0.00270   0.12990
   D20       -2.95133   0.00009  -0.00175   0.00102  -0.00073  -2.95206
   D21       -3.12479   0.00018  -0.00069   0.00246   0.00177  -3.12302
   D22        0.07987   0.00006  -0.00434   0.00269  -0.00166   0.07821
   D23       -2.92529   0.00001   0.00080  -0.00135  -0.00054  -2.92582
   D24        0.14477  -0.00011  -0.00041  -0.00090  -0.00131   0.14347
   D25        0.15651   0.00013   0.00430  -0.00157   0.00272   0.15923
   D26       -3.05661   0.00000   0.00308  -0.00112   0.00195  -3.05466
   D27       -0.38229  -0.00021  -0.00143   0.00154   0.00011  -0.38218
   D28        2.75335   0.00024  -0.00030   0.00127   0.00096   2.75431
   D29        2.68252  -0.00020  -0.00280   0.00202  -0.00078   2.68174
   D30       -0.46503   0.00024  -0.00168   0.00175   0.00007  -0.46496
   D31        2.99253   0.00055   0.00011  -0.00030  -0.00018   2.99235
   D32       -0.06472   0.00087   0.00303  -0.00152   0.00150  -0.06322
   D33       -0.14206   0.00002  -0.00120   0.00002  -0.00118  -0.14324
   D34        3.08387   0.00034   0.00172  -0.00121   0.00050   3.08437
   D35       -0.29736   0.00013   0.00384  -0.00172   0.00213  -0.29524
   D36        2.90420   0.00008   0.00262  -0.00021   0.00241   2.90661
   D37        2.76893  -0.00013   0.00126  -0.00064   0.00063   2.76956
   D38       -0.31269  -0.00017   0.00004   0.00087   0.00091  -0.31178
   D39       -2.92619  -0.00024  -0.00383   0.00069  -0.00314  -2.92933
   D40        0.24896   0.00016  -0.00234   0.00096  -0.00138   0.24759
   D41        0.28811   0.00006  -0.00135  -0.00034  -0.00169   0.28642
   D42       -2.81992   0.00047   0.00014  -0.00007   0.00007  -2.81985
   D43       -3.13693   0.00023   0.01955   0.00557   0.02512  -3.11181
   D44       -0.05216   0.00025   0.02074   0.00414   0.02488  -0.02728
   D45        0.17300  -0.00004   0.00146  -0.00250  -0.00104   0.17196
   D46       -3.03983   0.00008   0.00038   0.00158   0.00196  -3.03787
   D47       -2.91373   0.00014   0.00029  -0.00112  -0.00082  -2.91455
   D48        0.15663   0.00026  -0.00078   0.00296   0.00217   0.15880
   D49        0.04340   0.00031  -0.00155   0.00335   0.00180   0.04520
   D50        3.12576   0.00016  -0.00239   0.00344   0.00105   3.12681
   D51       -3.02534   0.00019  -0.00042  -0.00083  -0.00125  -3.02660
   D52        0.05702   0.00004  -0.00126  -0.00074  -0.00200   0.05501
   D53       -0.08336  -0.00004   0.00028  -0.00272  -0.00244  -0.08580
   D54        3.01528  -0.00014   0.00062  -0.00079  -0.00016   3.01512
   D55        3.11770   0.00010   0.00112  -0.00280  -0.00169   3.11602
   D56       -0.06684   0.00001   0.00146  -0.00087   0.00059  -0.06624
   D57       -0.10038   0.00004   0.00120   0.00138   0.00258  -0.09780
   D58        3.00955  -0.00034  -0.00018   0.00112   0.00093   3.01048
   D59        3.08199   0.00013   0.00085  -0.00045   0.00040   3.08239
   D60       -0.09126  -0.00025  -0.00053  -0.00071  -0.00124  -0.09251
         Item               Value     Threshold  Converged?
 Maximum Force            0.000259     0.000450     YES
 RMS     Force            0.000079     0.000300     YES
 Maximum Displacement     0.043932     0.001800     NO 
 RMS     Displacement     0.004274     0.001200     NO 
 Predicted change in Energy=-8.327651D-06
 GradGradGradGradGradGradGradGradGradGradGradGradGradGradGradGradGradGrad

                          Input orientation:                          
 ---------------------------------------------------------------------
 Center     Atomic      Atomic             Coordinates (Angstroms)
 Number     Number       Type             X           Y           Z
 ---------------------------------------------------------------------
      1          6           0       -1.246875    2.642331   -0.571114
      2          6           0       -1.605996    1.253656   -0.062664
      3          6           0       -2.973070    1.129859    0.270401
      4          6           0       -3.613364   -0.100400    0.448617
      5          6           0       -2.893200   -1.251657    0.125580
      6          6           0       -1.538432   -1.140877   -0.203288
      7          9           0       -1.017193   -2.260596   -0.746797
      8          6           0       -0.762294    0.068284   -0.074855
      9          6           0        0.736186    0.001853    0.033960
     10          6           0        1.540440   -1.218844    0.194022
     11          8           0        1.030560   -2.427440    0.595312
     12          6           0        2.942491   -1.194576    0.003900
     13          6           0        3.661623   -0.009145   -0.142053
     14          6           0        2.963063    1.196061   -0.041278
     15          6           0        1.572259    1.165823    0.095351
     16          9           0        1.029537    2.378467    0.343863
     17          1           0       -2.148629    3.056310   -1.065895
     18          1           0       -0.952970    3.352526    0.225196
     19          1           0       -0.438753    2.624498   -1.322602
     20          1           0       -3.566037    2.056763    0.325879
     21          1           0       -4.676143   -0.154409    0.728812
     22          1           0       -3.354926   -2.247856    0.063129
     23          1           0        1.782457   -3.047178    0.641869
     24          1           0        3.477287   -2.159819    0.039102
     25          1           0        4.753498   -0.025368   -0.274560
     26          1           0        3.459990    2.175980   -0.026893
 ---------------------------------------------------------------------
                    Distance matrix (angstroms):
                    1          2          3          4          5
     1  C    0.000000
     2  C    1.521810   0.000000
     3  C    2.444477   1.412498   0.000000
     4  C    3.763336   2.474754   1.398312   0.000000
     5  C    4.284730   2.822929   2.387252   1.395844   0.000000
     6  C    3.812213   2.399610   2.727418   2.410999   1.398508
     7  F    4.911448   3.628319   4.044173   3.582676   2.301826
     8  C    2.665861   1.455022   2.476626   2.903632   2.514594
     9  C    3.357197   2.657473   3.884184   4.370468   3.840850
    10  C    4.823197   4.009888   5.088616   5.279908   4.434290
    11  O    5.678895   4.575460   5.365539   5.196409   4.122986
    12  C    5.709929   5.165946   6.361437   6.661399   5.837239
    13  C    5.595335   5.417451   6.744376   7.299497   6.676913
    14  C    4.482857   4.569472   5.944679   6.720879   6.349408
    15  C    3.251426   3.183392   4.548841   5.349655   5.077938
    16  F    2.467562   2.894218   4.193481   5.264246   5.349142
    17  H    1.108759   2.133186   2.485277   3.795262   4.531289
    18  H    1.106737   2.216881   3.003847   4.364667   4.997291
    19  H    1.103682   2.197522   3.345798   4.543175   4.811041
    20  H    2.554603   2.153534   1.101743   2.161171   3.382081
    21  H    4.612097   3.469134   2.181729   1.100421   2.178699
    22  H    5.362842   3.916015   3.405545   2.197034   1.099774
    23  H    6.558864   5.520431   6.340400   6.151076   5.035099
    24  H    6.763928   6.123882   7.244487   7.395015   6.435476
    25  H    6.573359   6.490297   7.831436   8.398392   7.754733
    26  H    4.761118   5.149386   6.524340   7.445828   7.220455
                    6          7          8          9         10
     6  C    0.000000
     7  F    1.349394   0.000000
     8  C    1.442552   2.437245   0.000000
     9  C    2.556561   2.966917   1.503893   0.000000
    10  C    3.105380   2.917511   2.651711   1.470559   0.000000
    11  O    2.982067   2.454055   3.145169   2.510625   1.371756
    12  C    4.486031   4.168818   3.914900   2.510005   1.415091
    13  C    5.322137   5.227434   4.425104   2.930748   2.464901
    14  C    5.074543   5.318710   3.892466   2.527998   2.812648
    15  C    3.884128   4.376623   2.585285   1.434438   2.386920
    16  F    4.390857   5.186478   2.953461   2.414620   3.636498
    17  H    4.328142   5.445316   3.439824   4.342988   5.785634
    18  H    4.551597   5.697020   3.303428   3.757237   5.207253
    19  H    4.079241   4.952806   2.862827   3.177894   4.581334
    20  H    3.823101   5.127069   3.460580   4.776714   6.068203
    21  H    3.418649   4.472289   4.001711   5.458988   6.329686
    22  H    2.143836   2.474093   3.479265   4.668966   5.004059
    23  H    3.921298   3.222599   4.086019   3.280370   1.897880
    24  H    5.123908   4.563786   4.790769   3.490915   2.158892
    25  H    6.390447   6.206458   5.520200   4.029233   3.459436
    26  H    6.001406   6.344024   4.719360   3.485633   3.906188
                   11         12         13         14         15
    11  O    0.000000
    12  C    2.350574   0.000000
    13  C    3.648883   1.394167   0.000000
    14  C    4.155668   2.391152   1.396661   0.000000
    15  C    3.668098   2.730821   2.408807   1.397827   0.000000
    16  F    4.812481   4.067137   3.586737   2.298900   1.351596
    17  H    6.552737   6.718184   6.633967   5.535320   4.332140
    18  H    6.122041   5.991638   5.721029   4.478467   3.342949
    19  H    5.599942   5.270460   5.014265   3.905711   2.860505
    20  H    6.427237   7.282569   7.531667   6.595814   5.220058
    21  H    6.144181   7.723408   8.384382   7.795786   6.417696
    22  H    4.421308   6.385168   7.367896   7.196420   5.994280
    23  H    0.975496   2.277019   3.657246   4.457084   4.253498
    24  H    2.523383   1.104056   2.166148   3.396000   3.833039
    25  H    4.515184   2.173553   1.100005   2.179900   3.417024
    26  H    5.242208   3.410191   2.197427   1.098810   2.144502
                   16         17         18         19         20
    16  F    0.000000
    17  H    3.542263   0.000000
    18  H    2.212059   1.784449   0.000000
    19  H    2.234617   1.782144   1.786091   0.000000
    20  H    4.606856   2.223775   2.918434   3.580463   0.000000
    21  H    6.254473   4.462960   5.139479   5.466818   2.506785
    22  H    6.380063   5.555540   6.095895   5.845010   4.317795
    23  H    5.485739   7.458047   6.972259   6.400065   7.399761
    24  H    5.165307   7.751126   7.074444   6.330821   8.214026
    25  H    4.475350   7.600152   6.650090   5.922808   8.597119
    26  H    2.466893   5.771578   4.574060   4.132824   7.035888
                   21         22         23         24         25
    21  H    0.000000
    22  H    2.563449   0.000000
    23  H    7.077372   5.231306   0.000000
    24  H    8.424714   6.832823   2.005787   0.000000
    25  H    9.483751   8.414275   4.335696   2.506587   0.000000
    26  H    8.496968   8.125362   5.526548   4.336335   2.565235
                   26
    26  H    0.000000
 Symmetry turned off by external request.
 Stoichiometry    C13H10F2O
 Framework group  C1[X(C13H10F2O)]
 Deg. of freedom    72
 Full point group                 C1      NOp   1
 Rotational constants (GHZ):           0.8324986           0.4708342           0.3124096
 Standard basis: def2SVP (5D, 7F)
   274 basis functions,   470 primitive gaussians,   290 cartesian basis functions
    57 alpha electrons       57 beta electrons
       nuclear repulsion energy      1066.3112372656 Hartrees.
 NAtoms=   26 NActive=   26 NUniq=   26 SFac= 1.00D+00 NAtFMM=   60 NAOKFM=F Big=F
 Integral buffers will be    131072 words long.
 Raffenetti 2 integral format.
 Two-electron integral symmetry is turned off.
 Nuclear repulsion after empirical dispersion term =     1066.2602015111 Hartrees.
 One-electron integrals computed using PRISM.
   1 Symmetry operations used in ECPInt.
 ECPInt:  NShTT=    8001 NPrTT=   29641 LenC2=    7583 LenP2D=   20200.
 LDataN:  DoStor=T MaxTD1= 4 Len=   56
 NBasis=   274 RedAO= T EigKep=  3.20D-04  NBF=   274
 NBsUse=   274 1.00D-06 EigRej= -1.00D+00 NBFU=   274
 Initial guess from the checkpoint file:  "path/to/scratch/gaussian_tmp/Gau-296824.chk"
 B after Tr=     0.000182    0.000168    0.001544
         Rot=    1.000000    0.000121    0.000381   -0.000040 Ang=   0.05 deg.
 ExpMin= 1.22D-01 ExpMax= 2.89D+03 ExpMxC= 4.35D+02 IAcc=3 IRadAn=         5 AccDes= 0.00D+00
 Harris functional with IExCor=  404 and IRadAn=       5 diagonalized for initial guess.
 HarFok:  IExCor=  404 AccDes= 0.00D+00 IRadAn=         5 IDoV= 1 UseB2=F ITyADJ=14
 ICtDFT=  3500011 ScaDFX=  1.000000  1.000000  1.000000  1.000000
 FoFCou: FMM=F IPFlag=           0 FMFlag=      100000 FMFlg1=           0
         NFxFlg=           0 DoJE=T BraDBF=F KetDBF=T FulRan=T
         wScrn=  0.000000 ICntrl=       500 IOpCl=  0 I1Cent=   200000004 NGrid=           0
         NMat0=    1 NMatS0=      1 NMatT0=    0 NMatD0=    1 NMtDS0=    0 NMtDT0=    0
 Symmetry not used in FoFCou.
 Requested convergence on RMS density matrix=1.00D-08 within 128 cycles.
 Requested convergence on MAX density matrix=1.00D-06.
 Requested convergence on             energy=1.00D-06.
 No special actions if energy rises.
 Integral accuracy reduced to 1.0D-05 until final iterations.
 Initial convergence to 1.0D-05 achieved.  Increase integral accuracy.
 SCF Done:  E(RB-P86) =  -775.741922443     A.U. after   11 cycles
            NFock= 11  Conv=0.55D-08     -V/T= 2.0106
   1 Symmetry operations used in ECPInt.
 ECPInt:  NShTT=    8001 NPrTT=   29641 LenC2=    7583 LenP2D=   20200.
 LDataN:  DoStor=T MaxTD1= 5 Len=  102
 Calling FoFJK, ICntrl=      2527 FMM=F ISym2X=0 I1Cent= 0 IOpClX= 0 NMat=1 NMatS=1 NMatT=0.
 -------------------------------------------------------------------
 Center     Atomic                   Forces (Hartrees/Bohr)
 Number     Number              X              Y              Z
 -------------------------------------------------------------------
      1        6           0.000082722    0.000299332   -0.000381029
      2        6           0.000340817   -0.000077665    0.000103327
      3        6          -0.000048057    0.000072556   -0.000051424
      4        6          -0.000183636   -0.000036945    0.000013867
      5        6           0.000066328   -0.000127185   -0.000014049
      6        6           0.000000635    0.000150531    0.000059327
      7        9           0.007472272    0.002564797    0.003046006
      8        6          -0.000923025   -0.008292980    0.003078119
      9        6           0.002624030   -0.006509851   -0.001745432
     10        6          -0.000235200    0.000038672   -0.000044030
     11        8          -0.010258208    0.014629619   -0.004894085
     12        6           0.000024721   -0.000064861    0.000125394
     13        6           0.000142181   -0.000007451   -0.000049333
     14        6          -0.000023637    0.000098438    0.000051741
     15        6          -0.000133725   -0.000088597   -0.000072685
     16        9           0.001188595   -0.002698206    0.000651156
     17        1          -0.000037258   -0.000013018   -0.000014971
     18        1          -0.000018391   -0.000050954    0.000120039
     19        1          -0.000097873    0.000020539   -0.000010556
     20        1          -0.000015248    0.000045967    0.000041270
     21        1          -0.000014034    0.000007809    0.000070302
     22        1          -0.000028708   -0.000009855   -0.000064060
     23        1           0.000021264    0.000055048    0.000081313
     24        1           0.000005195   -0.000021282   -0.000055545
     25        1           0.000022535   -0.000013150   -0.000050186
     26        1           0.000025707    0.000028691    0.000005522
 -------------------------------------------------------------------
 Cartesian Forces:  Max     0.014629619 RMS     0.002670115

 GradGradGradGradGradGradGradGradGradGradGradGradGradGradGradGradGradGrad
 Berny optimization.
 Using GEDIIS/GDIIS optimizer.
 FormGI is forming the generalized inverse of G from B-inverse, IUseBI=4.
 Internal  Forces:  Max     0.009779137 RMS     0.001617662
 Search for a local minimum.
 Step number  10 out of a maximum of  156
 All quantities printed in internal units (Hartrees-Bohrs-Radians)
 Mixed Optimization -- En-DIIS/RFO-DIIS
 Swapping is turned off.
 Update second derivatives using D2CorX and points    1    2    3    4    5
                                                      6    7    8    9   10
 DE= -9.94D-06 DEPred=-8.33D-06 R= 1.19D+00
 TightC=F SS=  1.41D+00  RLast= 3.77D-02 DXNew= 6.7272D-01 1.1318D-01
 Trust test= 1.19D+00 RLast= 3.77D-02 DXMaxT set to 4.00D-01
 ITU=  1  1  1  1  1  1  0  1  1  0
     Eigenvalues ---    0.00603   0.00702   0.01727   0.01888   0.02020
     Eigenvalues ---    0.02196   0.02234   0.02240   0.02272   0.02307
     Eigenvalues ---    0.02359   0.02369   0.02374   0.02389   0.02425
     Eigenvalues ---    0.02531   0.02739   0.03755   0.06697   0.07412
     Eigenvalues ---    0.15646   0.15893   0.15933   0.15961   0.15977
     Eigenvalues ---    0.15984   0.15991   0.16035   0.16056   0.17283
     Eigenvalues ---    0.22129   0.22170   0.22917   0.23272   0.24965
     Eigenvalues ---    0.28960   0.31239   0.31873   0.33986   0.35096
     Eigenvalues ---    0.35372   0.35661   0.35754   0.36030   0.36199
     Eigenvalues ---    0.36228   0.36259   0.36805   0.38692   0.42898
     Eigenvalues ---    0.43915   0.44461   0.46581   0.47753   0.48250
     Eigenvalues ---    0.48530   0.48916   0.49352   0.53985   0.55008
     Eigenvalues --- 1000.000001000.000001000.000001000.000001000.00000
     Eigenvalues --- 1000.000001000.000001000.000001000.000001000.00000
     Eigenvalues --- 1000.000001000.000001000.000001000.000001000.00000
     Eigenvalues --- 1000.000001000.000001000.000001000.000001000.00000
     Eigenvalues --- 1000.000001000.000001000.000001000.000001000.00000
     Eigenvalues --- 1000.000001000.000001000.000001000.000001000.00000
     Eigenvalues --- 1000.000001000.000001000.000001000.000001000.00000
     Eigenvalues --- 1000.000001000.000001000.000001000.000001000.00000
     Eigenvalues --- 1000.000001000.000001000.000001000.000001000.00000
     Eigenvalues --- 1000.000001000.000001000.000001000.000001000.00000
     Eigenvalues --- 1000.000001000.000001000.000001000.000001000.00000
     Eigenvalues --- 1000.000001000.000001000.000001000.000001000.00000
     Eigenvalues --- 1000.000001000.000001000.000001000.000001000.00000
     Eigenvalues --- 1000.000001000.000001000.000001000.000001000.00000
     Eigenvalues --- 1000.000001000.000001000.000001000.000001000.00000
     Eigenvalues --- 1000.000001000.000001000.000001000.000001000.00000
     Eigenvalues --- 1000.000001000.000001000.000001000.000001000.00000
     Eigenvalues --- 1000.000001000.000001000.00000
 En-DIIS/RFO-DIIS/Sim-DIIS IScMMF=       -3 using points:    10    9    8    7    6    5
 RFO step:  Lambda=-3.80676181D-06.
 DidBck=F Rises=F RFO-DIIS coefs:    1.41134   -0.37344   -0.12121    0.08560   -0.01922
                  RFO-DIIS coefs:    0.01691
 Iteration  1 RMS(Cart)=  0.00182371 RMS(Int)=  0.00000768
 Iteration  2 RMS(Cart)=  0.00000770 RMS(Int)=  0.00000188
 Iteration  3 RMS(Cart)=  0.00000023 RMS(Int)=  0.00000189
 Variable       Old X    -DE/DX   Delta X   Delta X   Delta X     New X
                                 (Linear)    (Quad)   (Total)
    X1       -2.35625  -0.00041  -0.00000   0.00000   0.00000  -2.35625
    Y1        4.99328  -0.00143  -0.00000   0.00000   0.00000   4.99328
    Z1       -1.07925   0.00069  -0.00000   0.00000   0.00000  -1.07925
    X7       -1.92222   0.00670  -0.00000   0.00000   0.00000  -1.92222
    Y7       -4.27191   0.00086   0.00000   0.00000   0.00000  -4.27191
    Z7       -1.41124   0.00271  -0.00000   0.00000   0.00000  -1.41124
    X8       -1.44053   0.00060   0.00000   0.00000   0.00000  -1.44053
    Y8        0.12904  -0.00409   0.00000   0.00000   0.00000   0.12904
    Z8       -0.14146   0.00175  -0.00000   0.00000   0.00000  -0.14146
    X9        1.39119   0.00111  -0.00000   0.00000   0.00000   1.39119
    Y9        0.00350  -0.00241   0.00000   0.00000   0.00000   0.00350
    Z9        0.06417  -0.00144   0.00000   0.00000   0.00000   0.06417
   X11        1.94748  -0.00931   0.00000   0.00000   0.00000   1.94748
   Y11       -4.58720   0.00978   0.00000   0.00000   0.00000  -4.58720
   Z11        1.12498  -0.00381  -0.00000   0.00000   0.00000   1.12498
   X16        1.94554   0.00131   0.00000   0.00000   0.00000   1.94554
   Y16        4.49465  -0.00270  -0.00000   0.00000   0.00000   4.49465
   Z16        0.64981   0.00009   0.00000   0.00000   0.00000   0.64981
    R1        2.87580   0.00195  -0.00028   0.00032   0.00004   2.87584
    R2        2.09525   0.00003  -0.00031   0.00029  -0.00002   2.09523
    R3        2.09143   0.00005  -0.00037   0.00037  -0.00000   2.09143
    R4        2.08566  -0.00006  -0.00023   0.00011  -0.00012   2.08553
    R5        2.66923   0.00023  -0.00044   0.00053   0.00008   2.66932
    R6        2.74959   0.00073  -0.00001  -0.00024  -0.00026   2.74934
    R7        2.64243   0.00049   0.00005   0.00027   0.00031   2.64274
    R8        2.08199   0.00005  -0.00035   0.00037   0.00002   2.08202
    R9        2.63776   0.00042  -0.00043   0.00051   0.00008   2.63784
   R10        2.07949   0.00003  -0.00032   0.00031  -0.00001   2.07949
   R11        2.64280  -0.00001   0.00010   0.00013   0.00023   2.64303
   R12        2.07827   0.00002  -0.00030   0.00029  -0.00002   2.07826
   R13        2.54998  -0.00125  -0.00011   0.00022   0.00011   2.55010
   R14        2.72603  -0.00226  -0.00046   0.00021  -0.00025   2.72578
   R15        2.84195   0.00020  -0.00000   0.00000   0.00000   2.84195
   R16        2.77895  -0.00493  -0.00042   0.00006  -0.00036   2.77860
   R17        2.71070  -0.00010  -0.00036   0.00017  -0.00020   2.71050
   R18        2.59224  -0.00427  -0.00010   0.00007  -0.00003   2.59221
   R19        2.67413  -0.00004  -0.00015   0.00032   0.00016   2.67430
   R20        1.84342  -0.00001  -0.00022   0.00016  -0.00007   1.84335
   R21        2.63459   0.00010  -0.00012   0.00029   0.00017   2.63476
   R22        2.08636   0.00002  -0.00033   0.00030  -0.00003   2.08633
   R23        2.63931   0.00027  -0.00032   0.00044   0.00012   2.63943
   R24        2.07871   0.00003  -0.00033   0.00032  -0.00002   2.07869
   R25        2.64151   0.00023  -0.00004   0.00021   0.00017   2.64168
   R26        2.07645   0.00004  -0.00031   0.00032   0.00001   2.07646
   R27        2.55415   0.00015  -0.00001   0.00011   0.00010   2.55425
    A1        1.87326  -0.00003  -0.00008  -0.00000  -0.00008   1.87319
    A2        1.99088  -0.00017  -0.00016  -0.00054  -0.00070   1.99018
    A3        1.96658   0.00009  -0.00005   0.00032   0.00027   1.96685
    A4        1.87284   0.00007  -0.00002   0.00012   0.00011   1.87294
    A5        1.87307  -0.00003   0.00008  -0.00014  -0.00006   1.87301
    A6        1.88161   0.00008   0.00024   0.00024   0.00048   1.88209
    A7        1.96834   0.00024  -0.00004   0.00006   0.00003   1.96837
    A8        2.21902   0.00044   0.00021  -0.00005   0.00016   2.21918
    A9        2.08493  -0.00070  -0.00015   0.00001  -0.00013   2.08480
   A10        2.15357  -0.00011   0.00004  -0.00002   0.00002   2.15360
   A11        2.04771   0.00005   0.00025  -0.00014   0.00011   2.04781
   A12        2.07983   0.00006  -0.00021   0.00012  -0.00009   2.07974
   A13        2.04869   0.00004  -0.00012  -0.00010  -0.00022   2.04847
   A14        2.11516  -0.00004   0.00004  -0.00003   0.00001   2.11517
   A15        2.11383   0.00000   0.00004   0.00021   0.00025   2.11408
   A16        2.08161  -0.00031   0.00001  -0.00001   0.00000   2.08161
   A17        2.14555   0.00015  -0.00002   0.00007   0.00005   2.14560
   A18        2.05455   0.00017   0.00009  -0.00010  -0.00001   2.05454
   A19        1.98579   0.00165  -0.00030   0.00020  -0.00010   1.98569
   A20        2.17325   0.00034  -0.00013   0.00012  -0.00000   2.17325
   A21        2.12184  -0.00199   0.00039  -0.00030   0.00009   2.12193
   A22        1.95157   0.00071   0.00016  -0.00002   0.00014   1.95171
   A23        2.23084  -0.00080  -0.00001  -0.00013  -0.00014   2.23070
   A24        2.10077   0.00009  -0.00015   0.00015  -0.00000   2.10077
   A25        2.20121  -0.00065  -0.00008  -0.00000  -0.00008   2.20113
   A26        2.15078   0.00058  -0.00005  -0.00002  -0.00007   2.15071
   A27        1.92853   0.00006   0.00010   0.00006   0.00016   1.92869
   A28        2.16508  -0.00431   0.00037  -0.00010   0.00028   2.16536
   A29        2.10948   0.00152  -0.00007  -0.00002  -0.00008   2.10939
   A30        2.00720   0.00279  -0.00032   0.00014  -0.00018   2.00702
   A31        1.86210  -0.00005  -0.00005  -0.00050  -0.00055   1.86155
   A32        2.14089  -0.00068   0.00017  -0.00006   0.00012   2.14100
   A33        2.04953   0.00036  -0.00004  -0.00000  -0.00004   2.04948
   A34        2.09077   0.00033  -0.00004   0.00011   0.00006   2.09083
   A35        2.05802  -0.00047  -0.00022   0.00001  -0.00021   2.05781
   A36        2.10839   0.00023   0.00008  -0.00005   0.00003   2.10842
   A37        2.11517   0.00024   0.00011   0.00009   0.00020   2.11538
   A38        2.07835  -0.00025   0.00002  -0.00006  -0.00004   2.07831
   A39        2.14635   0.00011   0.00004   0.00002   0.00006   2.14641
   A40        2.05780   0.00013  -0.00002   0.00003   0.00001   2.05781
   A41        2.20595  -0.00019   0.00006  -0.00002   0.00005   2.20599
   A42        2.09654  -0.00008   0.00024  -0.00018   0.00006   2.09660
   A43        1.98023   0.00026  -0.00033   0.00020  -0.00014   1.98009
    D1       -0.51839   0.00014   0.00146  -0.00017   0.00129  -0.51710
    D2        2.46258  -0.00008   0.00170  -0.00003   0.00167   2.46426
    D3        1.55382   0.00010   0.00130  -0.00034   0.00096   1.55477
    D4       -1.74839  -0.00012   0.00154  -0.00020   0.00134  -1.74705
    D5       -2.57662   0.00014   0.00145  -0.00018   0.00127  -2.57535
    D6        0.40436  -0.00008   0.00169  -0.00004   0.00165   0.40601
    D7        2.86430  -0.00014   0.00101  -0.00129  -0.00028   2.86402
    D8       -0.20733  -0.00007  -0.00044  -0.00052  -0.00096  -0.20829
    D9       -0.13034  -0.00005   0.00076  -0.00141  -0.00066  -0.13100
   D10        3.08120   0.00002  -0.00069  -0.00064  -0.00133   3.07987
   D11       -2.60941   0.00035  -0.00026   0.00057   0.00032  -2.60910
   D12        0.53776  -0.00011  -0.00058   0.00103   0.00045   0.53821
   D13        0.36201   0.00020   0.00001   0.00073   0.00074   0.36275
   D14       -2.77400  -0.00026  -0.00032   0.00119   0.00087  -2.77313
   D15       -0.13419   0.00008  -0.00157   0.00119  -0.00038  -0.13457
   D16        3.11881   0.00008  -0.00119   0.00036  -0.00083   3.11798
   D17        2.93623   0.00001  -0.00008   0.00039   0.00031   2.93654
   D18       -0.09396   0.00001   0.00030  -0.00043  -0.00013  -0.09409
   D19        0.12990   0.00014   0.00167  -0.00034   0.00133   0.13123
   D20       -2.95206   0.00009  -0.00006   0.00061   0.00055  -2.95151
   D21       -3.12302   0.00013   0.00130   0.00047   0.00176  -3.12125
   D22        0.07821   0.00008  -0.00044   0.00142   0.00098   0.07919
   D23       -2.92582   0.00003  -0.00063  -0.00066  -0.00128  -2.92710
   D24        0.14347  -0.00007  -0.00107  -0.00027  -0.00135   0.14212
   D25        0.15923   0.00008   0.00102  -0.00155  -0.00054   0.15870
   D26       -3.05466  -0.00002   0.00057  -0.00117  -0.00060  -3.05527
   D27       -0.38218  -0.00021   0.00018   0.00005   0.00023  -0.38194
   D28        2.75431   0.00021   0.00048  -0.00037   0.00011   2.75442
   D29        2.68174  -0.00017  -0.00033   0.00048   0.00015   2.68189
   D30       -0.46496   0.00025  -0.00003   0.00006   0.00003  -0.46493
   D31        2.99235   0.00055   0.00001  -0.00027  -0.00026   2.99209
   D32       -0.06322   0.00084   0.00048  -0.00096  -0.00048  -0.06371
   D33       -0.14324   0.00005  -0.00034   0.00022  -0.00012  -0.14336
   D34        3.08437   0.00034   0.00012  -0.00046  -0.00034   3.08403
   D35       -0.29524   0.00012   0.00058  -0.00040   0.00017  -0.29507
   D36        2.90661   0.00004   0.00089  -0.00099  -0.00010   2.90651
   D37        2.76956  -0.00011   0.00016   0.00020   0.00036   2.76992
   D38       -0.31178  -0.00019   0.00047  -0.00038   0.00009  -0.31169
   D39       -2.92933  -0.00020  -0.00118   0.00099  -0.00019  -2.92952
   D40        0.24759   0.00017  -0.00032   0.00100   0.00068   0.24827
   D41        0.28642   0.00008  -0.00077   0.00040  -0.00037   0.28605
   D42       -2.81985   0.00045   0.00009   0.00041   0.00050  -2.81935
   D43       -3.11181   0.00006   0.00982   0.00047   0.01029  -3.10152
   D44       -0.02728   0.00011   0.00953   0.00102   0.01055  -0.01674
   D45        0.17196  -0.00000  -0.00081   0.00039  -0.00041   0.17155
   D46       -3.03787   0.00007   0.00083   0.00113   0.00196  -3.03591
   D47       -2.91455   0.00016  -0.00054  -0.00013  -0.00067  -2.91523
   D48        0.15880   0.00023   0.00109   0.00060   0.00170   0.16050
   D49        0.04520   0.00024   0.00131  -0.00037   0.00094   0.04614
   D50        3.12681   0.00014   0.00083   0.00053   0.00136   3.12817
   D51       -3.02660   0.00016  -0.00036  -0.00112  -0.00148  -3.02808
   D52        0.05501   0.00006  -0.00084  -0.00022  -0.00106   0.05395
   D53       -0.08580   0.00003  -0.00152   0.00035  -0.00117  -0.08698
   D54        3.01512  -0.00011  -0.00029   0.00015  -0.00014   3.01498
   D55        3.11602   0.00013  -0.00104  -0.00054  -0.00158   3.11443
   D56       -0.06624  -0.00001   0.00019  -0.00074  -0.00055  -0.06680
   D57       -0.09780  -0.00001   0.00138  -0.00040   0.00099  -0.09682
   D58        3.01048  -0.00037   0.00058  -0.00041   0.00017   3.01065
   D59        3.08239   0.00012   0.00021  -0.00021   0.00001   3.08240
   D60       -0.09251  -0.00024  -0.00059  -0.00022  -0.00081  -0.09332
         Item               Value     Threshold  Converged?
 Maximum Force            0.000175     0.000450     YES
 RMS     Force            0.000050     0.000300     YES
 Maximum Displacement     0.017119     0.001800     NO 
 RMS     Displacement     0.001824     0.001200     NO 
 Predicted change in Energy=-1.707807D-06
 GradGradGradGradGradGradGradGradGradGradGradGradGradGradGradGradGradGrad

                          Input orientation:                          
 ---------------------------------------------------------------------
 Center     Atomic      Atomic             Coordinates (Angstroms)
 Number     Number       Type             X           Y           Z
 ---------------------------------------------------------------------
      1          6           0       -1.246875    2.642331   -0.571114
      2          6           0       -1.605766    1.253651   -0.062461
      3          6           0       -2.972639    1.129942    0.271652
      4          6           0       -3.613080   -0.100411    0.449993
      5          6           0       -2.893276   -1.251529    0.125482
      6          6           0       -1.538358   -1.140768   -0.203295
      7          9           0       -1.017193   -2.260596   -0.746797
      8          6           0       -0.762294    0.068284   -0.074855
      9          6           0        0.736186    0.001853    0.033960
     10          6           0        1.540229   -1.218741    0.194120
     11          8           0        1.030560   -2.427440    0.595312
     12          6           0        2.942347   -1.194523    0.003846
     13          6           0        3.661602   -0.009153   -0.142848
     14          6           0        2.963059    1.196091   -0.041497
     15          6           0        1.572148    1.165795    0.094953
     16          9           0        1.029537    2.378467    0.343863
     17          1           0       -2.149396    3.056896   -1.063975
     18          1           0       -0.951477    3.351628    0.225443
     19          1           0       -0.440264    2.624627   -1.324130
     20          1           0       -3.565374    2.056922    0.328576
     21          1           0       -4.675443   -0.154333    0.731762
     22          1           0       -3.355140   -2.247620    0.062470
     23          1           0        1.784279   -3.044158    0.650927
     24          1           0        3.476828   -2.159984    0.037248
     25          1           0        4.753300   -0.025562   -0.276710
     26          1           0        3.459917    2.176053   -0.027459
 ---------------------------------------------------------------------
                    Distance matrix (angstroms):
                    1          2          3          4          5
     1  C    0.000000
     2  C    1.521829   0.000000
     3  C    2.444552   1.412543   0.000000
     4  C    3.763538   2.474955   1.398477   0.000000
     5  C    4.284627   2.822930   2.387272   1.395886   0.000000
     6  C    3.812098   2.399504   2.727427   2.411140   1.398630
     7  F    4.911448   3.628315   4.044349   3.582922   2.301906
     8  C    2.665861   1.454886   2.476451   2.903602   2.514583
     9  C    3.357197   2.657261   3.883873   4.370315   3.840877
    10  C    4.823009   4.009469   5.088055   5.279463   4.434157
    11  O    5.678895   4.575294   5.365196   5.196111   4.123105
    12  C    5.709782   5.165586   6.360968   6.661062   5.837168
    13  C    5.595260   5.417223   6.744071   7.299369   6.676970
    14  C    4.482818   4.569236   5.944321   6.720720   6.349439
    15  C    3.251261   3.183023   4.548362   5.349385   5.077834
    16  F    2.467562   2.893982   4.193023   5.264028   5.349115
    17  H    1.108747   2.133134   2.484911   3.795137   4.531081
    18  H    1.106737   2.216414   3.003851   4.364760   4.996962
    19  H    1.103616   2.197676   3.345673   4.543138   4.810741
    20  H    2.554913   2.153652   1.101756   2.161274   3.382131
    21  H    4.612363   3.469312   2.181881   1.100417   2.178884
    22  H    5.362632   3.915969   3.405582   2.197092   1.099766
    23  H    6.558768   5.520189   6.339970   6.151219   5.036777
    24  H    6.763557   6.123365   7.243906   7.394524   6.435161
    25  H    6.573160   6.489993   7.831094   8.398215   7.754668
    26  H    4.760974   5.149096   6.523924   7.445638   7.220441
                    6          7          8          9         10
     6  C    0.000000
     7  F    1.349453   0.000000
     8  C    1.442421   2.437245   0.000000
     9  C    2.556447   2.966917   1.503893   0.000000
    10  C    3.105111   2.917395   2.651489   1.470369   0.000000
    11  O    2.982053   2.454055   3.145169   2.510625   1.371740
    12  C    4.485812   4.168685   3.914746   2.509854   1.415176
    13  C    5.322010   5.227320   4.425096   2.930775   2.465132
    14  C    5.074430   5.318697   3.892469   2.528015   2.812716
    15  C    3.883868   4.376458   2.585147   1.434334   2.386811
    16  F    4.390727   5.186478   2.953461   2.414620   3.636363
    17  H    4.328340   5.445936   3.440090   4.343425   5.785950
    18  H    4.550810   5.696195   3.302472   3.755778   5.205560
    19  H    4.079250   4.952935   2.863439   3.179212   4.582458
    20  H    3.823206   5.127438   3.460448   4.776351   6.067555
    21  H    3.418873   4.472726   4.001616   5.458668   6.329029
    22  H    2.143933   2.474081   3.479241   4.669035   5.004054
    23  H    3.923328   3.227359   4.086451   3.279836   1.897466
    24  H    5.123353   4.563011   4.790396   3.490654   2.158926
    25  H    6.390152   6.206042   5.520084   4.029203   3.459651
    26  H    6.001247   6.343959   4.719322   3.485631   3.906267
                   11         12         13         14         15
    11  O    0.000000
    12  C    2.350499   0.000000
    13  C    3.649024   1.394256   0.000000
    14  C    4.155725   2.391133   1.396727   0.000000
    15  C    3.668108   2.730723   2.408915   1.397916   0.000000
    16  F    4.812481   4.067027   3.586835   2.298918   1.351650
    17  H    6.553114   6.718679   6.634518   5.535816   4.332352
    18  H    6.120695   5.989863   5.719352   4.476739   3.341194
    19  H    5.600979   5.271763   5.015728   3.907489   2.862130
    20  H    6.426761   7.282017   7.531274   6.595333   5.219465
    21  H    6.143624   7.722861   8.384053   7.795402   6.417216
    22  H    4.421608   6.385200   7.368009   7.196498   5.994215
    23  H    0.975461   2.276178   3.655910   4.455186   4.251801
    24  H    2.523330   1.104038   2.166253   3.396085   3.833007
    25  H    4.515333   2.173646   1.099997   2.180074   3.417191
    26  H    5.242305   3.410226   2.197524   1.098813   2.144593
                   16         17         18         19         20
    16  F    0.000000
    17  H    3.542300   0.000000
    18  H    2.210313   1.784510   0.000000
    19  H    2.236763   1.782041   1.786350   0.000000
    20  H    4.606173   2.223543   2.918794   3.580508   0.000000
    21  H    6.253986   4.462912   5.139654   5.466814   2.506882
    22  H    6.380067   5.555231   6.095550   5.844480   4.317880
    23  H    5.483501   7.459058   6.969324   6.401919   7.398899
    24  H    5.165344   7.751318   7.072706   6.331624   8.213390
    25  H    4.475587   7.600563   6.648462   5.923994   8.596712
    26  H    2.466900   5.771884   4.572344   4.134488   7.035316
                   21         22         23         24         25
    21  H    0.000000
    22  H    2.563787   0.000000
    23  H    7.077120   5.233963   0.000000
    24  H    8.424043   6.832576   2.005764   0.000000
    25  H    9.483396   8.414237   4.334458   2.506733   0.000000
    26  H    8.496540   8.125390   5.524361   4.336552   2.565555
                   26
    26  H    0.000000
 Symmetry turned off by external request.
 Stoichiometry    C13H10F2O
 Framework group  C1[X(C13H10F2O)]
 Deg. of freedom    72
 Full point group                 C1      NOp   1
 Rotational constants (GHZ):           0.8324750           0.4708561           0.3124337
 Standard basis: def2SVP (5D, 7F)
   274 basis functions,   470 primitive gaussians,   290 cartesian basis functions
    57 alpha electrons       57 beta electrons
       nuclear repulsion energy      1066.3177288179 Hartrees.
 NAtoms=   26 NActive=   26 NUniq=   26 SFac= 1.00D+00 NAtFMM=   60 NAOKFM=F Big=F
 Integral buffers will be    131072 words long.
 Raffenetti 2 integral format.
 Two-electron integral symmetry is turned off.
 Nuclear repulsion after empirical dispersion term =     1066.2666923849 Hartrees.
 One-electron integrals computed using PRISM.
   1 Symmetry operations used in ECPInt.
 ECPInt:  NShTT=    8001 NPrTT=   29641 LenC2=    7583 LenP2D=   20201.
 LDataN:  DoStor=T MaxTD1= 4 Len=   56
 NBasis=   274 RedAO= T EigKep=  3.20D-04  NBF=   274
 NBsUse=   274 1.00D-06 EigRej= -1.00D+00 NBFU=   274
 Initial guess from the checkpoint file:  "path/to/scratch/gaussian_tmp/Gau-296824.chk"
 B after Tr=     0.000066    0.000094    0.000303
         Rot=    1.000000    0.000021   -0.000095    0.000002 Ang=   0.01 deg.
 Requested convergence on RMS density matrix=1.00D-08 within 128 cycles.
 Requested convergence on MAX density matrix=1.00D-06.
 Requested convergence on             energy=1.00D-06.
 No special actions if energy rises.
 SCF Done:  E(RB-P86) =  -775.741924542     A.U. after    9 cycles
            NFock=  9  Conv=0.36D-08     -V/T= 2.0106
   1 Symmetry operations used in ECPInt.
 ECPInt:  NShTT=    8001 NPrTT=   29641 LenC2=    7583 LenP2D=   20201.
 LDataN:  DoStor=T MaxTD1= 5 Len=  102
 Calling FoFJK, ICntrl=      2527 FMM=F ISym2X=0 I1Cent= 0 IOpClX= 0 NMat=1 NMatS=1 NMatT=0.
 -------------------------------------------------------------------
 Center     Atomic                   Forces (Hartrees/Bohr)
 Number     Number              X              Y              Z
 -------------------------------------------------------------------
      1        6          -0.000007766    0.000301356   -0.000251572
      2        6           0.000234414   -0.000041359    0.000102307
      3        6          -0.000085123   -0.000020150    0.000002667
      4        6          -0.000067676    0.000044772   -0.000031388
      5        6           0.000126439   -0.000091575    0.000028122
      6        6          -0.000145880    0.000053870    0.000034339
      7        9           0.007480088    0.002613485    0.003060282
      8        6          -0.000814230   -0.008293616    0.003077774
      9        6           0.002495182   -0.006485201   -0.001817128
     10        6          -0.000100158    0.000019374   -0.000030523
     11        8          -0.010291256    0.014625097   -0.004820472
     12        6           0.000031666   -0.000005285    0.000035097
     13        6           0.000039200   -0.000026939    0.000009246
     14        6          -0.000052186    0.000049838   -0.000021951
     15        6           0.000008562   -0.000014055    0.000005700
     16        9           0.001186940   -0.002740943    0.000608023
     17        1          -0.000035504   -0.000008538   -0.000021364
     18        1          -0.000016241   -0.000013009    0.000060455
     19        1          -0.000019123    0.000003740   -0.000009956
     20        1          -0.000009011    0.000044143    0.000010862
     21        1          -0.000021363    0.000002167    0.000031873
     22        1          -0.000024036   -0.000018435   -0.000044979
     23        1           0.000027830    0.000007480    0.000015417
     24        1           0.000008539   -0.000027650   -0.000021629
     25        1           0.000028037   -0.000005665   -0.000018567
     26        1           0.000022656    0.000027098    0.000007364
 -------------------------------------------------------------------
 Cartesian Forces:  Max     0.014625097 RMS     0.002668216

 GradGradGradGradGradGradGradGradGradGradGradGradGradGradGradGradGradGrad
 Berny optimization.
 Using GEDIIS/GDIIS optimizer.
 FormGI is forming the generalized inverse of G from B-inverse, IUseBI=4.
 Internal  Forces:  Max     0.009748735 RMS     0.001614737
 Search for a local minimum.
 Step number  11 out of a maximum of  156
 All quantities printed in internal units (Hartrees-Bohrs-Radians)
 Mixed Optimization -- En-DIIS/RFO-DIIS
 Swapping is turned off.
 Update second derivatives using D2CorX and points    1    2    3    4    5
                                                      6    7    8    9   10
                                                     11
 DE= -2.10D-06 DEPred=-1.71D-06 R= 1.23D+00
 TightC=F SS=  1.41D+00  RLast= 1.64D-02 DXNew= 6.7272D-01 4.9079D-02
 Trust test= 1.23D+00 RLast= 1.64D-02 DXMaxT set to 4.00D-01
 ITU=  1  1  1  1  1  1  1  0  1  1  0
     Eigenvalues ---    0.00583   0.00711   0.01734   0.01891   0.01975
     Eigenvalues ---    0.02081   0.02200   0.02242   0.02274   0.02307
     Eigenvalues ---    0.02323   0.02361   0.02373   0.02389   0.02419
     Eigenvalues ---    0.02534   0.02911   0.03776   0.06655   0.07401
     Eigenvalues ---    0.15543   0.15894   0.15917   0.15965   0.15978
     Eigenvalues ---    0.15988   0.16003   0.16023   0.16052   0.16788
     Eigenvalues ---    0.22132   0.22174   0.22907   0.23266   0.24965
     Eigenvalues ---    0.28820   0.31225   0.31914   0.33731   0.35073
     Eigenvalues ---    0.35319   0.35620   0.35677   0.36002   0.36199
     Eigenvalues ---    0.36225   0.36259   0.36552   0.38470   0.42631
     Eigenvalues ---    0.43802   0.44533   0.46541   0.47717   0.47997
     Eigenvalues ---    0.48525   0.49097   0.49306   0.50704   0.54842
     Eigenvalues --- 1000.000001000.000001000.000001000.000001000.00000
     Eigenvalues --- 1000.000001000.000001000.000001000.000001000.00000
     Eigenvalues --- 1000.000001000.000001000.000001000.000001000.00000
     Eigenvalues --- 1000.000001000.000001000.000001000.000001000.00000
     Eigenvalues --- 1000.000001000.000001000.000001000.000001000.00000
     Eigenvalues --- 1000.000001000.000001000.000001000.000001000.00000
     Eigenvalues --- 1000.000001000.000001000.000001000.000001000.00000
     Eigenvalues --- 1000.000001000.000001000.000001000.000001000.00000
     Eigenvalues --- 1000.000001000.000001000.000001000.000001000.00000
     Eigenvalues --- 1000.000001000.000001000.000001000.000001000.00000
     Eigenvalues --- 1000.000001000.000001000.000001000.000001000.00000
     Eigenvalues --- 1000.000001000.000001000.000001000.000001000.00000
     Eigenvalues --- 1000.000001000.000001000.000001000.000001000.00000
     Eigenvalues --- 1000.000001000.000001000.000001000.000001000.00000
     Eigenvalues --- 1000.000001000.000001000.000001000.000001000.00000
     Eigenvalues --- 1000.000001000.000001000.000001000.000001000.00000
     Eigenvalues --- 1000.000001000.000001000.000001000.000001000.00000
     Eigenvalues --- 1000.000001000.000001000.00000
 En-DIIS/RFO-DIIS/Sim-DIIS IScMMF=       -3 using points:    11   10    9    8    7    6    5
 RFO step:  Lambda=-1.10526253D-06.
 DidBck=F Rises=F RFO-DIIS coefs:    1.56432   -0.50582   -0.38119    0.47943   -0.14861
                  RFO-DIIS coefs:   -0.00796   -0.00017
 Iteration  1 RMS(Cart)=  0.00080380 RMS(Int)=  0.00000143
 Iteration  2 RMS(Cart)=  0.00000028 RMS(Int)=  0.00000141
 Variable       Old X    -DE/DX   Delta X   Delta X   Delta X     New X
                                 (Linear)    (Quad)   (Total)
    X1       -2.35625  -0.00044  -0.00000   0.00000   0.00000  -2.35625
    Y1        4.99328  -0.00142  -0.00000   0.00000   0.00000   4.99328
    Z1       -1.07925   0.00070  -0.00000   0.00000   0.00000  -1.07925
    X7       -1.92222   0.00671  -0.00000   0.00000   0.00000  -1.92222
    Y7       -4.27191   0.00086   0.00000   0.00000   0.00000  -4.27191
    Z7       -1.41124   0.00271  -0.00000   0.00000   0.00000  -1.41124
    X8       -1.44053   0.00061   0.00000   0.00000   0.00000  -1.44053
    Y8        0.12904  -0.00409   0.00000   0.00000   0.00000   0.12904
    Z8       -0.14146   0.00174  -0.00000   0.00000   0.00000  -0.14146
    X9        1.39119   0.00110  -0.00000   0.00000   0.00000   1.39119
    Y9        0.00350  -0.00240   0.00000   0.00000   0.00000   0.00350
    Z9        0.06417  -0.00142   0.00000   0.00000   0.00000   0.06417
   X11        1.94748  -0.00931   0.00000   0.00000   0.00000   1.94748
   Y11       -4.58720   0.00975   0.00000   0.00000   0.00000  -4.58720
   Z11        1.12498  -0.00381  -0.00000   0.00000   0.00000   1.12498
   X16        1.94554   0.00132   0.00000   0.00000   0.00000   1.94554
   Y16        4.49465  -0.00271  -0.00000   0.00000   0.00000   4.49465
   Z16        0.64981   0.00008   0.00000   0.00000   0.00000   0.64981
    R1        2.87584   0.00195   0.00009   0.00007   0.00017   2.87601
    R2        2.09523   0.00004   0.00008   0.00002   0.00009   2.09532
    R3        2.09143   0.00003   0.00006   0.00005   0.00010   2.09153
    R4        2.08553  -0.00001  -0.00001  -0.00004  -0.00006   2.08547
    R5        2.66932   0.00018   0.00027   0.00005   0.00031   2.66963
    R6        2.74934   0.00079  -0.00026  -0.00009  -0.00035   2.74899
    R7        2.64274   0.00038   0.00019  -0.00012   0.00007   2.64281
    R8        2.08202   0.00004   0.00010   0.00002   0.00013   2.08215
    R9        2.63784   0.00038   0.00019   0.00007   0.00026   2.63810
   R10        2.07949   0.00003   0.00007  -0.00000   0.00007   2.07956
   R11        2.64303  -0.00010   0.00003  -0.00014  -0.00012   2.64291
   R12        2.07826   0.00003   0.00006   0.00002   0.00008   2.07833
   R13        2.55010  -0.00129   0.00010   0.00010   0.00020   2.55029
   R14        2.72578  -0.00220   0.00002   0.00007   0.00009   2.72587
   R15        2.84195   0.00019  -0.00000   0.00000   0.00000   2.84195
   R16        2.77860  -0.00486  -0.00018  -0.00004  -0.00021   2.77839
   R17        2.71050  -0.00005  -0.00008   0.00008  -0.00000   2.71050
   R18        2.59221  -0.00424   0.00002   0.00003   0.00005   2.59226
   R19        2.67430  -0.00008   0.00014   0.00003   0.00017   2.67447
   R20        1.84335   0.00002  -0.00000   0.00004   0.00004   1.84339
   R21        2.63476   0.00003   0.00017  -0.00009   0.00008   2.63485
   R22        2.08633   0.00003   0.00005   0.00002   0.00008   2.08641
   R23        2.63943   0.00022   0.00022  -0.00003   0.00019   2.63962
   R24        2.07869   0.00003   0.00007   0.00001   0.00008   2.07877
   R25        2.64168   0.00016   0.00010  -0.00007   0.00002   2.64170
   R26        2.07646   0.00003   0.00008   0.00001   0.00010   2.07655
   R27        2.55425   0.00012   0.00008  -0.00001   0.00008   2.55432
    A1        1.87319  -0.00003  -0.00008  -0.00016  -0.00024   1.87294
    A2        1.99018  -0.00007  -0.00057   0.00001  -0.00056   1.98962
    A3        1.96685   0.00003   0.00020   0.00006   0.00026   1.96711
    A4        1.87294   0.00003   0.00009   0.00006   0.00015   1.87309
    A5        1.87301  -0.00000  -0.00003  -0.00000  -0.00003   1.87297
    A6        1.88209   0.00004   0.00040   0.00004   0.00044   1.88253
    A7        1.96837   0.00028  -0.00020  -0.00002  -0.00022   1.96815
    A8        2.21918   0.00040   0.00011   0.00002   0.00013   2.21930
    A9        2.08480  -0.00071  -0.00005  -0.00000  -0.00005   2.08474
   A10        2.15360  -0.00012   0.00015  -0.00008   0.00006   2.15366
   A11        2.04781   0.00004  -0.00010  -0.00003  -0.00013   2.04768
   A12        2.07974   0.00007  -0.00003   0.00010   0.00007   2.07981
   A13        2.04847   0.00009  -0.00015   0.00010  -0.00005   2.04842
   A14        2.11517  -0.00006   0.00004  -0.00006  -0.00002   2.11515
   A15        2.11408  -0.00003   0.00018  -0.00006   0.00013   2.11421
   A16        2.08161  -0.00031  -0.00005  -0.00003  -0.00008   2.08153
   A17        2.14560   0.00015   0.00000   0.00001   0.00002   2.14562
   A18        2.05454   0.00016   0.00001   0.00001   0.00003   2.05457
   A19        1.98569   0.00168  -0.00011   0.00013   0.00001   1.98570
   A20        2.17325   0.00033   0.00021  -0.00002   0.00018   2.17343
   A21        2.12193  -0.00201  -0.00008  -0.00012  -0.00019   2.12174
   A22        1.95171   0.00068   0.00007   0.00006   0.00013   1.95184
   A23        2.23070  -0.00077  -0.00020  -0.00007  -0.00028   2.23042
   A24        2.10077   0.00010   0.00013   0.00001   0.00014   2.10091
   A25        2.20113  -0.00064  -0.00008  -0.00002  -0.00010   2.20102
   A26        2.15071   0.00060  -0.00006   0.00005  -0.00001   2.15070
   A27        1.92869   0.00003   0.00017  -0.00003   0.00014   1.92883
   A28        2.16536  -0.00434   0.00011  -0.00000   0.00011   2.16547
   A29        2.10939   0.00152  -0.00009   0.00002  -0.00008   2.10932
   A30        2.00702   0.00282  -0.00001  -0.00004  -0.00005   2.00697
   A31        1.86155  -0.00003  -0.00029  -0.00001  -0.00030   1.86125
   A32        2.14100  -0.00070   0.00005  -0.00001   0.00004   2.14104
   A33        2.04948   0.00036   0.00000  -0.00003  -0.00003   2.04946
   A34        2.09083   0.00034   0.00003   0.00003   0.00005   2.09088
   A35        2.05781  -0.00043  -0.00008   0.00005  -0.00003   2.05778
   A36        2.10842   0.00021  -0.00000  -0.00002  -0.00003   2.10840
   A37        2.11538   0.00021   0.00011  -0.00004   0.00008   2.11545
   A38        2.07831  -0.00024  -0.00004  -0.00002  -0.00007   2.07824
   A39        2.14641   0.00011  -0.00001  -0.00002  -0.00003   2.14638
   A40        2.05781   0.00013   0.00006   0.00003   0.00009   2.05791
   A41        2.20599  -0.00019  -0.00003   0.00002  -0.00001   2.20598
   A42        2.09660  -0.00011  -0.00000  -0.00005  -0.00005   2.09655
   A43        1.98009   0.00030   0.00003   0.00003   0.00007   1.98016
    D1       -0.51710   0.00012  -0.00022  -0.00007  -0.00030  -0.51739
    D2        2.46426  -0.00011  -0.00123  -0.00014  -0.00138   2.46288
    D3        1.55477   0.00010  -0.00050  -0.00010  -0.00061   1.55417
    D4       -1.74705  -0.00013  -0.00151  -0.00017  -0.00169  -1.74874
    D5       -2.57535   0.00012  -0.00025   0.00000  -0.00025  -2.57560
    D6        0.40601  -0.00011  -0.00126  -0.00007  -0.00133   0.40468
    D7        2.86402  -0.00014  -0.00091  -0.00026  -0.00117   2.86285
    D8       -0.20829  -0.00005  -0.00117  -0.00002  -0.00119  -0.20948
    D9       -0.13100  -0.00003  -0.00000  -0.00020  -0.00020  -0.13120
   D10        3.07987   0.00005  -0.00026   0.00004  -0.00022   3.07965
   D11       -2.60910   0.00032   0.00074   0.00013   0.00087  -2.60822
   D12        0.53821  -0.00014   0.00091   0.00040   0.00131   0.53952
   D13        0.36275   0.00016  -0.00034   0.00005  -0.00028   0.36246
   D14       -2.77313  -0.00030  -0.00017   0.00033   0.00016  -2.77298
   D15       -0.13457   0.00009   0.00026   0.00012   0.00038  -0.13419
   D16        3.11798   0.00010  -0.00055   0.00028  -0.00026   3.11772
   D17        2.93654   0.00000   0.00052  -0.00013   0.00039   2.93693
   D18       -0.09409   0.00001  -0.00029   0.00003  -0.00025  -0.09434
   D19        0.13123   0.00010  -0.00016   0.00012  -0.00004   0.13118
   D20       -2.95151   0.00008   0.00049   0.00029   0.00078  -2.95074
   D21       -3.12125   0.00009   0.00064  -0.00005   0.00059  -3.12067
   D22        0.07919   0.00007   0.00129   0.00012   0.00141   0.08060
   D23       -2.92710   0.00006  -0.00042  -0.00011  -0.00053  -2.92764
   D24        0.14212  -0.00004  -0.00022  -0.00028  -0.00050   0.14162
   D25        0.15870   0.00009  -0.00104  -0.00027  -0.00131   0.15739
   D26       -3.05527  -0.00001  -0.00083  -0.00045  -0.00128  -3.05655
   D27       -0.38194  -0.00020   0.00040   0.00019   0.00060  -0.38135
   D28        2.75442   0.00022   0.00025  -0.00006   0.00019   2.75461
   D29        2.68189  -0.00015   0.00062   0.00002   0.00064   2.68254
   D30       -0.46493   0.00027   0.00047  -0.00024   0.00024  -0.46469
   D31        2.99209   0.00056  -0.00018  -0.00006  -0.00024   2.99185
   D32       -0.06371   0.00084  -0.00073  -0.00001  -0.00074  -0.06444
   D33       -0.14336   0.00005   0.00000   0.00024   0.00023  -0.14313
   D34        3.08403   0.00034  -0.00055   0.00029  -0.00026   3.08377
   D35       -0.29507   0.00013  -0.00044  -0.00024  -0.00068  -0.29575
   D36        2.90651   0.00005  -0.00053   0.00018  -0.00035   2.90615
   D37        2.76992  -0.00009   0.00005  -0.00028  -0.00024   2.76968
   D38       -0.31169  -0.00018  -0.00005   0.00014   0.00009  -0.31161
   D39       -2.92952  -0.00021   0.00059   0.00001   0.00059  -2.92893
   D40        0.24827   0.00015   0.00076  -0.00034   0.00042   0.24869
   D41        0.28605   0.00007   0.00012   0.00005   0.00017   0.28622
   D42       -2.81935   0.00043   0.00030  -0.00030  -0.00000  -2.81935
   D43       -3.10152  -0.00001   0.00245   0.00031   0.00275  -3.09877
   D44       -0.01674   0.00005   0.00253  -0.00009   0.00244  -0.01429
   D45        0.17155   0.00001  -0.00020  -0.00014  -0.00034   0.17121
   D46       -3.03591   0.00005   0.00106  -0.00029   0.00077  -3.03514
   D47       -2.91523   0.00016  -0.00029   0.00025  -0.00005  -2.91527
   D48        0.16050   0.00021   0.00097   0.00010   0.00107   0.16156
   D49        0.04614   0.00021   0.00035  -0.00004   0.00031   0.04645
   D50        3.12817   0.00011   0.00094  -0.00021   0.00073   3.12889
   D51       -3.02808   0.00017  -0.00094   0.00012  -0.00082  -3.02890
   D52        0.05395   0.00006  -0.00035  -0.00006  -0.00041   0.05354
   D53       -0.08698   0.00006  -0.00028   0.00021  -0.00007  -0.08704
   D54        3.01498  -0.00011  -0.00001  -0.00018  -0.00019   3.01479
   D55        3.11443   0.00016  -0.00087   0.00039  -0.00048   3.11395
   D56       -0.06680  -0.00000  -0.00059  -0.00001  -0.00060  -0.06740
   D57       -0.09682  -0.00003   0.00008  -0.00023  -0.00016  -0.09697
   D58        3.01065  -0.00037  -0.00009   0.00009   0.00000   3.01066
   D59        3.08240   0.00012  -0.00018   0.00014  -0.00004   3.08236
   D60       -0.09332  -0.00022  -0.00035   0.00047   0.00012  -0.09319
         Item               Value     Threshold  Converged?
 Maximum Force            0.000123     0.000450     YES
 RMS     Force            0.000027     0.000300     YES
 Maximum Displacement     0.004215     0.001800     NO 
 RMS     Displacement     0.000804     0.001200     YES
 Predicted change in Energy=-3.243700D-07
 GradGradGradGradGradGradGradGradGradGradGradGradGradGradGradGradGradGrad

                          Input orientation:                          
 ---------------------------------------------------------------------
 Center     Atomic      Atomic             Coordinates (Angstroms)
 Number     Number       Type             X           Y           Z
 ---------------------------------------------------------------------
      1          6           0       -1.246875    2.642331   -0.571114
      2          6           0       -1.605380    1.253692   -0.061812
      3          6           0       -2.972392    1.130058    0.272459
      4          6           0       -3.613182   -0.100259    0.450093
      5          6           0       -2.893471   -1.251469    0.125110
      6          6           0       -1.538549   -1.140690   -0.203379
      7          9           0       -1.017193   -2.260596   -0.746797
      8          6           0       -0.762294    0.068284   -0.074855
      9          6           0        0.736186    0.001853    0.033960
     10          6           0        1.540067   -1.218763    0.193760
     11          8           0        1.030560   -2.427440    0.595312
     12          6           0        2.942220   -1.194582    0.003072
     13          6           0        3.661499   -0.009232   -0.144092
     14          6           0        2.963008    1.196130   -0.042422
     15          6           0        1.572153    1.165803    0.094707
     16          9           0        1.029537    2.378467    0.343863
     17          1           0       -2.149637    3.056131   -1.064287
     18          1           0       -0.952227    3.351801    0.225644
     19          1           0       -0.440205    2.624825   -1.324028
     20          1           0       -3.564820    2.057273    0.330079
     21          1           0       -4.675492   -0.154038    0.732233
     22          1           0       -3.355657   -2.247373    0.060811
     23          1           0        1.784838   -3.043323    0.652907
     24          1           0        3.476562   -2.160200    0.035468
     25          1           0        4.753115   -0.025771   -0.278941
     26          1           0        3.459975    2.176095   -0.028541
 ---------------------------------------------------------------------
                    Distance matrix (angstroms):
                    1          2          3          4          5
     1  C    0.000000
     2  C    1.521917   0.000000
     3  C    2.444584   1.412708   0.000000
     4  C    3.763519   2.475177   1.398516   0.000000
     5  C    4.284587   2.823111   2.387386   1.396024   0.000000
     6  C    3.812028   2.399495   2.727385   2.411146   1.398568
     7  F    4.911448   3.628415   4.044530   3.583122   2.301951
     8  C    2.665861   1.454702   2.476394   2.903712   2.514687
     9  C    3.357197   2.656917   3.883720   4.370423   3.841033
    10  C    4.822875   4.009014   5.087774   5.279463   4.434190
    11  O    5.678895   4.575012   5.365040   5.196268   4.123351
    12  C    5.709651   5.165164   6.360751   6.661131   5.837244
    13  C    5.595111   5.416804   6.743886   7.299474   6.677069
    14  C    4.482648   4.568792   5.944114   6.720824   6.349579
    15  C    3.251211   3.182599   4.548160   5.349478   5.077985
    16  F    2.467562   2.893524   4.192739   5.264049   5.349232
    17  H    1.108796   2.133062   2.484667   3.794484   4.530273
    18  H    1.106792   2.216145   3.003231   4.364376   4.996862
    19  H    1.103586   2.197914   3.345903   4.543278   4.810839
    20  H    2.554860   2.153770   1.101825   2.161409   3.382381
    21  H    4.612354   3.469554   2.181936   1.100453   2.179117
    22  H    5.362415   3.916116   3.405691   2.197262   1.099807
    23  H    6.558672   5.519850   6.339802   6.151534   5.037448
    24  H    6.763365   6.122929   7.243685   7.394576   6.435150
    25  H    6.572976   6.489578   7.830928   8.398331   7.754732
    26  H    4.760903   5.148762   6.523813   7.445833   7.220670
                    6          7          8          9         10
     6  C    0.000000
     7  F    1.349557   0.000000
     8  C    1.442466   2.437245   0.000000
     9  C    2.556591   2.966917   1.503893   0.000000
    10  C    3.105107   2.917129   2.651322   1.470259   0.000000
    11  O    2.982274   2.454055   3.145169   2.510625   1.371766
    12  C    4.485846   4.168410   3.914629   2.509780   1.415267
    13  C    5.322049   5.227050   4.425013   2.930747   2.465276
    14  C    5.074510   5.318562   3.892424   2.528016   2.812873
    15  C    3.883971   4.376420   2.585138   1.434333   2.386838
    16  F    4.390787   5.186478   2.953461   2.414620   3.636377
    17  H    4.327574   5.445256   3.439611   4.343125   5.785440
    18  H    4.550858   5.696390   3.302705   3.756279   5.206016
    19  H    4.079377   4.953126   2.863578   3.179310   4.582393
    20  H    3.823261   5.127774   3.460376   4.776096   6.067196
    21  H    3.418957   4.473061   4.001742   5.458768   6.329042
    22  H    2.143928   2.474029   3.479397   4.669360   5.004380
    23  H    3.924046   3.228499   4.086516   3.279613   1.897300
    24  H    5.123260   4.562439   4.790220   3.490578   2.159022
    25  H    6.390132   6.205625   5.519984   4.029191   3.459820
    26  H    6.001406   6.343907   4.719382   3.485722   3.906473
                   11         12         13         14         15
    11  O    0.000000
    12  C    2.350559   0.000000
    13  C    3.649149   1.394301   0.000000
    14  C    4.155877   2.391235   1.396826   0.000000
    15  C    3.668150   2.730732   2.408962   1.397928   0.000000
    16  F    4.812481   4.067084   3.586981   2.299010   1.351690
    17  H    6.552669   6.718245   6.634192   5.535608   4.332242
    18  H    6.121089   5.990480   5.720115   4.477482   3.341889
    19  H    5.601107   5.271610   5.015424   3.907115   2.862016
    20  H    6.426548   7.281694   7.530934   6.594912   5.219062
    21  H    6.143789   7.722949   8.384172   7.795494   6.417280
    22  H    4.422332   6.385527   7.368293   7.196798   5.994517
    23  H    0.975481   2.275887   3.655513   4.454720   4.251301
    24  H    2.523444   1.104078   2.166358   3.396286   3.833090
    25  H    4.515500   2.173704   1.100038   2.180244   3.417306
    26  H    5.242498   3.410357   2.197640   1.098864   2.144703
                   16         17         18         19         20
    16  F    0.000000
    17  H    3.542494   0.000000
    18  H    2.211050   1.784694   0.000000
    19  H    2.236670   1.782034   1.786656   0.000000
    20  H    4.605591   2.223671   2.917593   3.580698   0.000000
    21  H    6.253941   4.462355   5.139090   5.466987   2.507034
    22  H    6.380317   5.554051   6.095440   5.844310   4.318129
    23  H    5.482864   7.458698   6.969339   6.402108   7.398590
    24  H    5.165515   7.750722   7.073365   6.331332   8.213096
    25  H    4.475855   7.600189   6.649325   5.923550   8.596395
    26  H    2.467117   5.771913   4.573228   4.134132   7.034946
                   21         22         23         24         25
    21  H    0.000000
    22  H    2.564142   0.000000
    23  H    7.077438   5.235341   0.000000
    24  H    8.424142   6.832822   2.005759   0.000000
    25  H    9.483541   8.414459   4.334124   2.506836   0.000000
    26  H    8.496712   8.125755   5.523838   4.336800   2.565761
                   26
    26  H    0.000000
 Symmetry turned off by external request.
 Stoichiometry    C13H10F2O
 Framework group  C1[X(C13H10F2O)]
 Deg. of freedom    72
 Full point group                 C1      NOp   1
 Rotational constants (GHZ):           0.8324558           0.4708628           0.3124403
 Standard basis: def2SVP (5D, 7F)
   274 basis functions,   470 primitive gaussians,   290 cartesian basis functions
    57 alpha electrons       57 beta electrons
       nuclear repulsion energy      1066.3097586721 Hartrees.
 NAtoms=   26 NActive=   26 NUniq=   26 SFac= 1.00D+00 NAtFMM=   60 NAOKFM=F Big=F
 Integral buffers will be    131072 words long.
 Raffenetti 2 integral format.
 Two-electron integral symmetry is turned off.
 Nuclear repulsion after empirical dispersion term =     1066.2587219604 Hartrees.
 One-electron integrals computed using PRISM.
   1 Symmetry operations used in ECPInt.
 ECPInt:  NShTT=    8001 NPrTT=   29641 LenC2=    7583 LenP2D=   20202.
 LDataN:  DoStor=T MaxTD1= 4 Len=   56
 NBasis=   274 RedAO= T EigKep=  3.20D-04  NBF=   274
 NBsUse=   274 1.00D-06 EigRej= -1.00D+00 NBFU=   274
 Initial guess from the checkpoint file:  "path/to/scratch/gaussian_tmp/Gau-296824.chk"
 B after Tr=    -0.000046    0.000049   -0.000293
         Rot=    1.000000   -0.000019   -0.000083    0.000011 Ang=  -0.01 deg.
 Requested convergence on RMS density matrix=1.00D-08 within 128 cycles.
 Requested convergence on MAX density matrix=1.00D-06.
 Requested convergence on             energy=1.00D-06.
 No special actions if energy rises.
 SCF Done:  E(RB-P86) =  -775.741924928     A.U. after    8 cycles
            NFock=  8  Conv=0.60D-08     -V/T= 2.0106
   1 Symmetry operations used in ECPInt.
 ECPInt:  NShTT=    8001 NPrTT=   29641 LenC2=    7583 LenP2D=   20202.
 LDataN:  DoStor=T MaxTD1= 5 Len=  102
 Calling FoFJK, ICntrl=      2527 FMM=F ISym2X=0 I1Cent= 0 IOpClX= 0 NMat=1 NMatS=1 NMatT=0.
 -------------------------------------------------------------------
 Center     Atomic                   Forces (Hartrees/Bohr)
 Number     Number              X              Y              Z
 -------------------------------------------------------------------
      1        6          -0.000056871    0.000291096   -0.000160374
      2        6           0.000042409   -0.000015971    0.000006317
      3        6          -0.000037321   -0.000021483    0.000010028
      4        6           0.000007347    0.000036537   -0.000006207
      5        6           0.000043835   -0.000022955    0.000000540
      6        6          -0.000061619   -0.000007623    0.000010645
      7        9           0.007442379    0.002671428    0.003069985
      8        6          -0.000774504   -0.008324288    0.003143843
      9        6           0.002445254   -0.006489453   -0.001866007
     10        6          -0.000003092    0.000012793    0.000017131
     11        8          -0.010259674    0.014626287   -0.004821937
     12        6           0.000014596    0.000005293   -0.000009464
     13        6          -0.000005745   -0.000015630    0.000004709
     14        6          -0.000015278    0.000008195   -0.000001817
     15        6           0.000019816    0.000013099   -0.000007836
     16        9           0.001197706   -0.002764333    0.000608626
     17        1          -0.000002620   -0.000002075   -0.000002911
     18        1          -0.000002068    0.000000008    0.000002234
     19        1           0.000001242   -0.000001062    0.000002150
     20        1           0.000003274    0.000002589    0.000002188
     21        1          -0.000002818   -0.000002885    0.000000549
     22        1          -0.000005285    0.000002529   -0.000004894
     23        1           0.000004874    0.000000407    0.000000977
     24        1          -0.000000809   -0.000002677   -0.000001128
     25        1           0.000002355    0.000001007    0.000000827
     26        1           0.000002619   -0.000000835    0.000001828
 -------------------------------------------------------------------
 Cartesian Forces:  Max     0.014626287 RMS     0.002668228

 GradGradGradGradGradGradGradGradGradGradGradGradGradGradGradGradGradGrad
 Berny optimization.
 Using GEDIIS/GDIIS optimizer.
 FormGI is forming the generalized inverse of G from B-inverse, IUseBI=4.
 Internal  Forces:  Max     0.009747488 RMS     0.001613863
 Search for a local minimum.
 Step number  12 out of a maximum of  156
 All quantities printed in internal units (Hartrees-Bohrs-Radians)
 Mixed Optimization -- En-DIIS/RFO-DIIS
 Swapping is turned off.
 Update second derivatives using D2CorX and points    1    2    3    4    5
                                                      6    7    8    9   10
                                                     11   12
 DE= -3.86D-07 DEPred=-3.24D-07 R= 1.19D+00
 Trust test= 1.19D+00 RLast= 6.46D-03 DXMaxT set to 4.00D-01
 ITU=  0  1  1  1  1  1  1  1  0  1  1  0
     Eigenvalues ---    0.00634   0.00682   0.01689   0.01881   0.01945
     Eigenvalues ---    0.02039   0.02209   0.02243   0.02273   0.02303
     Eigenvalues ---    0.02318   0.02361   0.02373   0.02390   0.02494
     Eigenvalues ---    0.02548   0.02675   0.03763   0.06640   0.07406
     Eigenvalues ---    0.15340   0.15817   0.15901   0.15949   0.15968
     Eigenvalues ---    0.15984   0.15999   0.16002   0.16049   0.16598
     Eigenvalues ---    0.22165   0.22185   0.22904   0.23291   0.24972
     Eigenvalues ---    0.28784   0.29861   0.31907   0.33107   0.34750
     Eigenvalues ---    0.35168   0.35539   0.35669   0.35949   0.36189
     Eigenvalues ---    0.36212   0.36250   0.36285   0.38427   0.41959
     Eigenvalues ---    0.43508   0.44081   0.46582   0.47330   0.47856
     Eigenvalues ---    0.48380   0.48529   0.49325   0.52792   0.54949
     Eigenvalues --- 1000.000001000.000001000.000001000.000001000.00000
     Eigenvalues --- 1000.000001000.000001000.000001000.000001000.00000
     Eigenvalues --- 1000.000001000.000001000.000001000.000001000.00000
     Eigenvalues --- 1000.000001000.000001000.000001000.000001000.00000
     Eigenvalues --- 1000.000001000.000001000.000001000.000001000.00000
     Eigenvalues --- 1000.000001000.000001000.000001000.000001000.00000
     Eigenvalues --- 1000.000001000.000001000.000001000.000001000.00000
     Eigenvalues --- 1000.000001000.000001000.000001000.000001000.00000
     Eigenvalues --- 1000.000001000.000001000.000001000.000001000.00000
     Eigenvalues --- 1000.000001000.000001000.000001000.000001000.00000
     Eigenvalues --- 1000.000001000.000001000.000001000.000001000.00000
     Eigenvalues --- 1000.000001000.000001000.000001000.000001000.00000
     Eigenvalues --- 1000.000001000.000001000.000001000.000001000.00000
     Eigenvalues --- 1000.000001000.000001000.000001000.000001000.00000
     Eigenvalues --- 1000.000001000.000001000.000001000.000001000.00000
     Eigenvalues --- 1000.000001000.000001000.000001000.000001000.00000
     Eigenvalues --- 1000.000001000.000001000.000001000.000001000.00000
     Eigenvalues --- 1000.000001000.000001000.00000
 En-DIIS/RFO-DIIS/Sim-DIIS IScMMF=       -3 using points:    12   11   10    9    8    7    6    5
 RFO step:  Lambda=-4.16617768D-07.
 DIIS inversion failure, remove point   8.
 DIIS inversion failure, remove point   7.
 RFO-DIIS uses    6 points instead of    8
 DidBck=F Rises=F RFO-DIIS coefs:    1.05860    0.03284   -0.11139   -0.01899    0.07749
                  RFO-DIIS coefs:   -0.03855    0.00000    0.00000
 Iteration  1 RMS(Cart)=  0.00012862 RMS(Int)=  0.00000084
 Iteration  2 RMS(Cart)=  0.00000002 RMS(Int)=  0.00000084
 Variable       Old X    -DE/DX   Delta X   Delta X   Delta X     New X
                                 (Linear)    (Quad)   (Total)
    X1       -2.35625  -0.00044   0.00000   0.00000   0.00000  -2.35625
    Y1        4.99328  -0.00142  -0.00000   0.00000   0.00000   4.99328
    Z1       -1.07925   0.00069   0.00000   0.00000   0.00000  -1.07925
    X7       -1.92222   0.00671   0.00000   0.00000   0.00000  -1.92222
    Y7       -4.27191   0.00088   0.00000   0.00000   0.00000  -4.27191
    Z7       -1.41124   0.00272   0.00000   0.00000   0.00000  -1.41124
    X8       -1.44053   0.00061   0.00000   0.00000   0.00000  -1.44053
    Y8        0.12904  -0.00409   0.00000   0.00000   0.00000   0.12904
    Z8       -0.14146   0.00173   0.00000   0.00000   0.00000  -0.14146
    X9        1.39119   0.00109   0.00000   0.00000   0.00000   1.39119
    Y9        0.00350  -0.00240   0.00000   0.00000   0.00000   0.00350
    Z9        0.06417  -0.00142   0.00000   0.00000   0.00000   0.06417
   X11        1.94748  -0.00930  -0.00000   0.00000   0.00000   1.94748
   Y11       -4.58720   0.00975   0.00000   0.00000   0.00000  -4.58720
   Z11        1.12498  -0.00381   0.00000   0.00000   0.00000   1.12498
   X16        1.94554   0.00133  -0.00000   0.00000   0.00000   1.94554
   Y16        4.49465  -0.00272   0.00000   0.00000   0.00000   4.49465
   Z16        0.64981   0.00008   0.00000   0.00000   0.00000   0.64981
    R1        2.87601   0.00193   0.00003   0.00002   0.00005   2.87606
    R2        2.09532   0.00000   0.00003  -0.00002   0.00001   2.09533
    R3        2.09153   0.00000   0.00003  -0.00002   0.00001   2.09155
    R4        2.08547  -0.00000   0.00002  -0.00003  -0.00001   2.08546
    R5        2.66963   0.00009   0.00006   0.00001   0.00007   2.66970
    R6        2.74899   0.00086  -0.00003  -0.00004  -0.00008   2.74891
    R7        2.64281   0.00031   0.00003  -0.00006  -0.00004   2.64278
    R8        2.08215   0.00000   0.00004  -0.00003   0.00001   2.08216
    R9        2.63810   0.00030   0.00005   0.00000   0.00006   2.63816
   R10        2.07956   0.00000   0.00003  -0.00002   0.00001   2.07957
   R11        2.64291  -0.00009   0.00001  -0.00008  -0.00007   2.64284
   R12        2.07833   0.00000   0.00003  -0.00003   0.00000   2.07834
   R13        2.55029  -0.00134   0.00002   0.00002   0.00004   2.55033
   R14        2.72587  -0.00223   0.00003   0.00003   0.00006   2.72592
   R15        2.84195   0.00018   0.00000   0.00000   0.00000   2.84195
   R16        2.77839  -0.00484  -0.00001  -0.00003  -0.00003   2.77836
   R17        2.71050  -0.00005   0.00001   0.00002   0.00003   2.71053
   R18        2.59226  -0.00424   0.00001  -0.00001   0.00001   2.59227
   R19        2.67447  -0.00014   0.00004  -0.00001   0.00003   2.67449
   R20        1.84339   0.00000   0.00002  -0.00001   0.00001   1.84340
   R21        2.63485  -0.00002   0.00003  -0.00005  -0.00002   2.63483
   R22        2.08641   0.00000   0.00003  -0.00002   0.00001   2.08642
   R23        2.63962   0.00015   0.00005  -0.00002   0.00003   2.63965
   R24        2.07877   0.00000   0.00003  -0.00002   0.00001   2.07878
   R25        2.64170   0.00014   0.00002  -0.00004  -0.00002   2.64168
   R26        2.07655   0.00000   0.00003  -0.00003   0.00001   2.07656
   R27        2.55432   0.00011   0.00001  -0.00001   0.00000   2.55433
    A1        1.87294  -0.00000  -0.00000  -0.00004  -0.00004   1.87290
    A2        1.98962  -0.00000  -0.00007   0.00002  -0.00005   1.98957
    A3        1.96711  -0.00000   0.00002   0.00000   0.00002   1.96713
    A4        1.87309   0.00000   0.00002   0.00001   0.00003   1.87312
    A5        1.87297   0.00000  -0.00000   0.00001   0.00000   1.87298
    A6        1.88253   0.00000   0.00004  -0.00000   0.00004   1.88257
    A7        1.96815   0.00032  -0.00002  -0.00000  -0.00002   1.96813
    A8        2.21930   0.00036   0.00000   0.00002   0.00002   2.21932
    A9        2.08474  -0.00070   0.00001  -0.00003  -0.00002   2.08472
   A10        2.15366  -0.00012   0.00001  -0.00001  -0.00000   2.15366
   A11        2.04768   0.00005  -0.00002  -0.00001  -0.00003   2.04765
   A12        2.07981   0.00006   0.00001   0.00002   0.00003   2.07984
   A13        2.04842   0.00012  -0.00002   0.00005   0.00003   2.04845
   A14        2.11515  -0.00007  -0.00000   0.00000   0.00000   2.11516
   A15        2.11421  -0.00005   0.00003  -0.00005  -0.00002   2.11419
   A16        2.08153  -0.00030  -0.00000  -0.00003  -0.00003   2.08149
   A17        2.14562   0.00014   0.00001  -0.00002  -0.00002   2.14560
   A18        2.05457   0.00016  -0.00001   0.00005   0.00004   2.05461
   A19        1.98570   0.00168  -0.00000   0.00005   0.00004   1.98575
   A20        2.17343   0.00029   0.00004  -0.00001   0.00002   2.17345
   A21        2.12174  -0.00197  -0.00003  -0.00003  -0.00007   2.12167
   A22        1.95184   0.00068  -0.00001   0.00003   0.00003   1.95187
   A23        2.23042  -0.00075  -0.00002  -0.00004  -0.00005   2.23037
   A24        2.10091   0.00008   0.00002   0.00000   0.00002   2.10093
   A25        2.20102  -0.00063  -0.00000   0.00001   0.00001   2.20104
   A26        2.15070   0.00060  -0.00000   0.00000  -0.00000   2.15070
   A27        1.92883   0.00001   0.00001  -0.00002  -0.00001   1.92882
   A28        2.16547  -0.00436  -0.00000   0.00001   0.00002   2.16549
   A29        2.10932   0.00152  -0.00001   0.00001   0.00001   2.10932
   A30        2.00697   0.00284   0.00001  -0.00002  -0.00001   2.00696
   A31        1.86125  -0.00001  -0.00007   0.00001  -0.00006   1.86119
   A32        2.14104  -0.00070  -0.00000  -0.00001  -0.00002   2.14102
   A33        2.04946   0.00036  -0.00000  -0.00000  -0.00001   2.04945
   A34        2.09088   0.00034   0.00001   0.00001   0.00002   2.09091
   A35        2.05778  -0.00041  -0.00000   0.00001   0.00001   2.05779
   A36        2.10840   0.00021  -0.00001   0.00001   0.00000   2.10840
   A37        2.11545   0.00020   0.00001  -0.00002  -0.00001   2.11545
   A38        2.07824  -0.00023  -0.00001   0.00000  -0.00000   2.07824
   A39        2.14638   0.00011   0.00000  -0.00002  -0.00002   2.14636
   A40        2.05791   0.00012   0.00001   0.00002   0.00002   2.05793
   A41        2.20598  -0.00021  -0.00000   0.00000   0.00000   2.20599
   A42        2.09655  -0.00011  -0.00002  -0.00000  -0.00002   2.09653
   A43        1.98016   0.00030   0.00002  -0.00000   0.00001   1.98017
    D1       -0.51739   0.00010  -0.00029   0.00002  -0.00027  -0.51767
    D2        2.46288  -0.00011  -0.00036  -0.00006  -0.00042   2.46246
    D3        1.55417   0.00010  -0.00031   0.00002  -0.00030   1.55387
    D4       -1.74874  -0.00011  -0.00039  -0.00006  -0.00045  -1.74919
    D5       -2.57560   0.00010  -0.00029   0.00003  -0.00026  -2.57586
    D6        0.40468  -0.00011  -0.00037  -0.00005  -0.00041   0.40426
    D7        2.86285  -0.00012  -0.00016  -0.00004  -0.00020   2.86266
    D8       -0.20948  -0.00004  -0.00011  -0.00009  -0.00019  -0.20967
    D9       -0.13120  -0.00003  -0.00009   0.00003  -0.00006  -0.13127
   D10        3.07965   0.00006  -0.00004  -0.00002  -0.00006   3.07959
   D11       -2.60822   0.00030   0.00007   0.00006   0.00014  -2.60809
   D12        0.53952  -0.00017   0.00011   0.00016   0.00026   0.53978
   D13        0.36246   0.00017  -0.00001  -0.00002  -0.00002   0.36244
   D14       -2.77298  -0.00030   0.00003   0.00007   0.00010  -2.77287
   D15       -0.13419   0.00008   0.00013  -0.00003   0.00009  -0.13410
   D16        3.11772   0.00011   0.00001   0.00003   0.00003   3.11775
   D17        2.93693  -0.00000   0.00007   0.00002   0.00009   2.93702
   D18       -0.09434   0.00002  -0.00005   0.00008   0.00003  -0.09431
   D19        0.13118   0.00011  -0.00006   0.00002  -0.00004   0.13114
   D20       -2.95074   0.00007   0.00010   0.00004   0.00014  -2.95059
   D21       -3.12067   0.00009   0.00005  -0.00004   0.00002  -3.12065
   D22        0.08060   0.00005   0.00022  -0.00001   0.00020   0.08081
   D23       -2.92764   0.00007  -0.00004  -0.00002  -0.00006  -2.92769
   D24        0.14162  -0.00003  -0.00003  -0.00002  -0.00005   0.14157
   D25        0.15739   0.00011  -0.00019  -0.00004  -0.00023   0.15715
   D26       -3.05655   0.00000  -0.00019  -0.00004  -0.00023  -3.05677
   D27       -0.38135  -0.00020   0.00006   0.00001   0.00007  -0.38128
   D28        2.75461   0.00022   0.00003  -0.00008  -0.00005   2.75456
   D29        2.68254  -0.00016   0.00007   0.00001   0.00008   2.68262
   D30       -0.46469   0.00026   0.00004  -0.00007  -0.00003  -0.46473
   D31        2.99185   0.00055  -0.00002  -0.00015  -0.00017   2.99167
   D32       -0.06444   0.00084  -0.00011  -0.00005  -0.00016  -0.06460
   D33       -0.14313   0.00005   0.00002  -0.00005  -0.00004  -0.14317
   D34        3.08377   0.00034  -0.00007   0.00005  -0.00002   3.08375
   D35       -0.29575   0.00015  -0.00006   0.00020   0.00014  -0.29560
   D36        2.90615   0.00005  -0.00011   0.00005  -0.00006   2.90610
   D37        2.76968  -0.00008   0.00002   0.00011   0.00013   2.76980
   D38       -0.31161  -0.00018  -0.00003  -0.00005  -0.00008  -0.31168
   D39       -2.92893  -0.00022   0.00011  -0.00015  -0.00004  -2.92897
   D40        0.24869   0.00014   0.00013  -0.00003   0.00009   0.24878
   D41        0.28622   0.00006   0.00004  -0.00006  -0.00002   0.28620
   D42       -2.81935   0.00043   0.00005   0.00006   0.00011  -2.81924
   D43       -3.09877  -0.00003   0.00031  -0.00008   0.00023  -3.09854
   D44       -0.01429   0.00004   0.00036   0.00006   0.00042  -0.01387
   D45        0.17121   0.00002   0.00003   0.00011   0.00014   0.17135
   D46       -3.03514   0.00004   0.00016  -0.00001   0.00016  -3.03498
   D47       -2.91527   0.00017  -0.00001  -0.00004  -0.00005  -2.91532
   D48        0.16156   0.00019   0.00012  -0.00015  -0.00003   0.16153
   D49        0.04645   0.00020  -0.00004  -0.00005  -0.00009   0.04636
   D50        3.12889   0.00009   0.00008  -0.00014  -0.00006   3.12883
   D51       -3.02890   0.00018  -0.00018   0.00006  -0.00011  -3.02901
   D52        0.05354   0.00007  -0.00005  -0.00003  -0.00008   0.05346
   D53       -0.08704   0.00006   0.00005  -0.00005  -0.00000  -0.08705
   D54        3.01479  -0.00010   0.00001  -0.00007  -0.00005   3.01474
   D55        3.11395   0.00017  -0.00008   0.00004  -0.00004   3.11392
   D56       -0.06740   0.00001  -0.00011   0.00002  -0.00009  -0.06749
   D57       -0.09697  -0.00003  -0.00005   0.00011   0.00006  -0.09691
   D58        3.01066  -0.00037  -0.00006  -0.00001  -0.00006   3.01059
   D59        3.08236   0.00013  -0.00002   0.00013   0.00011   3.08247
   D60       -0.09319  -0.00022  -0.00003   0.00002  -0.00001  -0.09321
         Item               Value     Threshold  Converged?
 Maximum Force            0.000032     0.000450     YES
 RMS     Force            0.000006     0.000300     YES
 Maximum Displacement     0.000761     0.001800     YES
 RMS     Displacement     0.000129     0.001200     YES
 Predicted change in Energy=-1.545033D-08
 Optimization completed.
    -- Stationary point found.
                           ----------------------------
                           !   Optimized Parameters   !
                           ! (Angstroms and Degrees)  !
 --------------------------                            --------------------------
 ! Name  Definition              Value          Derivative Info.                !
 --------------------------------------------------------------------------------
 ! X1    R(1,-1)                -1.2469         -DE/DX =   -0.0004              !
 ! Y1    R(1,-2)                 2.6423         -DE/DX =   -0.0014              !
 ! Z1    R(1,-3)                -0.5711         -DE/DX =    0.0007              !
 ! X7    R(7,-1)                -1.0172         -DE/DX =    0.0067              !
 ! Y7    R(7,-2)                -2.2606         -DE/DX =    0.0009              !
 ! Z7    R(7,-3)                -0.7468         -DE/DX =    0.0027              !
 ! X8    R(8,-1)                -0.7623         -DE/DX =    0.0006              !
 ! Y8    R(8,-2)                 0.0683         -DE/DX =   -0.0041              !
 ! Z8    R(8,-3)                -0.0749         -DE/DX =    0.0017              !
 ! X9    R(9,-1)                 0.7362         -DE/DX =    0.0011              !
 ! Y9    R(9,-2)                 0.0019         -DE/DX =   -0.0024              !
 ! Z9    R(9,-3)                 0.034          -DE/DX =   -0.0014              !
 ! X11   R(11,-1)                1.0306         -DE/DX =   -0.0093              !
 ! Y11   R(11,-2)               -2.4274         -DE/DX =    0.0097              !
 ! Z11   R(11,-3)                0.5953         -DE/DX =   -0.0038              !
 ! X16   R(16,-1)                1.0295         -DE/DX =    0.0013              !
 ! Y16   R(16,-2)                2.3785         -DE/DX =   -0.0027              !
 ! Z16   R(16,-3)                0.3439         -DE/DX =    0.0001              !
 ! R1    R(1,2)                  1.5219         -DE/DX =    0.0019              !
 ! R2    R(1,17)                 1.1088         -DE/DX =    0.0                 !
 ! R3    R(1,18)                 1.1068         -DE/DX =    0.0                 !
 ! R4    R(1,19)                 1.1036         -DE/DX =    0.0                 !
 ! R5    R(2,3)                  1.4127         -DE/DX =    0.0001              !
 ! R6    R(2,8)                  1.4547         -DE/DX =    0.0009              !
 ! R7    R(3,4)                  1.3985         -DE/DX =    0.0003              !
 ! R8    R(3,20)                 1.1018         -DE/DX =    0.0                 !
 ! R9    R(4,5)                  1.396          -DE/DX =    0.0003              !
 ! R10   R(4,21)                 1.1005         -DE/DX =    0.0                 !
 ! R11   R(5,6)                  1.3986         -DE/DX =   -0.0001              !
 ! R12   R(5,22)                 1.0998         -DE/DX =    0.0                 !
 ! R13   R(6,7)                  1.3496         -DE/DX =   -0.0013              !
 ! R14   R(6,8)                  1.4425         -DE/DX =   -0.0022              !
 ! R15   R(8,9)                  1.5039         -DE/DX =    0.0002              !
 ! R16   R(9,10)                 1.4703         -DE/DX =   -0.0048              !
 ! R17   R(9,15)                 1.4343         -DE/DX =   -0.0001              !
 ! R18   R(10,11)                1.3718         -DE/DX =   -0.0042              !
 ! R19   R(10,12)                1.4153         -DE/DX =   -0.0001              !
 ! R20   R(11,23)                0.9755         -DE/DX =    0.0                 !
 ! R21   R(12,13)                1.3943         -DE/DX =    0.0                 !
 ! R22   R(12,24)                1.1041         -DE/DX =    0.0                 !
 ! R23   R(13,14)                1.3968         -DE/DX =    0.0002              !
 ! R24   R(13,25)                1.1            -DE/DX =    0.0                 !
 ! R25   R(14,15)                1.3979         -DE/DX =    0.0001              !
 ! R26   R(14,26)                1.0989         -DE/DX =    0.0                 !
 ! R27   R(15,16)                1.3517         -DE/DX =    0.0001              !
 ! A1    A(2,1,17)             107.3117         -DE/DX =    0.0                 !
 ! A2    A(2,1,18)             113.9968         -DE/DX =    0.0                 !
 ! A3    A(2,1,19)             112.7071         -DE/DX =    0.0                 !
 ! A4    A(17,1,18)            107.3204         -DE/DX =    0.0                 !
 ! A5    A(17,1,19)            107.3135         -DE/DX =    0.0                 !
 ! A6    A(18,1,19)            107.861          -DE/DX =    0.0                 !
 ! A7    A(1,2,3)              112.7665         -DE/DX =    0.0003              !
 ! A8    A(1,2,8)              127.1567         -DE/DX =    0.0004              !
 ! A9    A(3,2,8)              119.4471         -DE/DX =   -0.0007              !
 ! A10   A(2,3,4)              123.3956         -DE/DX =   -0.0001              !
 ! A11   A(2,3,20)             117.3235         -DE/DX =    0.0001              !
 ! A12   A(4,3,20)             119.1642         -DE/DX =    0.0001              !
 ! A13   A(3,4,5)              117.3658         -DE/DX =    0.0001              !
 ! A14   A(3,4,21)             121.1894         -DE/DX =   -0.0001              !
 ! A15   A(5,4,21)             121.1352         -DE/DX =   -0.0001              !
 ! A16   A(4,5,6)              119.2626         -DE/DX =   -0.0003              !
 ! A17   A(4,5,22)             122.9349         -DE/DX =    0.0001              !
 ! A18   A(6,5,22)             117.7181         -DE/DX =    0.0002              !
 ! A19   A(5,6,7)              113.7725         -DE/DX =    0.0017              !
 ! A20   A(5,6,8)              124.5281         -DE/DX =    0.0003              !
 ! A21   A(7,6,8)              121.5667         -DE/DX =   -0.002               !
 ! A22   A(2,8,6)              111.8321         -DE/DX =    0.0007              !
 ! A23   A(2,8,9)              127.7937         -DE/DX =   -0.0008              !
 ! A24   A(6,8,9)              120.3733         -DE/DX =    0.0001              !
 ! A25   A(8,9,10)             126.1094         -DE/DX =   -0.0006              !
 ! A26   A(8,9,15)             123.2263         -DE/DX =    0.0006              !
 ! A27   A(10,9,15)            110.5139         -DE/DX =    0.0                 !
 ! A28   A(9,10,11)            124.0722         -DE/DX =   -0.0044              !
 ! A29   A(9,10,12)            120.8549         -DE/DX =    0.0015              !
 ! A30   A(11,10,12)           114.9911         -DE/DX =    0.0028              !
 ! A31   A(10,11,23)           106.6417         -DE/DX =    0.0                 !
 ! A32   A(10,12,13)           122.6725         -DE/DX =   -0.0007              !
 ! A33   A(10,12,24)           117.4252         -DE/DX =    0.0004              !
 ! A34   A(13,12,24)           119.7988         -DE/DX =    0.0003              !
 ! A35   A(12,13,14)           117.9022         -DE/DX =   -0.0004              !
 ! A36   A(12,13,25)           120.8023         -DE/DX =    0.0002              !
 ! A37   A(14,13,25)           121.2065         -DE/DX =    0.0002              !
 ! A38   A(13,14,15)           119.0744         -DE/DX =   -0.0002              !
 ! A39   A(13,14,26)           122.9786         -DE/DX =    0.0001              !
 ! A40   A(15,14,26)           117.9094         -DE/DX =    0.0001              !
 ! A41   A(9,15,14)            126.3935         -DE/DX =   -0.0002              !
 ! A42   A(9,15,16)            120.1237         -DE/DX =   -0.0001              !
 ! A43   A(14,15,16)           113.4546         -DE/DX =    0.0003              !
 ! D1    D(17,1,2,3)           -29.6445         -DE/DX =    0.0001              !
 ! D2    D(17,1,2,8)           141.1128         -DE/DX =   -0.0001              !
 ! D3    D(18,1,2,3)            89.0472         -DE/DX =    0.0001              !
 ! D4    D(18,1,2,8)          -100.1954         -DE/DX =   -0.0001              !
 ! D5    D(19,1,2,3)          -147.5711         -DE/DX =    0.0001              !
 ! D6    D(19,1,2,8)            23.1863         -DE/DX =   -0.0001              !
 ! D7    D(1,2,3,4)            164.0295         -DE/DX =   -0.0001              !
 ! D8    D(1,2,3,20)           -12.0024         -DE/DX =    0.0                 !
 ! D9    D(8,2,3,4)             -7.5175         -DE/DX =    0.0                 !
 ! D10   D(8,2,3,20)           176.4507         -DE/DX =    0.0001              !
 ! D11   D(1,2,8,6)           -149.4402         -DE/DX =    0.0003              !
 ! D12   D(1,2,8,9)             30.9123         -DE/DX =   -0.0002              !
 ! D13   D(3,2,8,6)             20.7677         -DE/DX =    0.0002              !
 ! D14   D(3,2,8,9)           -158.8798         -DE/DX =   -0.0003              !
 ! D15   D(2,3,4,5)             -7.6888         -DE/DX =    0.0001              !
 ! D16   D(2,3,4,21)           178.632          -DE/DX =    0.0001              !
 ! D17   D(20,3,4,5)           168.2738         -DE/DX =    0.0                 !
 ! D18   D(20,3,4,21)           -5.4054         -DE/DX =    0.0                 !
 ! D19   D(3,4,5,6)              7.5162         -DE/DX =    0.0001              !
 ! D20   D(3,4,5,22)          -169.0647         -DE/DX =    0.0001              !
 ! D21   D(21,4,5,6)          -178.8009         -DE/DX =    0.0001              !
 ! D22   D(21,4,5,22)            4.6181         -DE/DX =    0.0                 !
 ! D23   D(4,5,6,7)           -167.7411         -DE/DX =    0.0001              !
 ! D24   D(4,5,6,8)              8.114          -DE/DX =    0.0                 !
 ! D25   D(22,5,6,7)             9.0175         -DE/DX =    0.0001              !
 ! D26   D(22,5,6,8)          -175.1274         -DE/DX =    0.0                 !
 ! D27   D(5,6,8,2)            -21.8495         -DE/DX =   -0.0002              !
 ! D28   D(5,6,8,9)            157.8276         -DE/DX =    0.0002              !
 ! D29   D(7,6,8,2)            153.6979         -DE/DX =   -0.0002              !
 ! D30   D(7,6,8,9)            -26.6249         -DE/DX =    0.0003              !
 ! D31   D(2,8,9,10)           171.4202         -DE/DX =    0.0006              !
 ! D32   D(2,8,9,15)            -3.6924         -DE/DX =    0.0008              !
 ! D33   D(6,8,9,10)            -8.2006         -DE/DX =    0.0                 !
 ! D34   D(6,8,9,15)           176.6869         -DE/DX =    0.0003              !
 ! D35   D(8,9,10,11)          -16.945          -DE/DX =    0.0001              !
 ! D36   D(8,9,10,12)          166.5104         -DE/DX =    0.0001              !
 ! D37   D(15,9,10,11)         158.6908         -DE/DX =   -0.0001              !
 ! D38   D(15,9,10,12)         -17.8537         -DE/DX =   -0.0002              !
 ! D39   D(8,9,15,14)         -167.8153         -DE/DX =   -0.0002              !
 ! D40   D(8,9,15,16)           14.2487         -DE/DX =    0.0001              !
 ! D41   D(10,9,15,14)          16.3993         -DE/DX =    0.0001              !
 ! D42   D(10,9,15,16)        -161.5368         -DE/DX =    0.0004              !
 ! D43   D(9,10,11,23)        -177.5464         -DE/DX =    0.0                 !
 ! D44   D(12,10,11,23)         -0.819          -DE/DX =    0.0                 !
 ! D45   D(9,10,12,13)           9.8097         -DE/DX =    0.0                 !
 ! D46   D(9,10,12,24)        -173.9008         -DE/DX =    0.0                 !
 ! D47   D(11,10,12,13)       -167.0327         -DE/DX =    0.0002              !
 ! D48   D(11,10,12,24)          9.2568         -DE/DX =    0.0002              !
 ! D49   D(10,12,13,14)          2.6615         -DE/DX =    0.0002              !
 ! D50   D(10,12,13,25)        179.2723         -DE/DX =    0.0001              !
 ! D51   D(24,12,13,14)       -173.5431         -DE/DX =    0.0002              !
 ! D52   D(24,12,13,25)          3.0677         -DE/DX =    0.0001              !
 ! D53   D(12,13,14,15)         -4.9872         -DE/DX =    0.0001              !
 ! D54   D(12,13,14,26)        172.7348         -DE/DX =   -0.0001              !
 ! D55   D(25,13,14,15)        178.4164         -DE/DX =    0.0002              !
 ! D56   D(25,13,14,26)         -3.8616         -DE/DX =    0.0                 !
 ! D57   D(13,14,15,9)          -5.5561         -DE/DX =    0.0                 !
 ! D58   D(13,14,15,16)        172.498          -DE/DX =   -0.0004              !
 ! D59   D(26,14,15,9)         176.6063         -DE/DX =    0.0001              !
 ! D60   D(26,14,15,16)         -5.3396         -DE/DX =   -0.0002              !
 --------------------------------------------------------------------------------
 GradGradGradGradGradGradGradGradGradGradGradGradGradGradGradGradGradGrad

                          Input orientation:                          
 ---------------------------------------------------------------------
 Center     Atomic      Atomic             Coordinates (Angstroms)
 Number     Number       Type             X           Y           Z
 ---------------------------------------------------------------------
      1          6           0       -1.246875    2.642331   -0.571114
      2          6           0       -1.605380    1.253692   -0.061812
      3          6           0       -2.972392    1.130058    0.272459
      4          6           0       -3.613182   -0.100259    0.450093
      5          6           0       -2.893471   -1.251469    0.125110
      6          6           0       -1.538549   -1.140690   -0.203379
      7          9           0       -1.017193   -2.260596   -0.746797
      8          6           0       -0.762294    0.068284   -0.074855
      9          6           0        0.736186    0.001853    0.033960
     10          6           0        1.540067   -1.218763    0.193760
     11          8           0        1.030560   -2.427440    0.595312
     12          6           0        2.942220   -1.194582    0.003072
     13          6           0        3.661499   -0.009232   -0.144092
     14          6           0        2.963008    1.196130   -0.042422
     15          6           0        1.572153    1.165803    0.094707
     16          9           0        1.029537    2.378467    0.343863
     17          1           0       -2.149637    3.056131   -1.064287
     18          1           0       -0.952227    3.351801    0.225644
     19          1           0       -0.440205    2.624825   -1.324028
     20          1           0       -3.564820    2.057273    0.330079
     21          1           0       -4.675492   -0.154038    0.732233
     22          1           0       -3.355657   -2.247373    0.060811
     23          1           0        1.784838   -3.043323    0.652907
     24          1           0        3.476562   -2.160200    0.035468
     25          1           0        4.753115   -0.025771   -0.278941
     26          1           0        3.459975    2.176095   -0.028541
 ---------------------------------------------------------------------
                    Distance matrix (angstroms):
                    1          2          3          4          5
     1  C    0.000000
     2  C    1.521917   0.000000
     3  C    2.444584   1.412708   0.000000
     4  C    3.763519   2.475177   1.398516   0.000000
     5  C    4.284587   2.823111   2.387386   1.396024   0.000000
     6  C    3.812028   2.399495   2.727385   2.411146   1.398568
     7  F    4.911448   3.628415   4.044530   3.583122   2.301951
     8  C    2.665861   1.454702   2.476394   2.903712   2.514687
     9  C    3.357197   2.656917   3.883720   4.370423   3.841033
    10  C    4.822875   4.009014   5.087774   5.279463   4.434190
    11  O    5.678895   4.575012   5.365040   5.196268   4.123351
    12  C    5.709651   5.165164   6.360751   6.661131   5.837244
    13  C    5.595111   5.416804   6.743886   7.299474   6.677069
    14  C    4.482648   4.568792   5.944114   6.720824   6.349579
    15  C    3.251211   3.182599   4.548160   5.349478   5.077985
    16  F    2.467562   2.893524   4.192739   5.264049   5.349232
    17  H    1.108796   2.133062   2.484667   3.794484   4.530273
    18  H    1.106792   2.216145   3.003231   4.364376   4.996862
    19  H    1.103586   2.197914   3.345903   4.543278   4.810839
    20  H    2.554860   2.153770   1.101825   2.161409   3.382381
    21  H    4.612354   3.469554   2.181936   1.100453   2.179117
    22  H    5.362415   3.916116   3.405691   2.197262   1.099807
    23  H    6.558672   5.519850   6.339802   6.151534   5.037448
    24  H    6.763365   6.122929   7.243685   7.394576   6.435150
    25  H    6.572976   6.489578   7.830928   8.398331   7.754732
    26  H    4.760903   5.148762   6.523813   7.445833   7.220670
                    6          7          8          9         10
     6  C    0.000000
     7  F    1.349557   0.000000
     8  C    1.442466   2.437245   0.000000
     9  C    2.556591   2.966917   1.503893   0.000000
    10  C    3.105107   2.917129   2.651322   1.470259   0.000000
    11  O    2.982274   2.454055   3.145169   2.510625   1.371766
    12  C    4.485846   4.168410   3.914629   2.509780   1.415267
    13  C    5.322049   5.227050   4.425013   2.930747   2.465276
    14  C    5.074510   5.318562   3.892424   2.528016   2.812873
    15  C    3.883971   4.376420   2.585138   1.434333   2.386838
    16  F    4.390787   5.186478   2.953461   2.414620   3.636377
    17  H    4.327574   5.445256   3.439611   4.343125   5.785440
    18  H    4.550858   5.696390   3.302705   3.756279   5.206016
    19  H    4.079377   4.953126   2.863578   3.179310   4.582393
    20  H    3.823261   5.127774   3.460376   4.776096   6.067196
    21  H    3.418957   4.473061   4.001742   5.458768   6.329042
    22  H    2.143928   2.474029   3.479397   4.669360   5.004380
    23  H    3.924046   3.228499   4.086516   3.279613   1.897300
    24  H    5.123260   4.562439   4.790220   3.490578   2.159022
    25  H    6.390132   6.205625   5.519984   4.029191   3.459820
    26  H    6.001406   6.343907   4.719382   3.485722   3.906473
                   11         12         13         14         15
    11  O    0.000000
    12  C    2.350559   0.000000
    13  C    3.649149   1.394301   0.000000
    14  C    4.155877   2.391235   1.396826   0.000000
    15  C    3.668150   2.730732   2.408962   1.397928   0.000000
    16  F    4.812481   4.067084   3.586981   2.299010   1.351690
    17  H    6.552669   6.718245   6.634192   5.535608   4.332242
    18  H    6.121089   5.990480   5.720115   4.477482   3.341889
    19  H    5.601107   5.271610   5.015424   3.907115   2.862016
    20  H    6.426548   7.281694   7.530934   6.594912   5.219062
    21  H    6.143789   7.722949   8.384172   7.795494   6.417280
    22  H    4.422332   6.385527   7.368293   7.196798   5.994517
    23  H    0.975481   2.275887   3.655513   4.454720   4.251301
    24  H    2.523444   1.104078   2.166358   3.396286   3.833090
    25  H    4.515500   2.173704   1.100038   2.180244   3.417306
    26  H    5.242498   3.410357   2.197640   1.098864   2.144703
                   16         17         18         19         20
    16  F    0.000000
    17  H    3.542494   0.000000
    18  H    2.211050   1.784694   0.000000
    19  H    2.236670   1.782034   1.786656   0.000000
    20  H    4.605591   2.223671   2.917593   3.580698   0.000000
    21  H    6.253941   4.462355   5.139090   5.466987   2.507034
    22  H    6.380317   5.554051   6.095440   5.844310   4.318129
    23  H    5.482864   7.458698   6.969339   6.402108   7.398590
    24  H    5.165515   7.750722   7.073365   6.331332   8.213096
    25  H    4.475855   7.600189   6.649325   5.923550   8.596395
    26  H    2.467117   5.771913   4.573228   4.134132   7.034946
                   21         22         23         24         25
    21  H    0.000000
    22  H    2.564142   0.000000
    23  H    7.077438   5.235341   0.000000
    24  H    8.424142   6.832822   2.005759   0.000000
    25  H    9.483541   8.414459   4.334124   2.506836   0.000000
    26  H    8.496712   8.125755   5.523838   4.336800   2.565761
                   26
    26  H    0.000000
 Symmetry turned off by external request.
 Stoichiometry    C13H10F2O
 Framework group  C1[X(C13H10F2O)]
 Deg. of freedom    72
 Full point group                 C1      NOp   1
 Rotational constants (GHZ):           0.8324558           0.4708628           0.3124403

 **********************************************************************

            Population analysis using the SCF Density.

 **********************************************************************

 Alpha  occ. eigenvalues --  -24.30265 -24.29109 -18.82079 -10.00403  -9.99702
 Alpha  occ. eigenvalues --   -9.99503  -9.95293  -9.94733  -9.93599  -9.93198
 Alpha  occ. eigenvalues --   -9.92494  -9.92043  -9.91986  -9.91441  -9.91140
 Alpha  occ. eigenvalues --   -9.90988  -1.11213  -1.09924  -0.97370  -0.78413
 Alpha  occ. eigenvalues --   -0.77062  -0.70828  -0.68973  -0.66730  -0.65526
 Alpha  occ. eigenvalues --   -0.61289  -0.57441  -0.57346  -0.53523  -0.52712
 Alpha  occ. eigenvalues --   -0.51392  -0.47500  -0.46272  -0.45486  -0.44451
 Alpha  occ. eigenvalues --   -0.42660  -0.42101  -0.41661  -0.40542  -0.39652
 Alpha  occ. eigenvalues --   -0.37863  -0.37280  -0.36938  -0.36558  -0.35246
 Alpha  occ. eigenvalues --   -0.34803  -0.33148  -0.32026  -0.31701  -0.31011
 Alpha  occ. eigenvalues --   -0.30372  -0.29636  -0.28714  -0.26098  -0.21013
 Alpha  occ. eigenvalues --   -0.20532  -0.19329
 Alpha virt. eigenvalues --   -0.08527  -0.03604  -0.03323  -0.02114   0.01600
 Alpha virt. eigenvalues --    0.03238   0.04931   0.05445   0.07252   0.08575
 Alpha virt. eigenvalues --    0.09432   0.09768   0.11212   0.11820   0.12335
 Alpha virt. eigenvalues --    0.13048   0.14156   0.16022   0.17710   0.18668
 Alpha virt. eigenvalues --    0.20021   0.20186   0.24172   0.25595   0.26605
 Alpha virt. eigenvalues --    0.27361   0.28493   0.29168   0.29920   0.30544
 Alpha virt. eigenvalues --    0.32647   0.35286   0.36344   0.37203   0.38018
 Alpha virt. eigenvalues --    0.38898   0.39731   0.41047   0.42111   0.42698
 Alpha virt. eigenvalues --    0.43003   0.43560   0.44537   0.45112   0.45646
 Alpha virt. eigenvalues --    0.46802   0.48114   0.48737   0.50167   0.51754
 Alpha virt. eigenvalues --    0.52197   0.53375   0.54335   0.54939   0.55739
 Alpha virt. eigenvalues --    0.56304   0.57510   0.58438   0.59387   0.59519
 Alpha virt. eigenvalues --    0.60808   0.61280   0.61658   0.62257   0.62872
 Alpha virt. eigenvalues --    0.63831   0.64437   0.65601   0.66035   0.66492
 Alpha virt. eigenvalues --    0.67709   0.68739   0.70034   0.71761   0.72241
 Alpha virt. eigenvalues --    0.72547   0.73838   0.75075   0.76922   0.78338
 Alpha virt. eigenvalues --    0.79500   0.82305   0.82430   0.88554   0.90321
 Alpha virt. eigenvalues --    0.93398   0.93789   0.96301   0.98632   1.01413
 Alpha virt. eigenvalues --    1.02487   1.04342   1.07367   1.08785   1.10131
 Alpha virt. eigenvalues --    1.13814   1.15565   1.16210   1.18209   1.20526
 Alpha virt. eigenvalues --    1.21291   1.22797   1.23640   1.26113   1.26992
 Alpha virt. eigenvalues --    1.28739   1.31070   1.31646   1.32734   1.36294
 Alpha virt. eigenvalues --    1.36867   1.40884   1.42028   1.44000   1.45500
 Alpha virt. eigenvalues --    1.49251   1.52688   1.54775   1.56061   1.57390
 Alpha virt. eigenvalues --    1.58764   1.60261   1.60625   1.62074   1.63265
 Alpha virt. eigenvalues --    1.63741   1.64077   1.64856   1.65926   1.66718
 Alpha virt. eigenvalues --    1.67900   1.68885   1.70607   1.71225   1.72467
 Alpha virt. eigenvalues --    1.73129   1.73647   1.75738   1.77086   1.77288
 Alpha virt. eigenvalues --    1.79496   1.79969   1.81631   1.83818   1.85899
 Alpha virt. eigenvalues --    1.86880   1.87837   1.90825   1.92738   1.93542
 Alpha virt. eigenvalues --    1.95165   1.95375   1.98400   1.99488   1.99918
 Alpha virt. eigenvalues --    2.00864   2.02790   2.04189   2.07157   2.08259
 Alpha virt. eigenvalues --    2.08671   2.10081   2.11663   2.14332   2.16485
 Alpha virt. eigenvalues --    2.17687   2.18402   2.18864   2.20132   2.22034
 Alpha virt. eigenvalues --    2.23682   2.25134   2.28356   2.34453   2.36176
 Alpha virt. eigenvalues --    2.36544   2.38144   2.43940   2.45814   2.46743
 Alpha virt. eigenvalues --    2.47506   2.48601   2.52423   2.55002   2.56398
 Alpha virt. eigenvalues --    2.58923   2.61864   2.63047   2.65687   2.68299
 Alpha virt. eigenvalues --    2.69842   2.77377   2.77647   2.80515   2.82363
 Alpha virt. eigenvalues --    2.84471   2.85579   2.87577   2.88895   2.91431
 Alpha virt. eigenvalues --    2.92558   2.99793   3.01289   3.01851   3.03640
 Alpha virt. eigenvalues --    3.06904   3.15761   3.19824   3.20657   3.21353
 Alpha virt. eigenvalues --    3.34273   3.39935   3.42934   3.47052   3.67107
 Alpha virt. eigenvalues --    3.75038   3.77026
          Condensed to atoms (all electrons):
               1          2          3          4          5          6
     1  C    4.566165   0.436399  -0.073896   0.013872  -0.000095   0.008359
     2  C    0.436399   5.200714   0.359107   0.057936  -0.118100   0.030199
     3  C   -0.073896   0.359107   5.104112   0.288227   0.085430  -0.128401
     4  C    0.013872   0.057936   0.288227   5.090502   0.220104   0.086899
     5  C   -0.000095  -0.118100   0.085430   0.220104   5.265303   0.319066
     6  C    0.008359   0.030199  -0.128401   0.086899   0.319066   5.036998
     7  F   -0.000019   0.001454   0.000073   0.005579  -0.066423   0.376948
     8  C   -0.064665   0.297492   0.034400  -0.087741  -0.018046   0.229527
     9  C   -0.019381  -0.046990   0.013633  -0.000155   0.013423  -0.051901
    10  C   -0.000255   0.008715   0.000183  -0.000194   0.000888  -0.033842
    11  O   -0.000001   0.000107  -0.000004   0.000002  -0.001723   0.002958
    12  C   -0.000001   0.000068  -0.000002   0.000002  -0.000051   0.000354
    13  C   -0.000014  -0.000112   0.000001  -0.000000   0.000002  -0.000105
    14  C   -0.000177   0.000427  -0.000014   0.000001  -0.000002   0.000017
    15  C   -0.000099  -0.022568   0.000019  -0.000047  -0.000140   0.012935
    16  F    0.003997  -0.003937  -0.000118   0.000002  -0.000002   0.000221
    17  H    0.374860  -0.021870  -0.018912   0.002021  -0.000036  -0.000032
    18  H    0.356975  -0.001291   0.000091  -0.000219  -0.000036  -0.000225
    19  H    0.370978  -0.003802   0.007607  -0.000877   0.000209  -0.000677
    20  H   -0.019263  -0.066488   0.424584  -0.067050   0.013700  -0.000482
    21  H   -0.000440   0.015047  -0.067146   0.430388  -0.070839   0.013380
    22  H    0.000023  -0.000751   0.012517  -0.066676   0.410456  -0.055553
    23  H    0.000000   0.000020  -0.000000  -0.000000   0.000038  -0.000383
    24  H    0.000000   0.000000  -0.000000   0.000000   0.000000   0.000037
    25  H    0.000000  -0.000000  -0.000000   0.000000  -0.000000   0.000001
    26  H   -0.000012   0.000033  -0.000000   0.000000  -0.000000   0.000001
               7          8          9         10         11         12
     1  C   -0.000019  -0.064665  -0.019381  -0.000255  -0.000001  -0.000001
     2  C    0.001454   0.297492  -0.046990   0.008715   0.000107   0.000068
     3  C    0.000073   0.034400   0.013633   0.000183  -0.000004  -0.000002
     4  C    0.005579  -0.087741  -0.000155  -0.000194   0.000002   0.000002
     5  C   -0.066423  -0.018046   0.013423   0.000888  -0.001723  -0.000051
     6  C    0.376948   0.229527  -0.051901  -0.033842   0.002958   0.000354
     7  F    8.911257  -0.075290   0.004815   0.001223  -0.006850  -0.000850
     8  C   -0.075290   5.507247   0.203412  -0.050330   0.005458   0.012837
     9  C    0.004815   0.203412   5.622112   0.206131  -0.072960   0.023963
    10  C    0.001223  -0.050330   0.206131   5.154310   0.431950   0.274111
    11  O   -0.006850   0.005458  -0.072960   0.431950   7.551177  -0.080354
    12  C   -0.000850   0.012837   0.023963   0.274111  -0.080354   5.318578
    13  C    0.000002  -0.000738  -0.092883   0.094440   0.005288   0.225811
    14  C   -0.000001   0.013068  -0.004107  -0.129273   0.000304   0.093135
    15  C    0.000239  -0.051830   0.195039   0.068159   0.000728  -0.147659
    16  F   -0.000000  -0.002351  -0.070563   0.002422  -0.000001   0.000042
    17  H    0.000001   0.006574  -0.000537   0.000008  -0.000000  -0.000000
    18  H    0.000000  -0.000696   0.003821   0.000026   0.000000  -0.000003
    19  H   -0.000004  -0.009585   0.004203   0.000069   0.000000  -0.000008
    20  H    0.000004   0.015326  -0.000248   0.000002  -0.000000  -0.000000
    21  H   -0.000082  -0.001579   0.000022   0.000000   0.000000  -0.000000
    22  H    0.001984   0.017749  -0.000370   0.000049   0.000043   0.000000
    23  H    0.001223  -0.000527   0.012011  -0.008211   0.315830  -0.028510
    24  H    0.000001  -0.000273   0.014952  -0.075744  -0.008886   0.407363
    25  H    0.000000   0.000011  -0.001823   0.014456  -0.000109  -0.061655
    26  H   -0.000000  -0.000210   0.018530  -0.001212   0.000006   0.014430
              13         14         15         16         17         18
     1  C   -0.000014  -0.000177  -0.000099   0.003997   0.374860   0.356975
     2  C   -0.000112   0.000427  -0.022568  -0.003937  -0.021870  -0.001291
     3  C    0.000001  -0.000014   0.000019  -0.000118  -0.018912   0.000091
     4  C   -0.000000   0.000001  -0.000047   0.000002   0.002021  -0.000219
     5  C    0.000002  -0.000002  -0.000140  -0.000002  -0.000036  -0.000036
     6  C   -0.000105   0.000017   0.012935   0.000221  -0.000032  -0.000225
     7  F    0.000002  -0.000001   0.000239  -0.000000   0.000001   0.000000
     8  C   -0.000738   0.013068  -0.051830  -0.002351   0.006574  -0.000696
     9  C   -0.092883  -0.004107   0.195039  -0.070563  -0.000537   0.003821
    10  C    0.094440  -0.129273   0.068159   0.002422   0.000008   0.000026
    11  O    0.005288   0.000304   0.000728  -0.000001  -0.000000   0.000000
    12  C    0.225811   0.093135  -0.147659   0.000042  -0.000000  -0.000003
    13  C    5.125451   0.199362   0.113871   0.005399  -0.000001   0.000003
    14  C    0.199362   5.257536   0.316065  -0.061411   0.000038  -0.000169
    15  C    0.113871   0.316065   5.061297   0.358019   0.000119  -0.002203
    16  F    0.005399  -0.061411   0.358019   8.926399   0.001677   0.003453
    17  H   -0.000001   0.000038   0.000119   0.001677   0.673656  -0.023425
    18  H    0.000003  -0.000169  -0.002203   0.003453  -0.023425   0.632367
    19  H    0.000081  -0.001238   0.002187  -0.001998  -0.028659  -0.019169
    20  H    0.000000  -0.000000   0.000025  -0.000011   0.005036   0.001987
    21  H   -0.000000   0.000000   0.000000   0.000000  -0.000018   0.000015
    22  H    0.000000  -0.000000   0.000002  -0.000000  -0.000002  -0.000001
    23  H    0.000755  -0.000103   0.000206   0.000002   0.000000  -0.000000
    24  H   -0.046838   0.013811  -0.000480   0.000003  -0.000000  -0.000000
    25  H    0.427048  -0.068243   0.013598  -0.000083   0.000000   0.000000
    26  H   -0.070426   0.417549  -0.059388   0.001812  -0.000002   0.000021
              19         20         21         22         23         24
     1  C    0.370978  -0.019263  -0.000440   0.000023   0.000000   0.000000
     2  C   -0.003802  -0.066488   0.015047  -0.000751   0.000020   0.000000
     3  C    0.007607   0.424584  -0.067146   0.012517  -0.000000  -0.000000
     4  C   -0.000877  -0.067050   0.430388  -0.066676  -0.000000   0.000000
     5  C    0.000209   0.013700  -0.070839   0.410456   0.000038   0.000000
     6  C   -0.000677  -0.000482   0.013380  -0.055553  -0.000383   0.000037
     7  F   -0.000004   0.000004  -0.000082   0.001984   0.001223   0.000001
     8  C   -0.009585   0.015326  -0.001579   0.017749  -0.000527  -0.000273
     9  C    0.004203  -0.000248   0.000022  -0.000370   0.012011   0.014952
    10  C    0.000069   0.000002   0.000000   0.000049  -0.008211  -0.075744
    11  O    0.000000  -0.000000   0.000000   0.000043   0.315830  -0.008886
    12  C   -0.000008  -0.000000  -0.000000   0.000000  -0.028510   0.407363
    13  C    0.000081   0.000000  -0.000000   0.000000   0.000755  -0.046838
    14  C   -0.001238  -0.000000   0.000000  -0.000000  -0.000103   0.013811
    15  C    0.002187   0.000025   0.000000   0.000002   0.000206  -0.000480
    16  F   -0.001998  -0.000011   0.000000  -0.000000   0.000002   0.000003
    17  H   -0.028659   0.005036  -0.000018  -0.000002   0.000000  -0.000000
    18  H   -0.019169   0.001987   0.000015  -0.000001  -0.000000  -0.000000
    19  H    0.649397   0.000564   0.000011  -0.000001  -0.000000  -0.000000
    20  H    0.000564   0.711062  -0.012643  -0.000386   0.000000   0.000000
    21  H    0.000011  -0.012643   0.700751  -0.012356   0.000000  -0.000000
    22  H   -0.000001  -0.000386  -0.012356   0.683109  -0.000002  -0.000000
    23  H   -0.000000   0.000000   0.000000  -0.000002   0.515282   0.012252
    24  H   -0.000000   0.000000  -0.000000  -0.000000   0.012252   0.713335
    25  H   -0.000001  -0.000000   0.000000  -0.000000  -0.000057  -0.014024
    26  H    0.000050  -0.000000  -0.000000   0.000000  -0.000006  -0.000347
              25         26
     1  C    0.000000  -0.000012
     2  C   -0.000000   0.000033
     3  C   -0.000000  -0.000000
     4  C    0.000000   0.000000
     5  C   -0.000000  -0.000000
     6  C    0.000001   0.000001
     7  F    0.000000  -0.000000
     8  C    0.000011  -0.000210
     9  C   -0.001823   0.018530
    10  C    0.014456  -0.001212
    11  O   -0.000109   0.000006
    12  C   -0.061655   0.014430
    13  C    0.427048  -0.070426
    14  C   -0.068243   0.417549
    15  C    0.013598  -0.059388
    16  F   -0.000083   0.001812
    17  H    0.000000  -0.000002
    18  H    0.000000   0.000021
    19  H   -0.000001   0.000050
    20  H   -0.000000  -0.000000
    21  H    0.000000  -0.000000
    22  H   -0.000000   0.000000
    23  H   -0.000057  -0.000006
    24  H   -0.014024  -0.000347
    25  H    0.692128  -0.012231
    26  H   -0.012231   0.682223
 Mulliken charges:
               1
     1  C    0.046693
     2  C   -0.121807
     3  C   -0.041487
     4  C    0.027426
     5  C   -0.053127
     6  C    0.153702
     7  F   -0.155283
     8  C    0.020759
     9  C    0.025851
    10  C    0.041920
    11  O   -0.142967
    12  C   -0.051603
    13  C    0.013602
    14  C   -0.046577
    15  C    0.141906
    16  F   -0.162973
    17  H    0.029503
    18  H    0.048680
    19  H    0.030663
    20  H   -0.005718
    21  H    0.005489
    22  H    0.010167
    23  H    0.180180
    24  H   -0.015163
    25  H    0.010983
    26  H    0.009181
 Sum of Mulliken charges =  -0.00000
 Mulliken charges with hydrogens summed into heavy atoms:
               1
     1  C    0.155539
     2  C   -0.121807
     3  C   -0.047205
     4  C    0.032915
     5  C   -0.042960
     6  C    0.153702
     7  F   -0.155283
     8  C    0.020759
     9  C    0.025851
    10  C    0.041920
    11  O    0.037214
    12  C   -0.066766
    13  C    0.024585
    14  C   -0.037397
    15  C    0.141906
    16  F   -0.162973
 Electronic spatial extent (au):  <R**2>=           3394.9684
 Charge=             -0.0000 electrons
 Dipole moment (field-independent basis, Debye):
    X=              1.4692    Y=             -0.6504    Z=              0.1475  Tot=              1.6135
 Quadrupole moment (field-independent basis, Debye-Ang):
   XX=            -76.6499   YY=            -83.3014   ZZ=            -95.1464
   XY=             -5.9645   XZ=             -0.3487   YZ=             -2.5776
 Traceless Quadrupole moment (field-independent basis, Debye-Ang):
   XX=              8.3826   YY=              1.7312   ZZ=            -10.1138
   XY=             -5.9645   XZ=             -0.3487   YZ=             -2.5776
 Octapole moment (field-independent basis, Debye-Ang**2):
  XXX=             17.4886  YYY=            -35.5167  ZZZ=             -4.2098  XYY=             18.4117
  XXY=            -18.0458  XXZ=              4.4739  XZZ=              1.8013  YZZ=             -4.6514
  YYZ=              3.9034  XYZ=             -3.3554
 Hexadecapole moment (field-independent basis, Debye-Ang**3):
 XXXX=          -2616.6798 YYYY=          -1290.0626 ZZZZ=           -169.1151 XXXY=             41.8000
 XXXZ=            -33.1546 YYYX=            -23.1666 YYYZ=              2.7952 ZZZX=             13.7599
 ZZZY=             25.1009 XXYY=           -618.5254 XXZZ=           -550.6357 YYZZ=           -262.0734
 XXYZ=             -2.4291 YYXZ=             14.1711 ZZXY=             13.8663
 N-N= 1.066258721960D+03 E-N=-3.944216728016D+03  KE= 7.676312204239D+02

 Test job not archived.
 1\1\GINC-SEMLSCPN085\FOpt\RBP86\def2SVP\C13H10F2O1\KTVF206\23-Jul-2026
 \0\\# opt=modredundant bp86 empiricaldispersion=GD3BJ def2svp IOP(1/8=
 2) nosymm\\example\\0,1\C,-1.2468753599,2.6423310545,-0.5711140676\C,-
 1.6053800732,1.2536923931,-0.0618124298\C,-2.9723920693,1.1300581305,0
 .272458606\C,-3.6131822781,-0.1002594547,0.4500934334\C,-2.8934711417,
 -1.2514694862,0.1251098928\C,-1.5385489607,-1.1406904545,-0.2033794283
 \F,-1.0171929301,-2.2605964646,-0.7467969858\C,-0.7622935733,0.0682835
 792,-0.0748552372\C,0.7361862926,0.0018526771,0.0339595742\C,1.5400666
 922,-1.2187632462,0.1937596478\O,1.0305603973,-2.4274401549,0.59531188
 79\C,2.9422198163,-1.1945822794,0.0030724658\C,3.6614987841,-0.0092320
 474,-0.1440921346\C,2.9630080912,1.196129831,-0.0424217177\C,1.5721527
 017,1.1658029781,0.0947065754\F,1.0295371735,2.3784673088,0.3438628285
 \H,-2.1496371049,3.0561305289,-1.064286524\H,-0.9522272162,3.351800620
 2,0.2256439789\H,-0.4402053742,2.6248253282,-1.3240275063\H,-3.5648198
 118,2.0572732089,0.3300786573\H,-4.6754923333,-0.1540382382,0.73223253
 94\H,-3.3556569271,-2.2473734701,0.0608110149\H,1.784837616,-3.0433229
 731,0.6529066864\H,3.4765623055,-2.1602001465,0.0354676543\H,4.7531145
 869,-0.0257710483,-0.278940525\H,3.4599745099,2.1760954984,-0.02854050
 63\\Version=ES64L-G16RevC.02\HF=-775.7419249\RMSD=5.965e-09\RMSF=2.668
 e-03\Dipole=0.5780264,-0.2558735,0.0580341\Quadrupole=6.2322863,1.2871
 01,-7.5193872,-4.4344583,-0.2592723,-1.9164127\PG=C01 [X(C13H10F2O1)]\
 \@


 KNOWLEDGE IS EXPERIMENT'S DAUGHTER.
 -- LEONARDO DA VINCI, IN "PENSIERI" CA. 1492
 Job cpu time:       0 days  0 hours 36 minutes 50.9 seconds.
 Elapsed time:       0 days  0 hours  4 minutes 50.7 seconds.
 File lengths (MBytes):  RWF=     53 Int=      0 D2E=      0 Chk=      7 Scr=      1
 Normal termination of Gaussian 16 at Thu Jul 23 14:41:34 2026.
