26
 energy: -46.467137533376 gnorm: 0.000671324960 xtb: 6.6.1 (8d0f1dd)
C            0.70978212428943        2.26371730047852        0.41722096249197
C            1.41982926386634        1.02215013236370       -0.02644967114370
C            2.79464272700589        1.02702909278886       -0.22388140349869
C            3.46783180306771       -0.11085406124461       -0.62969743523288
C            2.77458058028091       -1.28855291041571       -0.84422565578478
C            1.40828284880640       -1.29170412109808       -0.64728792600295
F            0.72515108172030       -2.43633486925550       -0.87173522711056
C            0.70896554927688       -0.15878509347684       -0.24810290016301
C           -0.75655662360930       -0.24380997871638       -0.06854594891064
C           -1.29868125579109       -1.04051987893107        0.94739774148493
O           -0.43662779616116       -1.66181203715045        1.78873689944473
C           -2.67710054253507       -1.15373752729848        1.08405927692408
C           -3.52584303779872       -0.48456767280735        0.22131527634173
C           -3.01306986737823        0.30960952325243       -0.78764255594777
C           -1.64024740066862        0.41170310596175       -0.91347818116175
F           -1.14030707281465        1.17411022380417       -1.90990549432590
H            0.22677559444259        2.74138735461828       -0.43410235582554
H           -0.05862651104621        2.02937716083292        1.15088729332723
H            1.41072818878529        2.97205310066847        0.85052130063627
H            3.34539256994325        1.94042033098295       -0.05383963635723
H            4.53669187829585       -0.08355943841875       -0.77753132612720
H            3.27077047485478       -2.19260609429679       -1.15939682760543
H           -0.92321229237361       -2.22316586994067        2.40383254832157
H           -3.08261520369669       -1.77471594951595        1.87118240716164
H           -4.59384426981172       -0.58454836414646        0.33624408952427
H           -3.65269281095037        0.83771854096077       -1.47557525046020
