  26
 
 C          1.2413551262        2.6434893286        0.5424969004
 C          1.5672929908        1.2397270509        0.0626429005
 C          2.9131657375        1.1121934814       -0.2804197779
 C          3.5558835378       -0.0977798814       -0.4304169024
 C          2.8599721223       -1.2256565113       -0.0475350208
 C          1.5146601219       -1.1142860397        0.2361864711
 F          0.9937744510       -2.2561712553        0.7812688829
 C          0.7461289260        0.0655407552        0.0801020970
 C         -0.7519683264        0.0034268381       -0.0229362581
 C         -1.5024212386       -1.2056049053       -0.1649798503
 O         -1.0618049710       -2.4308553619       -0.5516162389
 C         -2.8884907229       -1.2022274429        0.0187320933
 C         -3.6058503873       -0.0435727100        0.1900582373
 C         -2.9348040536        1.1588209298        0.0646609866
 C         -1.5629246638        1.1572598577       -0.0724647191
 F         -1.0440422758        2.3768126694       -0.3487592274
 H          0.9833196987        3.3136824908       -0.2726228301
 H          0.4416924766        2.6437691269        1.2756802326
 H          2.1349796673        3.0342932223        1.0256067487
 H          3.4865395182        2.0205313813       -0.3941274854
 H          4.5902339305       -0.1523533167       -0.7286452454
 H          3.3330484619       -2.1880589476        0.0647068893
 H         -0.1263920733       -2.4413761718       -0.7748967438
 H         -3.3759072824       -2.1630430789       -0.0248970789
 H         -4.6724056716       -0.0692484825        0.3434703453
 H         -3.4521731915        2.1043318221        0.0461243294
          26
        -46.41911816
 C          1.2498596542        2.6373264239        0.5578557522
 C          1.5726164004        1.2388009503        0.0612588940
 C          2.9170756094        1.1136783926       -0.2868090168
 C          3.5580398002       -0.0945730704       -0.4580203942
 C          2.8606735170       -1.2258611054       -0.0878545781
 C          1.5172240469       -1.1169450379        0.2044744896
 F          0.9973715387       -2.2644845581        0.7383956448
 C          0.7494855392        0.0657392920        0.0664525417
 C         -0.7492505764        0.0067679163       -0.0304681985
 C         -1.5022160761       -1.1994592561       -0.1823510767
 O         -1.0651473809       -2.4206629668       -0.5861625305
 C         -2.8864491325       -1.1953147660        0.0106920282
 C         -3.6002471781       -0.0372362997        0.2041579577
 C         -2.9287818710        1.1654136203        0.0893523365
 C         -1.5575444371        1.1630705675       -0.0609039178
 F         -1.0388525989        2.3843117094       -0.3290774519
 H          0.9928630618        3.3164631375       -0.2504602553
 H          0.4495661089        2.6313620004        1.2910729276
 H          2.1449176045        3.0202670880        1.0463090466
 H          3.4911117999        2.0232904460       -0.3881669842
 H          4.5904702209       -0.1462017719       -0.7623802409
 H          3.3323419660       -2.1909994421        0.0081338136
 H         -0.1310989857       -2.4285863513       -0.8154490143
 H         -3.3775960521       -2.1535391057       -0.0412776273
 H         -4.6653406940       -0.0649189888        0.3671882987
 H         -3.4432049790        2.1125215907        0.0875937958
