  26
  -46.4191251800000       0.301264266054711      !mtd2
 C          1.2515472087        2.6373296282        0.5584922401
 C          1.5728551104        1.2390986540        0.0598211995
 C          2.9166835204        1.1137157694       -0.2918365638
 C          3.5566850454       -0.0953393605       -0.4597681328
 C          2.8610722747       -1.2267244158       -0.0869304453
 C          1.5174342860       -1.1167549525        0.2050951690
 F          0.9976044983       -2.2644732380        0.7389614992
 C          0.7499120574        0.0659616426        0.0673582659
 C         -0.7488033751        0.0073355189       -0.0285367859
 C         -1.5017587728       -1.1988430013       -0.1813365505
 O         -1.0652513790       -2.4198709292       -0.5850512602
 C         -2.8867780235       -1.1956183981        0.0102236511
 C         -3.6013076168       -0.0380923864        0.2000100472
 C         -2.9293001131        1.1648108690        0.0855264335
 C         -1.5582414032        1.1629283666       -0.0594960530
 F         -1.0389322581        2.3849758159       -0.3238847656
 H          0.4562601133        2.6295158551        1.2964288203
 H          2.1484577882        3.0212528800        1.0409562178
 H          0.9893743539        3.3177299119       -0.2468205088
 H          3.4909321054        2.0224634175       -0.3976050270
 H          4.5894025251       -0.1479651022       -0.7639946075
 H          3.3332143543       -2.1911326850        0.0111633911
 H         -0.1308002028       -2.4303247706       -0.8125642704
 H         -3.3759820432       -2.1550628490       -0.0423982924
 H         -4.6669832757       -0.0643166754        0.3593476835
 H         -3.4453035965        2.1112576899        0.0816705121
  26
  -46.4191251700000       0.301261078108392      !mtd4
 C          1.2515136325        2.6373425418        0.5584185997
 C          1.5728400144        1.2390718593        0.0597933822
 C          2.9167569606        1.1137085126       -0.2915816406
 C          3.5568367520       -0.0952862880       -0.4594806583
 C          2.8610887494       -1.2267215307       -0.0869032833
 C          1.5174358373       -1.1167782693        0.2049448982
 F          0.9975782685       -2.2644885653        0.7387988593
 C          0.7498789313        0.0659487052        0.0671970107
 C         -0.7488331021        0.0073540620       -0.0286658908
 C         -1.5017664386       -1.1988657978       -0.1813841155
 O         -1.0653462184       -2.4198474929       -0.5851068670
 C         -2.8867272869       -1.1956294200        0.0105105294
 C         -3.6012713067       -0.0380975334        0.2002682198
 C         -2.9293123487        1.1648095951        0.0855268232
 C         -1.5582605723        1.1629371020       -0.0595852450
 F         -1.0389358214        2.3849752632       -0.3240100821
 H          0.9894171559        3.3178009962       -0.2468633436
 H          0.4561450567        2.6294839642        1.2962802398
 H          2.1484087255        3.0212368153        1.0409667121
 H          3.4909760368        2.0224838697       -0.3972164401
 H          4.5895886488       -0.1478212997       -0.7634790950
 H          3.3332565787       -2.1911074001        0.0111860799
 H         -0.1310721992       -2.4305097454       -0.8129587627
 H         -3.3759550595       -2.1550622827       -0.0419167857
 H         -4.6669317101       -0.0642193337        0.3597083732
 H         -3.4453345993        2.1112309375        0.0815898782
  26
  -46.4191250900000       0.301235575754517      !hor
 C          1.2513119057        2.6373620562        0.5572457793
 C          1.5729148684        1.2389690304        0.0593524386
 C          2.9172341581        1.1135909280       -0.2904390252
 C          3.5576517053       -0.0953741704       -0.4573365060
 C          2.8612939602       -1.2266183488       -0.0856306638
 C          1.5172373421       -1.1166777751        0.2046315010
 F          0.9972150263       -2.2644401698        0.7377603242
 C          0.7496816864        0.0659706341        0.0661028580
 C         -0.7490322178        0.0073922893       -0.0298581371
 C         -1.5018998619       -1.1989160921       -0.1819829558
 O         -1.0655332027       -2.4197916573       -0.5864327291
 C         -2.8865929781       -1.1957810828        0.0114622794
 C         -3.6008843189       -0.0382808382        0.2025719276
 C         -2.9292145246        1.1647828410        0.0870762557
 C         -1.5583968879        1.1630664943       -0.0599109745
 F         -1.0391804886        2.3850575169       -0.3250901708
 H          2.1480720967        3.0219359023        1.0394496621
 H          0.9888486112        3.3172805453       -0.2483914481
 H          0.4560118802        2.6297134434        1.2951892631
 H          3.4915442408        2.0223839629       -0.3954289861
 H          4.5908654005       -0.1479287808       -0.7597969753
 H          3.3330891879       -2.1911368984        0.0132262915
 H         -0.1310353222       -2.4298591375       -0.8138468249
 H         -3.3760429745       -2.1551330178       -0.0404676894
 H         -4.6662652819       -0.0644314744        0.3638345953
 H         -3.4455688733        2.1110082747        0.0841482765
  26
  -46.4170086500000       3.208173009009880E-002 !hor
 C          1.2460674535        2.6423436290        0.5712022998
 C          1.5768154172        1.2441263589        0.0725175661
 C          2.9215899136        1.1231057317       -0.2761636871
 C          3.5550183691       -0.0864478386       -0.4657163048
 C          2.8605250683       -1.2242746018       -0.1100607399
 C          1.5180529713       -1.1267176284        0.1961448922
 F          1.0169277269       -2.2607074850        0.7466018711
 C          0.7623775029        0.0682713946        0.0748016188
 C         -0.7359787219        0.0018645436       -0.0337650382
 C         -1.5084212826       -1.2095392190       -0.1791229782
 O         -1.0300949296       -2.4268071017       -0.5967198245
 C         -2.8893354334       -1.1772668559        0.0272697067
 C         -3.5991905342       -0.0117176154        0.2118013697
 C         -2.9176282696        1.1777968071        0.0764667505
 C         -1.5444691616        1.1563225184       -0.0762904822
 F         -1.0296852556        2.3781096472       -0.3453100528
 H          0.4418411909        2.6327564245        1.2994162630
 H          2.1366380571        3.0261107479        1.0656737345
 H          0.9943471841        3.3236344600       -0.2365613966
 H          3.4981857205        2.0319898285       -0.3694818838
 H          4.5868081839       -0.1354081437       -0.7754443521
 H          3.3354659900       -2.1895541918       -0.0373268019
 H         -1.7361178247       -3.0795898345       -0.5572761198
 H         -3.4234633186       -2.1190913832        0.0039951550
 H         -4.6630348669       -0.0321285690        0.3834640208
 H         -3.4200062827        2.1313601078        0.0701105502
  26
  -46.4170086500000       3.208173009009880E-002 !hor
 C          1.2461769245        2.6423958106        0.5710703341
 C          1.5769022215        1.2441287817        0.0725130418
 C          2.9216413385        1.1230572448       -0.2762187392
 C          3.5550261609       -0.0865088816       -0.4659766387
 C          2.8604762807       -1.2242693135       -0.1103317075
 C          1.5180942725       -1.1266868323        0.1961724738
 F          1.0170365278       -2.2606804964        0.7467022596
 C          0.7623746801        0.0682905807        0.0749511833
 C         -0.7359932917        0.0018714293       -0.0334162600
 C         -1.5084148485       -1.2095090045       -0.1789010152
 O         -1.0300710855       -2.4267933175       -0.5964987437
 C         -2.8894002148       -1.1772988658        0.0269733307
 C         -3.5993336721       -0.0116834608        0.2112818000
 C         -2.9177389775        1.1777569788        0.0762432185
 C         -1.5444700007        1.1562784518       -0.0761121781
 F         -1.0297691629        2.3781053769       -0.3449439003
 H          0.9934703747        3.3234048421       -0.2366204887
 H          0.4425555348        2.6326216157        1.2999672669
 H          2.1370051890        3.0267300744        1.0646197338
 H          3.4983257369        2.0318693211       -0.3694862571
 H          4.5867804779       -0.1354885624       -0.7757860391
 H          3.3353548605       -2.1895942967       -0.0376728560
 H         -1.7357562354       -3.0798245437       -0.5562198698
 H         -3.4237316908       -2.1189336299        0.0033249523
 H         -4.6632708947       -0.0322248255        0.3823898224
 H         -3.4199348716        2.1314003887        0.0697134479
  26
  -46.4170084700000       3.207561990218163E-002 !mtd3
 C          1.2463383575        2.6423552064        0.5718915216
 C          1.5768901153        1.2442094240        0.0727407912
 C          2.9212743702        1.1231303549       -0.2772428157
 C          3.5544221486       -0.0865035338       -0.4675172159
 C          2.8603411231       -1.2243038756       -0.1110027618
 C          1.5182041306       -1.1267198332        0.1965494408
 F          1.0172804548       -2.2606996856        0.7474290375
 C          0.7625277863        0.0682704644        0.0756976885
 C         -0.7358340445        0.0018198647       -0.0326600993
 C         -1.5083242877       -1.2094505200       -0.1785571812
 O         -1.0299135979       -2.4268396111       -0.5955990166
 C         -2.8895169382       -1.1771936390        0.0261700672
 C         -3.5996086347       -0.0116116378        0.2096124857
 C         -2.9177532429        1.1777643175        0.0753264010
 C         -1.5443690138        1.1562040393       -0.0757884712
 F         -1.0296127298        2.3780653419       -0.3441161475
 H          2.1373885250        3.0263179195        1.0652916470
 H          0.9934376192        3.3236985775       -0.2353958683
 H          0.4430062800        2.6323856936        1.3010698280
 H          3.4978595149        2.0319673694       -0.3710992527
 H          4.5858385409       -0.1354695944       -0.7785205582
 H          3.3353145992       -2.1896099336       -0.0387642443
 H         -1.7357317776       -3.0797471447       -0.5559451393
 H         -3.4237876696       -2.1188872113        0.0022082210
 H         -4.6637314100       -0.0320333357        0.3795448323
 H         -3.4199165107        2.1314289864        0.0683519452
