  26
        -46.41912518
 C          1.2515472087        2.6373296282        0.5584922401
 C          1.5728551104        1.2390986540        0.0598211995
 C          2.9166835204        1.1137157694       -0.2918365638
 C          3.5566850454       -0.0953393605       -0.4597681328
 C          2.8610722747       -1.2267244158       -0.0869304453
 C          1.5174342860       -1.1167549525        0.2050951690
 F          0.9976044983       -2.2644732380        0.7389614992
 C          0.7499120574        0.0659616426        0.0673582659
 C         -0.7488033751        0.0073355189       -0.0285367859
 C         -1.5017587728       -1.1988430013       -0.1813365505
 O         -1.0652513790       -2.4198709292       -0.5850512602
 C         -2.8867780235       -1.1956183981        0.0102236511
 C         -3.6013076168       -0.0380923864        0.2000100472
 C         -2.9293001131        1.1648108690        0.0855264335
 C         -1.5582414032        1.1629283666       -0.0594960530
 F         -1.0389322581        2.3849758159       -0.3238847656
 H          0.4562601133        2.6295158551        1.2964288203
 H          2.1484577882        3.0212528800        1.0409562178
 H          0.9893743539        3.3177299119       -0.2468205088
 H          3.4909321054        2.0224634175       -0.3976050270
 H          4.5894025251       -0.1479651022       -0.7639946075
 H          3.3332143543       -2.1911326850        0.0111633911
 H         -0.1308002028       -2.4303247706       -0.8125642704
 H         -3.3759820432       -2.1550628490       -0.0423982924
 H         -4.6669832757       -0.0643166754        0.3593476835
 H         -3.4453035965        2.1112576899        0.0816705121
  26
        -46.41700865
 C          1.2460674535        2.6423436290        0.5712022998
 C          1.5768154172        1.2441263589        0.0725175661
 C          2.9215899136        1.1231057317       -0.2761636871
 C          3.5550183691       -0.0864478386       -0.4657163048
 C          2.8605250683       -1.2242746018       -0.1100607399
 C          1.5180529713       -1.1267176284        0.1961448922
 F          1.0169277269       -2.2607074850        0.7466018711
 C          0.7623775029        0.0682713946        0.0748016188
 C         -0.7359787219        0.0018645436       -0.0337650382
 C         -1.5084212826       -1.2095392190       -0.1791229782
 O         -1.0300949296       -2.4268071017       -0.5967198245
 C         -2.8893354334       -1.1772668559        0.0272697067
 C         -3.5991905342       -0.0117176154        0.2118013697
 C         -2.9176282696        1.1777968071        0.0764667505
 C         -1.5444691616        1.1563225184       -0.0762904822
 F         -1.0296852556        2.3781096472       -0.3453100528
 H          0.4418411909        2.6327564245        1.2994162630
 H          2.1366380571        3.0261107479        1.0656737345
 H          0.9943471841        3.3236344600       -0.2365613966
 H          3.4981857205        2.0319898285       -0.3694818838
 H          4.5868081839       -0.1354081437       -0.7754443521
 H          3.3354659900       -2.1895541918       -0.0373268019
 H         -1.7361178247       -3.0795898345       -0.5572761198
 H         -3.4234633186       -2.1190913832        0.0039951550
 H         -4.6630348669       -0.0321285690        0.3834640208
 H         -3.4200062827        2.1313601078        0.0701105502
