26

    C 1.311878 2.585719 0.546331
C 1.619178 1.184574 0.038448
C 2.973816 1.02072 -0.330054
C 3.590243 -0.224087 -0.491043
C 2.851797 -1.351296 -0.122026
C 1.510099 -1.180578 0.210435
F 0.946594 -2.305954 0.786347
C 0.74211 0.020689 0.086948
C -0.761913 -0.001442 0.026576
C -1.582081 -1.199132 -0.134074
O -1.14736 -2.428266 -0.490743
C -2.994431 -1.151475 -0.03231
C -3.689414 0.048738 0.072277
C -2.959449 1.241862 0.01491
C -1.567719 1.182875 -0.061988
F -0.991562 2.378327 -0.311125
H 1.021012 3.297177 -0.249736
H 0.519542 2.594378 1.31387
H 2.236666 2.974923 1.018239
H 3.582836 1.934025 -0.424618
H 4.645398 -0.306628 -0.790597
H 3.289789 -2.355984 -0.03463
H -0.243019 -2.6005 -0.155901
H -3.51241 -2.119092 -0.0929
H -4.787301 0.061096 0.145536
H -3.43361 2.232379 -0.026899
