  26
 
 C          1.3118780000        2.5857190000        0.5463310000
 C          1.6191780000        1.1845740000        0.0384480000
 C          2.9738160000        1.0207200000       -0.3300540000
 C          3.5902430000       -0.2240870000       -0.4910430000
 C          2.8517970000       -1.3512960000       -0.1220260000
 C          1.5100990000       -1.1805780000        0.2104350000
 F          0.9465940000       -2.3059540000        0.7863470000
 C          0.7421100000        0.0206890000        0.0869480000
 C         -0.7619130000       -0.0014420000        0.0265760000
 C         -1.5820810000       -1.1991320000       -0.1340740000
 O         -1.1473600000       -2.4282660000       -0.4907430000
 C         -2.9944310000       -1.1514750000       -0.0323100000
 C         -3.6894140000        0.0487380000        0.0722770000
 C         -2.9594490000        1.2418620000        0.0149100000
 C         -1.5677190000        1.1828750000       -0.0619880000
 F         -0.9915620000        2.3783270000       -0.3111250000
 H          1.0210120000        3.2971770000       -0.2497360000
 H          0.5195420000        2.5943780000        1.3138700000
 H          2.2366660000        2.9749230000        1.0182390000
 H          3.5828360000        1.9340250000       -0.4246180000
 H          4.6453980000       -0.3066280000       -0.7905970000
 H          3.2897890000       -2.3559840000       -0.0346300000
 H         -0.2430190000       -2.6005000000       -0.1559010000
 H         -3.5124100000       -2.1190920000       -0.0929000000
 H         -4.7873010000        0.0610960000        0.1455360000
 H         -3.4336100000        2.2323790000       -0.0268990000
