%mem=12000MB
%nprocshared=8
# opt=(modredundant,maxcycles=100) bp86 def2svp empiricaldispersion=GD3BJ

example

0 1
C 1.2460674535 2.6423436290 0.5712022998
C 1.5768154172 1.2441263589 0.0725175661
C 2.9215899136 1.1231057317 -0.2761636871
C 3.5550183691 -0.0864478386 -0.4657163048
C 2.8605250683 -1.2242746018 -0.1100607399
C 1.5180529713 -1.1267176284 0.1961448922
F 1.0169277269 -2.2607074850 0.7466018711
C 0.7623775029 0.0682713946 0.0748016188
C -0.7359787219 0.0018645436 -0.0337650382
C -1.5084212826 -1.2095392190 -0.1791229782
O -1.0300949296 -2.4268071017 -0.5967198245
C -2.8893354334 -1.1772668559 0.0272697067
C -3.5991905342 -0.0117176154 0.2118013697
C -2.9176282696 1.1777968071 0.0764667505
C -1.5444691616 1.1563225184 -0.0762904822
F -1.0296852556 2.3781096472 -0.3453100528
H 0.4418411909 2.6327564245 1.2994162630
H 2.1366380571 3.0261107479 1.0656737345
H 0.9943471841 3.3236344600 -0.2365613966
H 3.4981857205 2.0319898285 -0.3694818838
H 4.5868081839 -0.1354081437 -0.7754443521
H 3.3354659900 -2.1895541918 -0.0373268019
H -1.7361178247 -3.0795898345 -0.5572761198
H -3.4234633186 -2.1190913832 0.0039951550
H -4.6630348669 -0.0321285690 0.3834640208
H -3.4200062827 2.1313601078 0.0701105502

1 F
7 F
8 F
9 F
11 F
16 F

