26
 energy: -46.467630343889 gnorm: 0.000732413683 xtb: 6.6.1 (8d0f1dd)
C            0.63504062892143        1.90125004393578       -1.11398494165064
C            1.38992753028186        0.78356869346825       -0.46431601842549
C            2.77706051703770        0.78185985422901       -0.41421014938604
C            3.47283558606299       -0.25799492428616        0.17843170458443
C            2.79159651372440       -1.32206920666267        0.74082728755773
C            1.41041710979767       -1.31735042194068        0.69260059290932
F            0.73494878878084       -2.34570053626645        1.25141161006449
C            0.69021665877152       -0.28685856065430        0.10104640098783
C           -0.79357005042949       -0.33661869294400        0.06508141792811
C           -1.55735086885494        0.15297394212457        1.12839052799176
O           -0.97641501294762        0.69947495351906        2.22483413436298
C           -2.94651949374911        0.10318405704277        1.07048990379595
C           -3.57882238173064       -0.43792993622292       -0.03113147500265
C           -2.84212728451968       -0.93398159516417       -1.09387895548821
C           -1.46476571181263       -0.87184069922181       -1.02558915141868
F           -0.73580829515872       -1.33838787517495       -2.06371605100471
H            0.07768521552405        1.52742010308298       -1.97212308229099
H            1.31368382397579        2.67901663778796       -1.45311783411247
H           -0.08347618923519        2.33784531649944       -0.42061986174661
H            3.31998696974396        1.60672383118413       -0.85087199693863
H            4.55140665433741       -0.24082687191045        0.20148405174187
H            3.30614232227357       -2.14704270360013        1.20633833292626
H           -0.01506845487640        0.61073091657499        2.16435765423100
H           -3.50661608836362        0.49236900066082        1.90494373759465
H           -4.65615105880148       -0.47609720711461       -0.06462809182094
H           -3.31425442875362       -1.36371711894647       -1.96205074739043
