26
 energy: -46.467138070523 gnorm: 0.000681119908 xtb: 6.6.1 (8d0f1dd)
C            1.30863029543488        0.99763753367529       -1.75582620106821
C            1.65454613847078        0.22103052064003       -0.52312062037472
C            2.98068052328228        0.00827920074638       -0.16964126963913
C            3.31726967923255       -0.70050467657441        0.96936058380273
C            2.32622144894926       -1.21262764034158        1.78725209761707
C            1.00851270483985       -1.00062725475339        1.43423263721624
F            0.03689620109955       -1.51302162785239        2.22176686793285
C            0.64609968903547       -0.29834820519738        0.29095224139923
C           -0.78893515666368       -0.12045000395117       -0.01974078456276
C           -1.60050265279849        0.65671281598932        0.81594500822721
O           -1.00962605278161        1.28323716231295        1.86218799707893
C           -2.95776541163674        0.78593659721283        0.54564101297651
C           -3.51989264046425        0.15116767100629       -0.54671301914009
C           -2.73728926805255       -0.61917993635219       -1.38695930521094
C           -1.38946620661673       -0.74147779460539       -1.10511831160974
F           -0.62867856730102       -1.50733611984964       -1.91663755084598
H            0.47848822604595        1.67540180572753       -1.56526780570643
H            2.16444779867887        1.57252460334335       -2.09984511782406
H            1.01142554669742        0.31926306196740       -2.55484509876411
H            3.76195384936641        0.40833419469227       -0.79903744005902
H            4.35481965378601       -0.85387087304187        1.22442711156924
H            2.55699304071975       -1.76831471777197        2.68202768190475
H           -1.67314864085574        1.73953706582725        2.39314868370942
H           -3.57386353659345        1.38656951555802        1.20086953195895
H           -4.57552983230986        0.25711252319066       -0.74304960229092
H           -3.15228582956482       -1.12698542159810       -2.24200932829690
