      -----------------------------------------------------------      
     |                   =====================                   |     
     |                           x T B                           |     
     |                   =====================                   |     
     |                         S. Grimme                         |     
     |          Mulliken Center for Theoretical Chemistry        |     
     |                    University of Bonn                     |     
      -----------------------------------------------------------      

   * xtb version 6.6.1 (8d0f1dd) compiled by 'stahn@M-Bot' on 2023-08-01

   xtb is free software: you can redistribute it and/or modify it under
   the terms of the GNU Lesser General Public License as published by
   the Free Software Foundation, either version 3 of the License, or
   (at your option) any later version.
   
   xtb is distributed in the hope that it will be useful,
   but WITHOUT ANY WARRANTY; without even the implied warranty of
   MERCHANTABILITY or FITNESS FOR A PARTICULAR PURPOSE.  See the
   GNU Lesser General Public License for more details.
   
   Cite this work as:
   * C. Bannwarth, E. Caldeweyher, S. Ehlert, A. Hansen, P. Pracht,
     J. Seibert, S. Spicher, S. Grimme, WIREs Comput. Mol. Sci., 2020, 11,
     e01493. DOI: 10.1002/wcms.1493
   
   for GFN2-xTB:
   * C. Bannwarth, S. Ehlert and S. Grimme., J. Chem. Theory Comput., 2019,
     15, 1652-1671. DOI: 10.1021/acs.jctc.8b01176
   for GFN1-xTB:
   * S. Grimme, C. Bannwarth, P. Shushkov, J. Chem. Theory Comput., 2017,
     13, 1989-2009. DOI: 10.1021/acs.jctc.7b00118
   for GFN0-xTB:
   * P. Pracht, E. Caldeweyher, S. Ehlert, S. Grimme, ChemRxiv, 2019, preprint.
     DOI: 10.26434/chemrxiv.8326202.v1
   for GFN-FF:
   * S. Spicher and S. Grimme, Angew. Chem. Int. Ed., 2020, 59, 15665-15673.
     DOI: 10.1002/anie.202004239
   
   for ALPB and GBSA implicit solvation:
   * S. Ehlert, M. Stahn, S. Spicher, S. Grimme, J. Chem. Theory Comput.,
     2021, 17, 4250-4261. DOI: 10.1021/acs.jctc.1c00471
   
   for DFT-D4:
   * E. Caldeweyher, C. Bannwarth and S. Grimme, J. Chem. Phys., 2017,
     147, 034112. DOI: 10.1063/1.4993215
   * E. Caldeweyher, S. Ehlert, A. Hansen, H. Neugebauer, S. Spicher,
     C. Bannwarth and S. Grimme, J. Chem. Phys., 2019, 150, 154122.
     DOI: 10.1063/1.5090222
   * E. Caldeweyher, J.-M. Mewes, S. Ehlert and S. Grimme, Phys. Chem. Chem. Phys.
     2020, 22, 8499-8512. DOI: 10.1039/D0CP00502A
   
   for sTDA-xTB:
   * S. Grimme and C. Bannwarth, J. Chem. Phys., 2016, 145, 054103.
     DOI: 10.1063/1.4959605
   
   in the mass-spec context:
   * V. Asgeirsson, C. Bauer and S. Grimme, Chem. Sci., 2017, 8, 4879.
     DOI: 10.1039/c7sc00601b
   * J. Koopman and S. Grimme, ACS Omega 2019, 4, 12, 15120-15133.
     DOI: 10.1021/acsomega.9b02011
   
   for metadynamics refer to:
   * S. Grimme, J. Chem. Theory Comput., 2019, 155, 2847-2862
     DOI: 10.1021/acs.jctc.9b00143
   
   for SPH calculations refer to:
   * S. Spicher and S. Grimme, J. Chem. Theory Comput., 2021, 17, 1701-1714
     DOI: 10.1021/acs.jctc.0c01306
   
   with help from (in alphabetical order)
   P. Atkinson, C. Bannwarth, F. Bohle, G. Brandenburg, E. Caldeweyher
   M. Checinski, S. Dohm, S. Ehlert, S. Ehrlich, I. Gerasimov, C. Hölzer
   A. Katbashev, J. Koopman, C. Lavigne, S. Lehtola, F. März, M. Müller,
   F. Musil, H. Neugebauer, J. Pisarek, C. Plett, P. Pracht, F. Pultar,
   J. Seibert, P. Shushkov, S. Spicher, M. Stahn, M. Steiner, T. Strunk,
   J. Stückrath, T. Rose, and J. Unsleber
   
 * started run on 2026/07/23 at 12:55:25.116     

           -------------------------------------------------
          |                Calculation Setup                |
           -------------------------------------------------

          program call               : /path/to/xtb /path/to/atropisomers_workflow/example/reactant_censo/confs/0.xyz --opt --etemp 298.15 --chrg 0 --uhf 0 -P 4
          hostname                   : node
          coordinate file            : /path/to/atropisomers_workflow/example/reactant_censo/confs/0.xyz
          omp threads                :                     4

   ID    Z sym.   atoms
    1    6 C      1-6, 8-10, 12-15
    2    9 F      7, 16
    3    8 O      11
    4    1 H      17-26

           -------------------------------------------------
          |                 G F N 2 - x T B                 |
           -------------------------------------------------

        Reference                      10.1021/acs.jctc.8b01176
      * Hamiltonian:
        H0-scaling (s, p, d)           1.850000    2.230000    2.230000
        zeta-weighting                 0.500000
      * Dispersion:
        s8                             2.700000
        a1                             0.520000
        a2                             5.000000
        s9                             5.000000
      * Repulsion:
        kExp                           1.500000    1.000000
        rExp                           1.000000
      * Coulomb:
        alpha                          2.000000
        third order                    shell-resolved
        anisotropic                    true
        a3                             3.000000
        a5                             4.000000
        cn-shift                       1.200000
        cn-exp                         4.000000
        max-rad                        5.000000


          ...................................................
          :                      SETUP                      :
          :.................................................:
          :  # basis functions                  74          :
          :  # atomic orbitals                  74          :
          :  # shells                           42          :
          :  # electrons                        82          :
          :  max. iterations                   250          :
          :  Hamiltonian                  GFN2-xTB          :
          :  restarted?                      false          :
          :  GBSA solvation                  false          :
          :  PC potential                    false          :
          :  electronic temp.          298.1500000     K    :
          :  accuracy                    1.0000000          :
          :  -> integral cutoff          0.2500000E+02      :
          :  -> integral neglect         0.1000000E-07      :
          :  -> SCF convergence          0.1000000E-05 Eh   :
          :  -> wf. convergence          0.1000000E-03 e    :
          :  Broyden damping             0.4000000          :
          ...................................................

 iter      E             dE          RMSdq      gap      omega  full diag
   1    -47.0496216 -0.470496E+02  0.413E+00    4.55       0.0  T
   2    -47.0880858 -0.384642E-01  0.241E+00    4.45       1.0  T
   3    -47.0829463  0.513952E-02  0.129E+00    4.45       1.0  T
   4    -47.0988448 -0.158985E-01  0.248E-01    4.44       1.0  T
   5    -47.0991416 -0.296828E-03  0.870E-02    4.42       1.0  T
   6    -47.0992513 -0.109694E-03  0.439E-02    4.42       1.0  T
   7    -47.0992659 -0.146570E-04  0.169E-02    4.42       1.2  T
   8    -47.0992691 -0.310414E-05  0.725E-03    4.42       2.7  T
   9    -47.0992696 -0.571430E-06  0.172E-03    4.43      11.4  T
  10    -47.0992696 -0.144030E-07  0.717E-04    4.43      27.3  T
  11    -47.0992696 -0.150741E-08  0.362E-04    4.43      54.1  T

   *** convergence criteria satisfied after 11 iterations ***

         #    Occupation            Energy/Eh            Energy/eV
      -------------------------------------------------------------
         1        2.0000           -0.8057114             -21.9245
       ...           ...                  ...                  ...
        35        2.0000           -0.4508106             -12.2672
        36        2.0000           -0.4463108             -12.1447
        37        2.0000           -0.4231182             -11.5136
        38        2.0000           -0.4143176             -11.2742
        39        2.0000           -0.4072584             -11.0821
        40        2.0000           -0.4048659             -11.0170
        41        2.0000           -0.4020987             -10.9417 (HOMO)
        42                         -0.2394819              -6.5166 (LUMO)
        43                         -0.2367239              -6.4416
        44                         -0.2303760              -6.2689
        45                         -0.2289412              -6.2298
        46                         -0.1068015              -2.9062
       ...                                ...                  ...
        74                          0.6847315              18.6325
      -------------------------------------------------------------
                  HL-Gap            0.1626168 Eh            4.4250 eV
             Fermi-level           -0.3207903 Eh           -8.7291 eV

 SCC (total)                   0 d,  0 h,  0 min,  0.038 sec
 SCC setup                      ...        0 min,  0.000 sec (  0.546%)
 Dispersion                     ...        0 min,  0.000 sec (  0.624%)
 classical contributions        ...        0 min,  0.000 sec (  0.145%)
 integral evaluation            ...        0 min,  0.002 sec (  4.495%)
 iterations                     ...        0 min,  0.031 sec ( 81.677%)
 molecular gradient             ...        0 min,  0.005 sec ( 11.833%)
 printout                       ...        0 min,  0.000 sec (  0.607%)

         :::::::::::::::::::::::::::::::::::::::::::::::::::::
         ::                     SUMMARY                     ::
         :::::::::::::::::::::::::::::::::::::::::::::::::::::
         :: total energy             -46.441051452367 Eh    ::
         :: gradient norm              0.103986176863 Eh/a0 ::
         :: HOMO-LUMO gap              4.425029013174 eV    ::
         ::.................................................::
         :: SCC energy               -47.099269637686 Eh    ::
         :: -> isotropic ES            0.050834228160 Eh    ::
         :: -> anisotropic ES          0.002295875519 Eh    ::
         :: -> anisotropic XC          0.008805679431 Eh    ::
         :: -> dispersion             -0.027680867742 Eh    ::
         :: repulsion energy           0.657950087317 Eh    ::
         :: add. restraining           0.000000000000 Eh    ::
         :: total charge              -0.000000000000 e     ::
         :::::::::::::::::::::::::::::::::::::::::::::::::::::

      ----------------------------------------------------------- 
     |                   =====================                   |
     |                        A N C O P T                        |
     |                   =====================                   |
     |               Approximate Normal Coordinate               |
     |                Rational Function Optimizer                |
      ----------------------------------------------------------- 

          ...................................................
          :                      SETUP                      :
          :.................................................:
          :   optimization level            normal          :
          :   max. optcycles                   200          :
          :   ANC micro-cycles                  20          :
          :   degrees of freedom                72          :
          :.................................................:
          :   RF solver                   davidson          :
          :   write xtbopt.log                true          :
          :   linear?                        false          :
          :   energy convergence         0.5000000E-05 Eh   :
          :   grad. convergence          0.1000000E-02 Eh/α :
          :   maxmium RF displ.          1.0000000          :
          :   Hlow (freq-cutoff)         0.1000000E-01      :
          :   Hmax (freq-cutoff)         5.0000000          :
          :   S6 in model hess.         20.0000000          :
          ...................................................

generating ANC from model Hessian ...
Using Lindh-Hessian (1995)
 Shifting diagonal of input Hessian by   8.638518371505408E-003
 Lowest  eigenvalues of input Hessian
    0.000000    0.000000    0.000000    0.000000    0.000000    0.000000
    0.010000    0.010557    0.010807    0.014099    0.015389    0.017339
    0.020976    0.021986    0.024909    0.029394    0.030404    0.031059
 Highest eigenvalues
    1.922590    1.953840    2.040899    2.113544    2.148860    2.178425
 

........................................................................
.............................. CYCLE    1 ..............................
........................................................................

 iter      E             dE          RMSdq      gap      omega  full diag
   1    -47.0992696 -0.470993E+02  0.127E-04    4.43       0.0  T
   2    -47.0992696 -0.513936E-10  0.768E-05    4.43     255.4  T
   3    -47.0992696 -0.149285E-10  0.520E-05    4.43     377.5  T
     SCC iter.                  ...        0 min,  0.004 sec
     gradient                   ...        0 min,  0.004 sec
 * total energy  :   -46.4410515 Eh     change       -0.1136158E-08 Eh
   gradient norm :     0.1039867 Eh/α   predicted     0.0000000E+00 (-100.00%)
   displ. norm   :     0.3534922 α      lambda       -0.2312733E-01
   maximum displ.:     0.1479236 α      in ANC's #40, #15, #13, ...

........................................................................
.............................. CYCLE    2 ..............................
........................................................................

 iter      E             dE          RMSdq      gap      omega  full diag
   1    -47.1140176 -0.471140E+02  0.373E-01    4.34       0.0  T
   2    -47.1143443 -0.326725E-03  0.237E-01    4.39       1.0  T
   3    -47.1142889  0.554342E-04  0.117E-01    4.37       1.0  T
   4    -47.1144317 -0.142819E-03  0.214E-02    4.37       1.0  T
   5    -47.1144364 -0.468144E-05  0.575E-03    4.38       3.4  T
   6    -47.1144368 -0.418411E-06  0.334E-03    4.38       5.9  T
   7    -47.1144369 -0.121000E-06  0.132E-03    4.38      14.9  T
   8    -47.1144369 -0.126849E-07  0.585E-04    4.38      33.5  T
   9    -47.1144369 -0.440811E-08  0.193E-04    4.38     101.8  T
     SCC iter.                  ...        0 min,  0.012 sec
     gradient                   ...        0 min,  0.004 sec
 * total energy  :   -46.4576284 Eh     change       -0.1657694E-01 Eh
   gradient norm :     0.0462253 Eh/α   predicted    -0.1300990E-01 ( -21.52%)
   displ. norm   :     0.3330901 α      lambda       -0.8721764E-02
   maximum displ.:     0.1319161 α      in ANC's #11, #13, #40, ...

........................................................................
.............................. CYCLE    3 ..............................
........................................................................

 iter      E             dE          RMSdq      gap      omega  full diag
   1    -47.1185131 -0.471185E+02  0.310E-01    4.31       0.0  T
   2    -47.1188113 -0.298209E-03  0.193E-01    4.36       1.0  T
   3    -47.1188148 -0.345288E-05  0.105E-01    4.35       1.0  T
   4    -47.1188992 -0.843550E-04  0.193E-02    4.34       1.0  T
   5    -47.1189022 -0.305854E-05  0.519E-03    4.35       3.8  T
   6    -47.1189024 -0.138399E-06  0.303E-03    4.35       6.5  T
   7    -47.1189024 -0.727360E-07  0.135E-03    4.35      14.6  T
   8    -47.1189024 -0.107376E-07  0.571E-04    4.35      34.4  T
   9    -47.1189024 -0.602007E-08  0.207E-04    4.35      94.8  T
     SCC iter.                  ...        0 min,  0.012 sec
     gradient                   ...        0 min,  0.004 sec
 * total energy  :   -46.4627273 Eh     change       -0.5098943E-02 Eh
   gradient norm :     0.0146026 Eh/α   predicted    -0.4845540E-02 (  -4.97%)
   displ. norm   :     0.2091457 α      lambda       -0.1220933E-02
   maximum displ.:     0.0964975 α      in ANC's #11, #9, #7, ...

........................................................................
.............................. CYCLE    4 ..............................
........................................................................

 iter      E             dE          RMSdq      gap      omega  full diag
   1    -47.1162560 -0.471163E+02  0.105E-01    4.33       0.0  T
   2    -47.1162826 -0.265758E-04  0.613E-02    4.34       1.0  T
   3    -47.1162790  0.360043E-05  0.344E-02    4.34       1.0  T
   4    -47.1162907 -0.116549E-04  0.613E-03    4.34       3.2  T
   5    -47.1162909 -0.275396E-06  0.220E-03    4.34       8.9  T
   6    -47.1162909 -0.165689E-07  0.127E-03    4.34      15.4  T
   7    -47.1162910 -0.136986E-07  0.539E-04    4.34      36.4  T
   8    -47.1162910 -0.177941E-08  0.203E-04    4.34      96.8  T
     SCC iter.                  ...        0 min,  0.011 sec
     gradient                   ...        0 min,  0.004 sec
 * total energy  :   -46.4636370 Eh     change       -0.9097111E-03 Eh
   gradient norm :     0.0207616 Eh/α   predicted    -0.6371754E-03 ( -29.96%)
   displ. norm   :     0.3058960 α      lambda       -0.1351200E-02
   maximum displ.:     0.1274985 α      in ANC's #2, #5, #11, ...

........................................................................
.............................. CYCLE    5 ..............................
........................................................................

 iter      E             dE          RMSdq      gap      omega  full diag
   1    -47.1137954 -0.471138E+02  0.127E-01    4.31       0.0  T
   2    -47.1138133 -0.179404E-04  0.754E-02    4.32       1.0  T
   3    -47.1137994  0.138945E-04  0.363E-02    4.32       1.0  T
   4    -47.1138202 -0.207787E-04  0.463E-03    4.32       4.2  T
   5    -47.1138203 -0.161398E-06  0.212E-03    4.32       9.2  T
   6    -47.1138204 -0.285337E-07  0.117E-03    4.32      16.7  T
   7    -47.1138204 -0.738842E-08  0.456E-04    4.32      43.1  T
   8    -47.1138204 -0.164290E-08  0.175E-04    4.32     112.3  T
     SCC iter.                  ...        0 min,  0.010 sec
     gradient                   ...        0 min,  0.004 sec
 * total energy  :   -46.4645558 Eh     change       -0.9187931E-03 Eh
   gradient norm :     0.0215841 Eh/α   predicted    -0.7389057E-03 ( -19.58%)
   displ. norm   :     0.2415989 α      lambda       -0.9004897E-03
   maximum displ.:     0.1434226 α      in ANC's #2, #3, #5, ...

........................................................................
.............................. CYCLE    6 ..............................
........................................................................

 iter      E             dE          RMSdq      gap      omega  full diag
   1    -47.1151177 -0.471151E+02  0.916E-02    4.30       0.0  T
   2    -47.1151206 -0.289368E-05  0.546E-02    4.31       1.0  T
   3    -47.1151146  0.597947E-05  0.167E-02    4.30       1.2  T
   4    -47.1151221 -0.752974E-05  0.258E-03    4.31       7.6  T
   5    -47.1151221 -0.165341E-07  0.143E-03    4.31      13.7  T
   6    -47.1151221 -0.144741E-07  0.559E-04    4.31      35.1  T
   7    -47.1151221 -0.105035E-08  0.154E-04    4.31     127.1  T
     SCC iter.                  ...        0 min,  0.009 sec
     gradient                   ...        0 min,  0.004 sec
 * total energy  :   -46.4651905 Eh     change       -0.6346234E-03 Eh
   gradient norm :     0.0108265 Eh/α   predicted    -0.4766048E-03 ( -24.90%)
   displ. norm   :     0.3331305 α      lambda       -0.8699487E-03
   maximum displ.:     0.1660612 α      in ANC's #2, #3, #5, ...

........................................................................
.............................. CYCLE    7 ..............................
........................................................................

 iter      E             dE          RMSdq      gap      omega  full diag
   1    -47.1148606 -0.471149E+02  0.124E-01    4.28       0.0  T
   2    -47.1148687 -0.807516E-05  0.738E-02    4.29       1.0  T
   3    -47.1148563  0.123984E-04  0.232E-02    4.29       1.0  T
   4    -47.1148717 -0.154183E-04  0.516E-03    4.29       3.8  T
   5    -47.1148719 -0.240469E-06  0.276E-03    4.29       7.1  T
   6    -47.1148720 -0.979074E-07  0.131E-03    4.29      15.0  T
   7    -47.1148720 -0.443619E-08  0.424E-04    4.29      46.2  T
   8    -47.1148720 -0.289823E-08  0.119E-04    4.29     164.5  T
     SCC iter.                  ...        0 min,  0.011 sec
     gradient                   ...        0 min,  0.004 sec
 * total energy  :   -46.4655767 Eh     change       -0.3862134E-03 Eh
   gradient norm :     0.0211629 Eh/α   predicted    -0.4832645E-03 (  25.13%)
   displ. norm   :     0.1621299 α      lambda       -0.8100740E-03
   maximum displ.:     0.0805068 α      in ANC's #3, #2, #1, ...

........................................................................
.............................. CYCLE    8 ..............................
........................................................................

 iter      E             dE          RMSdq      gap      omega  full diag
   1    -47.1207129 -0.471207E+02  0.760E-02    4.29       0.0  T
   2    -47.1207159 -0.299289E-05  0.442E-02    4.29       1.0  T
   3    -47.1207146  0.136122E-05  0.109E-02    4.29       1.8  T
   4    -47.1207169 -0.235191E-05  0.331E-03    4.29       5.9  T
   5    -47.1207170 -0.720904E-07  0.166E-03    4.29      11.8  T
   6    -47.1207170 -0.729334E-08  0.934E-04    4.29      21.0  T
   7    -47.1207170 -0.113521E-07  0.317E-04    4.29      61.9  T
     SCC iter.                  ...        0 min,  0.009 sec
     gradient                   ...        0 min,  0.004 sec
 * total energy  :   -46.4659821 Eh     change       -0.4054502E-03 Eh
   gradient norm :     0.0076537 Eh/α   predicted    -0.4156848E-03 (   2.52%)
   displ. norm   :     0.1336003 α      lambda       -0.1654831E-03
   maximum displ.:     0.0724471 α      in ANC's #3, #6, #5, ...

........................................................................
.............................. CYCLE    9 ..............................
........................................................................

 iter      E             dE          RMSdq      gap      omega  full diag
   1    -47.1202407 -0.471202E+02  0.510E-02    4.28       0.0  T
   2    -47.1202429 -0.226053E-05  0.304E-02    4.28       1.0  T
   3    -47.1202409  0.206674E-05  0.121E-02    4.28       1.6  T
   4    -47.1202437 -0.281424E-05  0.197E-03    4.28       9.9  T
   5    -47.1202437 -0.304149E-07  0.911E-04    4.28      21.5  T
   6    -47.1202437 -0.256639E-08  0.502E-04    4.28      39.1  T
     SCC iter.                  ...        0 min,  0.008 sec
     gradient                   ...        0 min,  0.004 sec
 * total energy  :   -46.4660973 Eh     change       -0.1152245E-03 Eh
   gradient norm :     0.0046895 Eh/α   predicted    -0.8422445E-04 ( -26.90%)
   displ. norm   :     0.1130114 α      lambda       -0.8851179E-04
   maximum displ.:     0.0690800 α      in ANC's #3, #1, #6, ...

........................................................................
.............................. CYCLE   10 ..............................
........................................................................

 iter      E             dE          RMSdq      gap      omega  full diag
   1    -47.1202861 -0.471203E+02  0.438E-02    4.27       0.0  T
   2    -47.1202876 -0.151359E-05  0.263E-02    4.28       1.0  T
   3    -47.1202860  0.161225E-05  0.113E-02    4.28       1.7  T
   4    -47.1202882 -0.221060E-05  0.151E-03    4.28      13.0  T
   5    -47.1202882 -0.123672E-07  0.713E-04    4.28      27.5  T
   6    -47.1202882 -0.277574E-08  0.397E-04    4.28      49.4  T
     SCC iter.                  ...        0 min,  0.008 sec
     gradient                   ...        0 min,  0.004 sec
 * total energy  :   -46.4661547 Eh     change       -0.5735674E-04 Eh
   gradient norm :     0.0028563 Eh/α   predicted    -0.4482990E-04 ( -21.84%)
   displ. norm   :     0.0853754 α      lambda       -0.4400489E-04
   maximum displ.:     0.0495330 α      in ANC's #3, #1, #6, ...

........................................................................
.............................. CYCLE   11 ..............................
........................................................................

 iter      E             dE          RMSdq      gap      omega  full diag
   1    -47.1203858 -0.471204E+02  0.310E-02    4.27       0.0  T
   2    -47.1203861 -0.319872E-06  0.185E-02    4.27       1.1  T
   3    -47.1203854  0.671490E-06  0.647E-03    4.27       3.0  T
   4    -47.1203863 -0.827248E-06  0.858E-04    4.27      22.9  T
   5    -47.1203863 -0.392016E-08  0.462E-04    4.27      42.4  T
     SCC iter.                  ...        0 min,  0.007 sec
     gradient                   ...        0 min,  0.004 sec
 * total energy  :   -46.4661893 Eh     change       -0.3457743E-04 Eh
   gradient norm :     0.0025767 Eh/α   predicted    -0.2216675E-04 ( -35.89%)
   displ. norm   :     0.1540112 α      lambda       -0.6461375E-04
   maximum displ.:     0.0804825 α      in ANC's #3, #2, #1, ...

........................................................................
.............................. CYCLE   12 ..............................
........................................................................

 iter      E             dE          RMSdq      gap      omega  full diag
   1    -47.1202653 -0.471203E+02  0.533E-02    4.27       0.0  T
   2    -47.1202656 -0.321853E-06  0.315E-02    4.27       1.0  T
   3    -47.1202649  0.687131E-06  0.615E-03    4.27       3.2  T
   4    -47.1202658 -0.855490E-06  0.111E-03    4.27      17.7  T
   5    -47.1202658 -0.208141E-08  0.613E-04    4.27      32.0  T
   6    -47.1202658 -0.375177E-08  0.229E-04    4.27      85.6  T
     SCC iter.                  ...        0 min,  0.008 sec
     gradient                   ...        0 min,  0.004 sec
 * total energy  :   -46.4662411 Eh     change       -0.5180112E-04 Eh
   gradient norm :     0.0041103 Eh/α   predicted    -0.3307446E-04 ( -36.15%)
   displ. norm   :     0.2255853 α      lambda       -0.8385939E-04
   maximum displ.:     0.1211699 α      in ANC's #2, #1, #3, ...

........................................................................
.............................. CYCLE   13 ..............................
........................................................................

 iter      E             dE          RMSdq      gap      omega  full diag
   1    -47.1197511 -0.471198E+02  0.764E-02    4.25       0.0  T
   2    -47.1197514 -0.348002E-06  0.450E-02    4.25       1.0  T
   3    -47.1197510  0.412447E-06  0.469E-03    4.25       4.2  T
   4    -47.1197516 -0.595512E-06  0.134E-03    4.25      14.7  T
   5    -47.1197516 -0.129375E-08  0.668E-04    4.25      29.4  T
   6    -47.1197516 -0.415350E-08  0.224E-04    4.25      87.6  T
     SCC iter.                  ...        0 min,  0.008 sec
     gradient                   ...        0 min,  0.004 sec
 * total energy  :   -46.4663106 Eh     change       -0.6952042E-04 Eh
   gradient norm :     0.0059409 Eh/α   predicted    -0.4406547E-04 ( -36.62%)
   displ. norm   :     0.3176905 α      lambda       -0.1234660E-03
   maximum displ.:     0.1832814 α      in ANC's #2, #1, #3, ...

........................................................................
.............................. CYCLE   14 ..............................
........................................................................

 iter      E             dE          RMSdq      gap      omega  full diag
   1    -47.1191640 -0.471192E+02  0.108E-01    4.23       0.0  T
   2    -47.1191645 -0.546225E-06  0.634E-02    4.23       1.0  T
   3    -47.1191639  0.585054E-06  0.549E-03    4.23       3.6  T
   4    -47.1191648 -0.894578E-06  0.164E-03    4.23      11.9  T
   5    -47.1191648 -0.124479E-08  0.464E-04    4.23      42.3  T
   6    -47.1191648 -0.191923E-08  0.202E-04    4.23      97.1  T
     SCC iter.                  ...        0 min,  0.008 sec
     gradient                   ...        0 min,  0.004 sec
 * total energy  :   -46.4664104 Eh     change       -0.9977747E-04 Eh
   gradient norm :     0.0070290 Eh/α   predicted    -0.6796473E-04 ( -31.88%)
   displ. norm   :     0.3925531 α      lambda       -0.1607279E-03
   maximum displ.:     0.2422377 α      in ANC's #2, #1, #3, ...

........................................................................
.............................. CYCLE   15 ..............................
........................................................................

 iter      E             dE          RMSdq      gap      omega  full diag
   1    -47.1187309 -0.471187E+02  0.132E-01    4.19       0.0  T
   2    -47.1187318 -0.899851E-06  0.780E-02    4.19       1.0  T
   3    -47.1187306  0.127192E-05  0.782E-03    4.19       2.5  T
   4    -47.1187323 -0.175262E-05  0.191E-03    4.19      10.3  T
   5    -47.1187323  0.187564E-08  0.819E-04    4.19      23.9  T
   6    -47.1187323 -0.803642E-08  0.302E-04    4.19      64.9  T
     SCC iter.                  ...        0 min,  0.008 sec
     gradient                   ...        0 min,  0.004 sec
 * total energy  :   -46.4665305 Eh     change       -0.1201321E-03 Eh
   gradient norm :     0.0071160 Eh/α   predicted    -0.9274957E-04 ( -22.79%)
   displ. norm   :     0.2883315 α      lambda       -0.1494866E-03
   maximum displ.:     0.1814648 α      in ANC's #1, #2, #3, ...

........................................................................
.............................. CYCLE   16 ..............................
........................................................................

 iter      E             dE          RMSdq      gap      omega  full diag
   1    -47.1205432 -0.471205E+02  0.977E-02    4.16       0.0  T
   2    -47.1205445 -0.133230E-05  0.575E-02    4.16       1.0  T
   3    -47.1205427  0.183514E-05  0.849E-03    4.16       2.3  T
   4    -47.1205449 -0.223294E-05  0.182E-03    4.16      10.8  T
   5    -47.1205449 -0.416671E-07  0.926E-04    4.16      21.2  T
   6    -47.1205449 -0.349743E-08  0.485E-04    4.16      40.4  T
     SCC iter.                  ...        0 min,  0.008 sec
     gradient                   ...        0 min,  0.004 sec
 * total energy  :   -46.4666284 Eh     change       -0.9784455E-04 Eh
   gradient norm :     0.0051978 Eh/α   predicted    -0.8097757E-04 ( -17.24%)
   displ. norm   :     0.4948691 α      lambda       -0.1846502E-03
   maximum displ.:     0.3100024 α      in ANC's #1, #2, #3, ...

........................................................................
.............................. CYCLE   17 ..............................
........................................................................

 iter      E             dE          RMSdq      gap      omega  full diag
   1    -47.1161199 -0.471161E+02  0.172E-01    4.10       0.0  T
   2    -47.1161262 -0.633584E-05  0.101E-01    4.10       1.0  T
   3    -47.1161231  0.311803E-05  0.140E-02    4.10       1.4  T
   4    -47.1161272 -0.413885E-05  0.405E-03    4.10       4.8  T
   5    -47.1161275 -0.237522E-06  0.188E-03    4.10      10.4  T
   6    -47.1161275 -0.213777E-08  0.913E-04    4.10      21.5  T
   7    -47.1161275 -0.130389E-07  0.290E-04    4.10      67.7  T
     SCC iter.                  ...        0 min,  0.009 sec
     gradient                   ...        0 min,  0.004 sec
 * total energy  :   -46.4665841 Eh     change        0.4422640E-04 Eh
   gradient norm :     0.0112372 Eh/α   predicted    -0.1149368E-03 (-359.88%)
   displ. norm   :     0.2026849 α      lambda       -0.3257645E-03
   maximum displ.:     0.1239329 α      in ANC's #2, #3, #1, ...

........................................................................
.............................. CYCLE   18 ..............................
........................................................................

 iter      E             dE          RMSdq      gap      omega  full diag
   1    -47.1217526 -0.471218E+02  0.756E-02    4.13       0.0  T
   2    -47.1217560 -0.334347E-05  0.440E-02    4.13       1.0  T
   3    -47.1217548  0.121473E-05  0.103E-02    4.13       1.9  T
   4    -47.1217564 -0.161369E-05  0.290E-03    4.13       6.8  T
   5    -47.1217565 -0.122978E-06  0.116E-03    4.13      16.9  T
   6    -47.1217565  0.235617E-08  0.480E-04    4.13      40.8  T
   7    -47.1217565 -0.456634E-08  0.149E-04    4.13     131.7  T
     SCC iter.                  ...        0 min,  0.009 sec
     gradient                   ...        0 min,  0.004 sec
 * total energy  :   -46.4667392 Eh     change       -0.1551064E-03 Eh
   gradient norm :     0.0035800 Eh/α   predicted    -0.1695726E-03 (   9.33%)
   displ. norm   :     0.0910677 α      lambda       -0.4260017E-04
   maximum displ.:     0.0739940 α      in ANC's #1, #3, #6, ...

........................................................................
.............................. CYCLE   19 ..............................
........................................................................

 iter      E             dE          RMSdq      gap      omega  full diag
   1    -47.1213789 -0.471214E+02  0.319E-02    4.12       0.0  T
   2    -47.1213790 -0.989917E-07  0.188E-02    4.12       1.0  T
   3    -47.1213787  0.330020E-06  0.358E-03    4.12       5.5  T
   4    -47.1213791 -0.384600E-06  0.504E-04    4.12      38.9  T
   5    -47.1213791 -0.181452E-08  0.286E-04    4.12      68.5  T
     SCC iter.                  ...        0 min,  0.007 sec
     gradient                   ...        0 min,  0.004 sec
 * total energy  :   -46.4667773 Eh     change       -0.3804659E-04 Eh
   gradient norm :     0.0031113 Eh/α   predicted    -0.2148537E-04 ( -43.53%)
   displ. norm   :     0.2662466 α      lambda       -0.1331655E-03
   maximum displ.:     0.2114574 α      in ANC's #1, #3, #6, ...

........................................................................
.............................. CYCLE   20 ..............................
........................................................................

 iter      E             dE          RMSdq      gap      omega  full diag
   1    -47.1205214 -0.471205E+02  0.875E-02    4.10       0.0  T
   2    -47.1205226 -0.115146E-05  0.515E-02    4.11       1.0  T
   3    -47.1205190  0.354563E-05  0.123E-02    4.11       1.6  T
   4    -47.1205232 -0.413957E-05  0.149E-03    4.11      13.1  T
   5    -47.1205232 -0.167917E-07  0.805E-04    4.11      24.3  T
   6    -47.1205232 -0.638612E-08  0.390E-04    4.11      50.3  T
     SCC iter.                  ...        0 min,  0.008 sec
     gradient                   ...        0 min,  0.004 sec
 * total energy  :   -46.4668821 Eh     change       -0.1048073E-03 Eh
   gradient norm :     0.0036179 Eh/α   predicted    -0.7131461E-04 ( -31.96%)
   displ. norm   :     0.3650745 α      lambda       -0.1269365E-03
   maximum displ.:     0.2909748 α      in ANC's #1, #3, #6, ...
 * RMSD in coord.:     0.6212983 α      energy gain  -0.2583064E-01 Eh

generating ANC from model Hessian ...
Using Lindh-Hessian (1995)
 Shifting diagonal of input Hessian by   8.716477461542360E-003
 Lowest  eigenvalues of input Hessian
    0.000000    0.000000    0.000000    0.000000    0.000000    0.000000
    0.010000    0.010553    0.010875    0.013955    0.015734    0.017748
    0.021320    0.022267    0.025132    0.029918    0.031299    0.033242
 Highest eigenvalues
    1.888370    1.910291    2.025665    2.072751    2.113355    2.131388
 

........................................................................
.............................. CYCLE   21 ..............................
........................................................................

 iter      E             dE          RMSdq      gap      omega  full diag
   1    -47.1184409 -0.471184E+02  0.119E-01    4.07       0.0  T
   2    -47.1184426 -0.172800E-05  0.701E-02    4.07       1.0  T
   3    -47.1184377  0.495045E-05  0.136E-02    4.07       1.4  T
   4    -47.1184435 -0.583281E-05  0.187E-03    4.07      10.5  T
   5    -47.1184435 -0.204218E-07  0.106E-03    4.07      18.5  T
   6    -47.1184436 -0.549866E-08  0.531E-04    4.07      36.9  T
   7    -47.1184436 -0.387733E-08  0.132E-04    4.07     148.1  T
     SCC iter.                  ...        0 min,  0.009 sec
     gradient                   ...        0 min,  0.004 sec
 * total energy  :   -46.4669634 Eh     change       -0.8129561E-04 Eh
   gradient norm :     0.0057527 Eh/α   predicted     0.0000000E+00 (-100.00%)
   displ. norm   :     0.0431666 α      lambda       -0.6001836E-04
   maximum displ.:     0.0319980 α      in ANC's #2, #4, #7, ...

........................................................................
.............................. CYCLE   22 ..............................
........................................................................

 iter      E             dE          RMSdq      gap      omega  full diag
   1    -47.1207011 -0.471207E+02  0.195E-02    4.07       0.0  T
   2    -47.1207015 -0.429865E-06  0.114E-02    4.07       1.7  T
   3    -47.1207013  0.266213E-06  0.493E-03    4.07       4.0  T
   4    -47.1207017 -0.378196E-06  0.932E-04    4.07      21.0  T
   5    -47.1207017 -0.116213E-07  0.377E-04    4.07      52.0  T
     SCC iter.                  ...        0 min,  0.007 sec
     gradient                   ...        0 min,  0.004 sec
 * total energy  :   -46.4670145 Eh     change       -0.5108403E-04 Eh
   gradient norm :     0.0026241 Eh/α   predicted    -0.3450265E-04 ( -32.46%)
   displ. norm   :     0.0771399 α      lambda       -0.5092168E-04
   maximum displ.:     0.0604423 α      in ANC's #2, #4, #1, ...

........................................................................
.............................. CYCLE   23 ..............................
........................................................................

 iter      E             dE          RMSdq      gap      omega  full diag
   1    -47.1221965 -0.471222E+02  0.283E-02    4.07       0.0  T
   2    -47.1221970 -0.442189E-06  0.167E-02    4.07       1.2  T
   3    -47.1221965  0.492943E-06  0.614E-03    4.06       3.2  T
   4    -47.1221971 -0.645687E-06  0.952E-04    4.07      20.6  T
   5    -47.1221971 -0.711273E-08  0.441E-04    4.07      44.5  T
     SCC iter.                  ...        0 min,  0.007 sec
     gradient                   ...        0 min,  0.004 sec
 * total energy  :   -46.4670489 Eh     change       -0.3445975E-04 Eh
   gradient norm :     0.0013043 Eh/α   predicted    -0.2561604E-04 ( -25.66%)
   displ. norm   :     0.0925563 α      lambda       -0.2059486E-04
   maximum displ.:     0.0732330 α      in ANC's #2, #1, #4, ...

........................................................................
.............................. CYCLE   24 ..............................
........................................................................

 iter      E             dE          RMSdq      gap      omega  full diag
   1    -47.1221224 -0.471221E+02  0.306E-02    4.06       0.0  T
   2    -47.1221226 -0.180273E-06  0.181E-02    4.06       1.1  T
   3    -47.1221223  0.318364E-06  0.428E-03    4.06       4.6  T
   4    -47.1221227 -0.403701E-06  0.730E-04    4.06      26.9  T
   5    -47.1221227 -0.136362E-08  0.369E-04    4.06      53.1  T
     SCC iter.                  ...        0 min,  0.007 sec
     gradient                   ...        0 min,  0.004 sec
 * total energy  :   -46.4670718 Eh     change       -0.2289901E-04 Eh
   gradient norm :     0.0022964 Eh/α   predicted    -0.1033702E-04 ( -54.86%)
   displ. norm   :     0.0464638 α      lambda       -0.1473747E-04
   maximum displ.:     0.0358003 α      in ANC's #2, #1, #4, ...

........................................................................
.............................. CYCLE   25 ..............................
........................................................................

 iter      E             dE          RMSdq      gap      omega  full diag
   1    -47.1216231 -0.471216E+02  0.151E-02    4.05       0.0  T
   2    -47.1216231 -0.520277E-07  0.897E-03    4.05       2.2  T
   3    -47.1216230  0.153025E-06  0.228E-03    4.05       8.6  T
   4    -47.1216232 -0.180426E-06  0.352E-04    4.05      55.8  T
   5    -47.1216232 -0.113413E-08  0.200E-04    4.05      98.1  T
     SCC iter.                  ...        0 min,  0.007 sec
     gradient                   ...        0 min,  0.004 sec
 * total energy  :   -46.4670848 Eh     change       -0.1298308E-04 Eh
   gradient norm :     0.0016282 Eh/α   predicted    -0.7385209E-05 ( -43.12%)
   displ. norm   :     0.1013283 α      lambda       -0.1812236E-04
   maximum displ.:     0.0749972 α      in ANC's #2, #1, #4, ...

........................................................................
.............................. CYCLE   26 ..............................
........................................................................

 iter      E             dE          RMSdq      gap      omega  full diag
   1    -47.1207981 -0.471208E+02  0.335E-02    4.05       0.0  T
   2    -47.1207984 -0.300118E-06  0.199E-02    4.05       1.0  T
   3    -47.1207976  0.860704E-06  0.572E-03    4.05       3.4  T
   4    -47.1207986 -0.101842E-05  0.739E-04    4.05      26.5  T
   5    -47.1207986 -0.441800E-08  0.403E-04    4.05      48.6  T
   6    -47.1207986 -0.123381E-08  0.213E-04    4.05      92.3  T
     SCC iter.                  ...        0 min,  0.008 sec
     gradient                   ...        0 min,  0.004 sec
 * total energy  :   -46.4671045 Eh     change       -0.1968243E-04 Eh
   gradient norm :     0.0008443 Eh/α   predicted    -0.9102729E-05 ( -53.75%)
   displ. norm   :     0.0772645 α      lambda       -0.8630258E-05
   maximum displ.:     0.0560970 α      in ANC's #2, #1, #6, ...

........................................................................
.............................. CYCLE   27 ..............................
........................................................................

 iter      E             dE          RMSdq      gap      omega  full diag
   1    -47.1208945 -0.471209E+02  0.246E-02    4.04       0.0  T
   2    -47.1208946 -0.102616E-06  0.146E-02    4.04       1.3  T
   3    -47.1208942  0.336380E-06  0.352E-03    4.04       5.6  T
   4    -47.1208946 -0.397131E-06  0.430E-04    4.04      45.6  T
   5    -47.1208946 -0.467537E-09  0.244E-04    4.04      80.4  T
     SCC iter.                  ...        0 min,  0.007 sec
     gradient                   ...        0 min,  0.004 sec
 * total energy  :   -46.4671151 Eh     change       -0.1061374E-04 Eh
   gradient norm :     0.0009252 Eh/α   predicted    -0.4327726E-05 ( -59.23%)
   displ. norm   :     0.0797752 α      lambda       -0.7387929E-05
   maximum displ.:     0.0560247 α      in ANC's #2, #1, #6, ...

........................................................................
.............................. CYCLE   28 ..............................
........................................................................

 iter      E             dE          RMSdq      gap      omega  full diag
   1    -47.1211753 -0.471212E+02  0.251E-02    4.04       0.0  T
   2    -47.1211754 -0.721647E-07  0.148E-02    4.04       1.3  T
   3    -47.1211752  0.233904E-06  0.291E-03    4.04       6.7  T
   4    -47.1211754 -0.278325E-06  0.389E-04    4.04      50.4  T
   5    -47.1211754 -0.177238E-09  0.218E-04    4.04      90.0  T
     SCC iter.                  ...        0 min,  0.007 sec
     gradient                   ...        0 min,  0.004 sec
 * total energy  :   -46.4671239 Eh     change       -0.8809447E-05 Eh
   gradient norm :     0.0006557 Eh/α   predicted    -0.3706454E-05 ( -57.93%)
   displ. norm   :     0.0856168 α      lambda       -0.5492449E-05
   maximum displ.:     0.0575663 α      in ANC's #1, #2, #3, ...

........................................................................
.............................. CYCLE   29 ..............................
........................................................................

 iter      E             dE          RMSdq      gap      omega  full diag
   1    -47.1212994 -0.471213E+02  0.273E-02    4.03       0.0  T
   2    -47.1212994 -0.671840E-07  0.161E-02    4.03       1.2  T
   3    -47.1212992  0.214505E-06  0.281E-03    4.03       7.0  T
   4    -47.1212995 -0.257512E-06  0.413E-04    4.03      47.5  T
   5    -47.1212995 -0.405436E-10  0.228E-04    4.03      86.0  T
     SCC iter.                  ...        0 min,  0.007 sec
     gradient                   ...        0 min,  0.004 sec
 * total energy  :   -46.4671298 Eh     change       -0.5898142E-05 Eh
   gradient norm :     0.0003286 Eh/α   predicted    -0.2756610E-05 ( -53.26%)
   displ. norm   :     0.0554875 α      lambda       -0.2175868E-05
   maximum displ.:     0.0372832 α      in ANC's #1, #2, #3, ...

........................................................................
.............................. CYCLE   30 ..............................
........................................................................

 iter      E             dE          RMSdq      gap      omega  full diag
   1    -47.1213207 -0.471213E+02  0.187E-02    4.02       0.0  T
   2    -47.1213207 -0.267064E-07  0.110E-02    4.02       1.8  T
   3    -47.1213206  0.773976E-07  0.178E-03    4.02      11.0  T
   4    -47.1213207 -0.942022E-07  0.279E-04    4.02      70.4  T
   5    -47.1213207  0.183391E-10  0.157E-04    4.02     125.0  T
     SCC iter.                  ...        0 min,  0.007 sec
     gradient                   ...        0 min,  0.004 sec
 * total energy  :   -46.4671322 Eh     change       -0.2350770E-05 Eh
   gradient norm :     0.0002048 Eh/α   predicted    -0.1090099E-05 ( -53.63%)
   displ. norm   :     0.0298652 α      lambda       -0.1139381E-05
   maximum displ.:     0.0197740 α      in ANC's #1, #3, #2, ...

   *** GEOMETRY OPTIMIZATION CONVERGED AFTER 30 ITERATIONS ***

------------------------------------------------------------------------
 total energy gain   :        -0.0260807 Eh      -16.3659 kcal/mol
 total RMSD          :         0.6934962 a0        0.3670 Å
 total power (kW/mol):        -2.2824970 (step) -148.8877 (real)
------------------------------------------------------------------------

 ANCopt (total)                0 d,  0 h,  0 min,  0.460 sec
 optimizer setup                ...        0 min,  0.000 sec (  0.042%)
 model hessian                  ...        0 min,  0.014 sec (  3.080%)
 ANC generation                 ...        0 min,  0.002 sec (  0.376%)
 coordinate transformation      ...        0 min,  0.000 sec (  0.077%)
 single point calculation       ...        0 min,  0.434 sec ( 94.348%)
 optimization log               ...        0 min,  0.005 sec (  1.022%)
 hessian update                 ...        0 min,  0.000 sec (  0.085%)
 rational function              ...        0 min,  0.003 sec (  0.634%)

================
 final structure:
================
26
 xtb: 6.6.1 (8d0f1dd)
C           -1.06056110452431       -1.66664469366690        1.38773925614016
C           -1.55785269197139       -0.44767282520466        0.67396766399597
C           -2.88057609719409       -0.04331374737508        0.79788760280634
C           -3.35292844528070        1.08279027498756        0.14822677708842
C           -2.50436171616810        1.83535530799732       -0.64353899526652
C           -1.18941302587809        1.43268845383631       -0.76435837466736
F           -0.35984754432129        2.15727439642028       -1.54800199343935
C           -0.69385882281010        0.30199484859239       -0.12642876361596
C            0.72916101018930       -0.05964367889303       -0.30591958190627
C            1.73416645919665        0.76325287132266        0.21715064367413
O            1.35031446605827        1.84429963994364        0.93936276341893
C            3.07163810554686        0.44796070919245        0.01040334646924
C            3.42413270163215       -0.67707027312570       -0.71265613692792
C            2.44886995403659       -1.50557061844172       -1.23611970397493
C            1.12235872656727       -1.17891988069082       -1.02427992577171
F            0.17008849252857       -1.98087649615092       -1.54836842799260
H           -0.08842361607313       -1.47916686815928        1.84040159316600
H           -1.76041285484901       -1.97006595397267        2.16190184822000
H           -0.94998652930281       -2.49213413702411        0.68531953722897
H           -3.55013772213693       -0.62134764149789        1.41768577199053
H           -4.38494170815561        1.37858875673395        0.25971774239082
H           -2.84231021520880        2.71791598792387       -1.16266393899571
H            2.12373802310379        2.35958042811989        1.19785948057680
H            3.83781159919972        1.09377883254098        0.41734822648082
H            4.46628922793123       -0.90750335887406       -0.86944861131250
H            2.69704232788429       -2.38554933453401       -1.80650779977661
 
 Bond Distances (Angstroems)
 ---------------------------
C1-C2=1.4976         C1-H17=1.0886        C1-H18=1.0868        C1-H19=1.0895        C2-C1=1.4976         C2-C3=1.3887         
C2-C8=1.3961         C3-C2=1.3887         C3-C4=1.3832         C3-H20=1.0801        C4-C3=1.3832         C4-C5=1.3832         
C4-H21=1.0793        C5-C4=1.3832         C5-C6=1.3805         C5-H22=1.0782        C6-C5=1.3805         C6-F7=1.3518         
C6-C8=1.3896         F7-C6=1.3518         C8-C2=1.3961         C8-C6=1.3896         C8-C9=1.4792         C9-C8=1.4792         
C9-C10=1.4003        C9-C15=1.3869        C10-C9=1.4003        C10-O11=1.3556       C10-C12=1.3896       O11-C10=1.3556       
O11-H23=0.9646       C12-C10=1.3896       C12-C13=1.3830       C12-H24=1.0815       C13-C12=1.3830       C13-C14=1.3826       
C13-H25=1.0788       C14-C13=1.3826       C14-C15=1.3825       C14-H26=1.0776       C15-C9=1.3869        C15-C14=1.3825       
C15-F16=1.3508       F16-C15=1.3508       H17-C1=1.0886        H18-C1=1.0868        H19-C1=1.0895        H20-C3=1.0801        
H21-C4=1.0793        H22-C5=1.0782        H23-O11=0.9646       H24-C12=1.0815       H25-C13=1.0788       H26-C14=1.0776       
 C  H  Rav=1.0823 sigma=0.0044  Rmin=1.0776  Rmax=1.0895     9
 C  C  Rav=1.4016 sigma=0.0360  Rmin=1.3805  Rmax=1.4976    14
 O  H  Rav=0.9646 sigma=0.0000  Rmin=0.9646  Rmax=0.9646     1
 O  C  Rav=1.3556 sigma=0.0000  Rmin=1.3556  Rmax=1.3556     1
 F  C  Rav=1.3513 sigma=0.0005  Rmin=1.3508  Rmax=1.3518     2
 
 selected bond angles (degree)
 --------------------
H17-C1-C2=110.77               H18-C1-C2=110.67               H18-C1-H17=109.08              H19-C1-C2=110.07               
H19-C1-H17=107.93              H19-C1-H18=108.24              C3-C2-C1=120.72                C8-C2-C1=120.32                
C8-C2-C3=118.96                C4-C3-C2=121.36                H20-C3-C2=119.07               H20-C3-C4=119.57               
C5-C4-C3=120.15                H21-C4-C3=120.07               H21-C4-C5=119.77               C6-C5-C4=118.41                
H22-C5-C4=121.91               H22-C5-C6=119.68               F7-C6-C5=118.62                C8-C6-C5=122.47                
C8-C6-F7=118.91                C6-C8-C2=118.65                C9-C8-C2=122.25                C9-C8-C6=119.10                
C10-C9-C8=120.10               C15-C9-C8=122.20               C15-C9-C10=117.66              O11-C10-C9=117.67              
C12-C10-C9=120.12              C12-C10-O11=122.19             
 
 selected dihedral angles (degree)
 ---------------------------------
C3-C2-C1-H17=223.59           C3-C2-C1-H18=344.70           C3-C2-C1-H19=104.31           C8-C2-C1-H17= 43.48           
C8-C2-C1-H18=164.59           C8-C2-C1-H19=284.19           C4-C3-C2-C1=179.78            C4-C3-C2-C8=359.89            
H20-C3-C2-C1=359.96           H20-C3-C2-C8=180.08           C5-C4-C3-C2=359.88            C5-C4-C3-H20=179.70           
H21-C4-C3-C2=180.04           H21-C4-C3-H20=359.86          C6-C5-C4-C3=  0.04            C6-C5-C4-H21=179.88           
H22-C5-C4-C3=180.00           H22-C5-C4-H21=359.84          F7-C6-C5-C4=179.33            F7-C6-C5-H22=359.38           
C8-C6-C5-C4=  0.26            C8-C6-C5-H22=180.30           C6-C8-C2-C1=180.50            C6-C8-C2-C3=  0.39            
C9-C8-C2-C1=359.90            C9-C8-C2-C3=179.79            C2-C8-C6-C5=359.52            C2-C8-C6-F7=180.45            
C9-C8-C6-C5=180.11            C9-C8-C6-F7=  1.04            C10-C9-C8-C2=247.67           C10-C9-C8-C6= 67.06           
C15-C9-C8-C2= 69.95           C15-C9-C8-C6=249.34           O11-C10-C9-C8=  3.32          O11-C10-C9-C15=181.14         
C12-C10-C9-C8=182.16          C12-C10-C9-C15=  0.00         
           -------------------------------------------------
          |                Final Singlepoint                |
           -------------------------------------------------

          ...................................................
          :                      SETUP                      :
          :.................................................:
          :  # basis functions                  74          :
          :  # atomic orbitals                  74          :
          :  # shells                           42          :
          :  # electrons                        82          :
          :  max. iterations                   250          :
          :  Hamiltonian                  GFN2-xTB          :
          :  restarted?                      false          :
          :  GBSA solvation                  false          :
          :  PC potential                    false          :
          :  electronic temp.          298.1500000     K    :
          :  accuracy                    1.0000000          :
          :  -> integral cutoff          0.2500000E+02      :
          :  -> integral neglect         0.1000000E-07      :
          :  -> SCF convergence          0.1000000E-05 Eh   :
          :  -> wf. convergence          0.1000000E-03 e    :
          :  Broyden damping             0.4000000          :
          ...................................................

 iter      E             dE          RMSdq      gap      omega  full diag
   1    -47.1213207 -0.471213E+02  0.527E-05    4.02       0.0  T
   2    -47.1213207 -0.158309E-10  0.356E-05    4.02     550.8  T
   3    -47.1213207 -0.234692E-10  0.206E-05    4.02     952.1  T

   *** convergence criteria satisfied after 3 iterations ***

         #    Occupation            Energy/Eh            Energy/eV
      -------------------------------------------------------------
         1        2.0000           -0.8146484             -22.1677
       ...           ...                  ...                  ...
        35        2.0000           -0.4504947             -12.2586
        36        2.0000           -0.4431267             -12.0581
        37        2.0000           -0.4253830             -11.5753
        38        2.0000           -0.4127438             -11.2313
        39        2.0000           -0.4018354             -10.9345
        40        2.0000           -0.3982395             -10.8366
        41        2.0000           -0.3931886             -10.6992 (HOMO)
        42                         -0.2454488              -6.6790 (LUMO)
        43                         -0.2292417              -6.2380
        44                         -0.2246839              -6.1140
        45                         -0.2211991              -6.0191
        46                         -0.1090416              -2.9672
       ...                                ...                  ...
        74                          0.6742321              18.3468
      -------------------------------------------------------------
                  HL-Gap            0.1477399 Eh            4.0202 eV
             Fermi-level           -0.3193187 Eh           -8.6891 eV

 SCC (total)                   0 d,  0 h,  0 min,  0.011 sec
 SCC setup                      ...        0 min,  0.000 sec (  1.044%)
 Dispersion                     ...        0 min,  0.000 sec (  1.006%)
 classical contributions        ...        0 min,  0.000 sec (  0.178%)
 integral evaluation            ...        0 min,  0.002 sec ( 14.811%)
 iterations                     ...        0 min,  0.004 sec ( 40.363%)
 molecular gradient             ...        0 min,  0.004 sec ( 40.661%)
 printout                       ...        0 min,  0.000 sec (  1.695%)

         :::::::::::::::::::::::::::::::::::::::::::::::::::::
         ::                     SUMMARY                     ::
         :::::::::::::::::::::::::::::::::::::::::::::::::::::
         :: total energy             -46.467132168085 Eh    ::
         :: gradient norm              0.000204752125 Eh/a0 ::
         :: HOMO-LUMO gap              4.020205980096 eV    ::
         ::.................................................::
         :: SCC energy               -47.121320744299 Eh    ::
         :: -> isotropic ES            0.045274663613 Eh    ::
         :: -> anisotropic ES          0.002421012584 Eh    ::
         :: -> anisotropic XC          0.007534292669 Eh    ::
         :: -> dispersion             -0.027406938677 Eh    ::
         :: repulsion energy           0.653954417284 Eh    ::
         :: add. restraining           0.000000000000 Eh    ::
         :: total charge              -0.000000000000 e     ::
         :::::::::::::::::::::::::::::::::::::::::::::::::::::

           -------------------------------------------------
          |                Property Printout                |
           -------------------------------------------------

    * Orbital Energies and Occupations

         #    Occupation            Energy/Eh            Energy/eV
      -------------------------------------------------------------
         1        2.0000           -0.8146484             -22.1677
       ...           ...                  ...                  ...
        29        2.0000           -0.4791347             -13.0379
        30        2.0000           -0.4741672             -12.9027
        31        2.0000           -0.4663191             -12.6892
        32        2.0000           -0.4638712             -12.6226
        33        2.0000           -0.4583491             -12.4723
        34        2.0000           -0.4565283             -12.4228
        35        2.0000           -0.4504947             -12.2586
        36        2.0000           -0.4431267             -12.0581
        37        2.0000           -0.4253830             -11.5753
        38        2.0000           -0.4127438             -11.2313
        39        2.0000           -0.4018354             -10.9345
        40        2.0000           -0.3982395             -10.8366
        41        2.0000           -0.3931886             -10.6992 (HOMO)
        42                         -0.2454488              -6.6790 (LUMO)
        43                         -0.2292417              -6.2380
        44                         -0.2246839              -6.1140
        45                         -0.2211991              -6.0191
        46                         -0.1090416              -2.9672
        47                         -0.0942304              -2.5641
        48                          0.0342995               0.9333
        49                          0.0543998               1.4803
        50                          0.0767941               2.0897
        51                          0.0990571               2.6955
        52                          0.1225709               3.3353
       ...                                ...                  ...
        74                          0.6742321              18.3468
      -------------------------------------------------------------
                  HL-Gap            0.1477399 Eh            4.0202 eV
             Fermi-level           -0.3193187 Eh           -8.6891 eV

     #   Z          covCN         q      C6AA      α(0)
     1   6 C        3.758    -0.109    22.637     6.783
     2   6 C        2.971     0.022    27.510     8.603
     3   6 C        2.924    -0.045    29.123     8.850
     4   6 C        2.923    -0.032    28.787     8.799
     5   6 C        2.917    -0.054    29.338     8.882
     6   6 C        2.791     0.169    24.353     8.084
     7   9 F        0.787    -0.229    11.536     4.012
     8   6 C        2.979     0.004    27.940     8.671
     9   6 C        2.974    -0.013    28.341     8.732
    10   6 C        2.854     0.149    24.765     8.156
    11   8 O        1.660    -0.377    20.406     6.098
    12   6 C        2.916    -0.077    29.923     8.970
    13   6 C        2.924    -0.031    28.773     8.797
    14   6 C        2.916    -0.062    29.548     8.914
    15   6 C        2.790     0.165    24.432     8.097
    16   9 F        0.787    -0.224    11.490     4.004
    17   1 H        0.925     0.046     2.371     2.408
    18   1 H        0.925     0.045     2.380     2.412
    19   1 H        0.925     0.063     2.161     2.299
    20   1 H        0.926     0.042     2.425     2.435
    21   1 H        0.926     0.043     2.412     2.429
    22   1 H        0.926     0.055     2.257     2.349
    23   1 H        0.805     0.305     0.705     1.319
    24   1 H        0.925     0.038     2.475     2.460
    25   1 H        0.926     0.048     2.345     2.395
    26   1 H        0.926     0.059     2.205     2.322

 Mol. C6AA /au·bohr⁶  :       8741.117624
 Mol. C8AA /au·bohr⁸  :     214348.357129
 Mol. α(0) /au        :        147.280010


Wiberg/Mayer (AO) data.
largest (>0.10) Wiberg bond orders for each atom

 ---------------------------------------------------------------------------
     #   Z sym  total        # sym  WBO       # sym  WBO       # sym  WBO
 ---------------------------------------------------------------------------
     1   6 C    3.996 --     2 C    1.029    18 H    0.984    17 H    0.976
                            19 H    0.964
     2   6 C    3.987 --     3 C    1.413     8 C    1.372     1 C    1.029
                             5 C    0.105
     3   6 C    3.990 --     4 C    1.443     2 C    1.413    20 H    0.968
     4   6 C    3.990 --     3 C    1.443     5 C    1.434    21 H    0.970
                             8 C    0.106
     5   6 C    3.988 --     4 C    1.434     6 C    1.402    22 H    0.967
                             2 C    0.105
     6   6 C    3.885 --     5 C    1.402     8 C    1.364     7 F    0.956
     7   9 F    1.086 --     6 C    0.956
     8   6 C    3.988 --     2 C    1.372     6 C    1.364     9 C    1.016
                             4 C    0.106
     9   6 C    3.986 --    15 C    1.376    10 C    1.323     8 C    1.016
                            13 C    0.103
    10   6 C    3.942 --    12 C    1.374     9 C    1.323    11 O    1.088
    11   8 O    2.141 --    10 C    1.088    23 H    0.885
    12   6 C    3.985 --    13 C    1.443    10 C    1.374    24 H    0.965
    13   6 C    3.989 --    12 C    1.443    14 C    1.435    25 H    0.970
                             9 C    0.103
    14   6 C    3.987 --    13 C    1.435    15 C    1.392    26 H    0.967
    15   6 C    3.886 --    14 C    1.392     9 C    1.376    16 F    0.959
    16   9 F    1.090 --    15 C    0.959
    17   1 H    0.998 --     1 C    0.976
    18   1 H    0.998 --     1 C    0.984
    19   1 H    0.996 --     1 C    0.964
    20   1 H    0.997 --     3 C    0.968
    21   1 H    0.998 --     4 C    0.970
    22   1 H    0.996 --     5 C    0.967
    23   1 H    0.906 --    11 O    0.885
    24   1 H    0.998 --    12 C    0.965
    25   1 H    0.997 --    13 C    0.970
    26   1 H    0.996 --    14 C    0.967
 ---------------------------------------------------------------------------

Topologies differ in total number of bonds
Writing topology from bond orders to xtbtopo.mol

molecular dipole:
                 x           y           z       tot (Debye)
 q only:        0.483      -0.029       0.955
   full:        0.731       0.067       0.990       3.133
molecular quadrupole (traceless):
                xx          xy          yy          xz          yz          zz
 q only:       10.701       1.144      -4.504      -0.145       1.011      -6.197
  q+dip:       14.762       0.740      -5.139      -0.081       1.124      -9.623
   full:       12.561       1.674      -5.139       0.601       1.249      -7.421

           -------------------------------------------------
          |                Geometry Summary                 |
           -------------------------------------------------

      molecular mass/u    :      220.2151854
   center of mass at/Å    :        0.0409866       0.1542142      -0.2659871
  moments of inertia/u·Å² :        0.5678612E+03   0.1113849E+04   0.1317378E+04
rotational constants/cm⁻¹ :        0.2968618E-01   0.1513457E-01   0.1279635E-01

 * 23 selected distances

     #   Z          #   Z                                           value/Å
     2   6 C        3   6 C                                       1.3886900
     3   6 C        4   6 C                                       1.3832160
     4   6 C        5   6 C                                       1.3832256
     5   6 C        6   6 C                                       1.3805174
     2   6 C        8   6 C                                       1.3961095
     6   6 C        8   6 C                                       1.3896030
     9   6 C       10   6 C                                       1.4002848 (max)
    10   6 C       11   8 O                                       1.3555793
    10   6 C       12   6 C                                       1.3895986
    12   6 C       13   6 C                                       1.3830266
    13   6 C       14   6 C                                       1.3825935
     9   6 C       15   6 C                                       1.3868762
    14   6 C       15   6 C                                       1.3824649
     1   6 C       17   1 H                                       1.0886242
     1   6 C       18   1 H                                       1.0868233
     1   6 C       19   1 H                                       1.0895197
     3   6 C       20   1 H                                       1.0800861
     4   6 C       21   1 H                                       1.0793417
     5   6 C       22   1 H                                       1.0782455
    11   8 O       23   1 H                                       0.9646341 (min)
    12   6 C       24   1 H                                       1.0815300
    13   6 C       25   1 H                                       1.0787834
    14   6 C       26   1 H                                       1.0776339

 * 4 distinct bonds (by element types)

   Z      Z             #   av. dist./Å        max./Å        min./Å
   1 H    6 C           9     1.0822876     1.0895197     1.0776339
   6 C    6 C          12     1.3871838     1.4002848     1.3805174
   1 H    8 O           1     0.9646341     0.9646341     0.9646341
   6 C    8 O           1     1.3555793     1.3555793     1.3555793


optimized geometry written to: xtbopt.xyz


           -------------------------------------------------
          | TOTAL ENERGY              -46.467132168085 Eh   |
          | GRADIENT NORM               0.000204752125 Eh/α |
          | HOMO-LUMO GAP               4.020205980096 eV   |
           -------------------------------------------------

------------------------------------------------------------------------
 * finished run on 2026/07/23 at 12:55:25.645     
------------------------------------------------------------------------
 total:
 * wall-time:     0 d,  0 h,  0 min,  0.529 sec
 *  cpu-time:     0 d,  0 h,  0 min,  2.074 sec
 * ratio c/w:     3.923 speedup
 SCF:
 * wall-time:     0 d,  0 h,  0 min,  0.039 sec
 *  cpu-time:     0 d,  0 h,  0 min,  0.139 sec
 * ratio c/w:     3.596 speedup
 ANC optimizer:
 * wall-time:     0 d,  0 h,  0 min,  0.474 sec
 *  cpu-time:     0 d,  0 h,  0 min,  1.886 sec
 * ratio c/w:     3.978 speedup

