%mem=12000MB
%nprocshared=8
# opt=(ts,noeigen,recalcfc=15) bp86 empiricaldispersion=GD3BJ def2svp  freq IOP(1/8=2) nosymm

example

0 1
C -1.1345560000 2.5758350000 -1.1439560000
C -1.5232170000 1.2211080000 -0.5690180000
C -2.9020310000 1.1430670000 -0.2646090000
C -3.5855940000 -0.0526730000 -0.0226120000
C -2.8805170000 -1.2383210000 -0.2299630000
C -1.5164310000 -1.1537700000 -0.5027140000
F -0.9764240000 -2.3654950000 -0.8965460000
C -0.6988030000 0.0200870000 -0.4721070000
C 0.8031420000 -0.0975330000 -0.3468760000
C 1.4978910000 -1.3041590000 0.0984200000
O 0.9307480000 -2.4110690000 0.6308300000
C 2.9120310000 -1.3927840000 0.1074890000
C 3.7258470000 -0.3051970000 -0.1877820000
C 3.1112900000 0.9226540000 -0.4563510000
C 1.7181500000 0.9979550000 -0.4788920000
F 1.2583080000 2.2629400000 -0.5833220000
H -2.0571480000 3.0561210000 -1.5248380000
H -0.6812760000 3.2638440000 -0.4056950000
H -0.4317870000 2.4823380000 -1.9891710000
H -3.4720170000 2.0852740000 -0.2802780000
H -4.6576110000 -0.0597370000 0.2234870000
H -3.3544070000 -2.2303940000 -0.2313710000
H 0.0592690000 -2.5957590000 0.2255590000
H 3.3278970000 -2.3665980000 0.4020940000
H 4.8222090000 -0.3978500000 -0.1722120000
H 3.6748670000 1.8534290000 -0.6102720000

