26
 energy: -46.467122107254 gnorm: 0.000407325543 xtb: 6.6.1 (8d0f1dd)
C           -1.16220565977962       -1.90902999290886       -0.89336604258284
C           -1.60891866752863       -0.60320342231036       -0.31206325454990
C           -2.96068594266352       -0.33866389839812       -0.13230353452672
C           -3.39488192140207        0.85843204566711        0.40674506550453
C           -2.47806982563511        1.82474836709871        0.78039973675212
C           -1.13526151194456        1.56055333315733        0.60112591153640
F           -0.23784349342047        2.50934198207668        0.94962844117952
C           -0.67485976995944        0.36635321170491        0.05818938137027
C            0.78106806179660        0.15519184947505       -0.08992508289612
C            1.59804679063259        0.08338626455231        1.04570754372081
O            0.99817689274031        0.15696255809998        2.25867247142421
C            2.97045767734175       -0.08557309996698        0.90823388166922
C            3.54364179430776       -0.18373752141718       -0.34656925774996
C            2.75716032121897       -0.11495571493526       -1.48155963986246
C            1.39359275258652        0.05612132141465       -1.33066132097709
F            0.62945342899988        0.13978605653024       -2.44084578709120
H           -1.94027077034643       -2.66106859193378       -0.78857816799752
H           -0.94634602506906       -1.78913249235539       -1.95510308974129
H           -0.25639815660402       -2.26292779852465       -0.40437681625971
H           -3.68366113690110       -1.08856870564099       -0.41783612373746
H           -4.45036363253842        1.04094534253309        0.53949495251011
H           -2.78480801391562        2.76802210580021        1.20321694645380
H            1.66317909966019        0.15358490220642        2.95733502772981
H            3.58946818779351       -0.13853116600380        1.79349020548236
H            4.61053933346051       -0.31396821643219       -0.43860738180156
H            3.17978918716907       -0.18406971948933       -2.47044306555923
