      -----------------------------------------------------------      
     |                   =====================                   |     
     |                           x T B                           |     
     |                   =====================                   |     
     |                         S. Grimme                         |     
     |          Mulliken Center for Theoretical Chemistry        |     
     |                    University of Bonn                     |     
      -----------------------------------------------------------      

   * xtb version 6.6.1 (8d0f1dd) compiled by 'stahn@M-Bot' on 2023-08-01

   xtb is free software: you can redistribute it and/or modify it under
   the terms of the GNU Lesser General Public License as published by
   the Free Software Foundation, either version 3 of the License, or
   (at your option) any later version.
   
   xtb is distributed in the hope that it will be useful,
   but WITHOUT ANY WARRANTY; without even the implied warranty of
   MERCHANTABILITY or FITNESS FOR A PARTICULAR PURPOSE.  See the
   GNU Lesser General Public License for more details.
   
   Cite this work as:
   * C. Bannwarth, E. Caldeweyher, S. Ehlert, A. Hansen, P. Pracht,
     J. Seibert, S. Spicher, S. Grimme, WIREs Comput. Mol. Sci., 2020, 11,
     e01493. DOI: 10.1002/wcms.1493
   
   for GFN2-xTB:
   * C. Bannwarth, S. Ehlert and S. Grimme., J. Chem. Theory Comput., 2019,
     15, 1652-1671. DOI: 10.1021/acs.jctc.8b01176
   for GFN1-xTB:
   * S. Grimme, C. Bannwarth, P. Shushkov, J. Chem. Theory Comput., 2017,
     13, 1989-2009. DOI: 10.1021/acs.jctc.7b00118
   for GFN0-xTB:
   * P. Pracht, E. Caldeweyher, S. Ehlert, S. Grimme, ChemRxiv, 2019, preprint.
     DOI: 10.26434/chemrxiv.8326202.v1
   for GFN-FF:
   * S. Spicher and S. Grimme, Angew. Chem. Int. Ed., 2020, 59, 15665-15673.
     DOI: 10.1002/anie.202004239
   
   for ALPB and GBSA implicit solvation:
   * S. Ehlert, M. Stahn, S. Spicher, S. Grimme, J. Chem. Theory Comput.,
     2021, 17, 4250-4261. DOI: 10.1021/acs.jctc.1c00471
   
   for DFT-D4:
   * E. Caldeweyher, C. Bannwarth and S. Grimme, J. Chem. Phys., 2017,
     147, 034112. DOI: 10.1063/1.4993215
   * E. Caldeweyher, S. Ehlert, A. Hansen, H. Neugebauer, S. Spicher,
     C. Bannwarth and S. Grimme, J. Chem. Phys., 2019, 150, 154122.
     DOI: 10.1063/1.5090222
   * E. Caldeweyher, J.-M. Mewes, S. Ehlert and S. Grimme, Phys. Chem. Chem. Phys.
     2020, 22, 8499-8512. DOI: 10.1039/D0CP00502A
   
   for sTDA-xTB:
   * S. Grimme and C. Bannwarth, J. Chem. Phys., 2016, 145, 054103.
     DOI: 10.1063/1.4959605
   
   in the mass-spec context:
   * V. Asgeirsson, C. Bauer and S. Grimme, Chem. Sci., 2017, 8, 4879.
     DOI: 10.1039/c7sc00601b
   * J. Koopman and S. Grimme, ACS Omega 2019, 4, 12, 15120-15133.
     DOI: 10.1021/acsomega.9b02011
   
   for metadynamics refer to:
   * S. Grimme, J. Chem. Theory Comput., 2019, 155, 2847-2862
     DOI: 10.1021/acs.jctc.9b00143
   
   for SPH calculations refer to:
   * S. Spicher and S. Grimme, J. Chem. Theory Comput., 2021, 17, 1701-1714
     DOI: 10.1021/acs.jctc.0c01306
   
   with help from (in alphabetical order)
   P. Atkinson, C. Bannwarth, F. Bohle, G. Brandenburg, E. Caldeweyher
   M. Checinski, S. Dohm, S. Ehlert, S. Ehrlich, I. Gerasimov, C. Hölzer
   A. Katbashev, J. Koopman, C. Lavigne, S. Lehtola, F. März, M. Müller,
   F. Musil, H. Neugebauer, J. Pisarek, C. Plett, P. Pracht, F. Pultar,
   J. Seibert, P. Shushkov, S. Spicher, M. Stahn, M. Steiner, T. Strunk,
   J. Stückrath, T. Rose, and J. Unsleber
   
 * started run on 2026/07/23 at 12:55:30.744     

           -------------------------------------------------
          |                Calculation Setup                |
           -------------------------------------------------

          program call               : /path/to/xtb /path/to/atropisomers_workflow/example/reactant_censo/confs/10.xyz --opt --etemp 298.15 --chrg 0 --uhf 0 -P 4
          hostname                   : node
          coordinate file            : /path/to/atropisomers_workflow/example/reactant_censo/confs/10.xyz
          omp threads                :                     4

   ID    Z sym.   atoms
    1    6 C      1-6, 8-10, 12-15
    2    9 F      7, 16
    3    8 O      11
    4    1 H      17-26

           -------------------------------------------------
          |                 G F N 2 - x T B                 |
           -------------------------------------------------

        Reference                      10.1021/acs.jctc.8b01176
      * Hamiltonian:
        H0-scaling (s, p, d)           1.850000    2.230000    2.230000
        zeta-weighting                 0.500000
      * Dispersion:
        s8                             2.700000
        a1                             0.520000
        a2                             5.000000
        s9                             5.000000
      * Repulsion:
        kExp                           1.500000    1.000000
        rExp                           1.000000
      * Coulomb:
        alpha                          2.000000
        third order                    shell-resolved
        anisotropic                    true
        a3                             3.000000
        a5                             4.000000
        cn-shift                       1.200000
        cn-exp                         4.000000
        max-rad                        5.000000


          ...................................................
          :                      SETUP                      :
          :.................................................:
          :  # basis functions                  74          :
          :  # atomic orbitals                  74          :
          :  # shells                           42          :
          :  # electrons                        82          :
          :  max. iterations                   250          :
          :  Hamiltonian                  GFN2-xTB          :
          :  restarted?                      false          :
          :  GBSA solvation                  false          :
          :  PC potential                    false          :
          :  electronic temp.          298.1500000     K    :
          :  accuracy                    1.0000000          :
          :  -> integral cutoff          0.2500000E+02      :
          :  -> integral neglect         0.1000000E-07      :
          :  -> SCF convergence          0.1000000E-05 Eh   :
          :  -> wf. convergence          0.1000000E-03 e    :
          :  Broyden damping             0.4000000          :
          ...................................................

 iter      E             dE          RMSdq      gap      omega  full diag
   1    -47.0442103 -0.470442E+02  0.445E+00    4.44       0.0  T
   2    -47.0834947 -0.392844E-01  0.267E+00    4.42       1.0  T
   3    -47.0760051  0.748964E-02  0.142E+00    4.32       1.0  T
   4    -47.0957626 -0.197575E-01  0.252E-01    4.39       1.0  T
   5    -47.0961019 -0.339309E-03  0.104E-01    4.44       1.0  T
   6    -47.0963270 -0.225037E-03  0.466E-02    4.43       1.0  T
   7    -47.0963425 -0.154989E-04  0.184E-02    4.43       1.1  T
   8    -47.0963456 -0.309979E-05  0.756E-03    4.43       2.6  T
   9    -47.0963459 -0.381516E-06  0.171E-03    4.43      11.4  T
  10    -47.0963460 -0.183858E-07  0.763E-04    4.43      25.7  T
  11    -47.0963460 -0.323980E-08  0.421E-04    4.43      46.6  T

   *** convergence criteria satisfied after 11 iterations ***

         #    Occupation            Energy/Eh            Energy/eV
      -------------------------------------------------------------
         1        2.0000           -0.8151337             -22.1809
       ...           ...                  ...                  ...
        35        2.0000           -0.4522235             -12.3056
        36        2.0000           -0.4460799             -12.1385
        37        2.0000           -0.4323952             -11.7661
        38        2.0000           -0.4126781             -11.2295
        39        2.0000           -0.4124641             -11.2237
        40        2.0000           -0.4091883             -11.1346
        41        2.0000           -0.4035895             -10.9822 (HOMO)
        42                         -0.2407724              -6.5518 (LUMO)
        43                         -0.2404517              -6.5430
        44                         -0.2342830              -6.3752
        45                         -0.2328261              -6.3355
        46                         -0.1092717              -2.9734
       ...                                ...                  ...
        74                          0.6778665              18.4457
      -------------------------------------------------------------
                  HL-Gap            0.1628170 Eh            4.4305 eV
             Fermi-level           -0.3221809 Eh           -8.7670 eV

 SCC (total)                   0 d,  0 h,  0 min,  0.026 sec
 SCC setup                      ...        0 min,  0.000 sec (  0.826%)
 Dispersion                     ...        0 min,  0.000 sec (  0.968%)
 classical contributions        ...        0 min,  0.000 sec (  0.081%)
 integral evaluation            ...        0 min,  0.002 sec (  6.435%)
 iterations                     ...        0 min,  0.019 sec ( 73.803%)
 molecular gradient             ...        0 min,  0.004 sec ( 17.105%)
 printout                       ...        0 min,  0.000 sec (  0.706%)

         :::::::::::::::::::::::::::::::::::::::::::::::::::::
         ::                     SUMMARY                     ::
         :::::::::::::::::::::::::::::::::::::::::::::::::::::
         :: total energy             -46.448013076994 Eh    ::
         :: gradient norm              0.082802235513 Eh/a0 ::
         :: HOMO-LUMO gap              4.430477035868 eV    ::
         ::.................................................::
         :: SCC energy               -47.096345962580 Eh    ::
         :: -> isotropic ES            0.049521244044 Eh    ::
         :: -> anisotropic ES          0.002568624743 Eh    ::
         :: -> anisotropic XC          0.008204160021 Eh    ::
         :: -> dispersion             -0.027721427796 Eh    ::
         :: repulsion energy           0.648083176837 Eh    ::
         :: add. restraining           0.000000000000 Eh    ::
         :: total charge               0.000000000000 e     ::
         :::::::::::::::::::::::::::::::::::::::::::::::::::::

      ----------------------------------------------------------- 
     |                   =====================                   |
     |                        A N C O P T                        |
     |                   =====================                   |
     |               Approximate Normal Coordinate               |
     |                Rational Function Optimizer                |
      ----------------------------------------------------------- 

          ...................................................
          :                      SETUP                      :
          :.................................................:
          :   optimization level            normal          :
          :   max. optcycles                   200          :
          :   ANC micro-cycles                  20          :
          :   degrees of freedom                72          :
          :.................................................:
          :   RF solver                   davidson          :
          :   write xtbopt.log                true          :
          :   linear?                        false          :
          :   energy convergence         0.5000000E-05 Eh   :
          :   grad. convergence          0.1000000E-02 Eh/α :
          :   maxmium RF displ.          1.0000000          :
          :   Hlow (freq-cutoff)         0.1000000E-01      :
          :   Hmax (freq-cutoff)         5.0000000          :
          :   S6 in model hess.         20.0000000          :
          ...................................................

generating ANC from model Hessian ...
Using Lindh-Hessian (1995)
 Shifting diagonal of input Hessian by   8.589044579460412E-003
 Lowest  eigenvalues of input Hessian
    0.000000    0.000000    0.000000    0.000000    0.000000    0.000000
    0.010000    0.010399    0.010810    0.013831    0.015215    0.017345
    0.020608    0.021784    0.025378    0.028921    0.029754    0.031251
 Highest eigenvalues
    1.915885    1.939286    2.046779    2.083169    2.117207    2.169393
 

........................................................................
.............................. CYCLE    1 ..............................
........................................................................

 iter      E             dE          RMSdq      gap      omega  full diag
   1    -47.0963460 -0.470963E+02  0.122E-04    4.43       0.0  T
   2    -47.0963460 -0.395275E-10  0.740E-05    4.43     265.1  T
   3    -47.0963460  0.859757E-12  0.462E-05    4.43     424.7  T
     SCC iter.                  ...        0 min,  0.004 sec
     gradient                   ...        0 min,  0.004 sec
 * total energy  :   -46.4480131 Eh     change       -0.1644977E-08 Eh
   gradient norm :     0.0828022 Eh/α   predicted     0.0000000E+00 (-100.00%)
   displ. norm   :     0.2677838 α      lambda       -0.1486669E-01
   maximum displ.:     0.1142086 α      in ANC's #32, #25, #40, ...

........................................................................
.............................. CYCLE    2 ..............................
........................................................................

 iter      E             dE          RMSdq      gap      omega  full diag
   1    -47.1087208 -0.471087E+02  0.293E-01    4.33       0.0  T
   2    -47.1089273 -0.206553E-03  0.179E-01    4.35       1.0  T
   3    -47.1088346  0.927515E-04  0.918E-02    4.36       1.0  T
   4    -47.1089769 -0.142296E-03  0.244E-02    4.36       1.0  T
   5    -47.1089870 -0.101027E-04  0.621E-03    4.36       3.2  T
   6    -47.1089877 -0.710526E-06  0.282E-03    4.36       6.9  T
   7    -47.1089877 -0.470921E-07  0.121E-03    4.36      16.2  T
   8    -47.1089877 -0.267834E-08  0.462E-04    4.36      42.4  T
   9    -47.1089877 -0.293422E-08  0.120E-04    4.36     164.0  T
     SCC iter.                  ...        0 min,  0.012 sec
     gradient                   ...        0 min,  0.004 sec
 * total energy  :   -46.4587724 Eh     change       -0.1075931E-01 Eh
   gradient norm :     0.0383673 Eh/α   predicted    -0.7966854E-02 ( -25.95%)
   displ. norm   :     0.3039000 α      lambda       -0.7026027E-02
   maximum displ.:     0.1240682 α      in ANC's #15, #32, #25, ...

........................................................................
.............................. CYCLE    3 ..............................
........................................................................

 iter      E             dE          RMSdq      gap      omega  full diag
   1    -47.1134419 -0.471134E+02  0.272E-01    4.22       0.0  T
   2    -47.1136776 -0.235668E-03  0.162E-01    4.24       1.0  T
   3    -47.1136316  0.459233E-04  0.954E-02    4.24       1.0  T
   4    -47.1137564 -0.124771E-03  0.251E-02    4.25       1.0  T
   5    -47.1137637 -0.730252E-05  0.740E-03    4.25       2.6  T
   6    -47.1137646 -0.845518E-06  0.380E-03    4.25       5.2  T
   7    -47.1137646 -0.797028E-07  0.153E-03    4.25      12.8  T
   8    -47.1137646 -0.651133E-08  0.549E-04    4.25      35.7  T
   9    -47.1137646 -0.429036E-08  0.141E-04    4.25     139.2  T
     SCC iter.                  ...        0 min,  0.012 sec
     gradient                   ...        0 min,  0.004 sec
 * total energy  :   -46.4627454 Eh     change       -0.3972979E-02 Eh
   gradient norm :     0.0294100 Eh/α   predicted    -0.3838061E-02 (  -3.40%)
   displ. norm   :     0.1449587 α      lambda       -0.1171631E-02
   maximum displ.:     0.0855891 α      in ANC's #5, #3, #15, ...

........................................................................
.............................. CYCLE    4 ..............................
........................................................................

 iter      E             dE          RMSdq      gap      omega  full diag
   1    -47.1153829 -0.471154E+02  0.632E-02    4.21       0.0  T
   2    -47.1153913 -0.832772E-05  0.372E-02    4.21       1.0  T
   3    -47.1153891  0.211239E-05  0.242E-02    4.21       1.0  T
   4    -47.1153963 -0.711640E-05  0.358E-03    4.21       5.5  T
   5    -47.1153964 -0.130873E-06  0.173E-03    4.21      11.3  T
   6    -47.1153964 -0.550623E-07  0.750E-04    4.21      26.1  T
   7    -47.1153964 -0.281971E-08  0.246E-04    4.21      79.7  T
     SCC iter.                  ...        0 min,  0.009 sec
     gradient                   ...        0 min,  0.004 sec
 * total energy  :   -46.4637304 Eh     change       -0.9850652E-03 Eh
   gradient norm :     0.0225607 Eh/α   predicted    -0.5983837E-03 ( -39.25%)
   displ. norm   :     0.3620820 α      lambda       -0.2399123E-02
   maximum displ.:     0.1957955 α      in ANC's #5, #15, #3, ...

........................................................................
.............................. CYCLE    5 ..............................
........................................................................

 iter      E             dE          RMSdq      gap      omega  full diag
   1    -47.1153903 -0.471154E+02  0.137E-01    4.13       0.0  T
   2    -47.1154272 -0.368438E-04  0.791E-02    4.13       1.0  T
   3    -47.1154168  0.104155E-04  0.531E-02    4.13       1.0  T
   4    -47.1154521 -0.353208E-04  0.747E-03    4.13       2.6  T
   5    -47.1154525 -0.434219E-06  0.378E-03    4.13       5.2  T
   6    -47.1154528 -0.276693E-06  0.170E-03    4.13      11.5  T
   7    -47.1154528 -0.125405E-07  0.546E-04    4.13      35.9  T
   8    -47.1154528 -0.805272E-09  0.183E-04    4.13     106.9  T
     SCC iter.                  ...        0 min,  0.010 sec
     gradient                   ...        0 min,  0.004 sec
 * total energy  :   -46.4653827 Eh     change       -0.1652283E-02 Eh
   gradient norm :     0.0259330 Eh/α   predicted    -0.1356904E-02 ( -17.88%)
   displ. norm   :     0.2888141 α      lambda       -0.1937397E-02
   maximum displ.:     0.1395449 α      in ANC's #2, #5, #3, ...

........................................................................
.............................. CYCLE    6 ..............................
........................................................................

 iter      E             dE          RMSdq      gap      omega  full diag
   1    -47.1200889 -0.471201E+02  0.114E-01    4.11       0.0  T
   2    -47.1200996 -0.107404E-04  0.678E-02    4.11       1.0  T
   3    -47.1200852  0.143941E-04  0.327E-02    4.11       1.0  T
   4    -47.1201063 -0.210451E-04  0.481E-03    4.11       4.1  T
   5    -47.1201063 -0.571215E-07  0.287E-03    4.11       6.8  T
   6    -47.1201064 -0.402047E-07  0.123E-03    4.11      16.0  T
   7    -47.1201064 -0.145235E-07  0.422E-04    4.11      46.5  T
   8    -47.1201064 -0.232054E-08  0.197E-04    4.11      99.4  T
     SCC iter.                  ...        0 min,  0.010 sec
     gradient                   ...        0 min,  0.004 sec
 * total energy  :   -46.4663145 Eh     change       -0.9317613E-03 Eh
   gradient norm :     0.0187885 Eh/α   predicted    -0.1049529E-02 (  12.64%)
   displ. norm   :     0.4033421 α      lambda       -0.1805420E-02
   maximum displ.:     0.1927575 α      in ANC's #5, #3, #7, ...

........................................................................
.............................. CYCLE    7 ..............................
........................................................................

 iter      E             dE          RMSdq      gap      omega  full diag
   1    -47.1132943 -0.471133E+02  0.155E-01    4.04       0.0  T
   2    -47.1133337 -0.394133E-04  0.902E-02    4.05       1.0  T
   3    -47.1133049  0.288724E-04  0.536E-02    4.05       1.0  T
   4    -47.1133570 -0.521048E-04  0.103E-02    4.05       1.9  T
   5    -47.1133573 -0.378903E-06  0.558E-03    4.05       3.5  T
   6    -47.1133577 -0.307893E-06  0.301E-03    4.05       6.5  T
   7    -47.1133577 -0.609993E-07  0.832E-04    4.05      23.6  T
   8    -47.1133577 -0.625916E-08  0.342E-04    4.05      57.3  T
     SCC iter.                  ...        0 min,  0.010 sec
     gradient                   ...        0 min,  0.004 sec
 * total energy  :   -46.4660079 Eh     change        0.3065551E-03 Eh
   gradient norm :     0.0415246 Eh/α   predicted    -0.1049585E-02 (-442.38%)
   displ. norm   :     0.2143838 α      lambda       -0.2559523E-02
   maximum displ.:     0.1184904 α      in ANC's #5, #15, #7, ...

........................................................................
.............................. CYCLE    8 ..............................
........................................................................

 iter      E             dE          RMSdq      gap      omega  full diag
   1    -47.1203973 -0.471204E+02  0.993E-02    4.09       0.0  T
   2    -47.1204108 -0.135159E-04  0.576E-02    4.09       1.0  T
   3    -47.1203979  0.129264E-04  0.327E-02    4.09       1.0  T
   4    -47.1204194 -0.215792E-04  0.710E-03    4.09       2.8  T
   5    -47.1204195 -0.100650E-06  0.399E-03    4.09       4.9  T
   6    -47.1204197 -0.136428E-06  0.205E-03    4.09       9.5  T
   7    -47.1204197 -0.352751E-07  0.559E-04    4.09      35.1  T
   8    -47.1204197 -0.243993E-08  0.229E-04    4.09      85.6  T
     SCC iter.                  ...        0 min,  0.010 sec
     gradient                   ...        0 min,  0.004 sec
 * total energy  :   -46.4670848 Eh     change       -0.1076878E-02 Eh
   gradient norm :     0.0065459 Eh/α   predicted    -0.1338563E-02 (  24.30%)
   displ. norm   :     0.0785297 α      lambda       -0.1995283E-03
   maximum displ.:     0.0307048 α      in ANC's #3, #4, #6, ...

........................................................................
.............................. CYCLE    9 ..............................
........................................................................

 iter      E             dE          RMSdq      gap      omega  full diag
   1    -47.1206581 -0.471207E+02  0.329E-02    4.09       0.0  T
   2    -47.1206588 -0.740135E-06  0.196E-02    4.09       1.0  T
   3    -47.1206574  0.141220E-05  0.867E-03    4.09       2.3  T
   4    -47.1206593 -0.188435E-05  0.111E-03    4.09      17.7  T
   5    -47.1206593 -0.363405E-08  0.659E-04    4.09      29.7  T
   6    -47.1206593 -0.223818E-08  0.234E-04    4.09      83.9  T
     SCC iter.                  ...        0 min,  0.008 sec
     gradient                   ...        0 min,  0.004 sec
 * total energy  :   -46.4672530 Eh     change       -0.1682417E-03 Eh
   gradient norm :     0.0044490 Eh/α   predicted    -0.1003930E-03 ( -40.33%)
   displ. norm   :     0.1945970 α      lambda       -0.3404203E-03
   maximum displ.:     0.0734933 α      in ANC's #4, #6, #3, ...

........................................................................
.............................. CYCLE   10 ..............................
........................................................................

 iter      E             dE          RMSdq      gap      omega  full diag
   1    -47.1198915 -0.471199E+02  0.764E-02    4.08       0.0  T
   2    -47.1198959 -0.446704E-05  0.455E-02    4.08       1.0  T
   3    -47.1198878  0.816028E-05  0.211E-02    4.08       1.0  T
   4    -47.1198989 -0.111333E-04  0.262E-03    4.08       7.5  T
   5    -47.1198989 -0.181022E-07  0.154E-03    4.08      12.7  T
   6    -47.1198989 -0.110476E-07  0.543E-04    4.08      36.1  T
   7    -47.1198989 -0.180740E-08  0.152E-04    4.08     129.3  T
     SCC iter.                  ...        0 min,  0.009 sec
     gradient                   ...        0 min,  0.004 sec
 * total energy  :   -46.4674261 Eh     change       -0.1730924E-03 Eh
   gradient norm :     0.0078932 Eh/α   predicted    -0.1766742E-03 (   2.07%)
   displ. norm   :     0.0325481 α      lambda       -0.6235389E-04
   maximum displ.:     0.0206644 α      in ANC's #1, #6, #4, ...

........................................................................
.............................. CYCLE   11 ..............................
........................................................................

 iter      E             dE          RMSdq      gap      omega  full diag
   1    -47.1207244 -0.471207E+02  0.149E-02    4.08       0.0  T
   2    -47.1207245 -0.156951E-06  0.860E-03    4.08       2.3  T
   3    -47.1207243  0.221816E-06  0.342E-03    4.08       5.7  T
   4    -47.1207246 -0.300282E-06  0.729E-04    4.08      26.9  T
   5    -47.1207246 -0.208348E-08  0.401E-04    4.08      48.9  T
     SCC iter.                  ...        0 min,  0.006 sec
     gradient                   ...        0 min,  0.004 sec
 * total energy  :   -46.4674691 Eh     change       -0.4297907E-04 Eh
   gradient norm :     0.0029365 Eh/α   predicted    -0.3120937E-04 ( -27.38%)
   displ. norm   :     0.0788429 α      lambda       -0.4779077E-04
   maximum displ.:     0.0542061 α      in ANC's #1, #6, #4, ...

........................................................................
.............................. CYCLE   12 ..............................
........................................................................

 iter      E             dE          RMSdq      gap      omega  full diag
   1    -47.1211465 -0.471211E+02  0.250E-02    4.08       0.0  T
   2    -47.1211470 -0.447582E-06  0.148E-02    4.08       1.3  T
   3    -47.1211460  0.980806E-06  0.707E-03    4.08       2.8  T
   4    -47.1211473 -0.130945E-05  0.679E-04    4.08      28.9  T
   5    -47.1211473 -0.184775E-08  0.418E-04    4.08      47.0  T
   6    -47.1211473 -0.184793E-08  0.186E-04    4.08     105.3  T
     SCC iter.                  ...        0 min,  0.008 sec
     gradient                   ...        0 min,  0.004 sec
 * total energy  :   -46.4675050 Eh     change       -0.3588447E-04 Eh
   gradient norm :     0.0016133 Eh/α   predicted    -0.2404204E-04 ( -33.00%)
   displ. norm   :     0.2014914 α      lambda       -0.5440255E-04
   maximum displ.:     0.1450728 α      in ANC's #1, #2, #6, ...

........................................................................
.............................. CYCLE   13 ..............................
........................................................................

 iter      E             dE          RMSdq      gap      omega  full diag
   1    -47.1212237 -0.471212E+02  0.569E-02    4.08       0.0  T
   2    -47.1212255 -0.186785E-05  0.338E-02    4.08       1.0  T
   3    -47.1212203  0.521007E-05  0.154E-02    4.08       1.3  T
   4    -47.1212270 -0.669002E-05  0.125E-03    4.08      15.6  T
   5    -47.1212270 -0.919629E-08  0.769E-04    4.08      25.5  T
   6    -47.1212270 -0.523136E-08  0.307E-04    4.08      63.9  T
     SCC iter.                  ...        0 min,  0.008 sec
     gradient                   ...        0 min,  0.004 sec
 * total energy  :   -46.4675559 Eh     change       -0.5091249E-04 Eh
   gradient norm :     0.0025453 Eh/α   predicted    -0.2768423E-04 ( -45.62%)
   displ. norm   :     0.1025014 α      lambda       -0.3074226E-04
   maximum displ.:     0.0697250 α      in ANC's #1, #2, #6, ...

........................................................................
.............................. CYCLE   14 ..............................
........................................................................

 iter      E             dE          RMSdq      gap      omega  full diag
   1    -47.1213505 -0.471214E+02  0.287E-02    4.08       0.0  T
   2    -47.1213507 -0.151812E-06  0.170E-02    4.08       1.2  T
   3    -47.1213500  0.724151E-06  0.506E-03    4.08       3.9  T
   4    -47.1213508 -0.846836E-06  0.483E-04    4.08      40.6  T
   5    -47.1213508 -0.128751E-08  0.287E-04    4.08      68.3  T
     SCC iter.                  ...        0 min,  0.007 sec
     gradient                   ...        0 min,  0.004 sec
 * total energy  :   -46.4675815 Eh     change       -0.2560985E-04 Eh
   gradient norm :     0.0028771 Eh/α   predicted    -0.1553743E-04 ( -39.33%)
   displ. norm   :     0.1151541 α      lambda       -0.3420968E-04
   maximum displ.:     0.0774409 α      in ANC's #2, #1, #6, ...

........................................................................
.............................. CYCLE   15 ..............................
........................................................................

 iter      E             dE          RMSdq      gap      omega  full diag
   1    -47.1210578 -0.471211E+02  0.326E-02    4.08       0.0  T
   2    -47.1210580 -0.174003E-06  0.194E-02    4.08       1.0  T
   3    -47.1210574  0.602984E-06  0.469E-03    4.08       4.2  T
   4    -47.1210581 -0.713059E-06  0.573E-04    4.08      34.2  T
   5    -47.1210581 -0.691031E-09  0.310E-04    4.08      63.2  T
     SCC iter.                  ...        0 min,  0.006 sec
     gradient                   ...        0 min,  0.004 sec
 * total energy  :   -46.4676082 Eh     change       -0.2663592E-04 Eh
   gradient norm :     0.0014974 Eh/α   predicted    -0.1733474E-04 ( -34.92%)
   displ. norm   :     0.1543786 α      lambda       -0.2140555E-04
   maximum displ.:     0.1046352 α      in ANC's #2, #1, #6, ...

........................................................................
.............................. CYCLE   16 ..............................
........................................................................

 iter      E             dE          RMSdq      gap      omega  full diag
   1    -47.1207563 -0.471208E+02  0.452E-02    4.08       0.0  T
   2    -47.1207565 -0.195303E-06  0.268E-02    4.08       1.0  T
   3    -47.1207561  0.385639E-06  0.391E-03    4.08       5.0  T
   4    -47.1207566 -0.488467E-06  0.826E-04    4.08      23.7  T
   5    -47.1207566 -0.126400E-08  0.400E-04    4.08      49.0  T
     SCC iter.                  ...        0 min,  0.006 sec
     gradient                   ...        0 min,  0.004 sec
 * total energy  :   -46.4676259 Eh     change       -0.1771608E-04 Eh
   gradient norm :     0.0010479 Eh/α   predicted    -0.1081700E-04 ( -38.94%)
   displ. norm   :     0.0403314 α      lambda       -0.4276872E-05
   maximum displ.:     0.0293865 α      in ANC's #1, #6, #2, ...

........................................................................
.............................. CYCLE   17 ..............................
........................................................................

 iter      E             dE          RMSdq      gap      omega  full diag
   1    -47.1208608 -0.471209E+02  0.127E-02    4.08       0.0  T
   2    -47.1208609 -0.839470E-07  0.762E-03    4.08       2.6  T
   3    -47.1208607  0.193777E-06  0.297E-03    4.08       6.6  T
   4    -47.1208610 -0.245019E-06  0.335E-04    4.08      58.5  T
   5    -47.1208610 -0.499973E-09  0.191E-04    4.08     102.7  T
     SCC iter.                  ...        0 min,  0.007 sec
     gradient                   ...        0 min,  0.004 sec
 * total energy  :   -46.4676303 Eh     change       -0.4466825E-05 Eh
   gradient norm :     0.0007338 Eh/α   predicted    -0.2141955E-05 ( -52.05%)
   displ. norm   :     0.0539902 α      lambda       -0.5596460E-05
   maximum displ.:     0.0379744 α      in ANC's #1, #6, #3, ...

   *** GEOMETRY OPTIMIZATION CONVERGED AFTER 17 ITERATIONS ***

------------------------------------------------------------------------
 total energy gain   :        -0.0196173 Eh      -12.3100 kcal/mol
 total RMSD          :         0.3315609 a0        0.1755 Å
 total power (kW/mol):        -3.0297133 (step) -196.6775 (real)
------------------------------------------------------------------------

 ANCopt (total)                0 d,  0 h,  0 min,  0.262 sec
 optimizer setup                ...        0 min,  0.000 sec (  0.080%)
 model hessian                  ...        0 min,  0.008 sec (  3.070%)
 ANC generation                 ...        0 min,  0.001 sec (  0.423%)
 coordinate transformation      ...        0 min,  0.000 sec (  0.068%)
 single point calculation       ...        0 min,  0.247 sec ( 94.358%)
 optimization log               ...        0 min,  0.003 sec (  0.983%)
 hessian update                 ...        0 min,  0.000 sec (  0.075%)
 rational function              ...        0 min,  0.002 sec (  0.611%)

================
 final structure:
================
26
 xtb: 6.6.1 (8d0f1dd)
C            0.63504062892143        1.90125004393578       -1.11398494165064
C            1.38992753028186        0.78356869346825       -0.46431601842549
C            2.77706051703770        0.78185985422901       -0.41421014938604
C            3.47283558606299       -0.25799492428616        0.17843170458443
C            2.79159651372440       -1.32206920666267        0.74082728755773
C            1.41041710979767       -1.31735042194068        0.69260059290932
F            0.73494878878084       -2.34570053626645        1.25141161006449
C            0.69021665877152       -0.28685856065430        0.10104640098783
C           -0.79357005042949       -0.33661869294400        0.06508141792811
C           -1.55735086885494        0.15297394212457        1.12839052799176
O           -0.97641501294762        0.69947495351906        2.22483413436298
C           -2.94651949374911        0.10318405704277        1.07048990379595
C           -3.57882238173064       -0.43792993622292       -0.03113147500265
C           -2.84212728451968       -0.93398159516417       -1.09387895548821
C           -1.46476571181263       -0.87184069922181       -1.02558915141868
F           -0.73580829515872       -1.33838787517495       -2.06371605100471
H            0.07768521552405        1.52742010308298       -1.97212308229099
H            1.31368382397579        2.67901663778796       -1.45311783411247
H           -0.08347618923519        2.33784531649944       -0.42061986174661
H            3.31998696974396        1.60672383118413       -0.85087199693863
H            4.55140665433741       -0.24082687191045        0.20148405174187
H            3.30614232227357       -2.14704270360013        1.20633833292626
H           -0.01506845487640        0.61073091657499        2.16435765423100
H           -3.50661608836362        0.49236900066082        1.90494373759465
H           -4.65615105880148       -0.47609720711461       -0.06462809182094
H           -3.31425442875362       -1.36371711894647       -1.96205074739043
 
 Bond Distances (Angstroems)
 ---------------------------
C1-C2=1.4970         C1-H17=1.0894        C1-H18=1.0865        C1-H19=1.0898        C2-C1=1.4970         C2-C3=1.3880         
C2-C8=1.3982         C3-C2=1.3880         C3-C4=1.3844         C3-H20=1.0797        C4-C3=1.3844         C4-C5=1.3830         
C4-H21=1.0790        C5-C4=1.3830         C5-C6=1.3820         C5-H22=1.0780        C6-C5=1.3820         C6-F7=1.3513         
C6-C8=1.3894         F7-C6=1.3513         C8-C2=1.3982         C8-C6=1.3894         C8-C9=1.4851         C9-C8=1.4851         
C9-C10=1.3977        C9-C15=1.3880        C10-C9=1.3977        C10-O11=1.3559       C10-C12=1.3913       O11-C10=1.3559       
O11-H23=0.9673       C12-C10=1.3913       C12-C13=1.3806       C12-H24=1.0777       C13-C12=1.3806       C13-C14=1.3850       
C13-H25=1.0785       C14-C13=1.3850       C14-C15=1.3805       C14-H26=1.0776       C15-C9=1.3880        C15-C14=1.3805       
C15-F16=1.3516       F16-C15=1.3516       H17-C1=1.0894        H18-C1=1.0865        H19-C1=1.0898        H20-C3=1.0797        
H21-C4=1.0790        H22-C5=1.0780        H23-O11=0.9673       H24-C12=1.0777       H25-C13=1.0785       H26-C14=1.0776       
 C  H  Rav=1.0818 sigma=0.0049  Rmin=1.0776  Rmax=1.0898     9
 C  C  Rav=1.4022 sigma=0.0367  Rmin=1.3805  Rmax=1.4970    14
 O  H  Rav=0.9673 sigma=0.0000  Rmin=0.9673  Rmax=0.9673     1
 O  C  Rav=1.3559 sigma=0.0000  Rmin=1.3559  Rmax=1.3559     1
 F  C  Rav=1.3514 sigma=0.0001  Rmin=1.3513  Rmax=1.3516     2
 
 selected bond angles (degree)
 --------------------
H17-C1-C2=110.10               H18-C1-C2=110.79               H18-C1-H17=108.62              H19-C1-C2=110.82               
H19-C1-H17=107.54              H19-C1-H18=108.88              C3-C2-C1=121.37                C8-C2-C1=119.65                
C8-C2-C3=118.98                C4-C3-C2=121.24                H20-C3-C2=119.14               H20-C3-C4=119.62               
C5-C4-C3=120.29                H21-C4-C3=119.97               H21-C4-C5=119.73               C6-C5-C4=118.39                
H22-C5-C4=121.96               H22-C5-C6=119.65               F7-C6-C5=118.85                C8-C6-C5=122.37                
C8-C6-F7=118.77                C6-C8-C2=118.72                C9-C8-C2=121.05                C9-C8-C6=120.22                
C10-C9-C8=121.05               C15-C9-C8=121.00               C15-C9-C10=117.94              O11-C10-C9=121.48              
C12-C10-C9=120.09              C12-C10-O11=118.42             
 
 selected dihedral angles (degree)
 ---------------------------------
C3-C2-C1-H17=116.71           C3-C2-C1-H18=356.54           C3-C2-C1-H19=235.56           C8-C2-C1-H17=296.98           
C8-C2-C1-H18=176.80           C8-C2-C1-H19= 55.82           C4-C3-C2-C1=180.49            C4-C3-C2-C8=  0.23            
H20-C3-C2-C1=  0.20           H20-C3-C2-C8=179.94           C5-C4-C3-C2=359.78            C5-C4-C3-H20=180.06           
H21-C4-C3-C2=179.69           H21-C4-C3-H20=359.97          C6-C5-C4-C3=  0.08            C6-C5-C4-H21=180.17           
H22-C5-C4-C3=179.81           H22-C5-C4-H21=359.90          F7-C6-C5-C4=180.67            F7-C6-C5-H22=  0.94           
C8-C6-C5-C4=  0.06            C8-C6-C5-H22=180.32           C6-C8-C2-C1=179.65            C6-C8-C2-C3=359.91            
C9-C8-C2-C1=  0.17            C9-C8-C2-C3=180.43            C2-C8-C6-C5=359.95            C2-C8-C6-F7=179.33            
C9-C8-C6-C5=179.44            C9-C8-C6-F7=358.82            C10-C9-C8-C2=266.34           C10-C9-C8-C6= 86.86           
C15-C9-C8-C2= 86.39           C15-C9-C8-C6=266.91           O11-C10-C9-C8=  0.52          O11-C10-C9-C15=180.47         
C12-C10-C9-C8=179.64          C12-C10-C9-C15=359.60         
           -------------------------------------------------
          |                Final Singlepoint                |
           -------------------------------------------------

          ...................................................
          :                      SETUP                      :
          :.................................................:
          :  # basis functions                  74          :
          :  # atomic orbitals                  74          :
          :  # shells                           42          :
          :  # electrons                        82          :
          :  max. iterations                   250          :
          :  Hamiltonian                  GFN2-xTB          :
          :  restarted?                      false          :
          :  GBSA solvation                  false          :
          :  PC potential                    false          :
          :  electronic temp.          298.1500000     K    :
          :  accuracy                    1.0000000          :
          :  -> integral cutoff          0.2500000E+02      :
          :  -> integral neglect         0.1000000E-07      :
          :  -> SCF convergence          0.1000000E-05 Eh   :
          :  -> wf. convergence          0.1000000E-03 e    :
          :  Broyden damping             0.4000000          :
          ...................................................

 iter      E             dE          RMSdq      gap      omega  full diag
   1    -47.1208610 -0.471209E+02  0.897E-05    4.08       0.0  T
   2    -47.1208610 -0.208331E-10  0.584E-05    4.08     335.9  T
   3    -47.1208610 -0.819256E-11  0.408E-05    4.08     480.6  T

   *** convergence criteria satisfied after 3 iterations ***

         #    Occupation            Energy/Eh            Energy/eV
      -------------------------------------------------------------
         1        2.0000           -0.8187839             -22.2802
       ...           ...                  ...                  ...
        35        2.0000           -0.4560421             -12.4095
        36        2.0000           -0.4520217             -12.3001
        37        2.0000           -0.4340608             -11.8114
        38        2.0000           -0.4162306             -11.3262
        39        2.0000           -0.4128469             -11.2341
        40        2.0000           -0.4102835             -11.1644
        41        2.0000           -0.3962313             -10.7820 (HOMO)
        42                         -0.2463100              -6.7024 (LUMO)
        43                         -0.2390757              -6.5056
        44                         -0.2374729              -6.4620
        45                         -0.2284099              -6.2154
        46                         -0.1153205              -3.1380
       ...                                ...                  ...
        74                          0.6646361              18.0857
      -------------------------------------------------------------
                  HL-Gap            0.1499212 Eh            4.0796 eV
             Fermi-level           -0.3212707 Eh           -8.7422 eV

 SCC (total)                   0 d,  0 h,  0 min,  0.010 sec
 SCC setup                      ...        0 min,  0.000 sec (  1.074%)
 Dispersion                     ...        0 min,  0.000 sec (  0.987%)
 classical contributions        ...        0 min,  0.000 sec (  0.183%)
 integral evaluation            ...        0 min,  0.002 sec ( 15.119%)
 iterations                     ...        0 min,  0.004 sec ( 39.459%)
 molecular gradient             ...        0 min,  0.004 sec ( 41.355%)
 printout                       ...        0 min,  0.000 sec (  1.620%)

         :::::::::::::::::::::::::::::::::::::::::::::::::::::
         ::                     SUMMARY                     ::
         :::::::::::::::::::::::::::::::::::::::::::::::::::::
         :: total energy             -46.467630343889 Eh    ::
         :: gradient norm              0.000732413683 Eh/a0 ::
         :: HOMO-LUMO gap              4.079564034454 eV    ::
         ::.................................................::
         :: SCC energy               -47.120860981253 Eh    ::
         :: -> isotropic ES            0.045118253342 Eh    ::
         :: -> anisotropic ES          0.002315814572 Eh    ::
         :: -> anisotropic XC          0.007830054208 Eh    ::
         :: -> dispersion             -0.027557260243 Eh    ::
         :: repulsion energy           0.652981245075 Eh    ::
         :: add. restraining           0.000000000000 Eh    ::
         :: total charge              -0.000000000000 e     ::
         :::::::::::::::::::::::::::::::::::::::::::::::::::::

           -------------------------------------------------
          |                Property Printout                |
           -------------------------------------------------

    * Orbital Energies and Occupations

         #    Occupation            Energy/Eh            Energy/eV
      -------------------------------------------------------------
         1        2.0000           -0.8187839             -22.2802
       ...           ...                  ...                  ...
        29        2.0000           -0.4916416             -13.3783
        30        2.0000           -0.4755696             -12.9409
        31        2.0000           -0.4732767             -12.8785
        32        2.0000           -0.4694857             -12.7754
        33        2.0000           -0.4659693             -12.6797
        34        2.0000           -0.4590621             -12.4917
        35        2.0000           -0.4560421             -12.4095
        36        2.0000           -0.4520217             -12.3001
        37        2.0000           -0.4340608             -11.8114
        38        2.0000           -0.4162306             -11.3262
        39        2.0000           -0.4128469             -11.2341
        40        2.0000           -0.4102835             -11.1644
        41        2.0000           -0.3962313             -10.7820 (HOMO)
        42                         -0.2463100              -6.7024 (LUMO)
        43                         -0.2390757              -6.5056
        44                         -0.2374729              -6.4620
        45                         -0.2284099              -6.2154
        46                         -0.1153205              -3.1380
        47                         -0.1050212              -2.8578
        48                          0.0352532               0.9593
        49                          0.0444480               1.2095
        50                          0.0688688               1.8740
        51                          0.0834425               2.2706
        52                          0.1115952               3.0367
       ...                                ...                  ...
        74                          0.6646361              18.0857
      -------------------------------------------------------------
                  HL-Gap            0.1499212 Eh            4.0796 eV
             Fermi-level           -0.3212707 Eh           -8.7422 eV

     #   Z          covCN         q      C6AA      α(0)
     1   6 C        3.758    -0.110    22.655     6.786
     2   6 C        2.971     0.017    27.621     8.621
     3   6 C        2.922    -0.046    29.133     8.851
     4   6 C        2.923    -0.031    28.771     8.796
     5   6 C        2.916    -0.055    29.358     8.885
     6   6 C        2.789     0.161    24.503     8.108
     7   9 F        0.787    -0.228    11.523     4.010
     8   6 C        2.978    -0.011    28.285     8.724
     9   6 C        2.973    -0.034    28.844     8.810
    10   6 C        2.853     0.147    24.810     8.164
    11   8 O        1.660    -0.382    20.504     6.113
    12   6 C        2.917    -0.060    29.498     8.906
    13   6 C        2.925    -0.031    28.762     8.795
    14   6 C        2.916    -0.062    29.546     8.914
    15   6 C        2.790     0.166    24.410     8.093
    16   9 F        0.787    -0.227    11.519     4.009
    17   1 H        0.925     0.060     2.202     2.320
    18   1 H        0.925     0.048     2.347     2.396
    19   1 H        0.925     0.051     2.307     2.375
    20   1 H        0.926     0.044     2.392     2.419
    21   1 H        0.926     0.046     2.369     2.407
    22   1 H        0.926     0.058     2.220     2.330
    23   1 H        0.805     0.305     0.706     1.319
    24   1 H        0.926     0.062     2.178     2.308
    25   1 H        0.926     0.051     2.308     2.375
    26   1 H        0.926     0.060     2.204     2.321

 Mol. C6AA /au·bohr⁶  :       8726.105196
 Mol. C8AA /au·bohr⁸  :     214225.553272
 Mol. α(0) /au        :        147.155703


Wiberg/Mayer (AO) data.
largest (>0.10) Wiberg bond orders for each atom

 ---------------------------------------------------------------------------
     #   Z sym  total        # sym  WBO       # sym  WBO       # sym  WBO
 ---------------------------------------------------------------------------
     1   6 C    3.995 --     2 C    1.030    18 H    0.985    19 H    0.971
                            17 H    0.967
     2   6 C    3.987 --     3 C    1.416     8 C    1.367     1 C    1.030
                             5 C    0.106
     3   6 C    3.990 --     4 C    1.439     2 C    1.416    20 H    0.967
     4   6 C    3.990 --     3 C    1.439     5 C    1.439    21 H    0.970
                             8 C    0.106
     5   6 C    3.988 --     4 C    1.439     6 C    1.395    22 H    0.966
                             2 C    0.106
     6   6 C    3.884 --     5 C    1.395     8 C    1.370     7 F    0.957
     7   9 F    1.088 --     6 C    0.957
     8   6 C    3.987 --     6 C    1.370     2 C    1.367     9 C    1.004
                             4 C    0.106
     9   6 C    3.983 --    15 C    1.369    10 C    1.337     8 C    1.004
                            13 C    0.102
    10   6 C    3.942 --    12 C    1.363     9 C    1.337    11 O    1.087
    11   8 O    2.136 --    10 C    1.087    23 H    0.879
    12   6 C    3.986 --    13 C    1.458    10 C    1.363    24 H    0.966
    13   6 C    3.990 --    12 C    1.458    14 C    1.425    25 H    0.970
                             9 C    0.102
    14   6 C    3.987 --    13 C    1.425    15 C    1.400    26 H    0.966
    15   6 C    3.885 --    14 C    1.400     9 C    1.369    16 F    0.957
    16   9 F    1.087 --    15 C    0.957
    17   1 H    0.996 --     1 C    0.967
    18   1 H    0.997 --     1 C    0.985
    19   1 H    0.997 --     1 C    0.971
    20   1 H    0.997 --     3 C    0.967
    21   1 H    0.997 --     4 C    0.970
    22   1 H    0.995 --     5 C    0.966
    23   1 H    0.907 --    11 O    0.879
    24   1 H    0.995 --    12 C    0.966
    25   1 H    0.997 --    13 C    0.970
    26   1 H    0.995 --    14 C    0.966
 ---------------------------------------------------------------------------

Topologies differ in total number of bonds
Writing topology from bond orders to xtbtopo.mol

molecular dipole:
                 x           y           z       tot (Debye)
 q only:        0.256       1.039       0.039
   full:        0.466       0.981      -0.037       2.762
molecular quadrupole (traceless):
                xx          xy          yy          xz          yz          zz
 q only:       11.361       1.782      -5.331       2.340      -1.650      -6.030
  q+dip:       15.054       1.764      -6.647       4.397      -2.458      -8.406
   full:       12.585       1.797      -5.369       4.165      -2.245      -7.216

           -------------------------------------------------
          |                Geometry Summary                 |
           -------------------------------------------------

      molecular mass/u    :      220.2151854
   center of mass at/Å    :       -0.0673435      -0.3553701       0.0767915
  moments of inertia/u·Å² :        0.5658044E+03   0.1197617E+04   0.1232961E+04
rotational constants/cm⁻¹ :        0.2979410E-01   0.1407598E-01   0.1367248E-01

 * 23 selected distances

     #   Z          #   Z                                           value/Å
     2   6 C        3   6 C                                       1.3880388
     3   6 C        4   6 C                                       1.3844225
     4   6 C        5   6 C                                       1.3829786
     5   6 C        6   6 C                                       1.3820293
     2   6 C        8   6 C                                       1.3982292 (max)
     6   6 C        8   6 C                                       1.3894383
     9   6 C       10   6 C                                       1.3977442
    10   6 C       11   8 O                                       1.3558535
    10   6 C       12   6 C                                       1.3912661
    12   6 C       13   6 C                                       1.3806453
    13   6 C       14   6 C                                       1.3849980
     9   6 C       15   6 C                                       1.3879945
    14   6 C       15   6 C                                       1.3804529
     1   6 C       17   1 H                                       1.0894013
     1   6 C       18   1 H                                       1.0865030
     1   6 C       19   1 H                                       1.0897877
     3   6 C       20   1 H                                       1.0797423
     4   6 C       21   1 H                                       1.0789541
     5   6 C       22   1 H                                       1.0779793
    11   8 O       23   1 H                                       0.9673264 (min)
    12   6 C       24   1 H                                       1.0777228
    13   6 C       25   1 H                                       1.0785249
    14   6 C       26   1 H                                       1.0776359

 * 4 distinct bonds (by element types)

   Z      Z             #   av. dist./Å        max./Å        min./Å
   1 H    6 C           9     1.0818057     1.0897877     1.0776359
   6 C    6 C          12     1.3873531     1.3982292     1.3804529
   1 H    8 O           1     0.9673264     0.9673264     0.9673264
   6 C    8 O           1     1.3558535     1.3558535     1.3558535


optimized geometry written to: xtbopt.xyz


           -------------------------------------------------
          | TOTAL ENERGY              -46.467630343889 Eh   |
          | GRADIENT NORM               0.000732413683 Eh/α |
          | HOMO-LUMO GAP               4.079564034454 eV   |
           -------------------------------------------------

------------------------------------------------------------------------
 * finished run on 2026/07/23 at 12:55:31.070     
------------------------------------------------------------------------
 total:
 * wall-time:     0 d,  0 h,  0 min,  0.326 sec
 *  cpu-time:     0 d,  0 h,  0 min,  1.270 sec
 * ratio c/w:     3.901 speedup
 SCF:
 * wall-time:     0 d,  0 h,  0 min,  0.026 sec
 *  cpu-time:     0 d,  0 h,  0 min,  0.101 sec
 * ratio c/w:     3.873 speedup
 ANC optimizer:
 * wall-time:     0 d,  0 h,  0 min,  0.284 sec
 *  cpu-time:     0 d,  0 h,  0 min,  1.120 sec
 * ratio c/w:     3.946 speedup

