26
 energy: -46.466514613107 gnorm: 0.000242576953 xtb: 6.6.1 (8d0f1dd)
C            0.97072771769779        1.95268142750894       -0.81754263966042
C            1.55208869483127        0.67267547315978       -0.30208910809004
C            2.92326271881654        0.50335358016880       -0.17114298520945
C            3.45736354405433       -0.68196994144081        0.30310936411173
C            2.62512595692941       -1.72676151840555        0.66075503577698
C            1.26064853539099       -1.55440192155279        0.53047057441835
F            0.43967571623384       -2.56977893532997        0.88093284397635
C            0.70369272531911       -0.37640096099639        0.05394454898371
C           -0.76816376200361       -0.25662730499097       -0.06688279640056
C           -1.53569777533845        0.20690043027891        1.00610509326983
O           -0.88046546479757        0.57760106395900        2.13586587455295
C           -2.91804224658878        0.28679244315546        0.89029831094006
C           -3.54626459491131       -0.09042300718035       -0.28291460248582
C           -2.80669405336758       -0.54745110130148       -1.35772000732745
C           -1.43207796758621       -0.62257859377916       -1.22735468731834
F           -0.70376945695666       -1.06104241971649       -2.27564488370921
H            1.75249551395662        2.68112960846749       -1.01386604960381
H            0.27481325692689        2.37028325816792       -0.09153963586660
H            0.42054372642186        1.77379760999050       -1.74054252397479
H            3.58258812968882        1.31333139805849       -0.44642516375324
H            4.52695256755719       -0.79370283048794        0.39553981043355
H            3.01229073409516       -2.66142191136758        1.03370139756034
H           -1.51586997558726        0.83455671241416        2.81483636718681
H           -3.50160722688986        0.64353698866714        1.72812958868529
H           -4.62053557325177       -0.02649976972062       -0.35839950059358
H           -3.27308244064077       -0.84757977772655       -2.28162522590268
