      -----------------------------------------------------------      
     |                   =====================                   |     
     |                           x T B                           |     
     |                   =====================                   |     
     |                         S. Grimme                         |     
     |          Mulliken Center for Theoretical Chemistry        |     
     |                    University of Bonn                     |     
      -----------------------------------------------------------      

   * xtb version 6.6.1 (8d0f1dd) compiled by 'stahn@M-Bot' on 2023-08-01

   xtb is free software: you can redistribute it and/or modify it under
   the terms of the GNU Lesser General Public License as published by
   the Free Software Foundation, either version 3 of the License, or
   (at your option) any later version.
   
   xtb is distributed in the hope that it will be useful,
   but WITHOUT ANY WARRANTY; without even the implied warranty of
   MERCHANTABILITY or FITNESS FOR A PARTICULAR PURPOSE.  See the
   GNU Lesser General Public License for more details.
   
   Cite this work as:
   * C. Bannwarth, E. Caldeweyher, S. Ehlert, A. Hansen, P. Pracht,
     J. Seibert, S. Spicher, S. Grimme, WIREs Comput. Mol. Sci., 2020, 11,
     e01493. DOI: 10.1002/wcms.1493
   
   for GFN2-xTB:
   * C. Bannwarth, S. Ehlert and S. Grimme., J. Chem. Theory Comput., 2019,
     15, 1652-1671. DOI: 10.1021/acs.jctc.8b01176
   for GFN1-xTB:
   * S. Grimme, C. Bannwarth, P. Shushkov, J. Chem. Theory Comput., 2017,
     13, 1989-2009. DOI: 10.1021/acs.jctc.7b00118
   for GFN0-xTB:
   * P. Pracht, E. Caldeweyher, S. Ehlert, S. Grimme, ChemRxiv, 2019, preprint.
     DOI: 10.26434/chemrxiv.8326202.v1
   for GFN-FF:
   * S. Spicher and S. Grimme, Angew. Chem. Int. Ed., 2020, 59, 15665-15673.
     DOI: 10.1002/anie.202004239
   
   for ALPB and GBSA implicit solvation:
   * S. Ehlert, M. Stahn, S. Spicher, S. Grimme, J. Chem. Theory Comput.,
     2021, 17, 4250-4261. DOI: 10.1021/acs.jctc.1c00471
   
   for DFT-D4:
   * E. Caldeweyher, C. Bannwarth and S. Grimme, J. Chem. Phys., 2017,
     147, 034112. DOI: 10.1063/1.4993215
   * E. Caldeweyher, S. Ehlert, A. Hansen, H. Neugebauer, S. Spicher,
     C. Bannwarth and S. Grimme, J. Chem. Phys., 2019, 150, 154122.
     DOI: 10.1063/1.5090222
   * E. Caldeweyher, J.-M. Mewes, S. Ehlert and S. Grimme, Phys. Chem. Chem. Phys.
     2020, 22, 8499-8512. DOI: 10.1039/D0CP00502A
   
   for sTDA-xTB:
   * S. Grimme and C. Bannwarth, J. Chem. Phys., 2016, 145, 054103.
     DOI: 10.1063/1.4959605
   
   in the mass-spec context:
   * V. Asgeirsson, C. Bauer and S. Grimme, Chem. Sci., 2017, 8, 4879.
     DOI: 10.1039/c7sc00601b
   * J. Koopman and S. Grimme, ACS Omega 2019, 4, 12, 15120-15133.
     DOI: 10.1021/acsomega.9b02011
   
   for metadynamics refer to:
   * S. Grimme, J. Chem. Theory Comput., 2019, 155, 2847-2862
     DOI: 10.1021/acs.jctc.9b00143
   
   for SPH calculations refer to:
   * S. Spicher and S. Grimme, J. Chem. Theory Comput., 2021, 17, 1701-1714
     DOI: 10.1021/acs.jctc.0c01306
   
   with help from (in alphabetical order)
   P. Atkinson, C. Bannwarth, F. Bohle, G. Brandenburg, E. Caldeweyher
   M. Checinski, S. Dohm, S. Ehlert, S. Ehrlich, I. Gerasimov, C. Hölzer
   A. Katbashev, J. Koopman, C. Lavigne, S. Lehtola, F. März, M. Müller,
   F. Musil, H. Neugebauer, J. Pisarek, C. Plett, P. Pracht, F. Pultar,
   J. Seibert, P. Shushkov, S. Spicher, M. Stahn, M. Steiner, T. Strunk,
   J. Stückrath, T. Rose, and J. Unsleber
   
 * started run on 2026/07/23 at 12:55:31.076     

           -------------------------------------------------
          |                Calculation Setup                |
           -------------------------------------------------

          program call               : /path/to/xtb /path/to/atropisomers_workflow/example/reactant_censo/confs/11.xyz --opt --etemp 298.15 --chrg 0 --uhf 0 -P 4
          hostname                   : node
          coordinate file            : /path/to/atropisomers_workflow/example/reactant_censo/confs/11.xyz
          omp threads                :                     4

   ID    Z sym.   atoms
    1    6 C      1-6, 8-10, 12-15
    2    9 F      7, 16
    3    8 O      11
    4    1 H      17-26

           -------------------------------------------------
          |                 G F N 2 - x T B                 |
           -------------------------------------------------

        Reference                      10.1021/acs.jctc.8b01176
      * Hamiltonian:
        H0-scaling (s, p, d)           1.850000    2.230000    2.230000
        zeta-weighting                 0.500000
      * Dispersion:
        s8                             2.700000
        a1                             0.520000
        a2                             5.000000
        s9                             5.000000
      * Repulsion:
        kExp                           1.500000    1.000000
        rExp                           1.000000
      * Coulomb:
        alpha                          2.000000
        third order                    shell-resolved
        anisotropic                    true
        a3                             3.000000
        a5                             4.000000
        cn-shift                       1.200000
        cn-exp                         4.000000
        max-rad                        5.000000


          ...................................................
          :                      SETUP                      :
          :.................................................:
          :  # basis functions                  74          :
          :  # atomic orbitals                  74          :
          :  # shells                           42          :
          :  # electrons                        82          :
          :  max. iterations                   250          :
          :  Hamiltonian                  GFN2-xTB          :
          :  restarted?                      false          :
          :  GBSA solvation                  false          :
          :  PC potential                    false          :
          :  electronic temp.          298.1500000     K    :
          :  accuracy                    1.0000000          :
          :  -> integral cutoff          0.2500000E+02      :
          :  -> integral neglect         0.1000000E-07      :
          :  -> SCF convergence          0.1000000E-05 Eh   :
          :  -> wf. convergence          0.1000000E-03 e    :
          :  Broyden damping             0.4000000          :
          ...................................................

 iter      E             dE          RMSdq      gap      omega  full diag
   1    -47.0532980 -0.470533E+02  0.436E+00    4.36       0.0  T
   2    -47.0916849 -0.383870E-01  0.265E+00    4.29       1.0  T
   3    -47.0859112  0.577370E-02  0.142E+00    4.32       1.0  T
   4    -47.1048601 -0.189489E-01  0.243E-01    4.32       1.0  T
   5    -47.1052073 -0.347217E-03  0.108E-01    4.34       1.0  T
   6    -47.1054471 -0.239748E-03  0.471E-02    4.33       1.0  T
   7    -47.1054618 -0.147218E-04  0.185E-02    4.33       1.1  T
   8    -47.1054652 -0.338397E-05  0.756E-03    4.33       2.6  T
   9    -47.1054655 -0.348177E-06  0.171E-03    4.33      11.5  T
  10    -47.1054655 -0.137640E-07  0.716E-04    4.33      27.4  T
  11    -47.1054655 -0.126971E-08  0.332E-04    4.33      59.1  T

   *** convergence criteria satisfied after 11 iterations ***

         #    Occupation            Energy/Eh            Energy/eV
      -------------------------------------------------------------
         1        2.0000           -0.8179009             -22.2562
       ...           ...                  ...                  ...
        35        2.0000           -0.4523586             -12.3093
        36        2.0000           -0.4406029             -11.9894
        37        2.0000           -0.4282912             -11.6544
        38        2.0000           -0.4104104             -11.1678
        39        2.0000           -0.4044638             -11.0060
        40        2.0000           -0.3988510             -10.8533
        41        2.0000           -0.3977872             -10.8243 (HOMO)
        42                         -0.2385545              -6.4914 (LUMO)
        43                         -0.2300180              -6.2591
        44                         -0.2291077              -6.2343
        45                         -0.2239720              -6.0946
        46                         -0.1042321              -2.8363
       ...                                ...                  ...
        74                          0.6888434              18.7444
      -------------------------------------------------------------
                  HL-Gap            0.1592327 Eh            4.3329 eV
             Fermi-level           -0.3181708 Eh           -8.6579 eV

 SCC (total)                   0 d,  0 h,  0 min,  0.026 sec
 SCC setup                      ...        0 min,  0.000 sec (  0.849%)
 Dispersion                     ...        0 min,  0.000 sec (  0.922%)
 classical contributions        ...        0 min,  0.000 sec (  0.080%)
 integral evaluation            ...        0 min,  0.002 sec (  6.393%)
 iterations                     ...        0 min,  0.020 sec ( 73.999%)
 molecular gradient             ...        0 min,  0.004 sec ( 16.911%)
 printout                       ...        0 min,  0.000 sec (  0.766%)

         :::::::::::::::::::::::::::::::::::::::::::::::::::::
         ::                     SUMMARY                     ::
         :::::::::::::::::::::::::::::::::::::::::::::::::::::
         :: total energy             -46.452984493876 Eh    ::
         :: gradient norm              0.084652456270 Eh/a0 ::
         :: HOMO-LUMO gap              4.332942863994 eV    ::
         ::.................................................::
         :: SCC energy               -47.105465541401 Eh    ::
         :: -> isotropic ES            0.047170148150 Eh    ::
         :: -> anisotropic ES          0.002775677363 Eh    ::
         :: -> anisotropic XC          0.007882281034 Eh    ::
         :: -> dispersion             -0.027672687184 Eh    ::
         :: repulsion energy           0.652238369953 Eh    ::
         :: add. restraining           0.000000000000 Eh    ::
         :: total charge               0.000000000000 e     ::
         :::::::::::::::::::::::::::::::::::::::::::::::::::::

      ----------------------------------------------------------- 
     |                   =====================                   |
     |                        A N C O P T                        |
     |                   =====================                   |
     |               Approximate Normal Coordinate               |
     |                Rational Function Optimizer                |
      ----------------------------------------------------------- 

          ...................................................
          :                      SETUP                      :
          :.................................................:
          :   optimization level            normal          :
          :   max. optcycles                   200          :
          :   ANC micro-cycles                  20          :
          :   degrees of freedom                72          :
          :.................................................:
          :   RF solver                   davidson          :
          :   write xtbopt.log                true          :
          :   linear?                        false          :
          :   energy convergence         0.5000000E-05 Eh   :
          :   grad. convergence          0.1000000E-02 Eh/α :
          :   maxmium RF displ.          1.0000000          :
          :   Hlow (freq-cutoff)         0.1000000E-01      :
          :   Hmax (freq-cutoff)         5.0000000          :
          :   S6 in model hess.         20.0000000          :
          ...................................................

generating ANC from model Hessian ...
Using Lindh-Hessian (1995)
 Shifting diagonal of input Hessian by   8.651518961489872E-003
 Lowest  eigenvalues of input Hessian
    0.000000    0.000000    0.000000    0.000000    0.000000    0.000000
    0.010000    0.010497    0.010720    0.013978    0.015028    0.016910
    0.020251    0.022179    0.025199    0.030041    0.031103    0.031266
 Highest eigenvalues
    1.932307    1.934283    2.054071    2.099474    2.128722    2.188002
 

........................................................................
.............................. CYCLE    1 ..............................
........................................................................

 iter      E             dE          RMSdq      gap      omega  full diag
   1    -47.1054655 -0.471055E+02  0.111E-04    4.33       0.0  T
   2    -47.1054655 -0.402167E-10  0.667E-05    4.33     294.2  T
   3    -47.1054655 -0.150422E-10  0.442E-05    4.33     444.1  T
     SCC iter.                  ...        0 min,  0.004 sec
     gradient                   ...        0 min,  0.004 sec
 * total energy  :   -46.4529845 Eh     change       -0.1117002E-08 Eh
   gradient norm :     0.0846526 Eh/α   predicted     0.0000000E+00 (-100.00%)
   displ. norm   :     0.2773166 α      lambda       -0.1424193E-01
   maximum displ.:     0.1043201 α      in ANC's #40, #15, #5, ...

........................................................................
.............................. CYCLE    2 ..............................
........................................................................

 iter      E             dE          RMSdq      gap      omega  full diag
   1    -47.1149628 -0.471150E+02  0.294E-01    4.25       0.0  T
   2    -47.1151067 -0.143978E-03  0.179E-01    4.29       1.0  T
   3    -47.1150487  0.580496E-04  0.729E-02    4.29       1.0  T
   4    -47.1151260 -0.772974E-04  0.204E-02    4.29       1.0  T
   5    -47.1151332 -0.720787E-05  0.603E-03    4.29       3.3  T
   6    -47.1151339 -0.702217E-06  0.265E-03    4.29       7.4  T
   7    -47.1151339 -0.499617E-07  0.111E-03    4.29      17.7  T
   8    -47.1151340 -0.541613E-08  0.421E-04    4.29      46.6  T
   9    -47.1151340 -0.232888E-08  0.119E-04    4.29     164.6  T
     SCC iter.                  ...        0 min,  0.012 sec
     gradient                   ...        0 min,  0.004 sec
 * total energy  :   -46.4628258 Eh     change       -0.9841350E-02 Eh
   gradient norm :     0.0367696 Eh/α   predicted    -0.7669568E-02 ( -22.07%)
   displ. norm   :     0.2275045 α      lambda       -0.4272387E-02
   maximum displ.:     0.1050286 α      in ANC's #15, #5, #40, ...

........................................................................
.............................. CYCLE    3 ..............................
........................................................................

 iter      E             dE          RMSdq      gap      omega  full diag
   1    -47.1191716 -0.471192E+02  0.202E-01    4.26       0.0  T
   2    -47.1192587 -0.871459E-04  0.121E-01    4.29       1.0  T
   3    -47.1192407  0.180150E-04  0.543E-02    4.29       1.0  T
   4    -47.1192703 -0.296193E-04  0.146E-02    4.29       1.3  T
   5    -47.1192731 -0.281452E-05  0.456E-03    4.29       4.3  T
   6    -47.1192735 -0.412418E-06  0.194E-03    4.29      10.1  T
   7    -47.1192736 -0.273778E-07  0.927E-04    4.29      21.2  T
   8    -47.1192736 -0.403995E-08  0.368E-04    4.29      53.3  T
     SCC iter.                  ...        0 min,  0.010 sec
     gradient                   ...        0 min,  0.004 sec
 * total energy  :   -46.4652793 Eh     change       -0.2453432E-02 Eh
   gradient norm :     0.0116783 Eh/α   predicted    -0.2247291E-02 (  -8.40%)
   displ. norm   :     0.1372077 α      lambda       -0.4383162E-03
   maximum displ.:     0.0820763 α      in ANC's #5, #2, #15, ...

........................................................................
.............................. CYCLE    4 ..............................
........................................................................

 iter      E             dE          RMSdq      gap      omega  full diag
   1    -47.1191951 -0.471192E+02  0.554E-02    4.30       0.0  T
   2    -47.1191982 -0.309737E-05  0.323E-02    4.30       1.0  T
   3    -47.1191974  0.848307E-06  0.101E-02    4.30       1.9  T
   4    -47.1191987 -0.129541E-05  0.264E-03    4.30       7.4  T
   5    -47.1191988 -0.856175E-07  0.108E-03    4.30      18.1  T
   6    -47.1191988 -0.115374E-07  0.590E-04    4.30      33.3  T
   7    -47.1191988 -0.213311E-08  0.238E-04    4.30      82.5  T
     SCC iter.                  ...        0 min,  0.009 sec
     gradient                   ...        0 min,  0.004 sec
 * total energy  :   -46.4655929 Eh     change       -0.3136643E-03 Eh
   gradient norm :     0.0082075 Eh/α   predicted    -0.2232859E-03 ( -28.81%)
   displ. norm   :     0.1714078 α      lambda       -0.2897542E-03
   maximum displ.:     0.1163979 α      in ANC's #2, #5, #6, ...

........................................................................
.............................. CYCLE    5 ..............................
........................................................................

 iter      E             dE          RMSdq      gap      omega  full diag
   1    -47.1193925 -0.471194E+02  0.563E-02    4.32       0.0  T
   2    -47.1193936 -0.111531E-05  0.335E-02    4.32       1.0  T
   3    -47.1193920  0.157060E-05  0.881E-03    4.32       2.2  T
   4    -47.1193940 -0.196313E-05  0.144E-03    4.32      13.6  T
   5    -47.1193940 -0.185307E-07  0.764E-04    4.32      25.7  T
   6    -47.1193940 -0.276968E-08  0.380E-04    4.32      51.6  T
     SCC iter.                  ...        0 min,  0.008 sec
     gradient                   ...        0 min,  0.004 sec
 * total energy  :   -46.4657884 Eh     change       -0.1954231E-03 Eh
   gradient norm :     0.0060635 Eh/α   predicted    -0.1492148E-03 ( -23.65%)
   displ. norm   :     0.1328675 α      lambda       -0.1293408E-03
   maximum displ.:     0.0993178 α      in ANC's #2, #5, #6, ...

........................................................................
.............................. CYCLE    6 ..............................
........................................................................

 iter      E             dE          RMSdq      gap      omega  full diag
   1    -47.1197835 -0.471198E+02  0.453E-02    4.33       0.0  T
   2    -47.1197842 -0.680488E-06  0.270E-02    4.32       1.0  T
   3    -47.1197830  0.111962E-05  0.731E-03    4.32       2.7  T
   4    -47.1197844 -0.135478E-05  0.112E-03    4.32      17.5  T
   5    -47.1197844 -0.127207E-07  0.556E-04    4.32      35.3  T
   6    -47.1197844 -0.128119E-08  0.315E-04    4.32      62.2  T
     SCC iter.                  ...        0 min,  0.008 sec
     gradient                   ...        0 min,  0.004 sec
 * total energy  :   -46.4658866 Eh     change       -0.9823280E-04 Eh
   gradient norm :     0.0049967 Eh/α   predicted    -0.6583574E-04 ( -32.98%)
   displ. norm   :     0.1481141 α      lambda       -0.1116183E-03
   maximum displ.:     0.1129371 α      in ANC's #2, #6, #5, ...

........................................................................
.............................. CYCLE    7 ..............................
........................................................................

 iter      E             dE          RMSdq      gap      omega  full diag
   1    -47.1199969 -0.471200E+02  0.523E-02    4.32       0.0  T
   2    -47.1199975 -0.664201E-06  0.311E-02    4.32       1.0  T
   3    -47.1199965  0.104741E-05  0.673E-03    4.32       2.9  T
   4    -47.1199978 -0.126930E-05  0.134E-03    4.32      14.6  T
   5    -47.1199978 -0.178254E-07  0.662E-04    4.32      29.6  T
   6    -47.1199978 -0.273393E-08  0.365E-04    4.32      53.8  T
     SCC iter.                  ...        0 min,  0.008 sec
     gradient                   ...        0 min,  0.004 sec
 * total energy  :   -46.4659722 Eh     change       -0.8563060E-04 Eh
   gradient norm :     0.0037107 Eh/α   predicted    -0.5706949E-04 ( -33.35%)
   displ. norm   :     0.1586280 α      lambda       -0.9083514E-04
   maximum displ.:     0.1200400 α      in ANC's #2, #6, #1, ...

........................................................................
.............................. CYCLE    8 ..............................
........................................................................

 iter      E             dE          RMSdq      gap      omega  full diag
   1    -47.1200745 -0.471201E+02  0.538E-02    4.32       0.0  T
   2    -47.1200750 -0.506060E-06  0.320E-02    4.32       1.0  T
   3    -47.1200743  0.786679E-06  0.557E-03    4.32       3.5  T
   4    -47.1200752 -0.968309E-06  0.140E-03    4.32      14.0  T
   5    -47.1200752 -0.201922E-07  0.732E-04    4.32      26.8  T
   6    -47.1200753 -0.514635E-08  0.345E-04    4.32      56.9  T
     SCC iter.                  ...        0 min,  0.008 sec
     gradient                   ...        0 min,  0.004 sec
 * total energy  :   -46.4660406 Eh     change       -0.6840848E-04 Eh
   gradient norm :     0.0030498 Eh/α   predicted    -0.4656185E-04 ( -31.94%)
   displ. norm   :     0.1617838 α      lambda       -0.6734367E-04
   maximum displ.:     0.1173172 α      in ANC's #2, #6, #1, ...

........................................................................
.............................. CYCLE    9 ..............................
........................................................................

 iter      E             dE          RMSdq      gap      omega  full diag
   1    -47.1199118 -0.471199E+02  0.524E-02    4.32       0.0  T
   2    -47.1199121 -0.310345E-06  0.311E-02    4.31       1.0  T
   3    -47.1199116  0.478470E-06  0.452E-03    4.31       4.3  T
   4    -47.1199122 -0.628724E-06  0.125E-03    4.31      15.7  T
   5    -47.1199122 -0.869869E-08  0.715E-04    4.31      27.4  T
   6    -47.1199122 -0.513037E-08  0.223E-04    4.31      87.8  T
     SCC iter.                  ...        0 min,  0.008 sec
     gradient                   ...        0 min,  0.004 sec
 * total energy  :   -46.4660900 Eh     change       -0.4934950E-04 Eh
   gradient norm :     0.0028202 Eh/α   predicted    -0.3455536E-04 ( -29.98%)
   displ. norm   :     0.1642702 α      lambda       -0.5635284E-04
   maximum displ.:     0.1113714 α      in ANC's #2, #6, #1, ...

........................................................................
.............................. CYCLE   10 ..............................
........................................................................

 iter      E             dE          RMSdq      gap      omega  full diag
   1    -47.1203355 -0.471203E+02  0.502E-02    4.31       0.0  T
   2    -47.1203358 -0.263034E-06  0.297E-02    4.31       1.0  T
   3    -47.1203353  0.478870E-06  0.455E-03    4.31       4.3  T
   4    -47.1203359 -0.612336E-06  0.115E-03    4.31      17.0  T
   5    -47.1203360 -0.857202E-08  0.656E-04    4.31      29.9  T
   6    -47.1203360 -0.362051E-08  0.203E-04    4.31      96.6  T
     SCC iter.                  ...        0 min,  0.008 sec
     gradient                   ...        0 min,  0.004 sec
 * total energy  :   -46.4661260 Eh     change       -0.3600524E-04 Eh
   gradient norm :     0.0043417 Eh/α   predicted    -0.2893835E-04 ( -19.63%)
   displ. norm   :     0.1265815 α      lambda       -0.4132044E-04
   maximum displ.:     0.0877997 α      in ANC's #6, #2, #1, ...

........................................................................
.............................. CYCLE   11 ..............................
........................................................................

 iter      E             dE          RMSdq      gap      omega  full diag
   1    -47.1203007 -0.471203E+02  0.388E-02    4.32       0.0  T
   2    -47.1203009 -0.134867E-06  0.229E-02    4.32       1.0  T
   3    -47.1203008  0.779685E-07  0.251E-03    4.32       7.8  T
   4    -47.1203009 -0.142188E-06  0.844E-04    4.32      23.2  T
   5    -47.1203009 -0.156072E-08  0.404E-04    4.32      48.5  T
     SCC iter.                  ...        0 min,  0.007 sec
     gradient                   ...        0 min,  0.004 sec
 * total energy  :   -46.4661523 Eh     change       -0.2627242E-04 Eh
   gradient norm :     0.0024963 Eh/α   predicted    -0.2099431E-04 ( -20.09%)
   displ. norm   :     0.0970407 α      lambda       -0.4234887E-04
   maximum displ.:     0.0772632 α      in ANC's #6, #2, #5, ...

........................................................................
.............................. CYCLE   12 ..............................
........................................................................

 iter      E             dE          RMSdq      gap      omega  full diag
   1    -47.1213676 -0.471214E+02  0.281E-02    4.32       0.0  T
   2    -47.1213678 -0.193484E-06  0.168E-02    4.32       1.2  T
   3    -47.1213673  0.405073E-06  0.455E-03    4.32       4.3  T
   4    -47.1213678 -0.494011E-06  0.603E-04    4.32      32.5  T
   5    -47.1213678 -0.160199E-08  0.317E-04    4.32      61.9  T
     SCC iter.                  ...        0 min,  0.007 sec
     gradient                   ...        0 min,  0.004 sec
 * total energy  :   -46.4661827 Eh     change       -0.3043675E-04 Eh
   gradient norm :     0.0023924 Eh/α   predicted    -0.2137440E-04 ( -29.77%)
   displ. norm   :     0.1631818 α      lambda       -0.5237901E-04
   maximum displ.:     0.1437726 α      in ANC's #6, #2, #5, ...

........................................................................
.............................. CYCLE   13 ..............................
........................................................................

 iter      E             dE          RMSdq      gap      omega  full diag
   1    -47.1206522 -0.471207E+02  0.411E-02    4.32       0.0  T
   2    -47.1206527 -0.553837E-06  0.245E-02    4.32       1.0  T
   3    -47.1206524  0.321164E-06  0.458E-03    4.32       4.3  T
   4    -47.1206528 -0.419874E-06  0.108E-03    4.32      18.2  T
   5    -47.1206528 -0.143608E-07  0.488E-04    4.32      40.2  T
   6    -47.1206528 -0.368132E-09  0.223E-04    4.32      87.8  T
     SCC iter.                  ...        0 min,  0.008 sec
     gradient                   ...        0 min,  0.004 sec
 * total energy  :   -46.4662103 Eh     change       -0.2757225E-04 Eh
   gradient norm :     0.0040480 Eh/α   predicted    -0.2688818E-04 (  -2.48%)
   displ. norm   :     0.0959133 α      lambda       -0.6901199E-04
   maximum displ.:     0.0628488 α      in ANC's #2, #6, #5, ...

........................................................................
.............................. CYCLE   14 ..............................
........................................................................

 iter      E             dE          RMSdq      gap      omega  full diag
   1    -47.1217446 -0.471217E+02  0.376E-02    4.33       0.0  T
   2    -47.1217457 -0.106648E-05  0.222E-02    4.33       1.0  T
   3    -47.1217451  0.563479E-06  0.663E-03    4.33       3.0  T
   4    -47.1217459 -0.791623E-06  0.163E-03    4.33      12.0  T
   5    -47.1217459 -0.347720E-07  0.784E-04    4.33      25.0  T
   6    -47.1217459 -0.238013E-08  0.416E-04    4.33      47.2  T
     SCC iter.                  ...        0 min,  0.008 sec
     gradient                   ...        0 min,  0.004 sec
 * total energy  :   -46.4662367 Eh     change       -0.2639550E-04 Eh
   gradient norm :     0.0044463 Eh/α   predicted    -0.3482757E-04 (  31.95%)
   displ. norm   :     0.0449332 α      lambda       -0.3272373E-04
   maximum displ.:     0.0351008 α      in ANC's #6, #5, #3, ...

........................................................................
.............................. CYCLE   15 ..............................
........................................................................

 iter      E             dE          RMSdq      gap      omega  full diag
   1    -47.1209383 -0.471209E+02  0.158E-02    4.33       0.0  T
   2    -47.1209384 -0.153068E-06  0.937E-03    4.32       2.1  T
   3    -47.1209383  0.170089E-06  0.324E-03    4.33       6.1  T
   4    -47.1209385 -0.217683E-06  0.477E-04    4.32      41.1  T
   5    -47.1209385 -0.222992E-08  0.206E-04    4.32      95.1  T
     SCC iter.                  ...        0 min,  0.007 sec
     gradient                   ...        0 min,  0.004 sec
 * total energy  :   -46.4662628 Eh     change       -0.2613741E-04 Eh
   gradient norm :     0.0028866 Eh/α   predicted    -0.1639656E-04 ( -37.27%)
   displ. norm   :     0.1084112 α      lambda       -0.5350526E-04
   maximum displ.:     0.0811555 α      in ANC's #6, #3, #5, ...

........................................................................
.............................. CYCLE   16 ..............................
........................................................................

 iter      E             dE          RMSdq      gap      omega  full diag
   1    -47.1198216 -0.471198E+02  0.343E-02    4.32       0.0  T
   2    -47.1198221 -0.488558E-06  0.204E-02    4.32       1.0  T
   3    -47.1198212  0.907162E-06  0.701E-03    4.32       2.8  T
   4    -47.1198223 -0.112417E-05  0.798E-04    4.32      24.6  T
   5    -47.1198224 -0.421987E-08  0.396E-04    4.32      49.6  T
   6    -47.1198224 -0.855664E-09  0.204E-04    4.32      96.2  T
     SCC iter.                  ...        0 min,  0.008 sec
     gradient                   ...        0 min,  0.004 sec
 * total energy  :   -46.4662957 Eh     change       -0.3284473E-04 Eh
   gradient norm :     0.0027944 Eh/α   predicted    -0.2706776E-04 ( -17.59%)
   displ. norm   :     0.0530096 α      lambda       -0.2238361E-04
   maximum displ.:     0.0262530 α      in ANC's #2, #5, #3, ...

........................................................................
.............................. CYCLE   17 ..............................
........................................................................

 iter      E             dE          RMSdq      gap      omega  full diag
   1    -47.1199963 -0.471200E+02  0.179E-02    4.32       0.0  T
   2    -47.1199965 -0.144462E-06  0.106E-02    4.32       1.9  T
   3    -47.1199962  0.206760E-06  0.349E-03    4.32       5.6  T
   4    -47.1199965 -0.259333E-06  0.408E-04    4.32      48.1  T
   5    -47.1199965 -0.151899E-08  0.196E-04    4.32     100.1  T
     SCC iter.                  ...        0 min,  0.007 sec
     gradient                   ...        0 min,  0.004 sec
 * total energy  :   -46.4663133 Eh     change       -0.1764433E-04 Eh
   gradient norm :     0.0026815 Eh/α   predicted    -0.1122384E-04 ( -36.39%)
   displ. norm   :     0.2148381 α      lambda       -0.5976548E-04
   maximum displ.:     0.1718230 α      in ANC's #6, #3, #2, ...

........................................................................
.............................. CYCLE   18 ..............................
........................................................................

 iter      E             dE          RMSdq      gap      omega  full diag
   1    -47.1190305 -0.471190E+02  0.486E-02    4.32       0.0  T
   2    -47.1190312 -0.635231E-06  0.290E-02    4.32       1.0  T
   3    -47.1190306  0.603846E-06  0.587E-03    4.32       3.3  T
   4    -47.1190313 -0.761058E-06  0.126E-03    4.32      15.6  T
   5    -47.1190313 -0.162505E-07  0.598E-04    4.32      32.8  T
   6    -47.1190313 -0.375707E-09  0.294E-04    4.32      66.7  T
     SCC iter.                  ...        0 min,  0.008 sec
     gradient                   ...        0 min,  0.004 sec
 * total energy  :   -46.4663396 Eh     change       -0.2635453E-04 Eh
   gradient norm :     0.0058410 Eh/α   predicted    -0.3128321E-04 (  18.70%)
   displ. norm   :     0.0772543 α      lambda       -0.8218075E-04
   maximum displ.:     0.0524648 α      in ANC's #2, #3, #1, ...

........................................................................
.............................. CYCLE   19 ..............................
........................................................................

 iter      E             dE          RMSdq      gap      omega  full diag
   1    -47.1207510 -0.471208E+02  0.278E-02    4.32       0.0  T
   2    -47.1207517 -0.688330E-06  0.160E-02    4.32       1.2  T
   3    -47.1207517  0.645169E-07  0.362E-03    4.32       5.4  T
   4    -47.1207518 -0.120012E-06  0.109E-03    4.32      18.1  T
   5    -47.1207518 -0.203209E-07  0.484E-04    4.32      40.5  T
   6    -47.1207518 -0.406629E-09  0.184E-04    4.32     106.4  T
     SCC iter.                  ...        0 min,  0.008 sec
     gradient                   ...        0 min,  0.004 sec
 * total energy  :   -46.4663896 Eh     change       -0.4992431E-04 Eh
   gradient norm :     0.0030954 Eh/α   predicted    -0.4133650E-04 ( -17.20%)
   displ. norm   :     0.1648309 α      lambda       -0.4761004E-04
   maximum displ.:     0.1216837 α      in ANC's #6, #3, #2, ...

........................................................................
.............................. CYCLE   20 ..............................
........................................................................

 iter      E             dE          RMSdq      gap      omega  full diag
   1    -47.1205974 -0.471206E+02  0.375E-02    4.32       0.0  T
   2    -47.1205976 -0.132592E-06  0.225E-02    4.32       1.0  T
   3    -47.1205973  0.242484E-06  0.305E-03    4.32       6.4  T
   4    -47.1205976 -0.298989E-06  0.688E-04    4.32      28.5  T
   5    -47.1205976 -0.234219E-08  0.328E-04    4.32      59.8  T
     SCC iter.                  ...        0 min,  0.007 sec
     gradient                   ...        0 min,  0.004 sec
 * total energy  :   -46.4664260 Eh     change       -0.3642767E-04 Eh
   gradient norm :     0.0027596 Eh/α   predicted    -0.2446674E-04 ( -32.83%)
   displ. norm   :     0.1680266 α      lambda       -0.4680479E-04
   maximum displ.:     0.1209839 α      in ANC's #6, #2, #3, ...
 * RMSD in coord.:     0.3671080 α      energy gain  -0.1344151E-01 Eh

generating ANC from model Hessian ...
Using Lindh-Hessian (1995)
 Shifting diagonal of input Hessian by   8.782458607166626E-003
 Lowest  eigenvalues of input Hessian
    0.000000    0.000000    0.000000    0.000000    0.000000    0.000000
    0.010000    0.010575    0.010815    0.013899    0.015493    0.017708
    0.021154    0.022331    0.024926    0.030084    0.031337    0.033216
 Highest eigenvalues
    1.894792    1.912343    2.030687    2.077778    2.114030    2.136416
 

........................................................................
.............................. CYCLE   21 ..............................
........................................................................

 iter      E             dE          RMSdq      gap      omega  full diag
   1    -47.1205249 -0.471205E+02  0.415E-02    4.33       0.0  T
   2    -47.1205252 -0.327946E-06  0.249E-02    4.33       1.0  T
   3    -47.1205244  0.858894E-06  0.624E-03    4.33       3.1  T
   4    -47.1205254 -0.102641E-05  0.840E-04    4.33      23.3  T
   5    -47.1205254 -0.281765E-08  0.447E-04    4.33      43.8  T
   6    -47.1205254 -0.102528E-08  0.158E-04    4.33     124.1  T
     SCC iter.                  ...        0 min,  0.008 sec
     gradient                   ...        0 min,  0.004 sec
 * total energy  :   -46.4664518 Eh     change       -0.2577912E-04 Eh
   gradient norm :     0.0027413 Eh/α   predicted     0.0000000E+00 (-100.00%)
   displ. norm   :     0.0131097 α      lambda       -0.7352524E-05
   maximum displ.:     0.0082253 α      in ANC's #6, #41, #2, ...

........................................................................
.............................. CYCLE   22 ..............................
........................................................................

 iter      E             dE          RMSdq      gap      omega  full diag
   1    -47.1211217 -0.471211E+02  0.856E-03    4.32       0.0  T
   2    -47.1211218 -0.116039E-06  0.481E-03    4.33       4.1  T
   3    -47.1211218  0.633369E-08  0.142E-03    4.32      13.8  T
   4    -47.1211218 -0.116270E-07  0.521E-04    4.33      37.7  T
   5    -47.1211218 -0.560369E-08  0.192E-04    4.33     101.9  T
     SCC iter.                  ...        0 min,  0.007 sec
     gradient                   ...        0 min,  0.004 sec
 * total energy  :   -46.4664618 Eh     change       -0.9993197E-05 Eh
   gradient norm :     0.0009579 Eh/α   predicted    -0.7720765E-05 ( -22.74%)
   displ. norm   :     0.0248374 α      lambda       -0.4416542E-05
   maximum displ.:     0.0186442 α      in ANC's #6, #1, #2, ...

........................................................................
.............................. CYCLE   23 ..............................
........................................................................

 iter      E             dE          RMSdq      gap      omega  full diag
   1    -47.1214798 -0.471215E+02  0.975E-03    4.32       0.0  T
   2    -47.1214799 -0.491426E-07  0.565E-03    4.32       3.5  T
   3    -47.1214798  0.261842E-07  0.129E-03    4.32      15.2  T
   4    -47.1214799 -0.330988E-07  0.331E-04    4.32      59.3  T
   5    -47.1214799 -0.191777E-08  0.132E-04    4.32     148.2  T
     SCC iter.                  ...        0 min,  0.007 sec
     gradient                   ...        0 min,  0.004 sec
 * total energy  :   -46.4664656 Eh     change       -0.3834899E-05 Eh
   gradient norm :     0.0007401 Eh/α   predicted    -0.2210821E-05 ( -42.35%)
   displ. norm   :     0.0301737 α      lambda       -0.2939215E-05
   maximum displ.:     0.0239721 α      in ANC's #6, #1, #2, ...

   *** GEOMETRY OPTIMIZATION CONVERGED AFTER 23 ITERATIONS ***

------------------------------------------------------------------------
 total energy gain   :        -0.0134811 Eh       -8.4595 kcal/mol
 total RMSD          :         0.3717672 a0        0.1967 Å
 total power (kW/mol):        -1.5388983 (step) -104.5448 (real)
------------------------------------------------------------------------

 ANCopt (total)                0 d,  0 h,  0 min,  0.339 sec
 optimizer setup                ...        0 min,  0.000 sec (  0.051%)
 model hessian                  ...        0 min,  0.014 sec (  4.015%)
 ANC generation                 ...        0 min,  0.002 sec (  0.484%)
 coordinate transformation      ...        0 min,  0.000 sec (  0.068%)
 single point calculation       ...        0 min,  0.316 sec ( 93.443%)
 optimization log               ...        0 min,  0.003 sec (  0.867%)
 hessian update                 ...        0 min,  0.000 sec (  0.078%)
 rational function              ...        0 min,  0.002 sec (  0.643%)

================
 final structure:
================
26
 xtb: 6.6.1 (8d0f1dd)
C           -1.29047174342997       -1.81465896186854       -0.67698384623377
C           -1.64531551704037       -0.48400898212958       -0.08951808690333
C           -2.95675332982262       -0.16453112379652        0.23316395297561
C           -3.28165548644392        1.06374846755906        0.78175633405479
C           -2.29452070745369        2.00187345944556        1.02169319017727
C           -0.99001599904631        1.68024851044629        0.70066204749470
F           -0.01814569848472        2.58998885709451        0.93646861086475
C           -0.64177071241127        0.45607575492795        0.14803363019580
C            0.77670959227492        0.17368473263337       -0.17407500792134
C            1.61565295178357       -0.42650316930552        0.76985274927870
O            1.07376241255163       -0.77280594556943        1.96558172166992
C            2.95168496982108       -0.65826992331632        0.46673078359078
C            3.46320486708994       -0.29997524182359       -0.76756533556172
C            2.65060483055928        0.29060743900077       -1.71743157641991
C            1.32394943005788        0.51766782217714       -1.40050414707077
F            0.52381669216466        1.08705794819783       -2.32615933340631
H           -0.73751446560925       -1.68745509682226       -1.60583461361128
H           -0.65717599116618       -2.37008723616595        0.01308387095472
H           -2.18347308133017       -2.39917617477972       -0.87816359819103
H           -3.73560803292196       -0.89009764031577        0.05039249059384
H           -4.30822325732835        1.29256340171354        1.02420456312962
H           -2.51709075232722        2.96689433864494        1.44804517638785
H            1.75788470016961       -1.12987291501746        2.54451664159060
H            3.59205325154264       -1.11886889863187        1.20673031506482
H            4.50295888789470       -0.48328518542619       -0.98911524263872
H            3.02545118890627        0.57918476312764       -2.68556729006557
 
 Bond Distances (Angstroems)
 ---------------------------
C1-C2=1.4972         C1-H17=1.0884        C1-H18=1.0889        C1-H19=1.0861        C2-C1=1.4972         C2-C3=1.3878         
C2-C8=1.3955         C3-C2=1.3878         C3-C4=1.3839         C3-H20=1.0800        C4-C3=1.3839         C4-C5=1.3828         
C4-H21=1.0793        C5-C4=1.3828         C5-C6=1.3814         C5-H22=1.0782        C6-C5=1.3814         C6-F7=1.3519         
C6-C8=1.3875         F7-C6=1.3519         C8-C2=1.3955         C8-C6=1.3875         C8-C9=1.4818         C9-C8=1.4818         
C9-C10=1.3982        C9-C15=1.3863        C10-C9=1.3982        C10-O11=1.3577       C10-C12=1.3895       O11-C10=1.3577       
O11-H23=0.9647       C12-C10=1.3895       C12-C13=1.3833       C12-H24=1.0816       C13-C12=1.3833       C13-C14=1.3825       
C13-H25=1.0788       C14-C13=1.3825       C14-C15=1.3828       C14-H26=1.0775       C15-C9=1.3863        C15-C14=1.3828       
C15-F16=1.3495       F16-C15=1.3495       H17-C1=1.0884        H18-C1=1.0889        H19-C1=1.0861        H20-C3=1.0800        
H21-C4=1.0793        H22-C5=1.0782        H23-O11=0.9647       H24-C12=1.0816       H25-C13=1.0788       H26-C14=1.0775       
 C  H  Rav=1.0821 sigma=0.0042  Rmin=1.0775  Rmax=1.0889     9
 C  C  Rav=1.4015 sigma=0.0364  Rmin=1.3814  Rmax=1.4972    14
 O  H  Rav=0.9647 sigma=0.0000  Rmin=0.9647  Rmax=0.9647     1
 O  C  Rav=1.3577 sigma=0.0000  Rmin=1.3577  Rmax=1.3577     1
 F  C  Rav=1.3507 sigma=0.0012  Rmin=1.3495  Rmax=1.3519     2
 
 selected bond angles (degree)
 --------------------
H17-C1-C2=110.57               H18-C1-C2=110.03               H18-C1-H17=107.76              H19-C1-C2=110.86               
H19-C1-H17=108.82              H19-C1-H18=108.73              C3-C2-C1=121.32                C8-C2-C1=119.68                
C8-C2-C3=119.01                C4-C3-C2=121.22                H20-C3-C2=119.17               H20-C3-C4=119.61               
C5-C4-C3=120.22                H21-C4-C3=120.03               H21-C4-C5=119.75               C6-C5-C4=118.42                
H22-C5-C4=121.90               H22-C5-C6=119.68               F7-C6-C5=118.79                C8-C6-C5=122.34                
C8-C6-F7=118.86                C6-C8-C2=118.79                C9-C8-C2=121.54                C9-C8-C6=119.67                
C10-C9-C8=120.63               C15-C9-C8=121.53               C15-C9-C10=117.83              O11-C10-C9=117.68              
C12-C10-C9=120.08              C12-C10-O11=122.23             
 
 selected dihedral angles (degree)
 ---------------------------------
C3-C2-C1-H17=125.90           C3-C2-C1-H18=244.81           C3-C2-C1-H19=  5.12           C8-C2-C1-H17=305.53           
C8-C2-C1-H18= 64.45           C8-C2-C1-H19=184.76           C4-C3-C2-C1=179.70            C4-C3-C2-C8=  0.06            
H20-C3-C2-C1=359.64           H20-C3-C2-C8=180.00           C5-C4-C3-C2=359.91            C5-C4-C3-H20=179.97           
H21-C4-C3-C2=179.92           H21-C4-C3-H20=  0.00          C6-C5-C4-C3=  0.03            C6-C5-C4-H21=180.01           
H22-C5-C4-C3=180.00           H22-C5-C4-H21=  0.00          F7-C6-C5-C4=180.23            F7-C6-C5-H22=  0.25           
C8-C6-C5-C4=  0.08            C8-C6-C5-H22=180.10           C6-C8-C2-C1=180.39            C6-C8-C2-C3=  0.04            
C9-C8-C2-C1=  0.31            C9-C8-C2-C3=179.96            C2-C8-C6-C5=359.89            C2-C8-C6-F7=179.73            
C9-C8-C6-C5=179.97            C9-C8-C6-F7=359.82            C10-C9-C8-C2=270.72           C10-C9-C8-C6= 90.63           
C15-C9-C8-C2= 92.12           C15-C9-C8-C6=272.04           O11-C10-C9-C8=  1.92          O11-C10-C9-C15=180.57         
C12-C10-C9-C8=181.48          C12-C10-C9-C15=  0.12         
           -------------------------------------------------
          |                Final Singlepoint                |
           -------------------------------------------------

          ...................................................
          :                      SETUP                      :
          :.................................................:
          :  # basis functions                  74          :
          :  # atomic orbitals                  74          :
          :  # shells                           42          :
          :  # electrons                        82          :
          :  max. iterations                   250          :
          :  Hamiltonian                  GFN2-xTB          :
          :  restarted?                      false          :
          :  GBSA solvation                  false          :
          :  PC potential                    false          :
          :  electronic temp.          298.1500000     K    :
          :  accuracy                    1.0000000          :
          :  -> integral cutoff          0.2500000E+02      :
          :  -> integral neglect         0.1000000E-07      :
          :  -> SCF convergence          0.1000000E-05 Eh   :
          :  -> wf. convergence          0.1000000E-03 e    :
          :  Broyden damping             0.4000000          :
          ...................................................

 iter      E             dE          RMSdq      gap      omega  full diag
   1    -47.1214799 -0.471215E+02  0.570E-05    4.32       0.0  T
   2    -47.1214799 -0.287343E-10  0.356E-05    4.32     550.2  T
   3    -47.1214799 -0.222542E-10  0.186E-05    4.32    1054.9  T

   *** convergence criteria satisfied after 3 iterations ***

         #    Occupation            Energy/Eh            Energy/eV
      -------------------------------------------------------------
         1        2.0000           -0.8137684             -22.1438
       ...           ...                  ...                  ...
        35        2.0000           -0.4513986             -12.2832
        36        2.0000           -0.4438937             -12.0790
        37        2.0000           -0.4257975             -11.5865
        38        2.0000           -0.4092394             -11.1360
        39        2.0000           -0.4021437             -10.9429
        40        2.0000           -0.3992195             -10.8633
        41        2.0000           -0.3974774             -10.8159 (HOMO)
        42                         -0.2385905              -6.4924 (LUMO)
        43                         -0.2307613              -6.2793
        44                         -0.2293546              -6.2411
        45                         -0.2246904              -6.1141
        46                         -0.1059838              -2.8840
       ...                                ...                  ...
        74                          0.6734044              18.3243
      -------------------------------------------------------------
                  HL-Gap            0.1588868 Eh            4.3235 eV
             Fermi-level           -0.3180340 Eh           -8.6541 eV

 SCC (total)                   0 d,  0 h,  0 min,  0.010 sec
 SCC setup                      ...        0 min,  0.000 sec (  0.996%)
 Dispersion                     ...        0 min,  0.000 sec (  0.999%)
 classical contributions        ...        0 min,  0.000 sec (  0.182%)
 integral evaluation            ...        0 min,  0.002 sec ( 15.032%)
 iterations                     ...        0 min,  0.004 sec ( 39.476%)
 molecular gradient             ...        0 min,  0.004 sec ( 41.738%)
 printout                       ...        0 min,  0.000 sec (  1.402%)

         :::::::::::::::::::::::::::::::::::::::::::::::::::::
         ::                     SUMMARY                     ::
         :::::::::::::::::::::::::::::::::::::::::::::::::::::
         :: total energy             -46.466465608227 Eh    ::
         :: gradient norm              0.000739681479 Eh/a0 ::
         :: HOMO-LUMO gap              4.323531100395 eV    ::
         ::.................................................::
         :: SCC energy               -47.121479877937 Eh    ::
         :: -> isotropic ES            0.045738798651 Eh    ::
         :: -> anisotropic ES          0.002515771351 Eh    ::
         :: -> anisotropic XC          0.007544581385 Eh    ::
         :: -> dispersion             -0.027410881825 Eh    ::
         :: repulsion energy           0.654761816407 Eh    ::
         :: add. restraining           0.000000000000 Eh    ::
         :: total charge              -0.000000000000 e     ::
         :::::::::::::::::::::::::::::::::::::::::::::::::::::

           -------------------------------------------------
          |                Property Printout                |
           -------------------------------------------------

    * Orbital Energies and Occupations

         #    Occupation            Energy/Eh            Energy/eV
      -------------------------------------------------------------
         1        2.0000           -0.8137684             -22.1438
       ...           ...                  ...                  ...
        29        2.0000           -0.4801219             -13.0648
        30        2.0000           -0.4739168             -12.8959
        31        2.0000           -0.4668761             -12.7043
        32        2.0000           -0.4643603             -12.6359
        33        2.0000           -0.4589796             -12.4895
        34        2.0000           -0.4581651             -12.4673
        35        2.0000           -0.4513986             -12.2832
        36        2.0000           -0.4438937             -12.0790
        37        2.0000           -0.4257975             -11.5865
        38        2.0000           -0.4092394             -11.1360
        39        2.0000           -0.4021437             -10.9429
        40        2.0000           -0.3992195             -10.8633
        41        2.0000           -0.3974774             -10.8159 (HOMO)
        42                         -0.2385905              -6.4924 (LUMO)
        43                         -0.2307613              -6.2793
        44                         -0.2293546              -6.2411
        45                         -0.2246904              -6.1141
        46                         -0.1059838              -2.8840
        47                         -0.1003002              -2.7293
        48                          0.0337465               0.9183
        49                          0.0537050               1.4614
        50                          0.0755447               2.0557
        51                          0.0977847               2.6609
        52                          0.1212598               3.2996
       ...                                ...                  ...
        74                          0.6734044              18.3243
      -------------------------------------------------------------
                  HL-Gap            0.1588868 Eh            4.3235 eV
             Fermi-level           -0.3180340 Eh           -8.6541 eV

     #   Z          covCN         q      C6AA      α(0)
     1   6 C        3.758    -0.109    22.628     6.782
     2   6 C        2.972     0.022    27.503     8.602
     3   6 C        2.923    -0.045    29.109     8.848
     4   6 C        2.923    -0.031    28.782     8.798
     5   6 C        2.917    -0.053    29.323     8.880
     6   6 C        2.790     0.168    24.363     8.085
     7   9 F        0.787    -0.229    11.541     4.013
     8   6 C        2.980     0.005    27.908     8.666
     9   6 C        2.974    -0.012    28.310     8.728
    10   6 C        2.853     0.147    24.810     8.164
    11   8 O        1.660    -0.382    20.501     6.112
    12   6 C        2.917    -0.077    29.919     8.970
    13   6 C        2.924    -0.031    28.771     8.796
    14   6 C        2.916    -0.062    29.532     8.911
    15   6 C        2.791     0.166    24.400     8.092
    16   9 F        0.787    -0.222    11.467     4.000
    17   1 H        0.925     0.052     2.295     2.369
    18   1 H        0.925     0.053     2.283     2.363
    19   1 H        0.925     0.046     2.365     2.405
    20   1 H        0.926     0.042     2.423     2.434
    21   1 H        0.926     0.043     2.405     2.425
    22   1 H        0.926     0.056     2.247     2.344
    23   1 H        0.805     0.305     0.707     1.320
    24   1 H        0.925     0.038     2.478     2.461
    25   1 H        0.926     0.048     2.341     2.393
    26   1 H        0.926     0.060     2.196     2.317

 Mol. C6AA /au·bohr⁶  :       8741.041250
 Mol. C8AA /au·bohr⁸  :     214336.719439
 Mol. α(0) /au        :        147.277505


Wiberg/Mayer (AO) data.
largest (>0.10) Wiberg bond orders for each atom

 ---------------------------------------------------------------------------
     #   Z sym  total        # sym  WBO       # sym  WBO       # sym  WBO
 ---------------------------------------------------------------------------
     1   6 C    3.996 --     2 C    1.029    19 H    0.985    17 H    0.972
                            18 H    0.969
     2   6 C    3.987 --     3 C    1.415     8 C    1.373     1 C    1.029
                             5 C    0.106
     3   6 C    3.990 --     4 C    1.440     2 C    1.415    20 H    0.968
     4   6 C    3.991 --     3 C    1.440     5 C    1.438    21 H    0.970
                             8 C    0.108
     5   6 C    3.988 --     4 C    1.438     6 C    1.397    22 H    0.967
                             2 C    0.106
     6   6 C    3.885 --     5 C    1.397     8 C    1.373     7 F    0.955
     7   9 F    1.085 --     6 C    0.955
     8   6 C    3.988 --     6 C    1.373     2 C    1.373     9 C    1.006
                             4 C    0.108
     9   6 C    3.986 --    15 C    1.380    10 C    1.329     8 C    1.006
                            13 C    0.105
    10   6 C    3.941 --    12 C    1.375     9 C    1.329    11 O    1.082
    11   8 O    2.134 --    10 C    1.082    23 H    0.886
    12   6 C    3.985 --    13 C    1.443    10 C    1.375    24 H    0.965
    13   6 C    3.990 --    12 C    1.443    14 C    1.437    25 H    0.970
                             9 C    0.105
    14   6 C    3.987 --    13 C    1.437    15 C    1.389    26 H    0.966
    15   6 C    3.887 --    14 C    1.389     9 C    1.380    16 F    0.961
    16   9 F    1.093 --    15 C    0.961
    17   1 H    0.997 --     1 C    0.972
    18   1 H    0.997 --     1 C    0.969
    19   1 H    0.998 --     1 C    0.985
    20   1 H    0.997 --     3 C    0.968
    21   1 H    0.998 --     4 C    0.970
    22   1 H    0.995 --     5 C    0.967
    23   1 H    0.907 --    11 O    0.886
    24   1 H    0.998 --    12 C    0.965
    25   1 H    0.997 --    13 C    0.970
    26   1 H    0.995 --    14 C    0.966
 ---------------------------------------------------------------------------

Topologies differ in total number of bonds
Writing topology from bond orders to xtbtopo.mol

molecular dipole:
                 x           y           z       tot (Debye)
 q only:        0.250      -1.233       0.460
   full:        0.484      -1.320       0.570       3.855
molecular quadrupole (traceless):
                xx          xy          yy          xz          yz          zz
 q only:       10.080      -3.886      -6.277       1.057      -0.360      -3.803
  q+dip:       13.550      -6.009      -8.019       0.921      -0.290      -5.531
   full:       11.376      -5.304      -7.107       1.926      -0.622      -4.269

           -------------------------------------------------
          |                Geometry Summary                 |
           -------------------------------------------------

      molecular mass/u    :      220.2151854
   center of mass at/Å    :        0.0984854       0.3644997      -0.0149047
  moments of inertia/u·Å² :        0.5666277E+03   0.1207377E+04   0.1220349E+04
rotational constants/cm⁻¹ :        0.2975081E-01   0.1396220E-01   0.1381378E-01

 * 23 selected distances

     #   Z          #   Z                                           value/Å
     2   6 C        3   6 C                                       1.3878254
     3   6 C        4   6 C                                       1.3839025
     4   6 C        5   6 C                                       1.3827811
     5   6 C        6   6 C                                       1.3813893
     2   6 C        8   6 C                                       1.3954543
     6   6 C        8   6 C                                       1.3875418
     9   6 C       10   6 C                                       1.3982315 (max)
    10   6 C       11   8 O                                       1.3576962
    10   6 C       12   6 C                                       1.3894534
    12   6 C       13   6 C                                       1.3832986
    13   6 C       14   6 C                                       1.3825169
     9   6 C       15   6 C                                       1.3863350
    14   6 C       15   6 C                                       1.3827561
     1   6 C       17   1 H                                       1.0884423
     1   6 C       18   1 H                                       1.0889250
     1   6 C       19   1 H                                       1.0860871
     3   6 C       20   1 H                                       1.0800310
     4   6 C       21   1 H                                       1.0793419
     5   6 C       22   1 H                                       1.0782295
    11   8 O       23   1 H                                       0.9647207 (min)
    12   6 C       24   1 H                                       1.0815833
    13   6 C       25   1 H                                       1.0787843
    14   6 C       26   1 H                                       1.0775313

 * 4 distinct bonds (by element types)

   Z      Z             #   av. dist./Å        max./Å        min./Å
   1 H    6 C           9     1.0821062     1.0889250     1.0775313
   6 C    6 C          12     1.3867905     1.3982315     1.3813893
   1 H    8 O           1     0.9647207     0.9647207     0.9647207
   6 C    8 O           1     1.3576962     1.3576962     1.3576962


optimized geometry written to: xtbopt.xyz


           -------------------------------------------------
          | TOTAL ENERGY              -46.466465608227 Eh   |
          | GRADIENT NORM               0.000739681479 Eh/α |
          | HOMO-LUMO GAP               4.323531100395 eV   |
           -------------------------------------------------

------------------------------------------------------------------------
 * finished run on 2026/07/23 at 12:55:31.482     
------------------------------------------------------------------------
 total:
 * wall-time:     0 d,  0 h,  0 min,  0.405 sec
 *  cpu-time:     0 d,  0 h,  0 min,  1.584 sec
 * ratio c/w:     3.907 speedup
 SCF:
 * wall-time:     0 d,  0 h,  0 min,  0.027 sec
 *  cpu-time:     0 d,  0 h,  0 min,  0.102 sec
 * ratio c/w:     3.850 speedup
 ANC optimizer:
 * wall-time:     0 d,  0 h,  0 min,  0.355 sec
 *  cpu-time:     0 d,  0 h,  0 min,  1.408 sec
 * ratio c/w:     3.969 speedup

