26
 energy: -46.466465608227 gnorm: 0.000739681479 xtb: 6.6.1 (8d0f1dd)
C           -1.29047174342997       -1.81465896186854       -0.67698384623377
C           -1.64531551704037       -0.48400898212958       -0.08951808690333
C           -2.95675332982262       -0.16453112379652        0.23316395297561
C           -3.28165548644392        1.06374846755906        0.78175633405479
C           -2.29452070745369        2.00187345944556        1.02169319017727
C           -0.99001599904631        1.68024851044629        0.70066204749470
F           -0.01814569848472        2.58998885709451        0.93646861086475
C           -0.64177071241127        0.45607575492795        0.14803363019580
C            0.77670959227492        0.17368473263337       -0.17407500792134
C            1.61565295178357       -0.42650316930552        0.76985274927870
O            1.07376241255163       -0.77280594556943        1.96558172166992
C            2.95168496982108       -0.65826992331632        0.46673078359078
C            3.46320486708994       -0.29997524182359       -0.76756533556172
C            2.65060483055928        0.29060743900077       -1.71743157641991
C            1.32394943005788        0.51766782217714       -1.40050414707077
F            0.52381669216466        1.08705794819783       -2.32615933340631
H           -0.73751446560925       -1.68745509682226       -1.60583461361128
H           -0.65717599116618       -2.37008723616595        0.01308387095472
H           -2.18347308133017       -2.39917617477972       -0.87816359819103
H           -3.73560803292196       -0.89009764031577        0.05039249059384
H           -4.30822325732835        1.29256340171354        1.02420456312962
H           -2.51709075232722        2.96689433864494        1.44804517638785
H            1.75788470016961       -1.12987291501746        2.54451664159060
H            3.59205325154264       -1.11886889863187        1.20673031506482
H            4.50295888789470       -0.48328518542619       -0.98911524263872
H            3.02545118890627        0.57918476312764       -2.68556729006557
