26
 energy: -46.467124983615 gnorm: 0.000325201272 xtb: 6.6.1 (8d0f1dd)
C            1.79313188947779       -0.79837945029324       -1.27317219159237
C            1.74465324202395       -0.02868202853681        0.01053251916879
C            2.91085021969055        0.43464435305198        0.60523803076007
C            2.87990598208097        1.15088078207348        1.78815769920054
C            1.67173563070458        1.42380227084402        2.40377375957641
C            0.51333754089917        0.96293132029780        1.81057822515417
F           -0.66880053161258        1.21528725274938        2.41554885550749
C            0.52025943567414        0.23513636664449        0.62706625939994
C           -0.76432990317798       -0.22657904905685        0.05694227675931
C           -1.68267485523808        0.69918601638178       -0.45244715100989
O           -1.32002739079736        2.00523891083665       -0.46284707905937
C           -2.90726581737633        0.26656910906639       -0.94707751367373
C           -3.23189010353785       -1.07767710108693       -0.94048169728132
C           -2.33933786127672       -2.01007577223586       -0.44490893360035
C           -1.12564380109829       -1.56557314053409        0.04540262033418
F           -0.25908735511041       -2.47499256215278        0.54164660573589
H            1.02107296235070       -0.45339766987454       -1.95901862212553
H            1.62221597047403       -1.85714451742665       -1.08102534763236
H            2.76460226633926       -0.69087512324277       -1.74862716830433
H            3.85905269995397        0.23115864217525        0.12984597454907
H            3.79907614361511        1.50082582916454        2.23280584295454
H            1.61486290255382        1.98016249548508        3.32559971594261
H           -2.04914381333546        2.54714960135519       -0.78676809003017
H           -3.60876421110767        0.99231807070460       -1.33507229437315
H           -4.18774699897963       -1.39945128931411       -1.32342099869517
H           -2.57004424318939       -3.06246131707627       -0.42491229766542
