%mem=8000MB
%nprocshared=8
# bp86 empiricaldispersion=GD3BJ def2svp  nosymm

example

0 1
C -1.2468511084 2.6424337960 -0.5711211313
C -1.5769641590 1.2440355878 -0.0723492095
C -2.9216445204 1.1228729233 0.2766930780
C -3.5550340356 -0.0866818846 0.4663492396
C -2.8605044864 -1.2243832169 0.1104098996
C -1.5181260981 -1.1266847890 -0.1960776572
F -1.0171517778 -2.2606424400 -0.7467949214
C -0.7623268714 0.0682350282 -0.0748027531
C 0.7362101195 0.0018388889 0.0339059780
C 1.5086401693 -1.2096318384 0.1789673322
O 1.0305366015 -2.4274761099 0.5953167972
C 2.8896615667 -1.1770949129 -0.0266754444
C 3.5994797442 -0.0113822734 -0.2106240642
C 2.9177451598 1.1780133591 -0.0758322864
C 1.5444540908 1.1564332283 0.0762337664
F 1.0295054958 2.3785082510 0.3438642820
H -2.1378200715 3.0260904429 -1.0649346653
H -0.9946782424 3.3236863040 0.2365452422
H -0.4431260296 2.6331032965 -1.2998805439
H -3.4982803247 2.0317168352 0.3701704660
H -4.5867452840 -0.1357226769 0.7762809116
H -3.3353914382 -2.1896962311 0.0375972697
H 1.7367396853 -3.0800171897 0.5559021263
H 3.4239766991 -2.1187813791 -0.0034464122
H 4.6634181164 -0.0317494088 -0.3816656265
H 3.4199025584 2.1317010407 -0.0695699794

