 Entering Gaussian System, Link 0=/path/to/g16
 Initial command:
 /path/to/g16 "path/to/scratch/gaussian_tmp/Gau-3811294.inp" -scrdir="path/to/scratch/gaussian_tmp/"
 Entering Link 1 = /path/to/g16 PID=   3811295.
  
 Copyright (c) 1988-2021, Gaussian, Inc.  All Rights Reserved.
  
 This is part of the Gaussian(R) 16 program.  It is based on
 the Gaussian(R) 09 system (copyright 2009, Gaussian, Inc.),
 the Gaussian(R) 03 system (copyright 2003, Gaussian, Inc.),
 the Gaussian(R) 98 system (copyright 1998, Gaussian, Inc.),
 the Gaussian(R) 94 system (copyright 1995, Gaussian, Inc.),
 the Gaussian 92(TM) system (copyright 1992, Gaussian, Inc.),
 the Gaussian 90(TM) system (copyright 1990, Gaussian, Inc.),
 the Gaussian 88(TM) system (copyright 1988, Gaussian, Inc.),
 the Gaussian 86(TM) system (copyright 1986, Carnegie Mellon
 University), and the Gaussian 82(TM) system (copyright 1983,
 Carnegie Mellon University). Gaussian is a federally registered
 trademark of Gaussian, Inc.
  
 This software contains proprietary and confidential information,
 including trade secrets, belonging to Gaussian, Inc.
  
 This software is provided under written license and may be
 used, copied, transmitted, or stored only in accord with that
 written license.
  
 The following legend is applicable only to US Government
 contracts under FAR:
  
                    RESTRICTED RIGHTS LEGEND
  
 Use, reproduction and disclosure by the US Government is
 subject to restrictions as set forth in subparagraphs (a)
 and (c) of the Commercial Computer Software - Restricted
 Rights clause in FAR 52.227-19.
  
 Gaussian, Inc.
 340 Quinnipiac St., Bldg. 40, Wallingford CT 06492
  
  
 ---------------------------------------------------------------
 Warning -- This program may not be used in any manner that
 competes with the business of Gaussian, Inc. or will provide
 assistance to any competitor of Gaussian, Inc.  The licensee
 of this program is prohibited from giving any competitor of
 Gaussian, Inc. access to this program.  By using this program,
 the user acknowledges that Gaussian, Inc. is engaged in the
 business of creating and licensing software in the field of
 computational chemistry and represents and warrants to the
 licensee that it is not a competitor of Gaussian, Inc. and that
 it will not use this program in any manner prohibited above.
 ---------------------------------------------------------------
  

 Cite this work as:
 Gaussian 16, Revision C.02,
 M. J. Frisch, G. W. Trucks, H. B. Schlegel, G. E. Scuseria, 
 M. A. Robb, J. R. Cheeseman, G. Scalmani, V. Barone, 
 G. A. Petersson, H. Nakatsuji, X. Li, M. Caricato, A. V. Marenich, 
 J. Bloino, B. G. Janesko, R. Gomperts, B. Mennucci, H. P. Hratchian, 
 J. V. Ortiz, A. F. Izmaylov, J. L. Sonnenberg, D. Williams-Young, 
 F. Ding, F. Lipparini, F. Egidi, J. Goings, B. Peng, A. Petrone, 
 T. Henderson, D. Ranasinghe, V. G. Zakrzewski, J. Gao, N. Rega, 
 G. Zheng, W. Liang, M. Hada, M. Ehara, K. Toyota, R. Fukuda, 
 J. Hasegawa, M. Ishida, T. Nakajima, Y. Honda, O. Kitao, H. Nakai, 
 T. Vreven, K. Throssell, J. A. Montgomery, Jr., J. E. Peralta, 
 F. Ogliaro, M. J. Bearpark, J. J. Heyd, E. N. Brothers, K. N. Kudin, 
 V. N. Staroverov, T. A. Keith, R. Kobayashi, J. Normand, 
 K. Raghavachari, A. P. Rendell, J. C. Burant, S. S. Iyengar, 
 J. Tomasi, M. Cossi, J. M. Millam, M. Klene, C. Adamo, R. Cammi, 
 J. W. Ochterski, R. L. Martin, K. Morokuma, O. Farkas, 
 J. B. Foresman, and D. J. Fox, Gaussian, Inc., Wallingford CT, 2019.
 
 ******************************************
 Gaussian 16:  ES64L-G16RevC.02  7-Dec-2021
                23-Jul-2026 
 ******************************************
 %mem=8000MB
 %nprocshared=8
 Will use up to    8 processors via shared memory.
 -----------------------------------------------
 # bp86 empiricaldispersion=GD3BJ def2svp nosymm
 -----------------------------------------------
 1/38=1,172=1/1;
 2/12=2,15=1,17=6,18=5,40=1/2;
 3/5=43,7=101,11=2,25=1,30=1,74=404,124=41/1,2,3;
 4//1;
 5/5=2,38=5/2;
 6/7=2,8=2,9=2,10=2,28=1/1;
 99/5=1,9=1/99;
 -------
 example
 -------
 Symbolic Z-matrix:
 Charge =  0 Multiplicity = 1
 C                    -1.24685   2.64243  -0.57112 
 C                    -1.57696   1.24404  -0.07235 
 C                    -2.92164   1.12287   0.27669 
 C                    -3.55503  -0.08668   0.46635 
 C                    -2.8605   -1.22438   0.11041 
 C                    -1.51813  -1.12668  -0.19608 
 F                    -1.01715  -2.26064  -0.74679 
 C                    -0.76233   0.06824  -0.0748 
 C                     0.73621   0.00184   0.03391 
 C                     1.50864  -1.20963   0.17897 
 O                     1.03054  -2.42748   0.59532 
 C                     2.88966  -1.17709  -0.02668 
 C                     3.59948  -0.01138  -0.21062 
 C                     2.91775   1.17801  -0.07583 
 C                     1.54445   1.15643   0.07623 
 F                     1.02951   2.37851   0.34386 
 H                    -2.13782   3.02609  -1.06493 
 H                    -0.99468   3.32369   0.23655 
 H                    -0.44313   2.6331   -1.29988 
 H                    -3.49828   2.03172   0.37017 
 H                    -4.58675  -0.13572   0.77628 
 H                    -3.33539  -2.1897    0.0376 
 H                     1.73674  -3.08002   0.5559 
 H                     3.42398  -2.11878  -0.00345 
 H                     4.66342  -0.03175  -0.38167 
 H                     3.4199    2.1317   -0.06957 
 
                          Input orientation:                          
 ---------------------------------------------------------------------
 Center     Atomic      Atomic             Coordinates (Angstroms)
 Number     Number       Type             X           Y           Z
 ---------------------------------------------------------------------
      1          6           0       -1.246851    2.642434   -0.571121
      2          6           0       -1.576964    1.244036   -0.072349
      3          6           0       -2.921645    1.122873    0.276693
      4          6           0       -3.555034   -0.086682    0.466349
      5          6           0       -2.860504   -1.224383    0.110410
      6          6           0       -1.518126   -1.126685   -0.196078
      7          9           0       -1.017152   -2.260642   -0.746795
      8          6           0       -0.762327    0.068235   -0.074803
      9          6           0        0.736210    0.001839    0.033906
     10          6           0        1.508640   -1.209632    0.178967
     11          8           0        1.030537   -2.427476    0.595317
     12          6           0        2.889662   -1.177095   -0.026675
     13          6           0        3.599480   -0.011382   -0.210624
     14          6           0        2.917745    1.178013   -0.075832
     15          6           0        1.544454    1.156433    0.076234
     16          9           0        1.029505    2.378508    0.343864
     17          1           0       -2.137820    3.026090   -1.064935
     18          1           0       -0.994678    3.323686    0.236545
     19          1           0       -0.443126    2.633103   -1.299881
     20          1           0       -3.498280    2.031717    0.370170
     21          1           0       -4.586745   -0.135723    0.776281
     22          1           0       -3.335391   -2.189696    0.037597
     23          1           0        1.736740   -3.080017    0.555902
     24          1           0        3.423977   -2.118781   -0.003446
     25          1           0        4.663418   -0.031749   -0.381666
     26          1           0        3.419903    2.131701   -0.069570
 ---------------------------------------------------------------------
                    Distance matrix (angstroms):
                    1          2          3          4          5
     1  C    0.000000
     2  C    1.520942   0.000000
     3  C    2.415116   1.394516   0.000000
     4  C    3.721844   2.444129   1.378468   0.000000
     5  C    4.245072   2.788184   2.353933   1.379648   0.000000
     6  C    3.797434   2.374676   2.693304   2.381052   1.380384
     7  F    4.911596   3.612622   4.015320   3.555091   2.281794
     8  C    2.666007   1.430436   2.428675   2.848870   2.471339
     9  C    3.357280   2.627759   3.833479   4.313887   3.800767
    10  C    4.795182   3.950266   5.007749   5.194651   4.369707
    11  O    5.679002   4.552454   5.322240   5.150088   4.101557
    12  C    5.656497   5.080817   6.257249   6.554859   5.751994
    13  C    5.537113   5.328299   6.636948   7.186865   6.580717
    14  C    4.442263   4.495196   5.850281   6.617423   6.260540
    15  C    3.227793   3.126180   4.470721   5.263298   5.007306
    16  F    2.467520   2.872968   4.146410   5.206743   5.307307
    17  H    1.088517   2.115539   2.456946   3.747356   4.468807
    18  H    1.086288   2.181609   2.925473   4.270696   4.917535
    19  H    1.084966   2.173001   3.302943   4.494527   4.765799
    20  H    2.515539   2.123139   1.080391   2.121340   3.328126
    21  H    4.548466   3.417995   2.146209   1.078374   2.146735
    22  H    5.299247   3.859361   3.346859   2.157485   1.078262
    23  H    6.551217   5.483864   6.280349   6.080374   4.977599
    24  H    6.693882   6.026831   7.131179   7.284005   6.348828
    25  H    6.489871   6.376964   7.700634   8.262270   7.633736
    26  H    4.721334   5.075099   6.430618   7.338813   7.123146
                    6          7          8          9         10
     6  C    0.000000
     7  F    1.356512   0.000000
     8  C    1.419075   2.437248   0.000000
     9  C    2.531500   2.966917   1.503941   0.000000
    10  C    3.051041   2.888128   2.618136   1.444075   0.000000
    11  O    2.968846   2.454002   3.145154   2.510654   1.372980
    12  C    4.411330   4.117747   3.858780   2.455791   1.396627
    13  C    5.237748   5.163326   4.364647   2.873723   2.441146
    14  C    5.000305   5.268582   3.843766   2.480831   2.784125
    15  C    3.829645   4.349208   2.555039   1.410013   2.368565
    16  F    4.366731   5.186527   2.953525   2.414675   3.623743
    17  H    4.287712   5.413562   3.408996   4.314348   5.725846
    18  H    4.501884   5.670290   3.278550   3.751227   5.178889
    19  H    4.063251   4.958241   2.860289   3.177007   4.556643
    20  H    3.770563   5.082121   3.396867   4.707907   5.967592
    21  H    3.368072   4.424595   3.923279   5.376235   6.218021
    22  H    2.118266   2.448375   3.425135   4.623935   4.944204
    23  H    3.869772   3.154729   4.068736   3.281977   1.921575
    24  H    5.044377   4.505143   4.723692   3.423816   2.127990
    25  H    6.280511   6.113114   5.435335   3.949277   3.413845
    26  H    5.917534   6.280029   4.663578   3.427714   3.857357
                   11         12         13         14         15
    11  O    0.000000
    12  C    2.325225   0.000000
    13  C    3.617529   1.377158   0.000000
    14  C    4.124506   2.355789   1.377531   0.000000
    15  C    3.657590   2.695464   2.381010   1.381853   0.000000
    16  F    4.812558   4.029863   3.552999   2.276572   1.352873
    17  H    6.521986   6.634781   6.547725   5.472883   4.284510
    18  H    6.107870   5.951001   5.694640   4.473092   3.342137
    19  H    5.601153   5.219783   4.952014   3.861481   2.832794
    20  H    6.359660   7.159592   7.408763   6.487920   5.126567
    21  H    6.069492   7.591170   8.246437   7.666119   6.304866
    22  H    4.407825   6.307200   7.273177   7.103242   5.917007
    23  H    0.962334   2.299943   3.670679   4.463708   4.267853
    24  H    2.486436   1.082962   2.124819   3.336220   3.777034
    25  H    4.460026   2.141039   1.077792   2.145795   3.368885
    26  H    5.190110   3.351287   2.155215   1.077832   2.118894
                   16         17         18         19         20
    16  F    0.000000
    17  H    3.526475   0.000000
    18  H    2.236560   1.757608   0.000000
    19  H    2.221567   1.755456   1.772489   0.000000
    20  H    4.541123   2.213404   2.820472   3.533370   0.000000
    21  H    6.168518   4.402769   5.016151   5.398743   2.459162
    22  H    6.325711   5.463898   5.992988   5.780436   4.237625
    23  H    5.508234   7.411064   6.969222   6.390265   7.319136
    24  H    5.106832   7.650493   7.014454   6.262239   8.079843
    25  H    4.420527   7.488263   6.607207   5.832782   8.452010
    26  H    2.438409   5.716552   4.582909   4.085102   6.932865
                   21         22         23         24         25
    21  H    0.000000
    22  H    2.516018   0.000000
    23  H    6.978818   5.175696   0.000000
    24  H    8.289280   6.759865   2.020795   0.000000
    25  H    9.322938   8.295388   4.328558   2.456617   0.000000
    26  H    8.364394   8.019972   5.512373   4.250999   2.514807
                   26
    26  H    0.000000
 Symmetry turned off by external request.
 Stoichiometry    C13H10F2O
 Framework group  C1[X(C13H10F2O)]
 Deg. of freedom    72
 Full point group                 C1      NOp   1
 Rotational constants (GHZ):           0.8374705           0.4843246           0.3192197
 Standard basis: def2SVP (5D, 7F)
   274 basis functions,   470 primitive gaussians,   290 cartesian basis functions
    57 alpha electrons       57 beta electrons
       nuclear repulsion energy      1076.6470822135 Hartrees.
 NAtoms=   26 NActive=   26 NUniq=   26 SFac= 1.00D+00 NAtFMM=   60 NAOKFM=F Big=F
 Integral buffers will be    131072 words long.
 Raffenetti 2 integral format.
 Two-electron integral symmetry is turned off.
 Nuclear repulsion after empirical dispersion term =     1076.5954872445 Hartrees.
 One-electron integrals computed using PRISM.
   1 Symmetry operations used in ECPInt.
 ECPInt:  NShTT=    8001 NPrTT=   29641 LenC2=    7607 LenP2D=   20322.
 LDataN:  DoStor=T MaxTD1= 4 Len=   56
 NBasis=   274 RedAO= T EigKep=  2.71D-04  NBF=   274
 NBsUse=   274 1.00D-06 EigRej= -1.00D+00 NBFU=   274
 ExpMin= 1.22D-01 ExpMax= 2.89D+03 ExpMxC= 4.35D+02 IAcc=3 IRadAn=         5 AccDes= 0.00D+00
 Harris functional with IExCor=  404 and IRadAn=       5 diagonalized for initial guess.
 HarFok:  IExCor=  404 AccDes= 0.00D+00 IRadAn=         5 IDoV= 1 UseB2=F ITyADJ=14
 ICtDFT=  3500011 ScaDFX=  1.000000  1.000000  1.000000  1.000000
 FoFCou: FMM=F IPFlag=           0 FMFlag=      100000 FMFlg1=           0
         NFxFlg=           0 DoJE=T BraDBF=F KetDBF=T FulRan=T
         wScrn=  0.000000 ICntrl=       500 IOpCl=  0 I1Cent=   200000004 NGrid=           0
         NMat0=    1 NMatS0=      1 NMatT0=    0 NMatD0=    1 NMtDS0=    0 NMtDT0=    0
 Symmetry not used in FoFCou.
 Requested convergence on RMS density matrix=1.00D-08 within 128 cycles.
 Requested convergence on MAX density matrix=1.00D-06.
 Requested convergence on             energy=1.00D-06.
 No special actions if energy rises.
 Integral accuracy reduced to 1.0D-05 until final iterations.
 Initial convergence to 1.0D-05 achieved.  Increase integral accuracy.
 SCF Done:  E(RB-P86) =  -775.733573556     A.U. after   17 cycles
            NFock= 17  Conv=0.42D-08     -V/T= 2.0095

 **********************************************************************

            Population analysis using the SCF Density.

 **********************************************************************

 Alpha  occ. eigenvalues --  -24.30138 -24.28750 -18.81637  -9.99904  -9.99194
 Alpha  occ. eigenvalues --   -9.98917  -9.94735  -9.94177  -9.93032  -9.92415
 Alpha  occ. eigenvalues --   -9.91716  -9.91269  -9.91257  -9.90691  -9.90457
 Alpha  occ. eigenvalues --   -9.90389  -1.11087  -1.09402  -0.97197  -0.79298
 Alpha  occ. eigenvalues --   -0.77917  -0.71285  -0.69439  -0.67147  -0.66014
 Alpha  occ. eigenvalues --   -0.61718  -0.57879  -0.57521  -0.53747  -0.52973
 Alpha  occ. eigenvalues --   -0.51684  -0.47767  -0.46565  -0.45685  -0.44655
 Alpha  occ. eigenvalues --   -0.42894  -0.42437  -0.41750  -0.40489  -0.39680
 Alpha  occ. eigenvalues --   -0.37860  -0.37396  -0.37001  -0.36907  -0.35324
 Alpha  occ. eigenvalues --   -0.34916  -0.33076  -0.32038  -0.31886  -0.31012
 Alpha  occ. eigenvalues --   -0.30577  -0.29409  -0.28519  -0.26262  -0.21073
 Alpha  occ. eigenvalues --   -0.20581  -0.19487
 Alpha virt. eigenvalues --   -0.08142  -0.03310  -0.02903  -0.01783   0.02094
 Alpha virt. eigenvalues --    0.03584   0.05358   0.05926   0.07597   0.09131
 Alpha virt. eigenvalues --    0.09798   0.10269   0.11613   0.12421   0.13008
 Alpha virt. eigenvalues --    0.13690   0.14690   0.16605   0.19158   0.19349
 Alpha virt. eigenvalues --    0.20491   0.21688   0.25351   0.25721   0.27000
 Alpha virt. eigenvalues --    0.27752   0.29141   0.30193   0.30338   0.31141
 Alpha virt. eigenvalues --    0.33286   0.35456   0.36862   0.37685   0.38447
 Alpha virt. eigenvalues --    0.39767   0.40562   0.41407   0.42761   0.43205
 Alpha virt. eigenvalues --    0.43623   0.43982   0.44884   0.45311   0.46253
 Alpha virt. eigenvalues --    0.47008   0.48260   0.49393   0.50575   0.52063
 Alpha virt. eigenvalues --    0.53236   0.53816   0.54852   0.56171   0.56506
 Alpha virt. eigenvalues --    0.57204   0.58492   0.59706   0.60293   0.60840
 Alpha virt. eigenvalues --    0.61834   0.62170   0.62868   0.63151   0.63682
 Alpha virt. eigenvalues --    0.65043   0.65673   0.66778   0.67006   0.67676
 Alpha virt. eigenvalues --    0.68723   0.69650   0.71302   0.72897   0.73445
 Alpha virt. eigenvalues --    0.73811   0.75143   0.75998   0.77651   0.78669
 Alpha virt. eigenvalues --    0.80302   0.82022   0.84449   0.89005   0.91555
 Alpha virt. eigenvalues --    0.94075   0.94533   0.96757   0.99441   1.01987
 Alpha virt. eigenvalues --    1.03001   1.05585   1.08297   1.09812   1.11373
 Alpha virt. eigenvalues --    1.14200   1.15905   1.16788   1.18939   1.20959
 Alpha virt. eigenvalues --    1.22099   1.22929   1.24002   1.25735   1.27188
 Alpha virt. eigenvalues --    1.29540   1.31334   1.31672   1.33770   1.36637
 Alpha virt. eigenvalues --    1.37627   1.40887   1.42355   1.44146   1.46271
 Alpha virt. eigenvalues --    1.50636   1.53555   1.55422   1.57043   1.57970
 Alpha virt. eigenvalues --    1.59565   1.61248   1.61895   1.63039   1.64408
 Alpha virt. eigenvalues --    1.65299   1.65837   1.66460   1.67616   1.67725
 Alpha virt. eigenvalues --    1.69563   1.70614   1.72553   1.73203   1.73986
 Alpha virt. eigenvalues --    1.74544   1.75293   1.77791   1.78539   1.79312
 Alpha virt. eigenvalues --    1.81654   1.81887   1.83675   1.85635   1.87389
 Alpha virt. eigenvalues --    1.89004   1.89791   1.92340   1.94803   1.95779
 Alpha virt. eigenvalues --    1.96880   1.97184   2.00667   2.00957   2.01695
 Alpha virt. eigenvalues --    2.02916   2.04591   2.05532   2.09336   2.10054
 Alpha virt. eigenvalues --    2.11629   2.11891   2.13864   2.17085   2.19170
 Alpha virt. eigenvalues --    2.20734   2.21132   2.21810   2.22625   2.24670
 Alpha virt. eigenvalues --    2.26684   2.28116   2.29751   2.36432   2.39448
 Alpha virt. eigenvalues --    2.39783   2.40735   2.46266   2.47919   2.49237
 Alpha virt. eigenvalues --    2.50575   2.51483   2.55866   2.58076   2.59987
 Alpha virt. eigenvalues --    2.62258   2.65584   2.67764   2.70039   2.72543
 Alpha virt. eigenvalues --    2.73081   2.80004   2.81648   2.82372   2.85384
 Alpha virt. eigenvalues --    2.88104   2.88153   2.91037   2.92844   2.95953
 Alpha virt. eigenvalues --    2.96423   3.00482   3.02286   3.03398   3.06565
 Alpha virt. eigenvalues --    3.07904   3.15601   3.20542   3.21334   3.23403
 Alpha virt. eigenvalues --    3.37735   3.43887   3.48373   3.50305   3.68033
 Alpha virt. eigenvalues --    3.75938   3.78966
          Condensed to atoms (all electrons):
               1          2          3          4          5          6
     1  C    4.529215   0.436491  -0.077637   0.015574  -0.000317   0.009576
     2  C    0.436491   5.280828   0.325341   0.068057  -0.134352   0.026906
     3  C   -0.077637   0.325341   5.143989   0.256345   0.111911  -0.151384
     4  C    0.015574   0.068057   0.256345   5.124067   0.181931   0.106437
     5  C   -0.000317  -0.134352   0.111911   0.181931   5.306946   0.282919
     6  C    0.009576   0.026906  -0.151384   0.106437   0.282919   5.123103
     7  F   -0.000018   0.001458   0.000019   0.006508  -0.069270   0.378875
     8  C   -0.066969   0.278590   0.052067  -0.099878  -0.006992   0.192259
     9  C   -0.021666  -0.050896   0.016784  -0.000254   0.016601  -0.053426
    10  C   -0.000410   0.011866   0.000286  -0.000293   0.001255  -0.044317
    11  O   -0.000001   0.000129  -0.000005   0.000004  -0.001938   0.002501
    12  C    0.000005   0.000040  -0.000006   0.000003  -0.000077   0.000551
    13  C   -0.000027  -0.000134   0.000002  -0.000000   0.000004  -0.000151
    14  C   -0.000061   0.000511  -0.000032   0.000002  -0.000005   0.000024
    15  C    0.000107  -0.028542   0.000046  -0.000064  -0.000227   0.015737
    16  F    0.005269  -0.004043  -0.000216   0.000003  -0.000002   0.000215
    17  H    0.378683  -0.020240  -0.020152   0.002553  -0.000099   0.000040
    18  H    0.357809   0.000328   0.000745  -0.000186  -0.000027  -0.000309
    19  H    0.368387  -0.002216   0.008681  -0.001094   0.000256  -0.000796
    20  H   -0.020392  -0.075342   0.434577  -0.072770   0.015495  -0.000290
    21  H   -0.000511   0.018063  -0.075785   0.441964  -0.079174   0.015999
    22  H    0.000029  -0.000777   0.014534  -0.075218   0.420509  -0.062854
    23  H    0.000000   0.000023  -0.000000  -0.000001   0.000045  -0.000475
    24  H    0.000000  -0.000000  -0.000000   0.000000   0.000000   0.000060
    25  H    0.000001  -0.000000  -0.000000   0.000000  -0.000000   0.000001
    26  H   -0.000006   0.000042  -0.000001   0.000000  -0.000000   0.000002
               7          8          9         10         11         12
     1  C   -0.000018  -0.066969  -0.021666  -0.000410  -0.000001   0.000005
     2  C    0.001458   0.278590  -0.050896   0.011866   0.000129   0.000040
     3  C    0.000019   0.052067   0.016784   0.000286  -0.000005  -0.000006
     4  C    0.006508  -0.099878  -0.000254  -0.000293   0.000004   0.000003
     5  C   -0.069270  -0.006992   0.016601   0.001255  -0.001938  -0.000077
     6  C    0.378875   0.192259  -0.053426  -0.044317   0.002501   0.000551
     7  F    8.922369  -0.076280   0.003293   0.002490  -0.007643  -0.001007
     8  C   -0.076280   5.578820   0.154934  -0.051357   0.005856   0.015218
     9  C    0.003293   0.154934   5.730345   0.166380  -0.073330   0.039055
    10  C    0.002490  -0.051357   0.166380   5.228659   0.439260   0.240854
    11  O   -0.007643   0.005856  -0.073330   0.439260   7.544852  -0.085108
    12  C   -0.001007   0.015218   0.039055   0.240854  -0.085108   5.361053
    13  C    0.000003  -0.000768  -0.104914   0.106168   0.006514   0.193254
    14  C   -0.000001   0.016224   0.010732  -0.149680   0.000158   0.120428
    15  C    0.000192  -0.051810   0.154831   0.062115   0.000876  -0.170513
    16  F   -0.000000  -0.002911  -0.072838   0.002651  -0.000001  -0.000078
    17  H    0.000002   0.006287  -0.000590   0.000010  -0.000000   0.000000
    18  H    0.000000  -0.000719   0.004010   0.000033   0.000000  -0.000003
    19  H   -0.000004  -0.008384   0.004425   0.000084   0.000000  -0.000011
    20  H    0.000005   0.017618  -0.000317   0.000003   0.000000  -0.000000
    21  H   -0.000098  -0.002203   0.000025   0.000001   0.000000  -0.000000
    22  H    0.001773   0.021024  -0.000481   0.000068   0.000050   0.000000
    23  H    0.001473  -0.000508   0.011878  -0.005255   0.320373  -0.029486
    24  H    0.000000  -0.000417   0.018441  -0.084014  -0.009689   0.415083
    25  H    0.000000   0.000011  -0.002736   0.017707  -0.000128  -0.069819
    26  H   -0.000000  -0.000290   0.022031  -0.001310   0.000007   0.016792
              13         14         15         16         17         18
     1  C   -0.000027  -0.000061   0.000107   0.005269   0.378683   0.357809
     2  C   -0.000134   0.000511  -0.028542  -0.004043  -0.020240   0.000328
     3  C    0.000002  -0.000032   0.000046  -0.000216  -0.020152   0.000745
     4  C   -0.000000   0.000002  -0.000064   0.000003   0.002553  -0.000186
     5  C    0.000004  -0.000005  -0.000227  -0.000002  -0.000099  -0.000027
     6  C   -0.000151   0.000024   0.015737   0.000215   0.000040  -0.000309
     7  F    0.000003  -0.000001   0.000192  -0.000000   0.000002   0.000000
     8  C   -0.000768   0.016224  -0.051810  -0.002911   0.006287  -0.000719
     9  C   -0.104914   0.010732   0.154831  -0.072838  -0.000590   0.004010
    10  C    0.106168  -0.149680   0.062115   0.002651   0.000010   0.000033
    11  O    0.006514   0.000158   0.000876  -0.000001  -0.000000   0.000000
    12  C    0.193254   0.120428  -0.170513  -0.000078   0.000000  -0.000003
    13  C    5.158041   0.162323   0.130549   0.006338  -0.000002   0.000002
    14  C    0.162323   5.303615   0.282126  -0.065284   0.000044  -0.000152
    15  C    0.130549   0.282126   5.143146   0.364322   0.000097  -0.002241
    16  F    0.006338  -0.065284   0.364322   8.927476   0.001750   0.003500
    17  H   -0.000002   0.000044   0.000097   0.001750   0.674626  -0.023083
    18  H    0.000002  -0.000152  -0.002241   0.003500  -0.023083   0.633487
    19  H    0.000107  -0.001397   0.002274  -0.001949  -0.028780  -0.016936
    20  H    0.000000  -0.000000   0.000032  -0.000014   0.004267   0.002382
    21  H   -0.000000   0.000000   0.000000   0.000000  -0.000013   0.000016
    22  H    0.000000  -0.000000   0.000003  -0.000000  -0.000003  -0.000001
    23  H    0.000843  -0.000155   0.000321   0.000001  -0.000000  -0.000000
    24  H   -0.052817   0.016151  -0.000388   0.000004  -0.000000  -0.000000
    25  H    0.440180  -0.078530   0.016612  -0.000098   0.000000   0.000000
    26  H   -0.079618   0.428696  -0.068009   0.001646  -0.000002   0.000021
              19         20         21         22         23         24
     1  C    0.368387  -0.020392  -0.000511   0.000029   0.000000   0.000000
     2  C   -0.002216  -0.075342   0.018063  -0.000777   0.000023  -0.000000
     3  C    0.008681   0.434577  -0.075785   0.014534  -0.000000  -0.000000
     4  C   -0.001094  -0.072770   0.441964  -0.075218  -0.000001   0.000000
     5  C    0.000256   0.015495  -0.079174   0.420509   0.000045   0.000000
     6  C   -0.000796  -0.000290   0.015999  -0.062854  -0.000475   0.000060
     7  F   -0.000004   0.000005  -0.000098   0.001773   0.001473   0.000000
     8  C   -0.008384   0.017618  -0.002203   0.021024  -0.000508  -0.000417
     9  C    0.004425  -0.000317   0.000025  -0.000481   0.011878   0.018441
    10  C    0.000084   0.000003   0.000001   0.000068  -0.005255  -0.084014
    11  O    0.000000   0.000000   0.000000   0.000050   0.320373  -0.009689
    12  C   -0.000011  -0.000000  -0.000000   0.000000  -0.029486   0.415083
    13  C    0.000107   0.000000  -0.000000   0.000000   0.000843  -0.052817
    14  C   -0.001397  -0.000000   0.000000  -0.000000  -0.000155   0.016151
    15  C    0.002274   0.000032   0.000000   0.000003   0.000321  -0.000388
    16  F   -0.001949  -0.000014   0.000000  -0.000000   0.000001   0.000004
    17  H   -0.028780   0.004267  -0.000013  -0.000003  -0.000000  -0.000000
    18  H   -0.016936   0.002382   0.000016  -0.000001  -0.000000  -0.000000
    19  H    0.653721   0.000771   0.000014  -0.000001  -0.000000  -0.000000
    20  H    0.000771   0.728036  -0.014707  -0.000472   0.000000   0.000000
    21  H    0.000014  -0.014707   0.719851  -0.014055   0.000000  -0.000000
    22  H   -0.000001  -0.000472  -0.014055   0.700034  -0.000002  -0.000000
    23  H   -0.000000   0.000000   0.000000  -0.000002   0.513810   0.011491
    24  H   -0.000000   0.000000  -0.000000  -0.000000   0.011491   0.733074
    25  H   -0.000002  -0.000000   0.000000  -0.000000  -0.000050  -0.016416
    26  H    0.000052  -0.000000  -0.000000   0.000000  -0.000006  -0.000436
              25         26
     1  C    0.000001  -0.000006
     2  C   -0.000000   0.000042
     3  C   -0.000000  -0.000001
     4  C    0.000000   0.000000
     5  C   -0.000000  -0.000000
     6  C    0.000001   0.000002
     7  F    0.000000  -0.000000
     8  C    0.000011  -0.000290
     9  C   -0.002736   0.022031
    10  C    0.017707  -0.001310
    11  O   -0.000128   0.000007
    12  C   -0.069819   0.016792
    13  C    0.440180  -0.079618
    14  C   -0.078530   0.428696
    15  C    0.016612  -0.068009
    16  F   -0.000098   0.001646
    17  H    0.000000  -0.000002
    18  H    0.000000   0.000021
    19  H   -0.000002   0.000052
    20  H   -0.000000  -0.000000
    21  H    0.000000  -0.000000
    22  H   -0.000000   0.000000
    23  H   -0.000050  -0.000006
    24  H   -0.016416  -0.000436
    25  H    0.711585  -0.014167
    26  H   -0.014167   0.699540
 Mulliken charges:
               1
     1  C    0.086868
     2  C   -0.132130
     3  C   -0.040109
     4  C    0.046308
     5  C   -0.045394
     6  C    0.158799
     7  F   -0.164139
     8  C    0.030579
     9  C    0.027685
    10  C    0.056746
    11  O   -0.142738
    12  C   -0.046229
    13  C    0.034103
    14  C   -0.045737
    15  C    0.148409
    16  F   -0.165739
    17  H    0.024606
    18  H    0.041324
    19  H    0.022799
    20  H   -0.018882
    21  H   -0.009388
    22  H   -0.004159
    23  H    0.175680
    24  H   -0.030127
    25  H   -0.004151
    26  H   -0.004983
 Sum of Mulliken charges =  -0.00000
 Mulliken charges with hydrogens summed into heavy atoms:
               1
     1  C    0.175597
     2  C   -0.132130
     3  C   -0.058991
     4  C    0.036920
     5  C   -0.049553
     6  C    0.158799
     7  F   -0.164139
     8  C    0.030579
     9  C    0.027685
    10  C    0.056746
    11  O    0.032942
    12  C   -0.076356
    13  C    0.029952
    14  C   -0.050720
    15  C    0.148409
    16  F   -0.165739
 Electronic spatial extent (au):  <R**2>=           3327.1012
 Charge=             -0.0000 electrons
 Dipole moment (field-independent basis, Debye):
    X=              1.4179    Y=             -0.6133    Z=              0.0109  Tot=              1.5449
 Quadrupole moment (field-independent basis, Debye-Ang):
   XX=            -76.8805   YY=            -83.1437   ZZ=            -94.5567
   XY=             -6.1650   XZ=             -0.9763   YZ=             -2.0551
 Traceless Quadrupole moment (field-independent basis, Debye-Ang):
   XX=              7.9798   YY=              1.7166   ZZ=             -9.6964
   XY=             -6.1650   XZ=             -0.9763   YZ=             -2.0551
 Octapole moment (field-independent basis, Debye-Ang**2):
  XXX=             17.6746  YYY=            -37.3441  ZZZ=             -1.1765  XYY=             18.4252
  XXY=            -17.4220  XXZ=              4.2054  XZZ=              1.5426  YZZ=             -3.8664
  YYZ=              3.4946  XYZ=             -2.5182
 Hexadecapole moment (field-independent basis, Debye-Ang**3):
 XXXX=          -2545.9511 YYYY=          -1269.8800 ZZZZ=           -168.5992 XXXY=             44.2255
 XXXZ=            -29.0060 YYYX=            -26.8162 YYYZ=              6.1081 ZZZX=             22.7925
 ZZZY=             24.3794 XXYY=           -605.1203 XXZZ=           -529.0811 YYZZ=           -260.4868
 XXYZ=             -0.1332 YYXZ=             13.5079 ZZXY=             15.0228
 N-N= 1.076595487244D+03 E-N=-3.965568679431D+03  KE= 7.684203584382D+02
 Unable to Open any file for archive entry.
 1\1\GINC-SEMLSCPN087\SP\RBP86\def2SVP\C13H10F2O1\KTVF206\23-Jul-2026\0
 \\# bp86 empiricaldispersion=GD3BJ def2svp nosymm\\example\\0,1\C,0,-1
 .2468511084,2.642433796,-0.5711211313\C,0,-1.576964159,1.2440355878,-0
 .0723492095\C,0,-2.9216445204,1.1228729233,0.276693078\C,0,-3.55503403
 56,-0.0866818846,0.4663492396\C,0,-2.8605044864,-1.2243832169,0.110409
 8996\C,0,-1.5181260981,-1.126684789,-0.1960776572\F,0,-1.0171517778,-2
 .26064244,-0.7467949214\C,0,-0.7623268714,0.0682350282,-0.0748027531\C
 ,0,0.7362101195,0.0018388889,0.033905978\C,0,1.5086401693,-1.209631838
 4,0.1789673322\O,0,1.0305366015,-2.4274761099,0.5953167972\C,0,2.88966
 15667,-1.1770949129,-0.0266754444\C,0,3.5994797442,-0.0113822734,-0.21
 06240642\C,0,2.9177451598,1.1780133591,-0.0758322864\C,0,1.5444540908,
 1.1564332283,0.0762337664\F,0,1.0295054958,2.378508251,0.343864282\H,0
 ,-2.1378200715,3.0260904429,-1.0649346653\H,0,-0.9946782424,3.32368630
 4,0.2365452422\H,0,-0.4431260296,2.6331032965,-1.2998805439\H,0,-3.498
 2803247,2.0317168352,0.370170466\H,0,-4.586745284,-0.1357226769,0.7762
 809116\H,0,-3.3353914382,-2.1896962311,0.0375972697\H,0,1.7367396853,-
 3.0800171897,0.5559021263\H,0,3.4239766991,-2.1187813791,-0.0034464122
 \H,0,4.6634181164,-0.0317494088,-0.3816656265\H,0,3.4199025584,2.13170
 10407,-0.0695699794\\Version=ES64L-G16RevC.02\HF=-775.7335736\RMSD=4.1
 56e-09\Dipole=0.5578343,-0.2413041,0.0043004\Quadrupole=5.9327975,1.27
 62372,-7.2090347,-4.5835027,-0.7258844,-1.5279266\PG=C01 [X(C13H10F2O1
 )]\\@
 The archive entry for this job was punched.


 WHEN HAVING A MEETING OF THE MINDS,
 MAKE SURE YOU HAVE THE EQUIPMENT FOR IT.
 Job cpu time:       0 days  0 hours  2 minutes 50.9 seconds.
 Elapsed time:       0 days  0 hours  0 minutes 22.8 seconds.
 File lengths (MBytes):  RWF=     46 Int=      0 D2E=      0 Chk=      6 Scr=      1
 Normal termination of Gaussian 16 at Thu Jul 23 14:36:02 2026.
