 Entering Gaussian System, Link 0=/path/to/g16
 Initial command:
 /path/to/g16 "path/to/scratch/gaussian_tmp/Gau-299110.inp" -scrdir="path/to/scratch/gaussian_tmp/"
 Entering Link 1 = /path/to/g16 PID=    299111.
  
 Copyright (c) 1988-2021, Gaussian, Inc.  All Rights Reserved.
  
 This is part of the Gaussian(R) 16 program.  It is based on
 the Gaussian(R) 09 system (copyright 2009, Gaussian, Inc.),
 the Gaussian(R) 03 system (copyright 2003, Gaussian, Inc.),
 the Gaussian(R) 98 system (copyright 1998, Gaussian, Inc.),
 the Gaussian(R) 94 system (copyright 1995, Gaussian, Inc.),
 the Gaussian 92(TM) system (copyright 1992, Gaussian, Inc.),
 the Gaussian 90(TM) system (copyright 1990, Gaussian, Inc.),
 the Gaussian 88(TM) system (copyright 1988, Gaussian, Inc.),
 the Gaussian 86(TM) system (copyright 1986, Carnegie Mellon
 University), and the Gaussian 82(TM) system (copyright 1983,
 Carnegie Mellon University). Gaussian is a federally registered
 trademark of Gaussian, Inc.
  
 This software contains proprietary and confidential information,
 including trade secrets, belonging to Gaussian, Inc.
  
 This software is provided under written license and may be
 used, copied, transmitted, or stored only in accord with that
 written license.
  
 The following legend is applicable only to US Government
 contracts under FAR:
  
                    RESTRICTED RIGHTS LEGEND
  
 Use, reproduction and disclosure by the US Government is
 subject to restrictions as set forth in subparagraphs (a)
 and (c) of the Commercial Computer Software - Restricted
 Rights clause in FAR 52.227-19.
  
 Gaussian, Inc.
 340 Quinnipiac St., Bldg. 40, Wallingford CT 06492
  
  
 ---------------------------------------------------------------
 Warning -- This program may not be used in any manner that
 competes with the business of Gaussian, Inc. or will provide
 assistance to any competitor of Gaussian, Inc.  The licensee
 of this program is prohibited from giving any competitor of
 Gaussian, Inc. access to this program.  By using this program,
 the user acknowledges that Gaussian, Inc. is engaged in the
 business of creating and licensing software in the field of
 computational chemistry and represents and warrants to the
 licensee that it is not a competitor of Gaussian, Inc. and that
 it will not use this program in any manner prohibited above.
 ---------------------------------------------------------------
  

 Cite this work as:
 Gaussian 16, Revision C.02,
 M. J. Frisch, G. W. Trucks, H. B. Schlegel, G. E. Scuseria, 
 M. A. Robb, J. R. Cheeseman, G. Scalmani, V. Barone, 
 G. A. Petersson, H. Nakatsuji, X. Li, M. Caricato, A. V. Marenich, 
 J. Bloino, B. G. Janesko, R. Gomperts, B. Mennucci, H. P. Hratchian, 
 J. V. Ortiz, A. F. Izmaylov, J. L. Sonnenberg, D. Williams-Young, 
 F. Ding, F. Lipparini, F. Egidi, J. Goings, B. Peng, A. Petrone, 
 T. Henderson, D. Ranasinghe, V. G. Zakrzewski, J. Gao, N. Rega, 
 G. Zheng, W. Liang, M. Hada, M. Ehara, K. Toyota, R. Fukuda, 
 J. Hasegawa, M. Ishida, T. Nakajima, Y. Honda, O. Kitao, H. Nakai, 
 T. Vreven, K. Throssell, J. A. Montgomery, Jr., J. E. Peralta, 
 F. Ogliaro, M. J. Bearpark, J. J. Heyd, E. N. Brothers, K. N. Kudin, 
 V. N. Staroverov, T. A. Keith, R. Kobayashi, J. Normand, 
 K. Raghavachari, A. P. Rendell, J. C. Burant, S. S. Iyengar, 
 J. Tomasi, M. Cossi, J. M. Millam, M. Klene, C. Adamo, R. Cammi, 
 J. W. Ochterski, R. L. Martin, K. Morokuma, O. Farkas, 
 J. B. Foresman, and D. J. Fox, Gaussian, Inc., Wallingford CT, 2019.
 
 ******************************************
 Gaussian 16:  ES64L-G16RevC.02  7-Dec-2021
                23-Jul-2026 
 ******************************************
 %mem=8000MB
 %nprocshared=8
 Will use up to    8 processors via shared memory.
 --------------------------------------------
 # PW6B95D3 def2tzvp nosymm integral=NoXCTest
 --------------------------------------------
 1/38=1,172=1/1;
 2/12=2,15=1,17=6,18=5,40=1/2;
 3/5=44,7=101,11=2,25=1,30=1,47=8,74=-76/1,2,3;
 4//1;
 5/5=2,38=5/2;
 6/7=2,8=2,9=2,10=2,28=1/1;
 99/5=1,9=1/99;
 -------
 example
 -------
 Symbolic Z-matrix:
 Charge =  0 Multiplicity = 1
 C                    -0.73857   1.53601  -2.09727 
 C                    -1.48021   0.74607  -1.04446 
 C                    -2.89045   0.71954  -1.01977 
 C                    -3.58818   0.02118  -0.02133 
 C                    -2.89039  -0.67003   0.98076 
 C                    -1.49166  -0.6499    0.95156 
 F                    -0.814    -1.31885   1.90466 
 C                    -0.75927   0.03461  -0.04157 
 C                     0.72807  -0.00407  -0.02606 
 C                     1.43944  -0.69678  -1.04085 
 O                     0.77672  -1.35713  -2.03079 
 C                     2.84807  -0.71688  -1.04675 
 C                     3.55289  -0.05686  -0.03082 
 C                     2.87868   0.62347   0.999 
 C                     1.47989   0.63179   0.97988 
 F                     0.81253   1.28778   1.95251 
 H                    -1.43532   2.1479   -2.70185 
 H                     0.01186   2.20825  -1.63281 
 H                    -0.17778   0.87018  -2.78679 
 H                    -3.4479    1.27222  -1.7921 
 H                    -4.68919   0.01875  -0.01853 
 H                    -3.40413  -1.22335   1.78018 
 H                    -0.18199  -1.31508  -1.82049 
 H                     3.36504  -1.26284  -1.84877 
 H                     4.6537   -0.07621  -0.03525 
 H                     3.41196   1.14354   1.80698 
 
                          Input orientation:                          
 ---------------------------------------------------------------------
 Center     Atomic      Atomic             Coordinates (Angstroms)
 Number     Number       Type             X           Y           Z
 ---------------------------------------------------------------------
      1          6           0       -0.738571    1.536005   -2.097271
      2          6           0       -1.480206    0.746069   -1.044456
      3          6           0       -2.890451    0.719537   -1.019770
      4          6           0       -3.588177    0.021183   -0.021327
      5          6           0       -2.890386   -0.670025    0.980762
      6          6           0       -1.491655   -0.649900    0.951558
      7          9           0       -0.814000   -1.318848    1.904660
      8          6           0       -0.759266    0.034606   -0.041568
      9          6           0        0.728065   -0.004072   -0.026062
     10          6           0        1.439442   -0.696784   -1.040847
     11          8           0        0.776721   -1.357126   -2.030791
     12          6           0        2.848069   -0.716883   -1.046746
     13          6           0        3.552893   -0.056855   -0.030816
     14          6           0        2.878681    0.623468    0.999002
     15          6           0        1.479894    0.631792    0.979876
     16          9           0        0.812525    1.287776    1.952509
     17          1           0       -1.435322    2.147902   -2.701850
     18          1           0        0.011863    2.208250   -1.632807
     19          1           0       -0.177779    0.870182   -2.786789
     20          1           0       -3.447901    1.272221   -1.792098
     21          1           0       -4.689193    0.018754   -0.018532
     22          1           0       -3.404128   -1.223348    1.780182
     23          1           0       -0.181987   -1.315082   -1.820491
     24          1           0        3.365041   -1.262837   -1.848767
     25          1           0        4.653703   -0.076213   -0.035247
     26          1           0        3.411956    1.143540    1.806981
 ---------------------------------------------------------------------
                    Distance matrix (angstroms):
                    1          2          3          4          5
     1  C    0.000000
     2  C    1.510775   0.000000
     3  C    2.541302   1.410711   0.000000
     4  C    3.837249   2.452712   1.404068   0.000000
     5  C    4.355590   2.845248   2.435777   1.403162   0.000000
     6  C    3.826313   2.435761   2.778151   2.406712   1.399181
     7  F    4.916434   3.661284   4.125403   3.633341   2.363459
     8  C    2.545691   1.425384   2.442941   2.829015   2.466442
     9  C    2.968630   2.544857   3.821613   4.316318   3.814495
    10  C    3.293193   3.256713   4.555698   5.179947   4.778601
    11  O    3.266609   3.238828   4.333918   4.999001   4.794709
    12  C    4.363839   4.568829   5.915627   6.559077   6.086284
    13  C    5.022360   5.196560   6.564868   7.141503   6.550963
    14  C    4.848107   4.815667   6.112901   6.574502   5.912325
    15  C    3.899746   3.587920   4.806891   5.201980   4.560052
    16  F    4.343758   3.812068   4.782193   4.986629   4.299864
    17  H    1.106976   2.171199   2.643297   4.042638   4.859995
    18  H    1.109410   2.170346   3.318962   4.510035   4.851624
    19  H    1.110515   2.178863   3.240932   4.472068   4.891310
    20  H    2.739194   2.169707   1.101227   2.172649   3.431020
    21  H    4.714936   3.446608   2.174637   1.101022   2.169957
    22  H    5.454710   3.944447   3.446505   2.197309   1.099622
    23  H    2.918063   2.556550   3.480892   4.077343   3.949499
    24  H    4.973420   5.306509   6.614244   7.303115   6.891156
    25  H    5.993981   6.270526   7.649625   8.242467   7.635324
    26  H    5.711750   5.676436   6.920306   7.321493   6.609930
                    6          7          8          9         10
     6  C    0.000000
     7  F    1.347261   0.000000
     8  C    1.411114   2.371210   0.000000
     9  C    2.509978   2.798980   1.487915   0.000000
    10  C    3.544461   3.760449   2.523451   1.419752   0.000000
    11  O    3.813149   4.244954   2.872835   2.419103   1.362072
    12  C    4.778170   4.741720   3.819422   2.458518   1.408783
    13  C    5.173415   4.940491   4.313142   2.825325   2.428239
    14  C    4.552313   4.269508   3.829387   2.463679   2.824085
    15  C    3.236300   3.149948   2.532551   1.407651   2.418692
    16  F    3.172655   3.072843   2.831485   2.364476   3.645776
    17  H    4.601984   5.798649   3.464126   4.058457   4.372120
    18  H    4.136246   5.063215   2.802037   2.826472   3.290535
    19  H    4.244073   5.215968   2.927892   3.034219   2.849403
    20  H    3.879316   5.226576   3.438721   4.710255   5.322357
    21  H    3.407700   4.528241   3.930026   5.417311   6.254382
    22  H    2.161715   2.594875   3.449133   4.671635   5.629889
    23  H    3.137189   3.778387   2.306399   2.401441   1.902411
    24  H    5.639593   5.617449   4.686068   3.443891   2.163581
    25  H    6.250466   5.933225   5.414107   3.926312   3.424590
    26  H    5.290896   4.891993   4.695313   3.446786   3.922719
                   11         12         13         14         15
    11  O    0.000000
    12  C    2.380911   0.000000
    13  C    3.660292   1.401616   0.000000
    14  C    4.185766   2.445928   1.406388   0.000000
    15  C    3.676189   2.792494   2.406877   1.398943   0.000000
    16  F    4.781576   4.142177   3.640224   2.370545   1.349708
    17  H    4.198652   5.412375   6.072698   5.884796   4.934793
    18  H    3.668147   4.116301   4.498441   4.201975   3.386214
    19  H    2.538406   3.834355   4.729979   4.871861   4.122193
    20  H    4.981754   6.644646   7.340278   6.945269   5.690093
    21  H    5.984852   7.642559   8.242442   7.659881   6.279353
    22  H    5.658702   6.880261   7.282895   6.595048   5.285424
    23  H    0.982403   3.183985   4.328441   4.590774   3.793972
    24  H    2.596425   1.099347   2.189664   3.450287   3.891609
    25  H    4.544659   2.166542   1.100989   2.170237   3.406583
    26  H    5.284533   3.452955   2.199616   1.098948   2.163065
                   16         17         18         19         20
    16  F    0.000000
    17  H    5.239818   0.000000
    18  H    3.787192   1.800233   0.000000
    19  H    4.859633   1.794769   1.777094   0.000000
    20  H    5.672174   2.375908   3.587686   3.441619   0.000000
    21  H    5.980328   4.724526   5.431363   5.361066   2.501504
    22  H    4.910764   5.943916   5.923964   5.970714   4.357862
    23  H    4.690357   3.786806   3.533648   2.389378   4.166670
    24  H    5.241246   5.950158   4.831034   4.240428   7.269519
    25  H    4.535007   7.009542   5.414577   5.640024   8.398856
    26  H    2.607494   6.695850   4.952412   5.836407   7.747746
                   21         22         23         24         25
    21  H    0.000000
    22  H    2.535662   0.000000
    23  H    5.033993   4.832748   0.000000
    24  H    8.358404   7.680656   3.547525   0.000000
    25  H    9.343394   8.339085   5.301489   2.521424   0.000000
    26  H    8.380111   7.215392   5.667433   4.376910   2.534470
                   26
    26  H    0.000000
 Symmetry turned off by external request.
 Stoichiometry    C13H10F2O
 Framework group  C1[X(C13H10F2O)]
 Deg. of freedom    72
 Full point group                 C1      NOp   1
 Rotational constants (GHZ):           0.8752553           0.4432608           0.3751290
 Standard basis: def2TZVP (5D, 7F)
   556 basis functions,   896 primitive gaussians,   636 cartesian basis functions
    57 alpha electrons       57 beta electrons
       nuclear repulsion energy      1079.7998682276 Hartrees.
 NAtoms=   26 NActive=   26 NUniq=   26 SFac= 1.00D+00 NAtFMM=   60 NAOKFM=F Big=F
 Integral buffers will be    131072 words long.
 Raffenetti 2 integral format.
 Two-electron integral symmetry is turned off.
 Nuclear repulsion after empirical dispersion term =     1079.7822517774 Hartrees.
 One-electron integrals computed using PRISM.
   1 Symmetry operations used in ECPInt.
 ECPInt:  NShTT=   23436 NPrTT=   72772 LenC2=   21893 LenP2D=   50250.
 LDataN:  DoStor=T MaxTD1= 6 Len=  172
 NBasis=   556 RedAO= T EigKep=  9.11D-06  NBF=   556
 NBsUse=   556 1.00D-06 EigRej= -1.00D+00 NBFU=   556
 ExpMin= 9.52D-02 ExpMax= 3.55D+04 ExpMxC= 1.21D+03 IAcc=3 IRadAn=         5 AccDes= 0.00D+00
 Harris functional with IExCor= 7409 and IRadAn=       5 diagonalized for initial guess.
 HarFok:  IExCor= 7409 AccDes= 0.00D+00 IRadAn=         5 IDoV= 1 UseB2=F ITyADJ=14
 ICtDFT=  3500011 ScaDFX=  1.000000  1.000000  1.000000  1.000000
 FoFCou: FMM=F IPFlag=           8 FMFlag=      100000 FMFlg1=           0
         NFxFlg=           0 DoJE=T BraDBF=F KetDBF=T FulRan=T
         wScrn=  0.000000 ICntrl=       500 IOpCl=  0 I1Cent=   200000004 NGrid=           0
         NMat0=    1 NMatS0=      1 NMatT0=    0 NMatD0=    1 NMtDS0=    0 NMtDT0=    0
 Symmetry not used in FoFCou.
 Requested convergence on RMS density matrix=1.00D-08 within 128 cycles.
 Requested convergence on MAX density matrix=1.00D-06.
 Requested convergence on             energy=1.00D-06.
 No special actions if energy rises.
 Integral accuracy reduced to 1.0D-05 until final iterations.
 Problem detected with inexpensive integrals.
 Switching to full accuracy and repeating last cycle.
 SCF Done:  E(RPW6B95D3) =  -777.583486317     A.U. after   18 cycles
            NFock= 18  Conv=0.31D-08     -V/T= 2.0051

 **********************************************************************

            Population analysis using the SCF Density.

 **********************************************************************

 Alpha  occ. eigenvalues --  -24.88779 -24.88353 -19.33550 -10.39712 -10.39196
 Alpha  occ. eigenvalues --  -10.37577 -10.33405 -10.33126 -10.32250 -10.32230
 Alpha  occ. eigenvalues --  -10.31713 -10.31663 -10.31347 -10.30554 -10.30451
 Alpha  occ. eigenvalues --  -10.30387  -1.27017  -1.26450  -1.10298  -0.90611
 Alpha  occ. eigenvalues --   -0.88217  -0.82090  -0.80191  -0.77159  -0.75930
 Alpha  occ. eigenvalues --   -0.72248  -0.67028  -0.64272  -0.63374  -0.62644
 Alpha  occ. eigenvalues --   -0.58034  -0.56406  -0.55063  -0.53106  -0.52617
 Alpha  occ. eigenvalues --   -0.50162  -0.49797  -0.49533  -0.49118  -0.46264
 Alpha  occ. eigenvalues --   -0.45389  -0.45106  -0.44497  -0.44214  -0.43102
 Alpha  occ. eigenvalues --   -0.41294  -0.40488  -0.39704  -0.39045  -0.38386
 Alpha  occ. eigenvalues --   -0.37766  -0.36442  -0.35705  -0.28938  -0.27148
 Alpha  occ. eigenvalues --   -0.26315  -0.24838
 Alpha virt. eigenvalues --   -0.03678  -0.01613  -0.00699   0.00095   0.03623
 Alpha virt. eigenvalues --    0.04993   0.05922   0.06870   0.08720   0.09766
 Alpha virt. eigenvalues --    0.09953   0.10238   0.11369   0.11664   0.12305
 Alpha virt. eigenvalues --    0.13132   0.14032   0.14684   0.15009   0.16687
 Alpha virt. eigenvalues --    0.17674   0.19031   0.19645   0.20056   0.20672
 Alpha virt. eigenvalues --    0.21170   0.21974   0.22355   0.23021   0.24295
 Alpha virt. eigenvalues --    0.24607   0.25517   0.25664   0.26602   0.27152
 Alpha virt. eigenvalues --    0.27905   0.28353   0.29580   0.30249   0.31054
 Alpha virt. eigenvalues --    0.31109   0.32197   0.32409   0.33319   0.33889
 Alpha virt. eigenvalues --    0.34792   0.35174   0.35845   0.36067   0.36432
 Alpha virt. eigenvalues --    0.36779   0.37303   0.38096   0.39511   0.39938
 Alpha virt. eigenvalues --    0.40062   0.40680   0.41349   0.41522   0.42246
 Alpha virt. eigenvalues --    0.43123   0.43674   0.43991   0.44719   0.45357
 Alpha virt. eigenvalues --    0.45937   0.46121   0.46534   0.47400   0.48212
 Alpha virt. eigenvalues --    0.48759   0.49573   0.50423   0.50837   0.51741
 Alpha virt. eigenvalues --    0.52348   0.53288   0.53757   0.54908   0.56773
 Alpha virt. eigenvalues --    0.58359   0.58898   0.59468   0.61827   0.63338
 Alpha virt. eigenvalues --    0.63956   0.64662   0.65373   0.65509   0.66187
 Alpha virt. eigenvalues --    0.67099   0.67416   0.68165   0.69733   0.70860
 Alpha virt. eigenvalues --    0.71352   0.73263   0.73750   0.73993   0.74628
 Alpha virt. eigenvalues --    0.76508   0.77277   0.77774   0.78401   0.79973
 Alpha virt. eigenvalues --    0.80615   0.82243   0.83184   0.84317   0.84769
 Alpha virt. eigenvalues --    0.85413   0.86401   0.87003   0.87937   0.89193
 Alpha virt. eigenvalues --    0.90503   0.90880   0.92283   0.93007   0.93644
 Alpha virt. eigenvalues --    0.94378   0.94874   0.96057   0.97634   0.98545
 Alpha virt. eigenvalues --    1.00708   1.01643   1.02701   1.03970   1.05106
 Alpha virt. eigenvalues --    1.06351   1.07255   1.09343   1.10325   1.10951
 Alpha virt. eigenvalues --    1.12407   1.12921   1.13332   1.14241   1.15512
 Alpha virt. eigenvalues --    1.17100   1.17324   1.18635   1.20610   1.21494
 Alpha virt. eigenvalues --    1.22574   1.24406   1.25096   1.25477   1.26371
 Alpha virt. eigenvalues --    1.28067   1.28843   1.29584   1.31119   1.33199
 Alpha virt. eigenvalues --    1.34619   1.34855   1.36876   1.37619   1.38629
 Alpha virt. eigenvalues --    1.40372   1.42959   1.43749   1.44755   1.45756
 Alpha virt. eigenvalues --    1.46865   1.47142   1.49108   1.50624   1.51485
 Alpha virt. eigenvalues --    1.52050   1.53819   1.55520   1.55692   1.55970
 Alpha virt. eigenvalues --    1.56971   1.57328   1.58363   1.59976   1.60336
 Alpha virt. eigenvalues --    1.61080   1.62298   1.63294   1.63830   1.64927
 Alpha virt. eigenvalues --    1.66799   1.67096   1.68015   1.68765   1.69739
 Alpha virt. eigenvalues --    1.71003   1.72539   1.73908   1.75256   1.76149
 Alpha virt. eigenvalues --    1.77268   1.81069   1.83075   1.85689   1.85933
 Alpha virt. eigenvalues --    1.87399   1.88802   1.89776   1.90638   1.92438
 Alpha virt. eigenvalues --    1.93260   1.93415   1.95764   1.98195   1.98545
 Alpha virt. eigenvalues --    2.00097   2.02454   2.04283   2.04902   2.05162
 Alpha virt. eigenvalues --    2.07442   2.08744   2.09777   2.11369   2.11853
 Alpha virt. eigenvalues --    2.12412   2.12820   2.14517   2.15143   2.16343
 Alpha virt. eigenvalues --    2.17229   2.18471   2.19700   2.20148   2.21124
 Alpha virt. eigenvalues --    2.22789   2.24249   2.25208   2.26153   2.27798
 Alpha virt. eigenvalues --    2.30254   2.31429   2.32737   2.34737   2.39205
 Alpha virt. eigenvalues --    2.40410   2.40653   2.41750   2.43297   2.44975
 Alpha virt. eigenvalues --    2.45767   2.46206   2.47063   2.49225   2.50749
 Alpha virt. eigenvalues --    2.51307   2.52702   2.55216   2.55432   2.55685
 Alpha virt. eigenvalues --    2.56361   2.57428   2.58707   2.59043   2.59707
 Alpha virt. eigenvalues --    2.60259   2.62215   2.62594   2.63817   2.64687
 Alpha virt. eigenvalues --    2.66648   2.67862   2.68752   2.69702   2.70687
 Alpha virt. eigenvalues --    2.70927   2.72143   2.74263   2.74619   2.75535
 Alpha virt. eigenvalues --    2.75915   2.77046   2.77589   2.78057   2.79276
 Alpha virt. eigenvalues --    2.81304   2.82234   2.83202   2.84770   2.85768
 Alpha virt. eigenvalues --    2.87415   2.87579   2.89246   2.90095   2.91851
 Alpha virt. eigenvalues --    2.92297   2.92586   2.94887   2.95024   2.95327
 Alpha virt. eigenvalues --    2.96266   2.98241   2.99165   3.00029   3.01053
 Alpha virt. eigenvalues --    3.01576   3.02271   3.03026   3.03279   3.05000
 Alpha virt. eigenvalues --    3.05660   3.06506   3.07855   3.08398   3.09307
 Alpha virt. eigenvalues --    3.10668   3.10940   3.13200   3.13926   3.14480
 Alpha virt. eigenvalues --    3.15282   3.16097   3.16492   3.18420   3.18814
 Alpha virt. eigenvalues --    3.19935   3.20382   3.22681   3.23422   3.24295
 Alpha virt. eigenvalues --    3.24884   3.25545   3.25774   3.26790   3.27171
 Alpha virt. eigenvalues --    3.28367   3.29020   3.30181   3.31218   3.32059
 Alpha virt. eigenvalues --    3.33959   3.34824   3.36192   3.36829   3.38254
 Alpha virt. eigenvalues --    3.39491   3.39861   3.40392   3.42370   3.43800
 Alpha virt. eigenvalues --    3.44498   3.44883   3.45368   3.47047   3.47784
 Alpha virt. eigenvalues --    3.48866   3.50098   3.50998   3.52180   3.52690
 Alpha virt. eigenvalues --    3.54023   3.54934   3.55896   3.56975   3.57661
 Alpha virt. eigenvalues --    3.59149   3.59686   3.60755   3.61906   3.62915
 Alpha virt. eigenvalues --    3.65197   3.69220   3.71469   3.73345   3.73989
 Alpha virt. eigenvalues --    3.75997   3.78133   3.79828   3.81102   3.83892
 Alpha virt. eigenvalues --    3.85575   3.86458   3.88019   3.89068   3.89856
 Alpha virt. eigenvalues --    3.92340   3.95253   3.99072   3.99313   4.01013
 Alpha virt. eigenvalues --    4.02026   4.03606   4.03808   4.04962   4.05864
 Alpha virt. eigenvalues --    4.08511   4.08928   4.10087   4.11244   4.11758
 Alpha virt. eigenvalues --    4.14189   4.15477   4.16422   4.18309   4.19114
 Alpha virt. eigenvalues --    4.20022   4.20722   4.22035   4.22719   4.24184
 Alpha virt. eigenvalues --    4.25549   4.28509   4.31154   4.33523   4.35147
 Alpha virt. eigenvalues --    4.37352   4.38298   4.42404   4.43607   4.45642
 Alpha virt. eigenvalues --    4.48269   4.50076   4.52388   4.56582   4.58342
 Alpha virt. eigenvalues --    4.63017   4.63295   4.66237   4.67446   4.68191
 Alpha virt. eigenvalues --    4.70198   4.75785   4.81671   4.83748   4.88867
 Alpha virt. eigenvalues --    4.95705   5.00544   5.01235   5.01855   5.04882
 Alpha virt. eigenvalues --    5.09065   5.11396   5.14400   5.26166   5.26621
 Alpha virt. eigenvalues --    5.29169   5.31605   5.42095   5.44073   5.46552
 Alpha virt. eigenvalues --    5.47869   5.53814   5.59491   5.62450   5.73829
 Alpha virt. eigenvalues --    5.78871   5.96268   6.25668   6.33344   6.42698
 Alpha virt. eigenvalues --    6.71411   6.81023   6.87668   6.88079   6.88761
 Alpha virt. eigenvalues --    6.89423   6.98016   6.98705   6.99933   7.07415
 Alpha virt. eigenvalues --    7.08071   7.22737   7.23164   7.25841   7.40275
 Alpha virt. eigenvalues --    7.41870   7.53625   7.55105   8.36406   8.37570
 Alpha virt. eigenvalues --    8.53964   8.55472   8.75144   8.75829   8.97135
 Alpha virt. eigenvalues --    8.97948   8.99994   9.03214  22.14554  22.21925
 Alpha virt. eigenvalues --   22.40994  22.62105  22.62710  22.64000  22.64974
 Alpha virt. eigenvalues --   22.79391  22.89011  22.94954  23.00444  23.27830
 Alpha virt. eigenvalues --   23.62129  44.06219  57.42818  57.43990
          Condensed to atoms (all electrons):
               1          2          3          4          5          6
     1  C    5.010932   0.288750  -0.064750   0.013857  -0.001919   0.008723
     2  C    0.288750   5.516500   0.400906   0.108217  -0.168851   0.098502
     3  C   -0.064750   0.400906   5.063806   0.396849   0.066222  -0.123822
     4  C    0.013857   0.108217   0.396849   4.988712   0.355706   0.080753
     5  C   -0.001919  -0.168851   0.066222   0.355706   5.135976   0.417054
     6  C    0.008723   0.098502  -0.123822   0.080753   0.417054   4.876644
     7  F   -0.000182   0.012216  -0.002945   0.010016  -0.066843   0.341756
     8  C   -0.053474   0.008749   0.030935  -0.171883   0.096760   0.124702
     9  C   -0.019902  -0.162845   0.026766  -0.011006   0.019004  -0.099685
    10  C    0.025875  -0.048814   0.002258  -0.001935   0.001931   0.023077
    11  O   -0.024124   0.029862   0.001462   0.000130   0.000646  -0.000639
    12  C    0.008014  -0.003748  -0.000174  -0.000000  -0.000112   0.001793
    13  C   -0.000425   0.000494   0.000052  -0.000015   0.000084  -0.000365
    14  C   -0.000882   0.001179  -0.000183   0.000100  -0.000371   0.000337
    15  C   -0.008731   0.042403   0.000156   0.001015  -0.001806  -0.032312
    16  F    0.000783   0.000329  -0.000318   0.000159  -0.000504   0.012994
    17  H    0.405599  -0.052509  -0.008405   0.002040  -0.000172   0.000223
    18  H    0.412797  -0.048870  -0.004443  -0.000147  -0.000087   0.001705
    19  H    0.372075   0.007528   0.005422  -0.000100  -0.000010  -0.001744
    20  H   -0.010891  -0.051205   0.411427  -0.047939   0.007534  -0.001172
    21  H   -0.000512   0.009263  -0.045396   0.413342  -0.042505   0.007069
    22  H    0.000092  -0.004583   0.012835  -0.057486   0.420360  -0.060207
    23  H   -0.001567  -0.005502   0.002794  -0.001072   0.001115   0.000231
    24  H    0.000025  -0.000040  -0.000003   0.000000  -0.000002  -0.000001
    25  H    0.000000  -0.000003  -0.000000   0.000000   0.000000   0.000008
    26  H    0.000008   0.000008  -0.000002   0.000000  -0.000004  -0.000058
               7          8          9         10         11         12
     1  C   -0.000182  -0.053474  -0.019902   0.025875  -0.024124   0.008014
     2  C    0.012216   0.008749  -0.162845  -0.048814   0.029862  -0.003748
     3  C   -0.002945   0.030935   0.026766   0.002258   0.001462  -0.000174
     4  C    0.010016  -0.171883  -0.011006  -0.001935   0.000130  -0.000000
     5  C   -0.066843   0.096760   0.019004   0.001931   0.000646  -0.000112
     6  C    0.341756   0.124702  -0.099685   0.023077  -0.000639   0.001793
     7  F    8.997676  -0.131939   0.016142   0.006001  -0.000107   0.000019
     8  C   -0.131939   6.339631  -0.063425  -0.061426  -0.021998   0.003934
     9  C    0.016142  -0.063425   6.528210   0.069146  -0.094511   0.018344
    10  C    0.006001  -0.061426   0.069146   4.993789   0.342723   0.457695
    11  O   -0.000107  -0.021998  -0.094511   0.342723   7.863069  -0.035153
    12  C    0.000019   0.003934   0.018344   0.457695  -0.035153   5.067818
    13  C    0.000162  -0.006080  -0.132617   0.053473  -0.001882   0.456143
    14  C   -0.000549   0.014151   0.048149  -0.125968   0.002475   0.039638
    15  C    0.009700  -0.054443   0.033524   0.083238   0.000819  -0.117301
    16  F   -0.000661   0.021994  -0.126888   0.006303  -0.000069  -0.001554
    17  H    0.000003   0.010870  -0.000930   0.000055   0.000331  -0.000144
    18  H    0.000002  -0.000047  -0.001662  -0.001920  -0.000047  -0.001186
    19  H    0.000001  -0.034017   0.001739  -0.017178   0.021262  -0.002108
    20  H    0.000006   0.017237  -0.000062   0.000108  -0.000031  -0.000001
    21  H   -0.000112  -0.002261   0.000157  -0.000012   0.000000  -0.000000
    22  H    0.003796   0.023059  -0.000487   0.000015   0.000004  -0.000001
    23  H    0.000076   0.029852  -0.040444  -0.021048   0.298514   0.005739
    24  H   -0.000003  -0.000807   0.018432  -0.048588   0.006178   0.407882
    25  H    0.000000   0.000042  -0.003417   0.012088  -0.000175  -0.053359
    26  H    0.000006  -0.000384   0.024445  -0.004130   0.000029   0.011884
              13         14         15         16         17         18
     1  C   -0.000425  -0.000882  -0.008731   0.000783   0.405599   0.412797
     2  C    0.000494   0.001179   0.042403   0.000329  -0.052509  -0.048870
     3  C    0.000052  -0.000183   0.000156  -0.000318  -0.008405  -0.004443
     4  C   -0.000015   0.000100   0.001015   0.000159   0.002040  -0.000147
     5  C    0.000084  -0.000371  -0.001806  -0.000504  -0.000172  -0.000087
     6  C   -0.000365   0.000337  -0.032312   0.012994   0.000223   0.001705
     7  F    0.000162  -0.000549   0.009700  -0.000661   0.000003   0.000002
     8  C   -0.006080   0.014151  -0.054443   0.021994   0.010870  -0.000047
     9  C   -0.132617   0.048149   0.033524  -0.126888  -0.000930  -0.001662
    10  C    0.053473  -0.125968   0.083238   0.006303   0.000055  -0.001920
    11  O   -0.001882   0.002475   0.000819  -0.000069   0.000331  -0.000047
    12  C    0.456143   0.039638  -0.117301  -0.001554  -0.000144  -0.001186
    13  C    4.915762   0.377657   0.064515   0.009168   0.000012   0.000300
    14  C    0.377657   5.143288   0.445560  -0.065232  -0.000033   0.000188
    15  C    0.064515   0.445560   4.923008   0.332887   0.000241   0.003750
    16  F    0.009168  -0.065232   0.332887   9.007538   0.000006   0.000031
    17  H    0.000012  -0.000033   0.000241   0.000006   0.557879  -0.020036
    18  H    0.000300   0.000188   0.003750   0.000031  -0.020036   0.543343
    19  H    0.000187   0.000580   0.002117   0.000009  -0.019838  -0.029062
    20  H    0.000000  -0.000002  -0.000035  -0.000002   0.004195  -0.000016
    21  H    0.000000   0.000000   0.000011   0.000000  -0.000037   0.000018
    22  H    0.000000  -0.000003  -0.000070   0.000005  -0.000003  -0.000004
    23  H    0.000145  -0.000626   0.003703  -0.000004   0.000020   0.000496
    24  H   -0.051479   0.008976  -0.002096   0.000014  -0.000001  -0.000038
    25  H    0.420365  -0.047303   0.008455  -0.000118   0.000000   0.000002
    26  H   -0.056970   0.418769  -0.059917   0.003563  -0.000000   0.000004
              19         20         21         22         23         24
     1  C    0.372075  -0.010891  -0.000512   0.000092  -0.001567   0.000025
     2  C    0.007528  -0.051205   0.009263  -0.004583  -0.005502  -0.000040
     3  C    0.005422   0.411427  -0.045396   0.012835   0.002794  -0.000003
     4  C   -0.000100  -0.047939   0.413342  -0.057486  -0.001072   0.000000
     5  C   -0.000010   0.007534  -0.042505   0.420360   0.001115  -0.000002
     6  C   -0.001744  -0.001172   0.007069  -0.060207   0.000231  -0.000001
     7  F    0.000001   0.000006  -0.000112   0.003796   0.000076  -0.000003
     8  C   -0.034017   0.017237  -0.002261   0.023059   0.029852  -0.000807
     9  C    0.001739  -0.000062   0.000157  -0.000487  -0.040444   0.018432
    10  C   -0.017178   0.000108  -0.000012   0.000015  -0.021048  -0.048588
    11  O    0.021262  -0.000031   0.000000   0.000004   0.298514   0.006178
    12  C   -0.002108  -0.000001  -0.000000  -0.000001   0.005739   0.407882
    13  C    0.000187   0.000000   0.000000   0.000000   0.000145  -0.051479
    14  C    0.000580  -0.000002   0.000000  -0.000003  -0.000626   0.008976
    15  C    0.002117  -0.000035   0.000011  -0.000070   0.003703  -0.002096
    16  F    0.000009  -0.000002   0.000000   0.000005  -0.000004   0.000014
    17  H   -0.019838   0.004195  -0.000037  -0.000003   0.000020  -0.000001
    18  H   -0.029062  -0.000016   0.000018  -0.000004   0.000496  -0.000038
    19  H    0.547416   0.000320   0.000024  -0.000003  -0.005282   0.000102
    20  H    0.000320   0.568849  -0.006177  -0.000244   0.000005   0.000000
    21  H    0.000024  -0.006177   0.557254  -0.007733   0.000000  -0.000000
    22  H   -0.000003  -0.000244  -0.007733   0.549264  -0.000003   0.000000
    23  H   -0.005282   0.000005   0.000000  -0.000003   0.392024  -0.000909
    24  H    0.000102   0.000000  -0.000000   0.000000  -0.000909   0.556213
    25  H    0.000003  -0.000000   0.000000  -0.000000   0.000037  -0.007716
    26  H   -0.000006   0.000000  -0.000000   0.000000  -0.000008  -0.000178
              25         26
     1  C    0.000000   0.000008
     2  C   -0.000003   0.000008
     3  C   -0.000000  -0.000002
     4  C    0.000000   0.000000
     5  C    0.000000  -0.000004
     6  C    0.000008  -0.000058
     7  F    0.000000   0.000006
     8  C    0.000042  -0.000384
     9  C   -0.003417   0.024445
    10  C    0.012088  -0.004130
    11  O   -0.000175   0.000029
    12  C   -0.053359   0.011884
    13  C    0.420365  -0.056970
    14  C   -0.047303   0.418769
    15  C    0.008455  -0.059917
    16  F   -0.000118   0.003563
    17  H    0.000000  -0.000000
    18  H    0.000002   0.000004
    19  H    0.000003  -0.000006
    20  H   -0.000000   0.000000
    21  H    0.000000  -0.000000
    22  H   -0.000000   0.000000
    23  H    0.000037  -0.000008
    24  H   -0.007716  -0.000178
    25  H    0.563772  -0.007705
    26  H   -0.007705   0.553856
 Mulliken charges:
               1
     1  C   -0.360173
     2  C    0.022063
     3  C   -0.171449
     4  C   -0.079316
     5  C   -0.239209
     6  C    0.324437
     7  F   -0.194239
     8  C   -0.119732
     9  C   -0.046179
    10  C    0.253247
    11  O   -0.388768
    12  C   -0.264062
    13  C   -0.048685
    14  C   -0.259894
    15  C    0.321608
    16  F   -0.200434
    17  H    0.120634
    18  H    0.144928
    19  H    0.150564
    20  H    0.108095
    21  H    0.117606
    22  H    0.121396
    23  H    0.341714
    24  H    0.114038
    25  H    0.115023
    26  H    0.116788
 Sum of Mulliken charges =  -0.00000
 Mulliken charges with hydrogens summed into heavy atoms:
               1
     1  C    0.055954
     2  C    0.022063
     3  C   -0.063354
     4  C    0.038290
     5  C   -0.117813
     6  C    0.324437
     7  F   -0.194239
     8  C   -0.119732
     9  C   -0.046179
    10  C    0.253247
    11  O   -0.047055
    12  C   -0.150024
    13  C    0.066337
    14  C   -0.143106
    15  C    0.321608
    16  F   -0.200434
 Electronic spatial extent (au):  <R**2>=           3165.5481
 Charge=             -0.0000 electrons
 Dipole moment (field-independent basis, Debye):
    X=             -1.2005    Y=              0.6486    Z=             -1.4479  Tot=              1.9896
 Quadrupole moment (field-independent basis, Debye-Ang):
   XX=            -75.3287   YY=            -93.8670   ZZ=            -93.5340
   XY=              1.2077   XZ=              2.1607   YZ=             -2.6104
 Traceless Quadrupole moment (field-independent basis, Debye-Ang):
   XX=             12.2478   YY=             -6.2904   ZZ=             -5.9574
   XY=              1.2077   XZ=              2.1607   YZ=             -2.6104
 Octapole moment (field-independent basis, Debye-Ang**2):
  XXX=              4.0980  YYY=             -6.2295  ZZZ=             31.2353  XYY=             -2.5934
  XXY=             -4.4826  XXZ=             16.1066  XZZ=             -5.3017  YZZ=              3.0256
  YYZ=              7.4747  XYZ=             11.8158
 Hexadecapole moment (field-independent basis, Debye-Ang**3):
 XXXX=          -2324.2337 YYYY=           -535.6584 ZZZZ=          -1010.9361 XXXY=             25.7910
 XXXZ=            -17.4499 YYYX=             30.6488 YYYZ=             18.6379 ZZZX=              4.0955
 ZZZY=             10.9132 XXYY=           -547.4769 XXZZ=           -579.2355 YYZZ=           -255.0526
 XXYZ=              5.9701 YYXZ=              5.5322 ZZXY=             10.3170
 N-N= 1.079782251777D+03 E-N=-3.978405599133D+03  KE= 7.736730828383D+02
 Unable to Open any file for archive entry.
 1\1\GINC-SEMLSCPN085\SP\RPW6B95D3\def2TZVP\C13H10F2O1\KTVF206\23-Jul-2
 026\0\\# PW6B95D3 def2tzvp nosymm integral=NoXCTest\\example\\0,1\C,0,
 -0.738571,1.536005,-2.097271\C,0,-1.480206,0.746069,-1.044456\C,0,-2.8
 90451,0.719537,-1.01977\C,0,-3.588177,0.021183,-0.021327\C,0,-2.890386
 ,-0.670025,0.980762\C,0,-1.491655,-0.6499,0.951558\F,0,-0.814,-1.31884
 8,1.90466\C,0,-0.759266,0.034606,-0.041568\C,0,0.728065,-0.004072,-0.0
 26062\C,0,1.439442,-0.696784,-1.040847\O,0,0.776721,-1.357126,-2.03079
 1\C,0,2.848069,-0.716883,-1.046746\C,0,3.552893,-0.056855,-0.030816\C,
 0,2.878681,0.623468,0.999002\C,0,1.479894,0.631792,0.979876\F,0,0.8125
 25,1.287776,1.952509\H,0,-1.435322,2.147902,-2.70185\H,0,0.011863,2.20
 825,-1.632807\H,0,-0.177779,0.870182,-2.786789\H,0,-3.447901,1.272221,
 -1.792098\H,0,-4.689193,0.018754,-0.018532\H,0,-3.404128,-1.223348,1.7
 80182\H,0,-0.181987,-1.315082,-1.820491\H,0,3.365041,-1.262837,-1.8487
 67\H,0,4.653703,-0.076213,-0.035247\H,0,3.411956,1.14354,1.806981\\Ver
 sion=ES64L-G16RevC.02\HF=-777.5834863\RMSD=3.052e-09\Dipole=-0.4723265
 ,0.2551899,-0.5696363\Quadrupole=9.1059696,-4.6767699,-4.4291997,0.897
 8644,1.6064157,-1.9407887\PG=C01 [X(C13H10F2O1)]\\@
 The archive entry for this job was punched.


 LOVE IS BLIND, THAT'S WHY ALL THE WORLD LOVES A LOUVER.
 Job cpu time:       0 days  0 hours 35 minutes 32.6 seconds.
 Elapsed time:       0 days  0 hours  4 minutes 32.9 seconds.
 File lengths (MBytes):  RWF=    172 Int=      0 D2E=      0 Chk=     19 Scr=      1
 Normal termination of Gaussian 16 at Thu Jul 23 14:46:51 2026.
