
26

C -0.7385710000 1.5360050000 -2.0972710000
C -1.4802060000 0.7460690000 -1.0444560000
C -2.8904510000 0.7195370000 -1.0197700000
C -3.5881770000 0.0211830000 -0.0213270000
C -2.8903860000 -0.6700250000 0.9807620000
C -1.4916550000 -0.6499000000 0.9515580000
F -0.8140000000 -1.3188480000 1.9046600000
C -0.7592660000 0.0346060000 -0.0415680000
C 0.7280650000 -0.0040720000 -0.0260620000
C 1.4394420000 -0.6967840000 -1.0408470000
O 0.7767210000 -1.3571260000 -2.0307910000
C 2.8480690000 -0.7168830000 -1.0467460000
C 3.5528930000 -0.0568550000 -0.0308160000
C 2.8786810000 0.6234680000 0.9990020000
C 1.4798940000 0.6317920000 0.9798760000
F 0.8125250000 1.2877760000 1.9525090000
H -1.4353220000 2.1479020000 -2.7018500000
H 0.0118630000 2.2082500000 -1.6328070000
H -0.1777790000 0.8701820000 -2.7867890000
H -3.4479010000 1.2722210000 -1.7920980000
H -4.6891930000 0.0187540000 -0.0185320000
H -3.4041280000 -1.2233480000 1.7801820000
H -0.1819870000 -1.3150820000 -1.8204910000
H 3.3650410000 -1.2628370000 -1.8487670000
H 4.6537030000 -0.0762130000 -0.0352470000
H 3.4119560000 1.1435400000 1.8069810000
