%mem=12000MB
%nprocshared=8
# opt=(TS,recalcFC=15,noeigentest) freq bp86 def2svp empiricaldispersion=GD3BJ

example

0 1
C 1.329916 2.599929 0.499974
C 1.626982 1.186294 0.02082
C 2.981177 1.007446 -0.34298
C 3.590892 -0.243009 -0.484906
C 2.844916 -1.360171 -0.102376
C 1.50369 -1.1759 0.225468
F 0.931618 -2.292209 0.810196
C 0.742799 0.028194 0.086574
C -0.762448 0.00422 0.028322
C -1.574711 -1.197073 -0.147776
O -1.130428 -2.421049 -0.511909
C -2.987905 -1.159935 -0.05428
C -3.691634 0.033938 0.06238
C -2.968822 1.232068 0.028068
C -1.576278 1.183684 -0.042661
F -1.008519 2.388394 -0.264516
H 1.007861 3.287916 -0.304653
H 0.562552 2.624739 1.292069
H 2.267043 3.006819 0.930163
H 3.595826 1.915311 -0.451509
H 4.646022 -0.335626 -0.781561
H 3.275699 -2.366734 -0.001821
H -0.233368 -2.596055 -0.160015
H -3.498784 -2.130285 -0.129295
H -4.789969 0.038214 0.12953
H -3.448794 2.220313 0.001483

