 Entering Gaussian System, Link 0=g16
 Initial command:
 /path/to/gaussian "/path/to/scratch/inp" -scrdir="/path/to/scratch/"
 Entering Link 1 = /path/to/gaussian PID=   3621109.
  
 Copyright (c) 1988-2021, Gaussian, Inc.  All Rights Reserved.
  
 This is part of the Gaussian(R) 16 program.  It is based on
 the Gaussian(R) 09 system (copyright 2009, Gaussian, Inc.),
 the Gaussian(R) 03 system (copyright 2003, Gaussian, Inc.),
 the Gaussian(R) 98 system (copyright 1998, Gaussian, Inc.),
 the Gaussian(R) 94 system (copyright 1995, Gaussian, Inc.),
 the Gaussian 92(TM) system (copyright 1992, Gaussian, Inc.),
 the Gaussian 90(TM) system (copyright 1990, Gaussian, Inc.),
 the Gaussian 88(TM) system (copyright 1988, Gaussian, Inc.),
 the Gaussian 86(TM) system (copyright 1986, Carnegie Mellon
 University), and the Gaussian 82(TM) system (copyright 1983,
 Carnegie Mellon University). Gaussian is a federally registered
 trademark of Gaussian, Inc.
  
 This software contains proprietary and confidential information,
 including trade secrets, belonging to Gaussian, Inc.
  
 This software is provided under written license and may be
 used, copied, transmitted, or stored only in accord with that
 written license.
  
 The following legend is applicable only to US Government
 contracts under FAR:
  
                    RESTRICTED RIGHTS LEGEND
  
 Use, reproduction and disclosure by the US Government is
 subject to restrictions as set forth in subparagraphs (a)
 and (c) of the Commercial Computer Software - Restricted
 Rights clause in FAR 52.227-19.
  
 Gaussian, Inc.
 340 Quinnipiac St., Bldg. 40, Wallingford CT 06492
  
  
 ---------------------------------------------------------------
 Warning -- This program may not be used in any manner that
 competes with the business of Gaussian, Inc. or will provide
 assistance to any competitor of Gaussian, Inc.  The licensee
 of this program is prohibited from giving any competitor of
 Gaussian, Inc. access to this program.  By using this program,
 the user acknowledges that Gaussian, Inc. is engaged in the
 business of creating and licensing software in the field of
 computational chemistry and represents and warrants to the
 licensee that it is not a competitor of Gaussian, Inc. and that
 it will not use this program in any manner prohibited above.
 ---------------------------------------------------------------
  

 Cite this work as:
 Gaussian 16, Revision C.02,
 M. J. Frisch, G. W. Trucks, H. B. Schlegel, G. E. Scuseria, 
 M. A. Robb, J. R. Cheeseman, G. Scalmani, V. Barone, 
 G. A. Petersson, H. Nakatsuji, X. Li, M. Caricato, A. V. Marenich, 
 J. Bloino, B. G. Janesko, R. Gomperts, B. Mennucci, H. P. Hratchian, 
 J. V. Ortiz, A. F. Izmaylov, J. L. Sonnenberg, D. Williams-Young, 
 F. Ding, F. Lipparini, F. Egidi, J. Goings, B. Peng, A. Petrone, 
 T. Henderson, D. Ranasinghe, V. G. Zakrzewski, J. Gao, N. Rega, 
 G. Zheng, W. Liang, M. Hada, M. Ehara, K. Toyota, R. Fukuda, 
 J. Hasegawa, M. Ishida, T. Nakajima, Y. Honda, O. Kitao, H. Nakai, 
 T. Vreven, K. Throssell, J. A. Montgomery, Jr., J. E. Peralta, 
 F. Ogliaro, M. J. Bearpark, J. J. Heyd, E. N. Brothers, K. N. Kudin, 
 V. N. Staroverov, T. A. Keith, R. Kobayashi, J. Normand, 
 K. Raghavachari, A. P. Rendell, J. C. Burant, S. S. Iyengar, 
 J. Tomasi, M. Cossi, J. M. Millam, M. Klene, C. Adamo, R. Cammi, 
 J. W. Ochterski, R. L. Martin, K. Morokuma, O. Farkas, 
 J. B. Foresman, and D. J. Fox, Gaussian, Inc., Wallingford CT, 2019.
 
 ******************************************
 Gaussian 16:  ES64L-G16RevC.02  7-Dec-2021
                 2-Dec-2025 
 ******************************************
 %mem=6000MB
 %nprocshared=4
 Will use up to    4 processors via shared memory.
 -------------------
 # PW6B95D3 def2tzvp
 -------------------
 1/38=1,172=1/1;
 2/12=2,17=6,18=5,40=1/2;
 3/5=44,7=101,11=2,25=1,30=1,74=-76/1,2,3;
 4//1;
 5/5=2,38=5/2;
 6/7=2,8=2,9=2,10=2,28=1/1;
 99/5=1,9=1/99;
 -------
 example
 -------
 Symbolic Z-matrix:
 Charge =  0 Multiplicity = 1
 C                     1.31188   2.58572   0.54633 
 C                     1.61918   1.18457   0.03845 
 C                     2.97382   1.02072  -0.33005 
 C                     3.59024  -0.22409  -0.49104 
 C                     2.8518   -1.3513   -0.12203 
 C                     1.5101   -1.18058   0.21044 
 F                     0.94659  -2.30595   0.78635 
 C                     0.74211   0.02069   0.08695 
 C                    -0.76191  -0.00144   0.02658 
 C                    -1.58208  -1.19913  -0.13407 
 O                    -1.14736  -2.42827  -0.49074 
 C                    -2.99443  -1.15148  -0.03231 
 C                    -3.68941   0.04874   0.07228 
 C                    -2.95945   1.24186   0.01491 
 C                    -1.56772   1.18288  -0.06199 
 F                    -0.99156   2.37833  -0.31113 
 H                     1.02101   3.29718  -0.24974 
 H                     0.51954   2.59438   1.31387 
 H                     2.23667   2.97492   1.01824 
 H                     3.58284   1.93403  -0.42462 
 H                     4.6454   -0.30663  -0.7906 
 H                     3.28979  -2.35598  -0.03463 
 H                    -0.24302  -2.6005   -0.1559 
 H                    -3.51241  -2.11909  -0.0929 
 H                    -4.7873    0.0611    0.14554 
 H                    -3.43361   2.23238  -0.0269 
 
                          Input orientation:                          
 ---------------------------------------------------------------------
 Center     Atomic      Atomic             Coordinates (Angstroms)
 Number     Number       Type             X           Y           Z
 ---------------------------------------------------------------------
      1          6           0        1.311878    2.585719    0.546331
      2          6           0        1.619178    1.184574    0.038448
      3          6           0        2.973816    1.020720   -0.330054
      4          6           0        3.590243   -0.224087   -0.491043
      5          6           0        2.851797   -1.351296   -0.122026
      6          6           0        1.510099   -1.180578    0.210435
      7          9           0        0.946594   -2.305954    0.786347
      8          6           0        0.742110    0.020689    0.086948
      9          6           0       -0.761913   -0.001442    0.026576
     10          6           0       -1.582081   -1.199132   -0.134074
     11          8           0       -1.147360   -2.428266   -0.490743
     12          6           0       -2.994431   -1.151475   -0.032310
     13          6           0       -3.689414    0.048738    0.072277
     14          6           0       -2.959449    1.241862    0.014910
     15          6           0       -1.567719    1.182875   -0.061988
     16          9           0       -0.991562    2.378327   -0.311125
     17          1           0        1.021012    3.297177   -0.249736
     18          1           0        0.519542    2.594378    1.313870
     19          1           0        2.236666    2.974923    1.018239
     20          1           0        3.582836    1.934025   -0.424618
     21          1           0        4.645398   -0.306628   -0.790597
     22          1           0        3.289789   -2.355984   -0.034630
     23          1           0       -0.243019   -2.600500   -0.155901
     24          1           0       -3.512410   -2.119092   -0.092900
     25          1           0       -4.787301    0.061096    0.145536
     26          1           0       -3.433610    2.232379   -0.026899
 ---------------------------------------------------------------------
                    Distance matrix (angstroms):
                    1          2          3          4          5
     1  C    0.000000
     2  C    1.521705   0.000000
     3  C    2.445263   1.413395   0.000000
     4  C    3.763257   2.479876   1.398372   0.000000
     5  C    4.279969   2.824135   2.384245   1.397167   0.000000
     6  C    3.786438   2.373904   2.698205   2.394566   1.392777
     7  F    4.911161   3.632562   4.052498   3.599274   2.316530
     8  C    2.667405   1.458159   2.480819   2.916479   2.525231
     9  C    3.356212   2.660145   3.889431   4.388481   3.860452
    10  C    4.812800   3.994982   5.071720   5.275517   4.436505
    11  O    5.680090   4.581090   5.376376   5.225255   4.158013
    12  C    5.731120   5.171800   6.358227   6.665464   5.850330
    13  C    5.627959   5.428850   6.745758   7.306516   6.692181
    14  C    4.509168   4.579046   5.947398   6.730785   6.365045
    15  C    3.260384   3.188480   4.552328   5.363600   5.094875
    16  F    2.466592   2.891922   4.191381   5.272368   5.358848
    17  H    1.106570   2.214485   3.000358   4.365602   4.997638
    18  H    1.103172   2.196235   3.346991   4.542099   4.803078
    19  H    1.108788   2.132283   2.485999   3.787317   4.516056
    20  H    2.554349   2.152222   1.101805   2.159147   3.379248
    21  H    4.611443   3.474048   2.183607   1.099953   2.180670
    22  H    5.354445   3.915588   3.404298   2.200811   1.099488
    23  H    5.459643   4.222835   4.846812   4.522561   3.337596
    24  H    6.768871   6.104478   7.210117   7.361878   6.410420
    25  H    6.613195   6.505124   7.834667   8.406534   7.773176
    26  H    4.793026   5.160701   6.528026   7.455479   7.235891
                    6          7          8          9         10
     6  C    0.000000
     7  F    1.384082   0.000000
     8  C    1.431118   2.438081   0.000000
     9  C    2.566360   2.967663   1.505397   0.000000
    10  C    3.111368   2.909713   2.634137   1.460461   0.000000
    11  O    3.018355   2.455720   3.146618   2.511108   1.351653
    12  C    4.511160   4.187445   3.917899   2.512007   1.416813
    13  C    5.344646   5.248527   4.431637   2.928288   2.457766
    14  C    5.087564   5.332850   3.898460   2.524897   2.806740
    15  C    3.890127   4.383306   2.590013   1.435191   2.383141
    16  F    4.381340   5.186847   2.953394   2.414556   3.630189
    17  H    4.527831   5.698604   3.305528   3.759795   5.196755
    18  H    4.055745   4.947111   2.859851   3.168207   4.572098
    19  H    4.295187   5.441114   3.439259   4.339772   5.773508
    20  H    3.794770   5.137473   3.462987   4.777704   6.047930
    21  H    3.405283   4.490569   4.014085   5.477218   6.325273
    22  H    2.146842   2.483358   3.486262   4.686566   5.008324
    23  H    2.285564   1.545887   2.810709   2.656624   1.938400
    24  H    5.118439   4.548704   4.765705   3.473320   2.138736
    25  H    6.418973   6.236274   5.529869   4.027631   3.455400
    26  H    6.012060   6.359562   4.726645   3.482927   3.900630
                   11         12         13         14         15
    11  O    0.000000
    12  C    2.291730   0.000000
    13  C    3.593686   1.390845   0.000000
    14  C    4.124220   2.394058   1.399887   0.000000
    15  C    3.660720   2.735978   2.409540   1.395100   0.000000
    16  F    4.812470   4.068012   3.585023   2.295742   1.350234
    17  H    6.127040   5.996796   5.730983   4.487586   3.347693
    18  H    5.591256   5.309578   5.073179   3.952211   2.870886
    19  H    6.551573   6.745012   6.676513   5.568643   4.341851
    20  H    6.434960   7.275621   7.529066   6.593464   5.217657
    21  H    6.176350   7.723714   8.386890   7.802587   6.430576
    22  H    4.461116   6.398615   7.382641   7.211097   6.009963
    23  H    0.979600   3.112108   4.352949   4.708706   4.009685
    24  H    2.418125   1.099207   2.181307   3.407844   3.832201
    25  H    4.455440   2.171714   1.100398   2.179980   3.415723
    26  H    5.211881   3.412239   2.200809   1.098954   2.141084
                   16         17         18         19         20
    16  F    0.000000
    17  H    2.213257   0.000000
    18  H    2.229512   1.786131   0.000000
    19  H    3.541834   1.785896   1.783459   0.000000
    20  H    4.597326   2.907182   3.583598   2.231026   0.000000
    21  H    6.262124   5.139661   5.465099   4.454487   2.506692
    22  H    6.389062   6.095232   5.830849   5.534995   4.317655
    23  H    5.037175   6.032344   5.452383   6.213919   5.938964
    24  H    5.160337   7.064877   6.360223   7.761153   8.178038
    25  H    4.470541   6.660703   5.995424   7.654287   8.596053
    26  H    2.462861   4.585532   4.190002   5.813408   7.034039
                   21         22         23         24         25
    21  H    0.000000
    22  H    2.570802   0.000000
    23  H    5.437031   3.543336   0.000000
    24  H    8.385800   6.806572   3.305244   0.000000
    25  H    9.486168   8.432919   5.274984   2.536813   0.000000
    26  H    8.502950   8.139854   5.792515   4.352685   2.564504
                   26
    26  H    0.000000
 Stoichiometry    C13H10F2O
 Framework group  C1[X(C13H10F2O)]
 Deg. of freedom    72
 Full point group                 C1      NOp   1
 Largest Abelian subgroup         C1      NOp   1
 Largest concise Abelian subgroup C1      NOp   1
                         Standard orientation:                         
 ---------------------------------------------------------------------
 Center     Atomic      Atomic             Coordinates (Angstroms)
 Number     Number       Type             X           Y           Z
 ---------------------------------------------------------------------
      1          6           0        1.311878    2.585719    0.546331
      2          6           0        1.619178    1.184574    0.038448
      3          6           0        2.973816    1.020720   -0.330054
      4          6           0        3.590243   -0.224087   -0.491043
      5          6           0        2.851797   -1.351296   -0.122026
      6          6           0        1.510099   -1.180578    0.210435
      7          9           0        0.946594   -2.305954    0.786347
      8          6           0        0.742110    0.020689    0.086948
      9          6           0       -0.761913   -0.001442    0.026576
     10          6           0       -1.582081   -1.199132   -0.134074
     11          8           0       -1.147360   -2.428266   -0.490743
     12          6           0       -2.994431   -1.151475   -0.032310
     13          6           0       -3.689414    0.048738    0.072277
     14          6           0       -2.959449    1.241862    0.014910
     15          6           0       -1.567719    1.182875   -0.061988
     16          9           0       -0.991562    2.378327   -0.311125
     17          1           0        1.021012    3.297177   -0.249736
     18          1           0        0.519542    2.594378    1.313870
     19          1           0        2.236666    2.974923    1.018239
     20          1           0        3.582836    1.934025   -0.424618
     21          1           0        4.645398   -0.306628   -0.790597
     22          1           0        3.289789   -2.355984   -0.034630
     23          1           0       -0.243019   -2.600500   -0.155901
     24          1           0       -3.512410   -2.119092   -0.092900
     25          1           0       -4.787301    0.061096    0.145536
     26          1           0       -3.433610    2.232379   -0.026899
 ---------------------------------------------------------------------
 Rotational constants (GHZ):           0.8393131           0.4707584           0.3127842
 Standard basis: def2TZVP (5D, 7F)
 There are   636 symmetry adapted cartesian basis functions of A   symmetry.
 There are   556 symmetry adapted basis functions of A   symmetry.
   556 basis functions,   896 primitive gaussians,   636 cartesian basis functions
    57 alpha electrons       57 beta electrons
       nuclear repulsion energy      1069.5779576460 Hartrees.
 NAtoms=   26 NActive=   26 NUniq=   26 SFac= 1.00D+00 NAtFMM=   60 NAOKFM=F Big=F
 Integral buffers will be    131072 words long.
 Raffenetti 2 integral format.
 Two-electron integral symmetry is turned on.
 Nuclear repulsion after empirical dispersion term =     1069.5609907622 Hartrees.
 One-electron integrals computed using PRISM.
   1 Symmetry operations used in ECPInt.
 ECPInt:  NShTT=   23436 NPrTT=   72772 LenC2=   21682 LenP2D=   49498.
 LDataN:  DoStor=T MaxTD1= 6 Len=  172
 NBasis=   556 RedAO= T EigKep=  1.40D-05  NBF=   556
 NBsUse=   556 1.00D-06 EigRej= -1.00D+00 NBFU=   556
 ExpMin= 9.52D-02 ExpMax= 3.55D+04 ExpMxC= 1.21D+03 IAcc=3 IRadAn=         5 AccDes= 0.00D+00
 Harris functional with IExCor= 7409 and IRadAn=       5 diagonalized for initial guess.
 HarFok:  IExCor= 7409 AccDes= 0.00D+00 IRadAn=         5 IDoV= 1 UseB2=F ITyADJ=14
 ICtDFT=  3500011 ScaDFX=  1.000000  1.000000  1.000000  1.000000
 FoFCou: FMM=F IPFlag=           0 FMFlag=      100000 FMFlg1=           0
         NFxFlg=           0 DoJE=T BraDBF=F KetDBF=T FulRan=T
         wScrn=  0.000000 ICntrl=       500 IOpCl=  0 I1Cent=   200000004 NGrid=           0
         NMat0=    1 NMatS0=      1 NMatT0=    0 NMatD0=    1 NMtDS0=    0 NMtDT0=    0
 Petite list used in FoFCou.
 Requested convergence on RMS density matrix=1.00D-08 within 128 cycles.
 Requested convergence on MAX density matrix=1.00D-06.
 Requested convergence on             energy=1.00D-06.
 No special actions if energy rises.
 Integral accuracy reduced to 1.0D-05 until final iterations.
 Problem detected with inexpensive integrals.
 Switching to full accuracy and repeating last cycle.
 SCF Done:  E(RPW6B95D3) =  -777.527517732     A.U. after   18 cycles
            NFock= 18  Conv=0.74D-08     -V/T= 2.0051

 **********************************************************************

            Population analysis using the SCF Density.

 **********************************************************************

 Orbital symmetries:
       Occupied  (A) (A) (A) (A) (A) (A) (A) (A) (A) (A) (A) (A)
                 (A) (A) (A) (A) (A) (A) (A) (A) (A) (A) (A) (A)
                 (A) (A) (A) (A) (A) (A) (A) (A) (A) (A) (A) (A)
                 (A) (A) (A) (A) (A) (A) (A) (A) (A) (A) (A) (A)
                 (A) (A) (A) (A) (A) (A) (A) (A) (A)
       Virtual   (A) (A) (A) (A) (A) (A) (A) (A) (A) (A) (A) (A)
                 (A) (A) (A) (A) (A) (A) (A) (A) (A) (A) (A) (A)
                 (A) (A) (A) (A) (A) (A) (A) (A) (A) (A) (A) (A)
                 (A) (A) (A) (A) (A) (A) (A) (A) (A) (A) (A) (A)
                 (A) (A) (A) (A) (A) (A) (A) (A) (A) (A) (A) (A)
                 (A) (A) (A) (A) (A) (A) (A) (A) (A) (A) (A) (A)
                 (A) (A) (A) (A) (A) (A) (A) (A) (A) (A) (A) (A)
                 (A) (A) (A) (A) (A) (A) (A) (A) (A) (A) (A) (A)
                 (A) (A) (A) (A) (A) (A) (A) (A) (A) (A) (A) (A)
                 (A) (A) (A) (A) (A) (A) (A) (A) (A) (A) (A) (A)
                 (A) (A) (A) (A) (A) (A) (A) (A) (A) (A) (A) (A)
                 (A) (A) (A) (A) (A) (A) (A) (A) (A) (A) (A) (A)
                 (A) (A) (A) (A) (A) (A) (A) (A) (A) (A) (A) (A)
                 (A) (A) (A) (A) (A) (A) (A) (A) (A) (A) (A) (A)
                 (A) (A) (A) (A) (A) (A) (A) (A) (A) (A) (A) (A)
                 (A) (A) (A) (A) (A) (A) (A) (A) (A) (A) (A) (A)
                 (A) (A) (A) (A) (A) (A) (A) (A) (A) (A) (A) (A)
                 (A) (A) (A) (A) (A) (A) (A) (A) (A) (A) (A) (A)
                 (A) (A) (A) (A) (A) (A) (A) (A) (A) (A) (A) (A)
                 (A) (A) (A) (A) (A) (A) (A) (A) (A) (A) (A) (A)
                 (A) (A) (A) (A) (A) (A) (A) (A) (A) (A) (A) (A)
                 (A) (A) (A) (A) (A) (A) (A) (A) (A) (A) (A) (A)
                 (A) (A) (A) (A) (A) (A) (A) (A) (A) (A) (A) (A)
                 (A) (A) (A) (A) (A) (A) (A) (A) (A) (A) (A) (A)
                 (A) (A) (A) (A) (A) (A) (A) (A) (A) (A) (A) (A)
                 (A) (A) (A) (A) (A) (A) (A) (A) (A) (A) (A) (A)
                 (A) (A) (A) (A) (A) (A) (A) (A) (A) (A) (A) (A)
                 (A) (A) (A) (A) (A) (A) (A) (A) (A) (A) (A) (A)
                 (A) (A) (A) (A) (A) (A) (A) (A) (A) (A) (A) (A)
                 (A) (A) (A) (A) (A) (A) (A) (A) (A) (A) (A) (A)
                 (A) (A) (A) (A) (A) (A) (A) (A) (A) (A) (A) (A)
                 (A) (A) (A) (A) (A) (A) (A) (A) (A) (A) (A) (A)
                 (A) (A) (A) (A) (A) (A) (A) (A) (A) (A) (A) (A)
                 (A) (A) (A) (A) (A) (A) (A) (A) (A) (A) (A) (A)
                 (A) (A) (A) (A) (A) (A) (A) (A) (A) (A) (A) (A)
                 (A) (A) (A) (A) (A) (A) (A) (A) (A) (A) (A) (A)
                 (A) (A) (A) (A) (A) (A) (A) (A) (A) (A) (A) (A)
                 (A) (A) (A) (A) (A) (A) (A) (A) (A) (A) (A) (A)
                 (A) (A) (A) (A) (A) (A) (A) (A) (A) (A) (A) (A)
                 (A) (A) (A) (A) (A) (A) (A) (A) (A) (A) (A) (A)
                 (A) (A) (A) (A) (A) (A) (A) (A) (A) (A) (A) (A)
                 (A) (A) (A) (A) (A) (A) (A)
 The electronic state is 1-A.
 Alpha  occ. eigenvalues --  -24.91286 -24.88501 -19.31611 -10.40326 -10.39554
 Alpha  occ. eigenvalues --  -10.38023 -10.35323 -10.34213 -10.33702 -10.31860
 Alpha  occ. eigenvalues --  -10.31712 -10.31304 -10.30941 -10.30161 -10.29786
 Alpha  occ. eigenvalues --  -10.29693  -1.29097  -1.27104  -1.09116  -0.90407
 Alpha  occ. eigenvalues --   -0.88002  -0.81814  -0.80347  -0.76894  -0.76071
 Alpha  occ. eigenvalues --   -0.71914  -0.67723  -0.64728  -0.63406  -0.62027
 Alpha  occ. eigenvalues --   -0.59439  -0.56170  -0.55385  -0.53714  -0.52335
 Alpha  occ. eigenvalues --   -0.51080  -0.50514  -0.49726  -0.49152  -0.46839
 Alpha  occ. eigenvalues --   -0.46162  -0.45137  -0.44352  -0.43290  -0.43153
 Alpha  occ. eigenvalues --   -0.40812  -0.39938  -0.39244  -0.38847  -0.37583
 Alpha  occ. eigenvalues --   -0.36668  -0.36392  -0.35149  -0.31271  -0.26605
 Alpha  occ. eigenvalues --   -0.24912  -0.23686
 Alpha virt. eigenvalues --   -0.06297  -0.01697   0.00220   0.00886   0.04776
 Alpha virt. eigenvalues --    0.05154   0.06106   0.07589   0.08269   0.09583
 Alpha virt. eigenvalues --    0.10038   0.10874   0.11081   0.12106   0.12121
 Alpha virt. eigenvalues --    0.13701   0.14399   0.14804   0.16256   0.17026
 Alpha virt. eigenvalues --    0.18161   0.18401   0.19196   0.20125   0.21102
 Alpha virt. eigenvalues --    0.21462   0.22131   0.22487   0.23096   0.24006
 Alpha virt. eigenvalues --    0.24532   0.24661   0.25534   0.26577   0.27407
 Alpha virt. eigenvalues --    0.28051   0.28467   0.29245   0.29997   0.30576
 Alpha virt. eigenvalues --    0.31285   0.32338   0.32747   0.33427   0.33631
 Alpha virt. eigenvalues --    0.33963   0.34426   0.34971   0.36116   0.36234
 Alpha virt. eigenvalues --    0.37395   0.37786   0.38109   0.38873   0.39616
 Alpha virt. eigenvalues --    0.40355   0.41115   0.41546   0.42301   0.42834
 Alpha virt. eigenvalues --    0.43408   0.44048   0.44222   0.44940   0.45384
 Alpha virt. eigenvalues --    0.45703   0.46148   0.46627   0.46986   0.47781
 Alpha virt. eigenvalues --    0.48537   0.48868   0.49056   0.50449   0.51951
 Alpha virt. eigenvalues --    0.52252   0.53260   0.55334   0.56416   0.56857
 Alpha virt. eigenvalues --    0.57733   0.59095   0.59678   0.60078   0.61466
 Alpha virt. eigenvalues --    0.63287   0.64286   0.64879   0.65550   0.66047
 Alpha virt. eigenvalues --    0.66302   0.67124   0.67631   0.69500   0.70546
 Alpha virt. eigenvalues --    0.71481   0.71943   0.73033   0.73675   0.74904
 Alpha virt. eigenvalues --    0.75856   0.77824   0.78120   0.79814   0.80281
 Alpha virt. eigenvalues --    0.81700   0.82381   0.82462   0.83341   0.83621
 Alpha virt. eigenvalues --    0.85481   0.86185   0.86647   0.87909   0.88760
 Alpha virt. eigenvalues --    0.89010   0.89626   0.91141   0.92340   0.93349
 Alpha virt. eigenvalues --    0.94291   0.95824   0.96913   0.97959   0.99486
 Alpha virt. eigenvalues --    1.00741   1.01204   1.02547   1.04070   1.04710
 Alpha virt. eigenvalues --    1.06079   1.06572   1.06872   1.08581   1.09593
 Alpha virt. eigenvalues --    1.11838   1.12089   1.13248   1.13408   1.13734
 Alpha virt. eigenvalues --    1.15250   1.16697   1.18410   1.18950   1.20500
 Alpha virt. eigenvalues --    1.21923   1.23769   1.24957   1.25721   1.26240
 Alpha virt. eigenvalues --    1.27286   1.27594   1.28873   1.29784   1.30738
 Alpha virt. eigenvalues --    1.32025   1.34310   1.34705   1.35738   1.37891
 Alpha virt. eigenvalues --    1.39053   1.40329   1.41265   1.41805   1.42974
 Alpha virt. eigenvalues --    1.43733   1.46271   1.46724   1.48320   1.49614
 Alpha virt. eigenvalues --    1.50931   1.51643   1.52080   1.53321   1.54275
 Alpha virt. eigenvalues --    1.55018   1.55838   1.56305   1.58249   1.59455
 Alpha virt. eigenvalues --    1.61239   1.62366   1.63091   1.64486   1.64930
 Alpha virt. eigenvalues --    1.65542   1.67379   1.67768   1.68708   1.69773
 Alpha virt. eigenvalues --    1.71155   1.72167   1.73399   1.75483   1.76410
 Alpha virt. eigenvalues --    1.77326   1.81365   1.83358   1.84873   1.85488
 Alpha virt. eigenvalues --    1.86208   1.87724   1.88648   1.89220   1.91133
 Alpha virt. eigenvalues --    1.92091   1.94012   1.95081   1.95733   1.97275
 Alpha virt. eigenvalues --    1.97943   1.99301   2.02442   2.02895   2.04598
 Alpha virt. eigenvalues --    2.06361   2.06719   2.07043   2.08056   2.09224
 Alpha virt. eigenvalues --    2.11463   2.13224   2.14090   2.15355   2.15868
 Alpha virt. eigenvalues --    2.17779   2.18048   2.19981   2.21275   2.22979
 Alpha virt. eigenvalues --    2.23338   2.24828   2.25725   2.26795   2.27930
 Alpha virt. eigenvalues --    2.30085   2.32851   2.34030   2.36328   2.37004
 Alpha virt. eigenvalues --    2.38367   2.40419   2.42103   2.42349   2.42960
 Alpha virt. eigenvalues --    2.44806   2.45844   2.47171   2.47832   2.50494
 Alpha virt. eigenvalues --    2.51896   2.52413   2.53187   2.54667   2.54884
 Alpha virt. eigenvalues --    2.55642   2.57352   2.57802   2.57923   2.58890
 Alpha virt. eigenvalues --    2.59616   2.63041   2.63270   2.63698   2.64281
 Alpha virt. eigenvalues --    2.65415   2.66500   2.67070   2.67687   2.69548
 Alpha virt. eigenvalues --    2.70643   2.71333   2.73009   2.73938   2.74827
 Alpha virt. eigenvalues --    2.75435   2.76261   2.76982   2.77533   2.78516
 Alpha virt. eigenvalues --    2.80717   2.81816   2.82820   2.83515   2.84279
 Alpha virt. eigenvalues --    2.85768   2.87517   2.88207   2.88672   2.89712
 Alpha virt. eigenvalues --    2.91452   2.93061   2.93758   2.95799   2.96739
 Alpha virt. eigenvalues --    2.97436   2.98394   2.99013   2.99319   3.00395
 Alpha virt. eigenvalues --    3.01685   3.02050   3.03192   3.03324   3.03874
 Alpha virt. eigenvalues --    3.05303   3.05957   3.06694   3.07817   3.09087
 Alpha virt. eigenvalues --    3.09331   3.10619   3.11452   3.12770   3.13514
 Alpha virt. eigenvalues --    3.14010   3.15339   3.15698   3.17077   3.18615
 Alpha virt. eigenvalues --    3.18801   3.20017   3.21279   3.22720   3.23179
 Alpha virt. eigenvalues --    3.24259   3.24722   3.26225   3.26619   3.27517
 Alpha virt. eigenvalues --    3.28413   3.28647   3.29759   3.30726   3.31390
 Alpha virt. eigenvalues --    3.31679   3.33722   3.34930   3.35414   3.35763
 Alpha virt. eigenvalues --    3.36855   3.37688   3.38719   3.40475   3.41184
 Alpha virt. eigenvalues --    3.41828   3.44435   3.45160   3.46612   3.47053
 Alpha virt. eigenvalues --    3.47511   3.48245   3.48763   3.49291   3.50814
 Alpha virt. eigenvalues --    3.52358   3.52849   3.54428   3.55512   3.57472
 Alpha virt. eigenvalues --    3.58316   3.59408   3.62202   3.62535   3.64413
 Alpha virt. eigenvalues --    3.66436   3.68274   3.69265   3.70564   3.72339
 Alpha virt. eigenvalues --    3.73958   3.77005   3.78665   3.79843   3.82018
 Alpha virt. eigenvalues --    3.82894   3.84536   3.88513   3.88665   3.91339
 Alpha virt. eigenvalues --    3.92575   3.93146   3.94860   3.95560   3.96727
 Alpha virt. eigenvalues --    3.96874   3.98683   4.00045   4.01744   4.02998
 Alpha virt. eigenvalues --    4.05844   4.07517   4.08567   4.10759   4.12262
 Alpha virt. eigenvalues --    4.14072   4.14602   4.17101   4.17962   4.18928
 Alpha virt. eigenvalues --    4.20916   4.21731   4.23899   4.24868   4.26288
 Alpha virt. eigenvalues --    4.27412   4.28714   4.31235   4.32318   4.34216
 Alpha virt. eigenvalues --    4.36249   4.37549   4.39749   4.40729   4.44542
 Alpha virt. eigenvalues --    4.47704   4.49566   4.53432   4.53867   4.57968
 Alpha virt. eigenvalues --    4.59613   4.61777   4.66721   4.68007   4.69608
 Alpha virt. eigenvalues --    4.72205   4.79401   4.81397   4.85189   4.89386
 Alpha virt. eigenvalues --    4.90080   4.96021   4.99604   5.01272   5.02577
 Alpha virt. eigenvalues --    5.06037   5.08088   5.12284   5.14243   5.18793
 Alpha virt. eigenvalues --    5.24388   5.28282   5.30963   5.32389   5.38384
 Alpha virt. eigenvalues --    5.43821   5.50905   5.57971   5.62660   5.67988
 Alpha virt. eigenvalues --    5.83529   5.95525   6.26449   6.31235   6.53842
 Alpha virt. eigenvalues --    6.68652   6.79720   6.85238   6.88283   6.89245
 Alpha virt. eigenvalues --    6.91440   6.96113   6.99138   7.02676   7.04579
 Alpha virt. eigenvalues --    7.08275   7.15621   7.22086   7.27709   7.34618
 Alpha virt. eigenvalues --    7.37806   7.42930   7.51715   8.41460   8.45371
 Alpha virt. eigenvalues --    8.54374   8.59626   8.72213   8.76041   8.90218
 Alpha virt. eigenvalues --    8.98682   9.01941   9.06245  22.11669  22.31363
 Alpha virt. eigenvalues --   22.40682  22.58816  22.59895  22.63508  22.64731
 Alpha virt. eigenvalues --   22.75560  22.83173  22.84884  22.99041  23.04585
 Alpha virt. eigenvalues --   23.48252  44.03807  57.39117  57.47144
          Condensed to atoms (all electrons):
               1          2          3          4          5          6
     1  C    4.991530   0.291675  -0.057197   0.007156   0.001711   0.006672
     2  C    0.291675   5.172453   0.440458   0.043360  -0.103331   0.036427
     3  C   -0.057197   0.440458   5.033891   0.436099   0.026179  -0.131418
     4  C    0.007156   0.043360   0.436099   4.967356   0.405663   0.055911
     5  C    0.001711  -0.103331   0.026179   0.405663   5.045553   0.401047
     6  C    0.006672   0.036427  -0.131418   0.055911   0.401047   5.294336
     7  F   -0.000081  -0.000189  -0.000436   0.007997  -0.041149   0.195214
     8  C   -0.056977   0.273367   0.021444  -0.110881   0.050068   0.088740
     9  C   -0.001705  -0.036661   0.010746   0.001462   0.004368   0.005260
    10  C    0.002939   0.025230   0.000510  -0.001591   0.006336  -0.079027
    11  O    0.000051   0.003261  -0.000534   0.000748  -0.003560   0.035368
    12  C   -0.000332  -0.002642   0.000136  -0.000040  -0.000087   0.009084
    13  C    0.000509  -0.000028  -0.000015  -0.000002   0.000057  -0.001845
    14  C   -0.002215  -0.000420   0.000038  -0.000006  -0.000061  -0.000458
    15  C   -0.009998  -0.032576   0.002840  -0.000696  -0.001410   0.003227
    16  F   -0.012432   0.003861   0.000376  -0.000003   0.000008   0.001643
    17  H    0.407170  -0.032976  -0.000115  -0.000119  -0.000180  -0.000705
    18  H    0.421356  -0.041164   0.003091  -0.000152  -0.000089   0.000427
    19  H    0.393896  -0.043307  -0.008702   0.002128   0.000094   0.000619
    20  H   -0.008290  -0.065908   0.425239  -0.049578   0.008318  -0.000307
    21  H   -0.000571   0.009776  -0.043478   0.411611  -0.044073   0.009472
    22  H    0.000080  -0.001433   0.009491  -0.047174   0.415307  -0.059196
    23  H   -0.000021   0.002275   0.000001   0.000409  -0.000915  -0.033360
    24  H   -0.000003   0.000006   0.000001  -0.000001   0.000004  -0.000171
    25  H    0.000003  -0.000006  -0.000000   0.000000  -0.000000   0.000008
    26  H   -0.000067   0.000053  -0.000001   0.000000  -0.000001   0.000034
               7          8          9         10         11         12
     1  C   -0.000081  -0.056977  -0.001705   0.002939   0.000051  -0.000332
     2  C   -0.000189   0.273367  -0.036661   0.025230   0.003261  -0.002642
     3  C   -0.000436   0.021444   0.010746   0.000510  -0.000534   0.000136
     4  C    0.007997  -0.110881   0.001462  -0.001591   0.000748  -0.000040
     5  C   -0.041149   0.050068   0.004368   0.006336  -0.003560  -0.000087
     6  C    0.195214   0.088740   0.005260  -0.079027   0.035368   0.009084
     7  F    9.101980  -0.044067   0.003081   0.005483  -0.044316  -0.001011
     8  C   -0.044067   5.523280   0.160303   0.007682  -0.012626  -0.012436
     9  C    0.003081   0.160303   5.609614   0.156370  -0.071216   0.076397
    10  C    0.005483   0.007682   0.156370   4.983657   0.346554   0.374632
    11  O   -0.044316  -0.012626  -0.071216   0.346554   7.909319  -0.067486
    12  C   -0.001011  -0.012436   0.076397   0.374632  -0.067486   5.104771
    13  C   -0.000079   0.006448  -0.109117   0.070412   0.002092   0.420399
    14  C    0.000057   0.003014   0.045659  -0.134843   0.001974   0.050192
    15  C    0.002363  -0.014914   0.264052   0.073881  -0.005569  -0.113603
    16  F   -0.000000  -0.008923  -0.050613  -0.000367  -0.000042   0.000811
    17  H    0.000003  -0.005966   0.002327   0.000158  -0.000001  -0.000029
    18  H   -0.000014  -0.004308  -0.001060   0.000546   0.000002   0.000051
    19  H    0.000006   0.005637  -0.001022  -0.000128   0.000000   0.000006
    20  H    0.000014   0.013148  -0.000573  -0.000015  -0.000001   0.000001
    21  H   -0.000160  -0.002270   0.000037  -0.000010   0.000002  -0.000000
    22  H    0.002232   0.017144  -0.000636   0.000327  -0.000139  -0.000001
    23  H    0.037771   0.015496  -0.027803  -0.026608   0.316477   0.000625
    24  H    0.000060  -0.000237   0.013035  -0.050846   0.008515   0.414844
    25  H   -0.000000   0.000047  -0.003700   0.011883  -0.000212  -0.052514
    26  H   -0.000000  -0.000337   0.016828  -0.002930   0.000031   0.010477
              13         14         15         16         17         18
     1  C    0.000509  -0.002215  -0.009998  -0.012432   0.407170   0.421356
     2  C   -0.000028  -0.000420  -0.032576   0.003861  -0.032976  -0.041164
     3  C   -0.000015   0.000038   0.002840   0.000376  -0.000115   0.003091
     4  C   -0.000002  -0.000006  -0.000696  -0.000003  -0.000119  -0.000152
     5  C    0.000057  -0.000061  -0.001410   0.000008  -0.000180  -0.000089
     6  C   -0.001845  -0.000458   0.003227   0.001643  -0.000705   0.000427
     7  F   -0.000079   0.000057   0.002363  -0.000000   0.000003  -0.000014
     8  C    0.006448   0.003014  -0.014914  -0.008923  -0.005966  -0.004308
     9  C   -0.109117   0.045659   0.264052  -0.050613   0.002327  -0.001060
    10  C    0.070412  -0.134843   0.073881  -0.000367   0.000158   0.000546
    11  O    0.002092   0.001974  -0.005569  -0.000042  -0.000001   0.000002
    12  C    0.420399   0.050192  -0.113603   0.000811  -0.000029   0.000051
    13  C    4.938702   0.377069   0.037268   0.006295   0.000065   0.000020
    14  C    0.377069   5.101955   0.444167  -0.047673  -0.000642   0.001454
    15  C    0.037268   0.444167   4.897606   0.244553  -0.003965   0.003865
    16  F    0.006295  -0.047673   0.244553   9.075915  -0.004532  -0.010824
    17  H    0.000065  -0.000642  -0.003965  -0.004532   0.550188  -0.020182
    18  H    0.000020   0.001454   0.003865  -0.010824  -0.020182   0.537070
    19  H   -0.000015   0.000060   0.000463   0.003013  -0.030232  -0.025829
    20  H   -0.000000   0.000003   0.000130  -0.000022   0.000375   0.000463
    21  H   -0.000000   0.000000   0.000002   0.000000   0.000022   0.000018
    22  H    0.000000  -0.000000  -0.000009  -0.000000  -0.000003  -0.000003
    23  H    0.001500  -0.001105   0.000814   0.000010   0.000001   0.000007
    24  H   -0.052451   0.009968  -0.001462   0.000021  -0.000000  -0.000000
    25  H    0.419280  -0.049106   0.011722  -0.000205   0.000000  -0.000002
    26  H   -0.050428   0.416549  -0.056750   0.003922  -0.000034  -0.000002
              19         20         21         22         23         24
     1  C    0.393896  -0.008290  -0.000571   0.000080  -0.000021  -0.000003
     2  C   -0.043307  -0.065908   0.009776  -0.001433   0.002275   0.000006
     3  C   -0.008702   0.425239  -0.043478   0.009491   0.000001   0.000001
     4  C    0.002128  -0.049578   0.411611  -0.047174   0.000409  -0.000001
     5  C    0.000094   0.008318  -0.044073   0.415307  -0.000915   0.000004
     6  C    0.000619  -0.000307   0.009472  -0.059196  -0.033360  -0.000171
     7  F    0.000006   0.000014  -0.000160   0.002232   0.037771   0.000060
     8  C    0.005637   0.013148  -0.002270   0.017144   0.015496  -0.000237
     9  C   -0.001022  -0.000573   0.000037  -0.000636  -0.027803   0.013035
    10  C   -0.000128  -0.000015  -0.000010   0.000327  -0.026608  -0.050846
    11  O    0.000000  -0.000001   0.000002  -0.000139   0.316477   0.008515
    12  C    0.000006   0.000001  -0.000000  -0.000001   0.000625   0.414844
    13  C   -0.000015  -0.000000  -0.000000   0.000000   0.001500  -0.052451
    14  C    0.000060   0.000003   0.000000  -0.000000  -0.001105   0.009968
    15  C    0.000463   0.000130   0.000002  -0.000009   0.000814  -0.001462
    16  F    0.003013  -0.000022   0.000000  -0.000000   0.000010   0.000021
    17  H   -0.030232   0.000375   0.000022  -0.000003   0.000001  -0.000000
    18  H   -0.025829   0.000463   0.000018  -0.000003   0.000007  -0.000000
    19  H    0.578880   0.001519  -0.000068  -0.000003  -0.000002   0.000000
    20  H    0.001519   0.568282  -0.006073  -0.000359  -0.000004   0.000000
    21  H   -0.000068  -0.006073   0.554084  -0.006589  -0.000001  -0.000000
    22  H   -0.000003  -0.000359  -0.006589   0.543110   0.000260   0.000000
    23  H   -0.000002  -0.000004  -0.000001   0.000260   0.366603  -0.000550
    24  H    0.000000   0.000000  -0.000000   0.000000  -0.000550   0.550000
    25  H    0.000000  -0.000000   0.000000  -0.000000   0.000035  -0.008085
    26  H    0.000004  -0.000000  -0.000000   0.000000  -0.000010  -0.000270
              25         26
     1  C    0.000003  -0.000067
     2  C   -0.000006   0.000053
     3  C   -0.000000  -0.000001
     4  C    0.000000   0.000000
     5  C   -0.000000  -0.000001
     6  C    0.000008   0.000034
     7  F   -0.000000  -0.000000
     8  C    0.000047  -0.000337
     9  C   -0.003700   0.016828
    10  C    0.011883  -0.002930
    11  O   -0.000212   0.000031
    12  C   -0.052514   0.010477
    13  C    0.419280  -0.050428
    14  C   -0.049106   0.416549
    15  C    0.011722  -0.056750
    16  F   -0.000205   0.003922
    17  H    0.000000  -0.000034
    18  H   -0.000002  -0.000002
    19  H    0.000000   0.000004
    20  H   -0.000000  -0.000000
    21  H    0.000000  -0.000000
    22  H   -0.000000   0.000000
    23  H    0.000035  -0.000010
    24  H   -0.008085  -0.000270
    25  H    0.562138  -0.006916
    26  H   -0.006916   0.550937
 Mulliken charges:
               1
     1  C   -0.374859
     2  C    0.058438
     3  C   -0.168644
     4  C   -0.129657
     5  C   -0.169859
     6  C    0.163000
     7  F   -0.224760
     8  C    0.088122
     9  C   -0.065433
    10  C    0.229765
    11  O   -0.418692
    12  C   -0.212246
    13  C   -0.066136
    14  C   -0.215630
    15  C    0.254001
    16  F   -0.204792
    17  H    0.139372
    18  H    0.135259
    19  H    0.122982
    20  H    0.113640
    21  H    0.118269
    22  H    0.127592
    23  H    0.348097
    24  H    0.117625
    25  H    0.115632
    26  H    0.118913
 Sum of Mulliken charges =  -0.00000
 Mulliken charges with hydrogens summed into heavy atoms:
               1
     1  C    0.022754
     2  C    0.058438
     3  C   -0.055004
     4  C   -0.011388
     5  C   -0.042267
     6  C    0.163000
     7  F   -0.224760
     8  C    0.088122
     9  C   -0.065433
    10  C    0.229765
    11  O   -0.070595
    12  C   -0.094621
    13  C    0.049495
    14  C   -0.096717
    15  C    0.254001
    16  F   -0.204792
 Electronic spatial extent (au):  <R**2>=           3383.7335
 Charge=             -0.0000 electrons
 Dipole moment (field-independent basis, Debye):
    X=              1.4809    Y=              0.7932    Z=              0.3972  Tot=              1.7263
 Quadrupole moment (field-independent basis, Debye-Ang):
   XX=            -76.8355   YY=            -89.8179   ZZ=            -96.2640
   XY=             -2.3008   XZ=             -2.1807   YZ=              0.2845
 Traceless Quadrupole moment (field-independent basis, Debye-Ang):
   XX=             10.8036   YY=             -2.1787   ZZ=             -8.6249
   XY=             -2.3008   XZ=             -2.1807   YZ=              0.2845
 Octapole moment (field-independent basis, Debye-Ang**2):
  XXX=             -5.3824  YYY=             -3.5561  ZZZ=              3.8855  XYY=             13.1598
  XXY=             -0.9368  XXZ=             -5.8029  XZZ=              1.1185  YZZ=              0.4643
  YYZ=              3.8885  XYZ=              2.6572
 Hexadecapole moment (field-independent basis, Debye-Ang**3):
 XXXX=          -2540.7518 YYYY=          -1389.8605 ZZZZ=           -173.3985 XXXY=            -43.7909
 XXXZ=            -37.4311 YYYX=            -44.8968 YYYZ=            -19.3667 ZZZX=             16.1979
 ZZZY=            -15.9281 XXYY=           -659.0060 XXZZ=           -557.3809 YYZZ=           -271.2812
 XXYZ=             -4.8324 YYXZ=             -4.4650 ZZXY=             -7.1956
 N-N= 1.069560990762D+03 E-N=-3.957730479366D+03  KE= 7.736193430346D+02
 Unable to Open any file for archive entry.
 1\1\GINC-SEMLSCPN037\SP\RPW6B95D3\def2TZVP\C13H10F2O1\USER-ID\02-Dec-2
 025\0\\# PW6B95D3 def2tzvp\\example\\0,1\C,0,1.311878,2.585719,0.54633
 1\C,0,1.619178,1.184574,0.038448\C,0,2.973816,1.02072,-0.330054\C,0,3.
 590243,-0.224087,-0.491043\C,0,2.851797,-1.351296,-0.122026\C,0,1.5100
 99,-1.180578,0.210435\F,0,0.946594,-2.305954,0.786347\C,0,0.74211,0.02
 0689,0.086948\C,0,-0.761913,-0.001442,0.026576\C,0,-1.582081,-1.199132
 ,-0.134074\O,0,-1.14736,-2.428266,-0.490743\C,0,-2.994431,-1.151475,-0
 .03231\C,0,-3.689414,0.048738,0.072277\C,0,-2.959449,1.241862,0.01491\
 C,0,-1.567719,1.182875,-0.061988\F,0,-0.991562,2.378327,-0.311125\H,0,
 1.021012,3.297177,-0.249736\H,0,0.519542,2.594378,1.31387\H,0,2.236666
 ,2.974923,1.018239\H,0,3.582836,1.934025,-0.424618\H,0,4.645398,-0.306
 628,-0.790597\H,0,3.289789,-2.355984,-0.03463\H,0,-0.243019,-2.6005,-0
 .155901\H,0,-3.51241,-2.119092,-0.0929\H,0,-4.787301,0.061096,0.145536
 \H,0,-3.43361,2.232379,-0.026899\\Version=ES64L-G16RevC.02\State=1-A\H
 F=-777.5275177\RMSD=7.400e-09\Dipole=0.5826362,0.3120681,0.15628\Quadr
 upole=8.0322116,-1.6198131,-6.4123986,-1.7105695,-1.6212831,0.2115432\
 PG=C01 [X(C13H10F2O1)]\\@
 The archive entry for this job was punched.


      THE ONE-EYED VIEW OF OUR UNIVERSE SAYS YOU MUST NOT LOOK
      FAR AFIELD FOR PROBLEMS.  SUCH PROBLEMS MAY NEVER ARRIVE. 
      INSTEAD, TEND TO THE WOLF WITHIN YOUR FENCES.
      THE PACKS RANGING OUTSIDE MAY NOT EVEN EXIST.

                              -- THE AZHAR BOOK SHAMRA I:4
                                 CHILDREN OF DUNE, BY FRANK HERBERT
 Job cpu time:       0 days  0 hours 29 minutes 33.6 seconds.
 Elapsed time:       0 days  0 hours  7 minutes 29.7 seconds.
 File lengths (MBytes):  RWF=    172 Int=      0 D2E=      0 Chk=     19 Scr=      1
 Normal termination of Gaussian 16 at Tue Dec  2 16:32:31 2025.
