 Entering Gaussian System, Link 0=g16
 Initial command:
 /path/to/gaussian "/path/to/scratch/inp" -scrdir="/path/to/scratch/"
 Entering Link 1 = /path/to/gaussian PID=   3600660.
  
 Copyright (c) 1988-2021, Gaussian, Inc.  All Rights Reserved.
  
 This is part of the Gaussian(R) 16 program.  It is based on
 the Gaussian(R) 09 system (copyright 2009, Gaussian, Inc.),
 the Gaussian(R) 03 system (copyright 2003, Gaussian, Inc.),
 the Gaussian(R) 98 system (copyright 1998, Gaussian, Inc.),
 the Gaussian(R) 94 system (copyright 1995, Gaussian, Inc.),
 the Gaussian 92(TM) system (copyright 1992, Gaussian, Inc.),
 the Gaussian 90(TM) system (copyright 1990, Gaussian, Inc.),
 the Gaussian 88(TM) system (copyright 1988, Gaussian, Inc.),
 the Gaussian 86(TM) system (copyright 1986, Carnegie Mellon
 University), and the Gaussian 82(TM) system (copyright 1983,
 Carnegie Mellon University). Gaussian is a federally registered
 trademark of Gaussian, Inc.
  
 This software contains proprietary and confidential information,
 including trade secrets, belonging to Gaussian, Inc.
  
 This software is provided under written license and may be
 used, copied, transmitted, or stored only in accord with that
 written license.
  
 The following legend is applicable only to US Government
 contracts under FAR:
  
                    RESTRICTED RIGHTS LEGEND
  
 Use, reproduction and disclosure by the US Government is
 subject to restrictions as set forth in subparagraphs (a)
 and (c) of the Commercial Computer Software - Restricted
 Rights clause in FAR 52.227-19.
  
 Gaussian, Inc.
 340 Quinnipiac St., Bldg. 40, Wallingford CT 06492
  
  
 ---------------------------------------------------------------
 Warning -- This program may not be used in any manner that
 competes with the business of Gaussian, Inc. or will provide
 assistance to any competitor of Gaussian, Inc.  The licensee
 of this program is prohibited from giving any competitor of
 Gaussian, Inc. access to this program.  By using this program,
 the user acknowledges that Gaussian, Inc. is engaged in the
 business of creating and licensing software in the field of
 computational chemistry and represents and warrants to the
 licensee that it is not a competitor of Gaussian, Inc. and that
 it will not use this program in any manner prohibited above.
 ---------------------------------------------------------------
  

 Cite this work as:
 Gaussian 16, Revision C.02,
 M. J. Frisch, G. W. Trucks, H. B. Schlegel, G. E. Scuseria, 
 M. A. Robb, J. R. Cheeseman, G. Scalmani, V. Barone, 
 G. A. Petersson, H. Nakatsuji, X. Li, M. Caricato, A. V. Marenich, 
 J. Bloino, B. G. Janesko, R. Gomperts, B. Mennucci, H. P. Hratchian, 
 J. V. Ortiz, A. F. Izmaylov, J. L. Sonnenberg, D. Williams-Young, 
 F. Ding, F. Lipparini, F. Egidi, J. Goings, B. Peng, A. Petrone, 
 T. Henderson, D. Ranasinghe, V. G. Zakrzewski, J. Gao, N. Rega, 
 G. Zheng, W. Liang, M. Hada, M. Ehara, K. Toyota, R. Fukuda, 
 J. Hasegawa, M. Ishida, T. Nakajima, Y. Honda, O. Kitao, H. Nakai, 
 T. Vreven, K. Throssell, J. A. Montgomery, Jr., J. E. Peralta, 
 F. Ogliaro, M. J. Bearpark, J. J. Heyd, E. N. Brothers, K. N. Kudin, 
 V. N. Staroverov, T. A. Keith, R. Kobayashi, J. Normand, 
 K. Raghavachari, A. P. Rendell, J. C. Burant, S. S. Iyengar, 
 J. Tomasi, M. Cossi, J. M. Millam, M. Klene, C. Adamo, R. Cammi, 
 J. W. Ochterski, R. L. Martin, K. Morokuma, O. Farkas, 
 J. B. Foresman, and D. J. Fox, Gaussian, Inc., Wallingford CT, 2019.
 
 ******************************************
 Gaussian 16:  ES64L-G16RevC.02  7-Dec-2021
                 2-Dec-2025 
 ******************************************
 %mem=12000MB
 %nprocshared=8
 Will use up to    8 processors via shared memory.
 ----------------------------------------------------------------------
 # opt=(TS,recalcFC=15,noeigentest) freq bp86 def2svp empiricaldispersi
 on=GD3BJ
 ----------------------------------------------------------------------
 1/5=1,10=4,11=1,18=20,26=3,38=1,71=15/1,3;
 2/9=110,12=2,17=6,18=5,40=1/2;
 3/5=43,7=101,11=2,25=1,30=1,71=2,74=404,124=41,140=1/1,2,3;
 4//1;
 5/5=2,38=5/2;
 8/6=4,10=90,11=11/1;
 11/6=1,8=1,9=11,15=111,16=1/1,2,10;
 10/6=1,13=1/2;
 6/7=2,8=2,9=2,10=2,28=1/1;
 7/10=1,25=1/1,2,3,16;
 1/5=1,10=4,11=1,18=20,26=3,71=15/3(3);
 2/9=110/2;
 7/9=1,25=1,44=-1/16;
 99//99;
 2/9=110/2;
 3/5=43,7=101,11=2,25=1,30=1,71=2,74=404,124=41,140=1/1,2,3;
 4/5=5,16=3,69=1/1;
 5/5=2,38=5/2;
 8/6=4,10=90,11=11/1;
 11/6=1,8=1,9=11,15=111,16=1/1,2,10;
 10/6=1,13=1/2;
 7/10=1,25=1/1,2,3,16;
 1/5=1,11=1,18=20,26=3,71=15/3(-8);
 2/9=110/2;
 6/7=2,8=2,9=2,10=2,19=2,28=1/1;
 7/9=1,25=1,44=-1/16;
 99/9=1/99;
 -------
 example
 -------
 Symbolic Z-matrix:
 Charge =  0 Multiplicity = 1
 C                     1.32992   2.59993   0.49997 
 C                     1.62698   1.18629   0.02082 
 C                     2.98118   1.00745  -0.34298 
 C                     3.59089  -0.24301  -0.48491 
 C                     2.84492  -1.36017  -0.10238 
 C                     1.50369  -1.1759    0.22547 
 F                     0.93162  -2.29221   0.8102 
 C                     0.7428    0.02819   0.08657 
 C                    -0.76245   0.00422   0.02832 
 C                    -1.57471  -1.19707  -0.14778 
 O                    -1.13043  -2.42105  -0.51191 
 C                    -2.98791  -1.15993  -0.05428 
 C                    -3.69163   0.03394   0.06238 
 C                    -2.96882   1.23207   0.02807 
 C                    -1.57628   1.18368  -0.04266 
 F                    -1.00852   2.38839  -0.26452 
 H                     1.00786   3.28792  -0.30465 
 H                     0.56255   2.62474   1.29207 
 H                     2.26704   3.00682   0.93016 
 H                     3.59583   1.91531  -0.45151 
 H                     4.64602  -0.33563  -0.78156 
 H                     3.2757   -2.36673  -0.00182 
 H                    -0.23337  -2.59606  -0.16002 
 H                    -3.49878  -2.13029  -0.1293 
 H                    -4.78997   0.03821   0.12953 
 H                    -3.44879   2.22031   0.00148 
 

 GradGradGradGradGradGradGradGradGradGradGradGradGradGradGradGradGradGrad
 Berny optimization.
 Initialization pass.
                           ----------------------------
                           !    Initial Parameters    !
                           ! (Angstroms and Degrees)  !
 --------------------------                            --------------------------
 ! Name  Definition              Value          Derivative Info.                !
 --------------------------------------------------------------------------------
 ! R1    R(1,2)                  1.5219         calculate D2E/DX2 analytically  !
 ! R2    R(1,17)                 1.1066         calculate D2E/DX2 analytically  !
 ! R3    R(1,18)                 1.1031         calculate D2E/DX2 analytically  !
 ! R4    R(1,19)                 1.1085         calculate D2E/DX2 analytically  !
 ! R5    R(2,3)                  1.4136         calculate D2E/DX2 analytically  !
 ! R6    R(2,8)                  1.4585         calculate D2E/DX2 analytically  !
 ! R7    R(3,4)                  1.3984         calculate D2E/DX2 analytically  !
 ! R8    R(3,20)                 1.1017         calculate D2E/DX2 analytically  !
 ! R9    R(4,5)                  1.3967         calculate D2E/DX2 analytically  !
 ! R10   R(4,21)                 1.0999         calculate D2E/DX2 analytically  !
 ! R11   R(5,6)                  1.393          calculate D2E/DX2 analytically  !
 ! R12   R(5,22)                 1.0995         calculate D2E/DX2 analytically  !
 ! R13   R(6,7)                  1.384          calculate D2E/DX2 analytically  !
 ! R14   R(6,8)                  1.4311         calculate D2E/DX2 analytically  !
 ! R15   R(8,9)                  1.5066         calculate D2E/DX2 analytically  !
 ! R16   R(9,10)                 1.4608         calculate D2E/DX2 analytically  !
 ! R17   R(9,15)                 1.4347         calculate D2E/DX2 analytically  !
 ! R18   R(10,11)                1.3521         calculate D2E/DX2 analytically  !
 ! R19   R(10,12)                1.4168         calculate D2E/DX2 analytically  !
 ! R20   R(11,23)                0.9794         calculate D2E/DX2 analytically  !
 ! R21   R(12,13)                1.3907         calculate D2E/DX2 analytically  !
 ! R22   R(12,24)                1.0992         calculate D2E/DX2 analytically  !
 ! R23   R(13,14)                1.3997         calculate D2E/DX2 analytically  !
 ! R24   R(13,25)                1.1004         calculate D2E/DX2 analytically  !
 ! R25   R(14,15)                1.3952         calculate D2E/DX2 analytically  !
 ! R26   R(14,26)                1.099          calculate D2E/DX2 analytically  !
 ! R27   R(15,16)                1.3501         calculate D2E/DX2 analytically  !
 ! A1    A(2,1,17)             113.915          calculate D2E/DX2 analytically  !
 ! A2    A(2,1,18)             112.5036         calculate D2E/DX2 analytically  !
 ! A3    A(2,1,19)             107.3441         calculate D2E/DX2 analytically  !
 ! A4    A(17,1,18)            107.7993         calculate D2E/DX2 analytically  !
 ! A5    A(17,1,19)            107.4585         calculate D2E/DX2 analytically  !
 ! A6    A(18,1,19)            107.5274         calculate D2E/DX2 analytically  !
 ! A7    A(1,2,3)              112.6775         calculate D2E/DX2 analytically  !
 ! A8    A(1,2,8)              127.2295         calculate D2E/DX2 analytically  !
 ! A9    A(3,2,8)              119.4652         calculate D2E/DX2 analytically  !
 ! A10   A(2,3,4)              123.8452         calculate D2E/DX2 analytically  !
 ! A11   A(2,3,20)             117.1008         calculate D2E/DX2 analytically  !
 ! A12   A(4,3,20)             118.9217         calculate D2E/DX2 analytically  !
 ! A13   A(3,4,5)              117.0364         calculate D2E/DX2 analytically  !
 ! A14   A(3,4,21)             121.3932         calculate D2E/DX2 analytically  !
 ! A15   A(5,4,21)             121.2546         calculate D2E/DX2 analytically  !
 ! A16   A(4,5,6)              118.2229         calculate D2E/DX2 analytically  !
 ! A17   A(4,5,22)             123.2323         calculate D2E/DX2 analytically  !
 ! A18   A(6,5,22)             118.4792         calculate D2E/DX2 analytically  !
 ! A19   A(5,6,7)              113.001          calculate D2E/DX2 analytically  !
 ! A20   A(5,6,8)              126.8981         calculate D2E/DX2 analytically  !
 ! A21   A(7,6,8)              119.9925         calculate D2E/DX2 analytically  !
 ! A22   A(2,8,6)              110.4951         calculate D2E/DX2 analytically  !
 ! A23   A(2,8,9)              128.0667         calculate D2E/DX2 analytically  !
 ! A24   A(6,8,9)              121.438          calculate D2E/DX2 analytically  !
 ! A25   A(8,9,10)             124.9812         calculate D2E/DX2 analytically  !
 ! A26   A(8,9,15)             123.7496         calculate D2E/DX2 analytically  !
 ! A27   A(10,9,15)            110.7733         calculate D2E/DX2 analytically  !
 ! A28   A(9,10,11)            126.4559         calculate D2E/DX2 analytically  !
 ! A29   A(9,10,12)            121.677          calculate D2E/DX2 analytically  !
 ! A30   A(11,10,12)           111.6704         calculate D2E/DX2 analytically  !
 ! A31   A(10,11,23)           111.4675         calculate D2E/DX2 analytically  !
 ! A32   A(10,12,13)           122.1927         calculate D2E/DX2 analytically  !
 ! A33   A(10,12,24)           115.8466         calculate D2E/DX2 analytically  !
 ! A34   A(13,12,24)           121.8951         calculate D2E/DX2 analytically  !
 ! A35   A(12,13,14)           118.1289         calculate D2E/DX2 analytically  !
 ! A36   A(12,13,25)           120.8983         calculate D2E/DX2 analytically  !
 ! A37   A(14,13,25)           120.9046         calculate D2E/DX2 analytically  !
 ! A38   A(13,14,15)           119.1428         calculate D2E/DX2 analytically  !
 ! A39   A(13,14,26)           123.0116         calculate D2E/DX2 analytically  !
 ! A40   A(15,14,26)           117.7676         calculate D2E/DX2 analytically  !
 ! A41   A(9,15,14)            126.3104         calculate D2E/DX2 analytically  !
 ! A42   A(9,15,16)            120.2066         calculate D2E/DX2 analytically  !
 ! A43   A(14,15,16)           113.3976         calculate D2E/DX2 analytically  !
 ! D1    D(17,1,2,3)            90.9544         calculate D2E/DX2 analytically  !
 ! D2    D(17,1,2,8)           -98.2751         calculate D2E/DX2 analytically  !
 ! D3    D(18,1,2,3)          -145.9751         calculate D2E/DX2 analytically  !
 ! D4    D(18,1,2,8)            24.7953         calculate D2E/DX2 analytically  !
 ! D5    D(19,1,2,3)           -27.8826         calculate D2E/DX2 analytically  !
 ! D6    D(19,1,2,8)           142.8879         calculate D2E/DX2 analytically  !
 ! D7    D(1,2,3,4)            163.0169         calculate D2E/DX2 analytically  !
 ! D8    D(1,2,3,20)           -12.7463         calculate D2E/DX2 analytically  !
 ! D9    D(8,2,3,4)             -8.5487         calculate D2E/DX2 analytically  !
 ! D10   D(8,2,3,20)           175.6881         calculate D2E/DX2 analytically  !
 ! D11   D(1,2,8,6)           -149.5431         calculate D2E/DX2 analytically  !
 ! D12   D(1,2,8,9)             30.3221         calculate D2E/DX2 analytically  !
 ! D13   D(3,2,8,6)             20.6705         calculate D2E/DX2 analytically  !
 ! D14   D(3,2,8,9)           -159.4643         calculate D2E/DX2 analytically  !
 ! D15   D(2,3,4,5)             -7.1022         calculate D2E/DX2 analytically  !
 ! D16   D(2,3,4,21)           179.2743         calculate D2E/DX2 analytically  !
 ! D17   D(20,3,4,5)           168.5886         calculate D2E/DX2 analytically  !
 ! D18   D(20,3,4,21)           -5.0349         calculate D2E/DX2 analytically  !
 ! D19   D(3,4,5,6)              8.1205         calculate D2E/DX2 analytically  !
 ! D20   D(3,4,5,22)          -168.8845         calculate D2E/DX2 analytically  !
 ! D21   D(21,4,5,6)          -178.2466         calculate D2E/DX2 analytically  !
 ! D22   D(21,4,5,22)            4.7484         calculate D2E/DX2 analytically  !
 ! D23   D(4,5,6,7)           -169.2607         calculate D2E/DX2 analytically  !
 ! D24   D(4,5,6,8)              6.9155         calculate D2E/DX2 analytically  !
 ! D25   D(22,5,6,7)             7.8893         calculate D2E/DX2 analytically  !
 ! D26   D(22,5,6,8)          -175.9345         calculate D2E/DX2 analytically  !
 ! D27   D(5,6,8,2)            -20.9663         calculate D2E/DX2 analytically  !
 ! D28   D(5,6,8,9)            159.1581         calculate D2E/DX2 analytically  !
 ! D29   D(7,6,8,2)            154.9693         calculate D2E/DX2 analytically  !
 ! D30   D(7,6,8,9)            -24.9063         calculate D2E/DX2 analytically  !
 ! D31   D(2,8,9,10)           168.0722         calculate D2E/DX2 analytically  !
 ! D32   D(2,8,9,15)            -3.0953         calculate D2E/DX2 analytically  !
 ! D33   D(6,8,9,10)           -12.0758         calculate D2E/DX2 analytically  !
 ! D34   D(6,8,9,15)           176.7567         calculate D2E/DX2 analytically  !
 ! D35   D(8,9,10,11)          -12.1893         calculate D2E/DX2 analytically  !
 ! D36   D(8,9,10,12)          173.3417         calculate D2E/DX2 analytically  !
 ! D37   D(15,9,10,11)         159.9626         calculate D2E/DX2 analytically  !
 ! D38   D(15,9,10,12)         -14.5063         calculate D2E/DX2 analytically  !
 ! D39   D(8,9,15,14)         -173.5247         calculate D2E/DX2 analytically  !
 ! D40   D(8,9,15,16)           10.0671         calculate D2E/DX2 analytically  !
 ! D41   D(10,9,15,14)          14.2081         calculate D2E/DX2 analytically  !
 ! D42   D(10,9,15,16)        -162.2001         calculate D2E/DX2 analytically  !
 ! D43   D(9,10,11,23)          33.6435         calculate D2E/DX2 analytically  !
 ! D44   D(12,10,11,23)       -151.4202         calculate D2E/DX2 analytically  !
 ! D45   D(9,10,12,13)           7.2234         calculate D2E/DX2 analytically  !
 ! D46   D(9,10,12,24)        -175.6707         calculate D2E/DX2 analytically  !
 ! D47   D(11,10,12,13)       -167.9914         calculate D2E/DX2 analytically  !
 ! D48   D(11,10,12,24)          9.1144         calculate D2E/DX2 analytically  !
 ! D49   D(10,12,13,14)          2.7329         calculate D2E/DX2 analytically  !
 ! D50   D(10,12,13,25)        179.7553         calculate D2E/DX2 analytically  !
 ! D51   D(24,12,13,14)       -174.199          calculate D2E/DX2 analytically  !
 ! D52   D(24,12,13,25)          2.8233         calculate D2E/DX2 analytically  !
 ! D53   D(12,13,14,15)         -3.6706         calculate D2E/DX2 analytically  !
 ! D54   D(12,13,14,26)        173.0447         calculate D2E/DX2 analytically  !
 ! D55   D(25,13,14,15)        179.3072         calculate D2E/DX2 analytically  !
 ! D56   D(25,13,14,26)         -3.9775         calculate D2E/DX2 analytically  !
 ! D57   D(13,14,15,9)          -5.6802         calculate D2E/DX2 analytically  !
 ! D58   D(13,14,15,16)        170.9379         calculate D2E/DX2 analytically  !
 ! D59   D(26,14,15,9)         177.4325         calculate D2E/DX2 analytically  !
 ! D60   D(26,14,15,16)         -5.9494         calculate D2E/DX2 analytically  !
 --------------------------------------------------------------------------------
 Trust Radius=3.00D-01 FncErr=1.00D-07 GrdErr=1.00D-06 EigMax=2.50D+02 EigMin=1.00D-04
 Number of steps in this run=    140 maximum allowed number of steps=    156.
 Search for a saddle point of order  1.
 GradGradGradGradGradGradGradGradGradGradGradGradGradGradGradGradGradGrad

                          Input orientation:                          
 ---------------------------------------------------------------------
 Center     Atomic      Atomic             Coordinates (Angstroms)
 Number     Number       Type             X           Y           Z
 ---------------------------------------------------------------------
      1          6           0        1.329916    2.599929    0.499974
      2          6           0        1.626982    1.186294    0.020820
      3          6           0        2.981177    1.007446   -0.342980
      4          6           0        3.590892   -0.243009   -0.484906
      5          6           0        2.844916   -1.360171   -0.102376
      6          6           0        1.503690   -1.175900    0.225468
      7          9           0        0.931618   -2.292209    0.810196
      8          6           0        0.742799    0.028194    0.086574
      9          6           0       -0.762448    0.004220    0.028322
     10          6           0       -1.574711   -1.197073   -0.147776
     11          8           0       -1.130428   -2.421049   -0.511909
     12          6           0       -2.987905   -1.159935   -0.054280
     13          6           0       -3.691634    0.033938    0.062380
     14          6           0       -2.968822    1.232068    0.028068
     15          6           0       -1.576278    1.183684   -0.042661
     16          9           0       -1.008519    2.388394   -0.264516
     17          1           0        1.007861    3.287916   -0.304653
     18          1           0        0.562552    2.624739    1.292069
     19          1           0        2.267043    3.006819    0.930163
     20          1           0        3.595826    1.915311   -0.451509
     21          1           0        4.646022   -0.335626   -0.781561
     22          1           0        3.275699   -2.366734   -0.001821
     23          1           0       -0.233368   -2.596055   -0.160015
     24          1           0       -3.498784   -2.130285   -0.129295
     25          1           0       -4.789969    0.038214    0.129530
     26          1           0       -3.448794    2.220313    0.001483
 ---------------------------------------------------------------------
                    Distance matrix (angstroms):
                    1          2          3          4          5
     1  C    0.000000
     2  C    1.521907   0.000000
     3  C    2.444021   1.413570   0.000000
     4  C    3.763549   2.481050   1.398404   0.000000
     5  C    4.282574   2.825425   2.383709   1.396732   0.000000
     6  C    3.789780   2.374246   2.696869   2.394019   1.392955
     7  F    4.918119   3.634093   4.051942   3.598367   2.315641
     8  C    2.670099   1.458526   2.480683   2.917495   2.526293
     9  C    3.367217   2.665845   3.893463   4.390455   3.858979
    10  C    4.824278   3.994959   5.064990   5.263777   4.422868
    11  O    5.682202   4.571655   5.356156   5.199562   4.134796
    12  C    5.752161   5.177607   6.356951   6.656332   5.836455
    13  C    5.656126   5.442180   6.755623   7.308311   6.685594
    14  C    4.535734   4.596038   5.965787   6.743059   6.366810
    15  C    3.278135   3.203890   4.570738   5.378725   5.101149
    16  F    2.469306   2.910726   4.222659   5.303530   5.378382
    17  H    1.106558   2.214962   3.015956   4.378581   5.002040
    18  H    1.103122   2.195042   3.337479   4.533482   4.799288
    19  H    1.108526   2.133282   2.475555   3.783699   4.524453
    20  H    2.551151   2.151954   1.101722   2.158584   3.378541
    21  H    4.610464   3.474861   2.183553   1.099946   2.180589
    22  H    5.357762   3.916987   3.404148   2.200665   1.099479
    23  H    5.466049   4.218977   4.832390   4.501927   3.317614
    24  H    6.788759   6.107021   7.202841   7.345187   6.390331
    25  H    6.644743   6.519752   7.845597   8.408059   7.765354
    26  H    4.819613   5.180065   6.552422   7.474069   7.241646
                    6          7          8          9         10
     6  C    0.000000
     7  F    1.383951   0.000000
     8  C    1.431115   2.437940   0.000000
     9  C    2.562602   2.958847   1.506564   0.000000
    10  C    3.101018   2.898054   2.631929   1.460783   0.000000
    11  O    3.005445   2.452875   3.141011   2.511810   1.352072
    12  C    4.500327   4.170375   3.917862   2.512914   1.416770
    13  C    5.336825   5.229211   4.434503   2.929535   2.457828
    14  C    5.083369   5.314667   3.902418   2.525014   2.806277
    15  C    3.889181   4.370210   2.594220   1.434745   2.383077
    16  F    4.388106   5.179496   2.959886   2.414662   3.631773
    17  H    4.522447   5.690913   3.293798   3.745334   5.177781
    18  H    4.058107   4.954270   2.868406   3.196842   4.609479
    19  H    4.309808   5.466027   3.450677   4.359671   5.796010
    20  H    3.793536   5.137424   3.462731   4.782997   6.042652
    21  H    3.405058   4.489845   4.015118   5.479321   6.311996
    22  H    2.147036   2.481862   3.486987   4.682837   4.991582
    23  H    2.276578   1.546229   2.810763   2.660231   1.938170
    24  H    5.105042   4.531813   4.764101   3.473973   2.138524
    25  H    6.410415   6.215363   5.532944   4.028936   3.455534
    26  H    6.009287   6.340732   4.730970   3.482563   3.900384
                   11         12         13         14         15
    11  O    0.000000
    12  C    2.291300   0.000000
    13  C    3.593960   1.390747   0.000000
    14  C    4.125110   2.393496   1.399696   0.000000
    15  C    3.662387   2.735941   2.409913   1.395178   0.000000
    16  F    4.817344   4.068514   3.584610   2.294664   1.350147
    17  H    6.099796   5.984330   5.727856   4.489011   3.342784
    18  H    5.619653   5.361171   5.130544   4.000979   2.903918
    19  H    6.563850   6.778307   6.715423   5.601589   4.363637
    20  H    6.414448   7.277393   7.543919   6.617508   5.239570
    21  H    6.147282   7.712669   8.388404   7.816586   6.447580
    22  H    4.435887   6.379016   7.369605   7.207379   6.012389
    23  H    0.979374   3.108230   4.350394   4.708780   4.012930
    24  H    2.416619   1.099183   2.181236   3.407498   3.832222
    25  H    4.455520   2.171815   1.100394   2.179945   3.416074
    26  H    5.213505   3.411980   2.200662   1.098958   2.140763
                   16         17         18         19         20
    16  F    0.000000
    17  H    2.208289   0.000000
    18  H    2.224203   1.785392   0.000000
    19  H    3.541047   1.785868   1.783886   0.000000
    20  H    4.632361   2.933117   3.569888   2.205917   0.000000
    21  H    6.297734   5.156909   5.453295   4.445388   2.505706
    22  H    6.405839   6.099989   5.826673   5.546265   4.317477
    23  H    5.045445   6.015204   5.477109   6.231592   5.924535
    24  H    5.161217   7.049645   6.412876   7.794681   8.173381
    25  H    4.469674   6.660624   6.057317   7.697730   8.612935
    26  H    2.460477   4.592959   4.233210   5.843957   7.065755
                   21         22         23         24         25
    21  H    0.000000
    22  H    2.571221   0.000000
    23  H    5.413345   3.520109   0.000000
    24  H    8.365651   6.779807   3.298610   0.000000
    25  H    9.487242   8.417602   5.271226   2.537033   0.000000
    26  H    8.524789   8.140013   5.793311   4.352850   2.564508
                   26
    26  H    0.000000
 Stoichiometry    C13H10F2O
 Framework group  C1[X(C13H10F2O)]
 Deg. of freedom    72
 Full point group                 C1      NOp   1
 Largest Abelian subgroup         C1      NOp   1
 Largest concise Abelian subgroup C1      NOp   1
                         Standard orientation:                         
 ---------------------------------------------------------------------
 Center     Atomic      Atomic             Coordinates (Angstroms)
 Number     Number       Type             X           Y           Z
 ---------------------------------------------------------------------
      1          6           0        1.329916    2.599929    0.499974
      2          6           0        1.626982    1.186294    0.020820
      3          6           0        2.981177    1.007446   -0.342980
      4          6           0        3.590892   -0.243009   -0.484906
      5          6           0        2.844916   -1.360171   -0.102376
      6          6           0        1.503690   -1.175900    0.225468
      7          9           0        0.931618   -2.292209    0.810196
      8          6           0        0.742799    0.028194    0.086574
      9          6           0       -0.762448    0.004220    0.028322
     10          6           0       -1.574711   -1.197073   -0.147776
     11          8           0       -1.130428   -2.421049   -0.511909
     12          6           0       -2.987905   -1.159935   -0.054280
     13          6           0       -3.691634    0.033938    0.062380
     14          6           0       -2.968822    1.232068    0.028068
     15          6           0       -1.576278    1.183684   -0.042661
     16          9           0       -1.008519    2.388394   -0.264516
     17          1           0        1.007861    3.287916   -0.304653
     18          1           0        0.562552    2.624739    1.292069
     19          1           0        2.267043    3.006819    0.930163
     20          1           0        3.595826    1.915311   -0.451509
     21          1           0        4.646022   -0.335626   -0.781561
     22          1           0        3.275699   -2.366734   -0.001821
     23          1           0       -0.233368   -2.596055   -0.160015
     24          1           0       -3.498784   -2.130285   -0.129295
     25          1           0       -4.789969    0.038214    0.129530
     26          1           0       -3.448794    2.220313    0.001483
 ---------------------------------------------------------------------
 Rotational constants (GHZ):           0.8392599           0.4704126           0.3125774
 Standard basis: def2SVP (5D, 7F)
 There are   290 symmetry adapted cartesian basis functions of A   symmetry.
 There are   274 symmetry adapted basis functions of A   symmetry.
   274 basis functions,   470 primitive gaussians,   290 cartesian basis functions
    57 alpha electrons       57 beta electrons
       nuclear repulsion energy      1069.4327767165 Hartrees.
 NAtoms=   26 NActive=   26 NUniq=   26 SFac= 1.00D+00 NAtFMM=   60 NAOKFM=F Big=F
 Integral buffers will be    131072 words long.
 Raffenetti 2 integral format.
 Two-electron integral symmetry is turned on.
 Nuclear repulsion after empirical dispersion term =     1069.3812543960 Hartrees.
 One-electron integrals computed using PRISM.
   1 Symmetry operations used in ECPInt.
 ECPInt:  NShTT=    8001 NPrTT=   29641 LenC2=    7593 LenP2D=   20282.
 LDataN:  DoStor=T MaxTD1= 4 Len=   56
 NBasis=   274 RedAO= T EigKep=  3.12D-04  NBF=   274
 NBsUse=   274 1.00D-06 EigRej= -1.00D+00 NBFU=   274
 ExpMin= 1.22D-01 ExpMax= 2.89D+03 ExpMxC= 4.35D+02 IAcc=3 IRadAn=         5 AccDes= 0.00D+00
 Harris functional with IExCor=  404 and IRadAn=       5 diagonalized for initial guess.
 HarFok:  IExCor=  404 AccDes= 0.00D+00 IRadAn=         5 IDoV= 1 UseB2=F ITyADJ=14
 ICtDFT=  3500011 ScaDFX=  1.000000  1.000000  1.000000  1.000000
 FoFCou: FMM=F IPFlag=           0 FMFlag=      100000 FMFlg1=           0
         NFxFlg=           0 DoJE=T BraDBF=F KetDBF=T FulRan=T
         wScrn=  0.000000 ICntrl=       500 IOpCl=  0 I1Cent=   200000004 NGrid=           0
         NMat0=    1 NMatS0=      1 NMatT0=    0 NMatD0=    1 NMtDS0=    0 NMtDT0=    0
 Petite list used in FoFCou.
 Requested convergence on RMS density matrix=1.00D-08 within 128 cycles.
 Requested convergence on MAX density matrix=1.00D-06.
 Requested convergence on             energy=1.00D-06.
 No special actions if energy rises.
 Integral accuracy reduced to 1.0D-05 until final iterations.
 Initial convergence to 1.0D-05 achieved.  Increase integral accuracy.
 SCF Done:  E(RB-P86) =  -775.751071720     A.U. after   16 cycles
            NFock= 16  Conv=0.51D-08     -V/T= 2.0104
 DoSCS=F DFT=T ScalE2(SS,OS)=  1.000000  1.000000
 Range of M.O.s used for correlation:     1   274
 NBasis=   274 NAE=    57 NBE=    57 NFC=     0 NFV=     0
 NROrb=    274 NOA=    57 NOB=    57 NVA=   217 NVB=   217

 **** Warning!!: The largest alpha MO coefficient is  0.10400835D+02

   1 Symmetry operations used in ECPInt.
 ECPInt:  NShTT=    8001 NPrTT=   29641 LenC2=    7593 LenP2D=   20282.
 LDataN:  DoStor=T MaxTD1= 5 Len=  102
 Symmetrizing basis deriv contribution to polar:
 IMax=3 JMax=2 DiffMx= 0.00D+00
 G2DrvN: will do    27 centers at a time, making    1 passes.
 Calling FoFCou, ICntrl=  3507 FMM=F I1Cent=   0 AccDes= 0.00D+00.
 End of G2Drv F.D. properties file   721 does not exist.
 End of G2Drv F.D. properties file   722 does not exist.
 End of G2Drv F.D. properties file   788 does not exist.
          IDoAtm=11111111111111111111111111
          Differentiating once with respect to nuclear coordinates.
 Keep J ints in memory in canonical form, NReq=722056073.
          There are    81 degrees of freedom in the 1st order CPHF.  IDoFFX=6 NUNeed=     0.
     75 vectors produced by pass  0 Test12= 1.53D-14 1.23D-09 XBig12= 2.09D-01 2.28D-01.
 AX will form    75 AO Fock derivatives at one time.
     75 vectors produced by pass  1 Test12= 1.53D-14 1.23D-09 XBig12= 6.98D-02 6.18D-02.
     75 vectors produced by pass  2 Test12= 1.53D-14 1.23D-09 XBig12= 3.54D-04 1.62D-03.
     75 vectors produced by pass  3 Test12= 1.53D-14 1.23D-09 XBig12= 5.41D-07 5.51D-05.
     75 vectors produced by pass  4 Test12= 1.53D-14 1.23D-09 XBig12= 4.21D-10 1.72D-06.
     33 vectors produced by pass  5 Test12= 1.53D-14 1.23D-09 XBig12= 8.58D-14 2.29D-08.
 InvSVY:  IOpt=1 It=  1 EMax= 3.33D-16
 Solved reduced A of dimension   408 with    81 vectors.
 End of Minotr F.D. properties file   721 does not exist.
 End of Minotr F.D. properties file   722 does not exist.
 End of Minotr F.D. properties file   788 does not exist.

 **********************************************************************

            Population analysis using the SCF Density.

 **********************************************************************

 Orbital symmetries:
       Occupied  (A) (A) (A) (A) (A) (A) (A) (A) (A) (A) (A) (A)
                 (A) (A) (A) (A) (A) (A) (A) (A) (A) (A) (A) (A)
                 (A) (A) (A) (A) (A) (A) (A) (A) (A) (A) (A) (A)
                 (A) (A) (A) (A) (A) (A) (A) (A) (A) (A) (A) (A)
                 (A) (A) (A) (A) (A) (A) (A) (A) (A)
       Virtual   (A) (A) (A) (A) (A) (A) (A) (A) (A) (A) (A) (A)
                 (A) (A) (A) (A) (A) (A) (A) (A) (A) (A) (A) (A)
                 (A) (A) (A) (A) (A) (A) (A) (A) (A) (A) (A) (A)
                 (A) (A) (A) (A) (A) (A) (A) (A) (A) (A) (A) (A)
                 (A) (A) (A) (A) (A) (A) (A) (A) (A) (A) (A) (A)
                 (A) (A) (A) (A) (A) (A) (A) (A) (A) (A) (A) (A)
                 (A) (A) (A) (A) (A) (A) (A) (A) (A) (A) (A) (A)
                 (A) (A) (A) (A) (A) (A) (A) (A) (A) (A) (A) (A)
                 (A) (A) (A) (A) (A) (A) (A) (A) (A) (A) (A) (A)
                 (A) (A) (A) (A) (A) (A) (A) (A) (A) (A) (A) (A)
                 (A) (A) (A) (A) (A) (A) (A) (A) (A) (A) (A) (A)
                 (A) (A) (A) (A) (A) (A) (A) (A) (A) (A) (A) (A)
                 (A) (A) (A) (A) (A) (A) (A) (A) (A) (A) (A) (A)
                 (A) (A) (A) (A) (A) (A) (A) (A) (A) (A) (A) (A)
                 (A) (A) (A) (A) (A) (A) (A) (A) (A) (A) (A) (A)
                 (A) (A) (A) (A) (A) (A) (A) (A) (A) (A) (A) (A)
                 (A) (A) (A) (A) (A) (A) (A) (A) (A) (A) (A) (A)
                 (A) (A) (A) (A) (A) (A) (A) (A) (A) (A) (A) (A)
                 (A)
 The electronic state is 1-A.
 Alpha  occ. eigenvalues --  -24.33305 -24.30365 -18.80064 -10.01155 -10.00338
 Alpha  occ. eigenvalues --   -9.98881  -9.96268  -9.95158  -9.94831  -9.93319
 Alpha  occ. eigenvalues --   -9.93247  -9.92722  -9.92494  -9.91725  -9.91700
 Alpha  occ. eigenvalues --   -9.91217  -1.13489  -1.11383  -0.96047  -0.79506
 Alpha  occ. eigenvalues --   -0.77257  -0.71559  -0.70160  -0.66809  -0.66211
 Alpha  occ. eigenvalues --   -0.62540  -0.58946  -0.56167  -0.55028  -0.53565
 Alpha  occ. eigenvalues --   -0.51726  -0.48598  -0.47927  -0.46165  -0.44274
 Alpha  occ. eigenvalues --   -0.43446  -0.42998  -0.42329  -0.41722  -0.40427
 Alpha  occ. eigenvalues --   -0.38755  -0.38127  -0.38007  -0.36642  -0.35949
 Alpha  occ. eigenvalues --   -0.34305  -0.33950  -0.33137  -0.32877  -0.30986
 Alpha  occ. eigenvalues --   -0.30673  -0.30254  -0.28562  -0.26715  -0.22505
 Alpha  occ. eigenvalues --   -0.20913  -0.19771
 Alpha virt. eigenvalues --   -0.09100  -0.04994  -0.03073  -0.02545   0.02511
 Alpha virt. eigenvalues --    0.03882   0.04596   0.06576   0.07611   0.08081
 Alpha virt. eigenvalues --    0.09528   0.10101   0.10972   0.11185   0.11977
 Alpha virt. eigenvalues --    0.12674   0.14012   0.15832   0.16989   0.19087
 Alpha virt. eigenvalues --    0.19850   0.21861   0.23643   0.25100   0.25722
 Alpha virt. eigenvalues --    0.26503   0.27515   0.28547   0.29495   0.30594
 Alpha virt. eigenvalues --    0.32709   0.34911   0.36016   0.36544   0.37310
 Alpha virt. eigenvalues --    0.38769   0.39708   0.40229   0.41625   0.41704
 Alpha virt. eigenvalues --    0.42373   0.42795   0.43956   0.44202   0.45761
 Alpha virt. eigenvalues --    0.46838   0.47313   0.48754   0.49911   0.51327
 Alpha virt. eigenvalues --    0.51914   0.52087   0.53235   0.53947   0.55134
 Alpha virt. eigenvalues --    0.56229   0.56843   0.58421   0.59069   0.59421
 Alpha virt. eigenvalues --    0.60459   0.61050   0.61469   0.61890   0.62629
 Alpha virt. eigenvalues --    0.63552   0.64618   0.64869   0.65540   0.66031
 Alpha virt. eigenvalues --    0.67390   0.68369   0.70120   0.71430   0.71868
 Alpha virt. eigenvalues --    0.72622   0.73879   0.75085   0.76123   0.77718
 Alpha virt. eigenvalues --    0.81159   0.82224   0.82345   0.88311   0.92097
 Alpha virt. eigenvalues --    0.93943   0.95600   0.96715   0.98097   1.01097
 Alpha virt. eigenvalues --    1.04286   1.05365   1.07540   1.09359   1.10486
 Alpha virt. eigenvalues --    1.11833   1.14110   1.16048   1.17358   1.19198
 Alpha virt. eigenvalues --    1.21049   1.22107   1.22822   1.25503   1.27192
 Alpha virt. eigenvalues --    1.28070   1.31064   1.31139   1.34710   1.35770
 Alpha virt. eigenvalues --    1.37035   1.38575   1.42526   1.44240   1.46516
 Alpha virt. eigenvalues --    1.49478   1.52377   1.54982   1.56887   1.57335
 Alpha virt. eigenvalues --    1.58794   1.59378   1.61457   1.61887   1.62594
 Alpha virt. eigenvalues --    1.63515   1.63980   1.64316   1.65341   1.66051
 Alpha virt. eigenvalues --    1.67264   1.67650   1.70649   1.71815   1.72299
 Alpha virt. eigenvalues --    1.72536   1.73548   1.74512   1.76086   1.77849
 Alpha virt. eigenvalues --    1.78102   1.81307   1.82815   1.84693   1.85920
 Alpha virt. eigenvalues --    1.86324   1.87428   1.89955   1.90595   1.92701
 Alpha virt. eigenvalues --    1.94014   1.95524   1.96875   1.97916   1.99076
 Alpha virt. eigenvalues --    1.99996   2.01811   2.04762   2.05934   2.08893
 Alpha virt. eigenvalues --    2.09222   2.09594   2.13671   2.15201   2.17467
 Alpha virt. eigenvalues --    2.17568   2.18476   2.19440   2.20229   2.23395
 Alpha virt. eigenvalues --    2.23609   2.28346   2.31205   2.33276   2.35365
 Alpha virt. eigenvalues --    2.36631   2.37802   2.43523   2.44986   2.46906
 Alpha virt. eigenvalues --    2.48354   2.48821   2.52234   2.54772   2.55143
 Alpha virt. eigenvalues --    2.59250   2.61662   2.62754   2.65380   2.67577
 Alpha virt. eigenvalues --    2.68707   2.75931   2.77540   2.81014   2.81927
 Alpha virt. eigenvalues --    2.83995   2.87164   2.88455   2.90019   2.93000
 Alpha virt. eigenvalues --    2.93750   2.98002   3.00307   3.01787   3.06816
 Alpha virt. eigenvalues --    3.10115   3.12411   3.15219   3.20133   3.29581
 Alpha virt. eigenvalues --    3.32346   3.38577   3.43590   3.48028   3.67752
 Alpha virt. eigenvalues --    3.74515   3.79019
          Condensed to atoms (all electrons):
               1          2          3          4          5          6
     1  C    4.556723   0.439675  -0.074939   0.013653   0.000024   0.008935
     2  C    0.439675   5.187574   0.363998   0.057250  -0.117393   0.038935
     3  C   -0.074939   0.363998   5.094370   0.292247   0.084607  -0.135035
     4  C    0.013653   0.057250   0.292247   5.071974   0.235485   0.090535
     5  C    0.000024  -0.117393   0.084607   0.235485   5.201029   0.316285
     6  C    0.008935   0.038935  -0.135035   0.090535   0.316285   5.212048
     7  F   -0.000015   0.001823  -0.000013   0.005136  -0.059459   0.299582
     8  C   -0.063535   0.302369   0.031516  -0.088788  -0.002916   0.212590
     9  C   -0.019324  -0.045468   0.013909  -0.000367   0.011629  -0.064971
    10  C   -0.000383   0.007719   0.000283  -0.000247   0.001457  -0.026531
    11  O   -0.000003  -0.000027   0.000000   0.000003  -0.001150   0.008461
    12  C    0.000003   0.000107  -0.000002   0.000001  -0.000049   0.001717
    13  C   -0.000023  -0.000069   0.000001  -0.000000   0.000002  -0.000296
    14  C    0.000089   0.000170  -0.000015   0.000001  -0.000002   0.000181
    15  C   -0.000915  -0.021770   0.000102  -0.000050  -0.000074   0.011159
    16  F    0.004720  -0.004960  -0.000025   0.000001  -0.000001   0.000283
    17  H    0.357168   0.000625   0.000215  -0.000245  -0.000044  -0.000231
    18  H    0.371914  -0.001858   0.007625  -0.000874   0.000220  -0.000820
    19  H    0.375666  -0.023650  -0.019092   0.002096  -0.000073  -0.000018
    20  H   -0.019183  -0.064375   0.424755  -0.066119   0.013818  -0.000539
    21  H   -0.000411   0.014350  -0.064656   0.432097  -0.070551   0.013538
    22  H    0.000018  -0.000911   0.012570  -0.064302   0.415319  -0.058195
    23  H   -0.000001   0.000447  -0.000068   0.000263  -0.002246  -0.017536
    24  H    0.000000   0.000001  -0.000000   0.000000   0.000001   0.000004
    25  H    0.000000  -0.000001   0.000000   0.000000  -0.000000   0.000001
    26  H   -0.000011   0.000028  -0.000000   0.000000  -0.000000   0.000001
               7          8          9         10         11         12
     1  C   -0.000015  -0.063535  -0.019324  -0.000383  -0.000003   0.000003
     2  C    0.001823   0.302369  -0.045468   0.007719  -0.000027   0.000107
     3  C   -0.000013   0.031516   0.013909   0.000283   0.000000  -0.000002
     4  C    0.005136  -0.088788  -0.000367  -0.000247   0.000003   0.000001
     5  C   -0.059459  -0.002916   0.011629   0.001457  -0.001150  -0.000049
     6  C    0.299582   0.212590  -0.064971  -0.026531   0.008461   0.001717
     7  F    8.989396  -0.069890   0.002397   0.001132  -0.027169  -0.000552
     8  C   -0.069890   5.456411   0.229226  -0.068558  -0.003958   0.009396
     9  C    0.002397   0.229226   5.753356   0.137550  -0.074997   0.009895
    10  C    0.001132  -0.068558   0.137550   5.184222   0.454982   0.287381
    11  O   -0.027169  -0.003958  -0.074997   0.454982   7.557104  -0.089508
    12  C   -0.000552   0.009396   0.009895   0.287381  -0.089508   5.255326
    13  C    0.000001  -0.000151  -0.103564   0.115734   0.006003   0.210520
    14  C   -0.000000   0.013476   0.001706  -0.140430   0.000085   0.109069
    15  C    0.000146  -0.056131   0.163424   0.093333   0.001520  -0.138069
    16  F   -0.000000   0.000069  -0.074187   0.001886  -0.000001   0.000031
    17  H    0.000000  -0.001420   0.004012   0.000031   0.000000  -0.000002
    18  H   -0.000004  -0.011194   0.005170   0.000184   0.000001  -0.000010
    19  H    0.000001   0.007513  -0.000611   0.000005   0.000000   0.000000
    20  H    0.000004   0.015049  -0.000224   0.000001   0.000000  -0.000000
    21  H   -0.000075  -0.001307   0.000018   0.000000  -0.000000   0.000000
    22  H    0.000815   0.017032  -0.000284   0.000053   0.000008  -0.000000
    23  H    0.051420   0.005657  -0.011610  -0.025474   0.338756   0.004598
    24  H    0.000018  -0.000194   0.019873  -0.056486   0.003635   0.415925
    25  H   -0.000000   0.000012  -0.001947   0.014425  -0.000112  -0.069368
    26  H   -0.000000  -0.000222   0.019260  -0.001376   0.000006   0.013549
              13         14         15         16         17         18
     1  C   -0.000023   0.000089  -0.000915   0.004720   0.357168   0.371914
     2  C   -0.000069   0.000170  -0.021770  -0.004960   0.000625  -0.001858
     3  C    0.000001  -0.000015   0.000102  -0.000025   0.000215   0.007625
     4  C   -0.000000   0.000001  -0.000050   0.000001  -0.000245  -0.000874
     5  C    0.000002  -0.000002  -0.000074  -0.000001  -0.000044   0.000220
     6  C   -0.000296   0.000181   0.011159   0.000283  -0.000231  -0.000820
     7  F    0.000001  -0.000000   0.000146  -0.000000   0.000000  -0.000004
     8  C   -0.000151   0.013476  -0.056131   0.000069  -0.001420  -0.011194
     9  C   -0.103564   0.001706   0.163424  -0.074187   0.004012   0.005170
    10  C    0.115734  -0.140430   0.093333   0.001886   0.000031   0.000184
    11  O    0.006003   0.000085   0.001520  -0.000001   0.000000   0.000001
    12  C    0.210520   0.109069  -0.138069   0.000031  -0.000002  -0.000010
    13  C    5.177675   0.163795   0.115540   0.005219   0.000002   0.000066
    14  C    0.163795   5.284532   0.318323  -0.061762  -0.000187  -0.001148
    15  C    0.115540   0.318323   5.055653   0.359782  -0.002162   0.000670
    16  F    0.005219  -0.061762   0.359782   8.927496   0.003481  -0.000871
    17  H    0.000002  -0.000187  -0.002162   0.003481   0.625065  -0.018160
    18  H    0.000066  -0.001148   0.000670  -0.000871  -0.018160   0.641661
    19  H   -0.000001   0.000033   0.000192   0.001704  -0.023178  -0.028688
    20  H    0.000000  -0.000000   0.000022  -0.000010   0.001913   0.000552
    21  H   -0.000000   0.000000   0.000000   0.000000   0.000013   0.000010
    22  H    0.000000  -0.000000   0.000002  -0.000000  -0.000001  -0.000001
    23  H    0.000022  -0.000160   0.000210   0.000001   0.000001   0.000002
    24  H   -0.073621   0.014434  -0.001580   0.000004  -0.000000  -0.000000
    25  H    0.436435  -0.070880   0.014056  -0.000084   0.000000  -0.000001
    26  H   -0.069725   0.416175  -0.059363   0.001781   0.000024   0.000040
              19         20         21         22         23         24
     1  C    0.375666  -0.019183  -0.000411   0.000018  -0.000001   0.000000
     2  C   -0.023650  -0.064375   0.014350  -0.000911   0.000447   0.000001
     3  C   -0.019092   0.424755  -0.064656   0.012570  -0.000068  -0.000000
     4  C    0.002096  -0.066119   0.432097  -0.064302   0.000263   0.000000
     5  C   -0.000073   0.013818  -0.070551   0.415319  -0.002246   0.000001
     6  C   -0.000018  -0.000539   0.013538  -0.058195  -0.017536   0.000004
     7  F    0.000001   0.000004  -0.000075   0.000815   0.051420   0.000018
     8  C    0.007513   0.015049  -0.001307   0.017032   0.005657  -0.000194
     9  C   -0.000611  -0.000224   0.000018  -0.000284  -0.011610   0.019873
    10  C    0.000005   0.000001   0.000000   0.000053  -0.025474  -0.056486
    11  O    0.000000   0.000000  -0.000000   0.000008   0.338756   0.003635
    12  C    0.000000  -0.000000   0.000000  -0.000000   0.004598   0.415925
    13  C   -0.000001   0.000000  -0.000000   0.000000   0.000022  -0.073621
    14  C    0.000033  -0.000000   0.000000  -0.000000  -0.000160   0.014434
    15  C    0.000192   0.000022   0.000000   0.000002   0.000210  -0.001580
    16  F    0.001704  -0.000010   0.000000  -0.000000   0.000001   0.000004
    17  H   -0.023178   0.001913   0.000013  -0.000001   0.000001  -0.000000
    18  H   -0.028688   0.000552   0.000010  -0.000001   0.000002  -0.000000
    19  H    0.672645   0.005033  -0.000018  -0.000002  -0.000001  -0.000000
    20  H    0.005033   0.700516  -0.012412  -0.000367  -0.000001   0.000000
    21  H   -0.000018  -0.012412   0.688899  -0.011747   0.000003  -0.000000
    22  H   -0.000002  -0.000367  -0.011747   0.673953   0.000149  -0.000000
    23  H   -0.000001  -0.000001   0.000003   0.000149   0.470461   0.000039
    24  H   -0.000000   0.000000  -0.000000  -0.000000   0.000039   0.686311
    25  H    0.000000  -0.000000   0.000000  -0.000000   0.000012  -0.013185
    26  H   -0.000002  -0.000000  -0.000000   0.000000  -0.000002  -0.000306
              25         26
     1  C    0.000000  -0.000011
     2  C   -0.000001   0.000028
     3  C    0.000000  -0.000000
     4  C    0.000000   0.000000
     5  C   -0.000000  -0.000000
     6  C    0.000001   0.000001
     7  F   -0.000000  -0.000000
     8  C    0.000012  -0.000222
     9  C   -0.001947   0.019260
    10  C    0.014425  -0.001376
    11  O   -0.000112   0.000006
    12  C   -0.069368   0.013549
    13  C    0.436435  -0.069725
    14  C   -0.070880   0.416175
    15  C    0.014056  -0.059363
    16  F   -0.000084   0.001781
    17  H    0.000000   0.000024
    18  H   -0.000001   0.000040
    19  H    0.000000  -0.000002
    20  H   -0.000000  -0.000000
    21  H    0.000000  -0.000000
    22  H   -0.000000   0.000000
    23  H    0.000012  -0.000002
    24  H   -0.013185  -0.000306
    25  H    0.691587  -0.012329
    26  H   -0.012329   0.685512
 Mulliken charges:
               1
     1  C    0.050157
     2  C   -0.134590
     3  C   -0.032353
     4  C    0.020252
     5  C   -0.025918
     6  C    0.089916
     7  F   -0.194695
     8  C    0.067947
     9  C    0.026127
    10  C    0.019106
    11  O   -0.173636
    12  C   -0.019956
    13  C    0.016433
    14  C   -0.047482
    15  C    0.145979
    16  F   -0.164555
    17  H    0.053080
    18  H    0.035513
    19  H    0.030446
    20  H    0.001568
    21  H    0.012248
    22  H    0.015890
    23  H    0.185060
    24  H    0.005126
    25  H    0.011378
    26  H    0.006960
 Sum of Mulliken charges =  -0.00000
 Mulliken charges with hydrogens summed into heavy atoms:
               1
     1  C    0.169195
     2  C   -0.134590
     3  C   -0.030785
     4  C    0.032500
     5  C   -0.010028
     6  C    0.089916
     7  F   -0.194695
     8  C    0.067947
     9  C    0.026127
    10  C    0.019106
    11  O    0.011424
    12  C   -0.014830
    13  C    0.027811
    14  C   -0.040522
    15  C    0.145979
    16  F   -0.164555
 APT charges:
               1
     1  C   -0.601288
     2  C   -0.613721
     3  C   -0.528373
     4  C   -0.412542
     5  C   -0.428137
     6  C   -0.354814
     7  F    0.039322
     8  C   -0.427720
     9  C   -0.381534
    10  C   -0.572013
    11  O    0.179396
    12  C   -0.538871
    13  C   -0.298914
    14  C   -0.455761
    15  C   -0.406557
    16  F    0.115750
    17  H    0.373274
    18  H    0.128085
    19  H    0.582943
    20  H    0.666261
    21  H    0.884328
    22  H    0.673102
    23  H    0.146027
    24  H    0.663191
    25  H    0.898523
    26  H    0.670043
 Sum of APT charges =  -0.00000
 APT charges with hydrogens summed into heavy atoms:
               1
     1  C    0.483013
     2  C   -0.613721
     3  C    0.137889
     4  C    0.471786
     5  C    0.244965
     6  C   -0.354814
     7  F    0.039322
     8  C   -0.427720
     9  C   -0.381534
    10  C   -0.572013
    11  O    0.325422
    12  C    0.124320
    13  C    0.599609
    14  C    0.214283
    15  C   -0.406557
    16  F    0.115750
 Electronic spatial extent (au):  <R**2>=           3385.7283
 Charge=             -0.0000 electrons
 Dipole moment (field-independent basis, Debye):
    X=              1.4267    Y=              0.5869    Z=              0.3672  Tot=              1.5858
 Quadrupole moment (field-independent basis, Debye-Ang):
   XX=            -78.9816   YY=            -88.3005   ZZ=            -95.4249
   XY=             -2.2604   XZ=             -1.9036   YZ=              0.0115
 Traceless Quadrupole moment (field-independent basis, Debye-Ang):
   XX=              8.5874   YY=             -0.7315   ZZ=             -7.8559
   XY=             -2.2604   XZ=             -1.9036   YZ=              0.0115
 Octapole moment (field-independent basis, Debye-Ang**2):
  XXX=             -4.3152  YYY=             -5.1393  ZZZ=              4.0967  XYY=             11.9934
  XXY=             -0.9381  XXZ=             -4.7959  XZZ=              0.6039  YZZ=              0.0130
  YYZ=              3.6636  XYZ=              2.0945
 Hexadecapole moment (field-independent basis, Debye-Ang**3):
 XXXX=          -2593.2153 YYYY=          -1361.2591 ZZZZ=           -164.0524 XXXY=            -41.9712
 XXXZ=            -29.2392 YYYX=            -42.7808 YYYZ=            -20.0670 ZZZX=             15.2364
 ZZZY=            -15.2582 XXYY=           -662.6236 XXZZ=           -550.1792 YYZZ=           -264.7579
 XXYZ=             -5.1162 YYXZ=             -3.8813 ZZXY=             -7.6118
 N-N= 1.069381254396D+03 E-N=-3.949830790546D+03  KE= 7.677396585791D+02
  Exact polarizability:       0.000       0.000       0.000       0.000       0.000       0.000
 Approx polarizability:     468.162      -6.563     375.223     -28.733       2.188     129.205
   1 Symmetry operations used in ECPInt.
 ECPInt:  NShTT=    8001 NPrTT=   29641 LenC2=    7593 LenP2D=   20282.
 LDataN:  DoStor=T MaxTD1= 6 Len=  172
 Calling FoFJK, ICntrl=    100527 FMM=F ISym2X=0 I1Cent= 0 IOpClX= 0 NMat=1 NMatS=1 NMatT=0.
 ***** Axes restored to original set *****
 -------------------------------------------------------------------
 Center     Atomic                   Forces (Hartrees/Bohr)
 Number     Number              X              Y              Z
 -------------------------------------------------------------------
      1        6           0.000007178    0.000067519   -0.000518516
      2        6           0.000011291    0.000004458   -0.000031999
      3        6          -0.000001973    0.000007775    0.000007124
      4        6           0.000001811   -0.000003342    0.000001360
      5        6          -0.000010382    0.000002228   -0.000006858
      6        6           0.000053292    0.000039377    0.000007404
      7        9          -0.000036871    0.000122350    0.000497126
      8        6          -0.000021393   -0.000237134    0.000170948
      9        6           0.000020877   -0.000155456   -0.000207102
     10        6           0.000002282   -0.000008651   -0.000023059
     11        8           0.000000424    0.000125573   -0.000483309
     12        6          -0.000008923    0.000004292   -0.000000345
     13        6           0.000002835   -0.000017326    0.000004444
     14        6           0.000011406    0.000005434   -0.000002399
     15        6          -0.000011813    0.000001401    0.000002503
     16        9          -0.000030126    0.000075912    0.000579816
     17        1           0.000006670   -0.000004647   -0.000000038
     18        1           0.000008279    0.000001686    0.000001123
     19        1           0.000006060   -0.000003438   -0.000000418
     20        1           0.000000134    0.000000265    0.000003605
     21        1          -0.000000323   -0.000000898   -0.000001619
     22        1           0.000000356   -0.000000935   -0.000000335
     23        1          -0.000011045   -0.000024335    0.000005009
     24        1           0.000000304   -0.000002159   -0.000002087
     25        1           0.000000178    0.000001293   -0.000000945
     26        1          -0.000000530   -0.000001241   -0.000001434
 -------------------------------------------------------------------
 Cartesian Forces:  Max     0.000579816 RMS     0.000128640
 FormGI is forming the generalized inverse of G from B-inverse, IUseBI=4.

 GradGradGradGradGradGradGradGradGradGradGradGradGradGradGradGradGradGrad
 Berny optimization.
 Internal  Forces:  Max     0.001263036 RMS     0.000247719
 Search for a saddle point.
 Step number   1 out of a maximum of  140
 All quantities printed in internal units (Hartrees-Bohrs-Radians)
 Swapping is turned off.
 Second derivative matrix not updated -- analytic derivatives used.
 ITU=  0
     Eigenvalues ---   -0.02526   0.00349   0.00696   0.01087   0.01438
     Eigenvalues ---    0.01568   0.01580   0.01625   0.01708   0.01754
     Eigenvalues ---    0.01841   0.02127   0.02158   0.02258   0.02319
     Eigenvalues ---    0.02592   0.02843   0.02907   0.03034   0.03902
     Eigenvalues ---    0.05171   0.05480   0.05632   0.09870   0.09908
     Eigenvalues ---    0.10617   0.10813   0.10990   0.11146   0.11592
     Eigenvalues ---    0.13162   0.14024   0.14708   0.16255   0.16435
     Eigenvalues ---    0.17024   0.17588   0.17859   0.18147   0.18673
     Eigenvalues ---    0.19473   0.19679   0.22768   0.25338   0.26561
     Eigenvalues ---    0.27382   0.29344   0.31505   0.32341   0.32819
     Eigenvalues ---    0.33061   0.33632   0.34036   0.34363   0.34503
     Eigenvalues ---    0.34533   0.34805   0.34905   0.35023   0.35775
     Eigenvalues ---    0.39978   0.40436   0.43596   0.44731   0.45893
     Eigenvalues ---    0.46369   0.47562   0.49122   0.49435   0.51364
     Eigenvalues ---    0.88701   2.27561
 Eigenvectors required to have negative eigenvalues:
                          D31       D32       D33       D34       D43
   1                    0.45483   0.44350   0.38721   0.37588  -0.16665
                          D40       D2        D6        D4        D44
   1                    0.16137  -0.15882  -0.15866  -0.14749  -0.14403
 RFO step:  Lambda0=2.087025267D-04 Lambda=-6.90089789D-05.
 Linear search not attempted -- option 19 set.
 Iteration  1 RMS(Cart)=  0.02736978 RMS(Int)=  0.00025887
 Iteration  2 RMS(Cart)=  0.00035094 RMS(Int)=  0.00000234
 Iteration  3 RMS(Cart)=  0.00000009 RMS(Int)=  0.00000234
 Variable       Old X    -DE/DX   Delta X   Delta X   Delta X     New X
                                 (Linear)    (Quad)   (Total)
    R1        2.87599  -0.00011   0.00000  -0.00033  -0.00033   2.87565
    R2        2.09109  -0.00000   0.00000   0.00004   0.00004   2.09113
    R3        2.08460  -0.00001   0.00000   0.00007   0.00007   2.08467
    R4        2.09481   0.00000   0.00000   0.00048   0.00048   2.09529
    R5        2.67126   0.00005   0.00000  -0.00032  -0.00032   2.67094
    R6        2.75622   0.00011   0.00000  -0.00065  -0.00065   2.75556
    R7        2.64260   0.00003   0.00000  -0.00005  -0.00005   2.64255
    R8        2.08195   0.00000   0.00000   0.00017   0.00017   2.08212
    R9        2.63944  -0.00004   0.00000   0.00082   0.00082   2.64027
   R10        2.07860   0.00000   0.00000   0.00001   0.00001   2.07861
   R11        2.63230  -0.00006   0.00000  -0.00035  -0.00035   2.63195
   R12        2.07771   0.00000   0.00000   0.00002   0.00002   2.07773
   R13        2.61529   0.00013   0.00000   0.00025   0.00025   2.61554
   R14        2.70441  -0.00008   0.00000   0.00003   0.00003   2.70445
   R15        2.84699   0.00003   0.00000  -0.00226  -0.00226   2.84473
   R16        2.76048   0.00001   0.00000  -0.00057  -0.00057   2.75991
   R17        2.71128   0.00005   0.00000   0.00082   0.00081   2.71209
   R18        2.55504   0.00003   0.00000  -0.00072  -0.00072   2.55433
   R19        2.67731  -0.00002   0.00000   0.00005   0.00005   2.67736
   R20        1.85075  -0.00000   0.00000   0.00041   0.00041   1.85116
   R21        2.62813  -0.00003   0.00000   0.00020   0.00020   2.62833
   R22        2.07716   0.00000   0.00000   0.00004   0.00004   2.07720
   R23        2.64504   0.00002   0.00000   0.00035   0.00035   2.64539
   R24        2.07944  -0.00000   0.00000   0.00001   0.00001   2.07945
   R25        2.63650   0.00002   0.00000  -0.00014  -0.00013   2.63637
   R26        2.07673  -0.00000   0.00000  -0.00000  -0.00000   2.07673
   R27        2.55141  -0.00004   0.00000   0.00013   0.00013   2.55153
    A1        1.98819  -0.00001   0.00000  -0.00037  -0.00037   1.98782
    A2        1.96356   0.00001   0.00000   0.00187   0.00187   1.96543
    A3        1.87351  -0.00001   0.00000  -0.00137  -0.00137   1.87214
    A4        1.88145   0.00000   0.00000   0.00101   0.00101   1.88246
    A5        1.87551   0.00000   0.00000  -0.00031  -0.00031   1.87519
    A6        1.87671   0.00000   0.00000  -0.00100  -0.00100   1.87571
    A7        1.96659  -0.00016   0.00000   0.00182   0.00181   1.96841
    A8        2.22057   0.00034   0.00000  -0.00311  -0.00311   2.21747
    A9        2.08506  -0.00015   0.00000   0.00073   0.00072   2.08578
   A10        2.16151   0.00009   0.00000  -0.00142  -0.00142   2.16009
   A11        2.04379  -0.00005   0.00000   0.00050   0.00050   2.04429
   A12        2.07558  -0.00004   0.00000   0.00081   0.00081   2.07638
   A13        2.04267  -0.00000   0.00000   0.00022   0.00022   2.04289
   A14        2.11871  -0.00000   0.00000   0.00013   0.00013   2.11884
   A15        2.11629   0.00001   0.00000  -0.00050  -0.00051   2.11579
   A16        2.06338  -0.00007   0.00000   0.00039   0.00039   2.06377
   A17        2.15081   0.00003   0.00000  -0.00042  -0.00042   2.15039
   A18        2.06785   0.00004   0.00000  -0.00002  -0.00002   2.06783
   A19        1.97224   0.00012   0.00000   0.00131   0.00131   1.97355
   A20        2.21479   0.00013   0.00000  -0.00139  -0.00139   2.21340
   A21        2.09426  -0.00026   0.00000  -0.00010  -0.00010   2.09416
   A22        1.92850   0.00001   0.00000  -0.00011  -0.00011   1.92839
   A23        2.23519  -0.00011   0.00000  -0.00619  -0.00619   2.22899
   A24        2.11949   0.00010   0.00000   0.00630   0.00630   2.12580
   A25        2.18133  -0.00001   0.00000   0.00491   0.00492   2.18625
   A26        2.15984   0.00004   0.00000  -0.00482  -0.00481   2.15503
   A27        1.93336  -0.00002   0.00000  -0.00009  -0.00010   1.93326
   A28        2.20707  -0.00007   0.00000  -0.00015  -0.00015   2.20692
   A29        2.12366   0.00007   0.00000  -0.00090  -0.00091   2.12275
   A30        1.94902  -0.00002   0.00000   0.00098   0.00098   1.95000
   A31        1.94547   0.00004   0.00000   0.00066   0.00066   1.94613
   A32        2.13267  -0.00003   0.00000  -0.00029  -0.00030   2.13237
   A33        2.02190   0.00002   0.00000   0.00025   0.00025   2.02215
   A34        2.12747   0.00001   0.00000  -0.00006  -0.00005   2.12742
   A35        2.06174   0.00000   0.00000   0.00041   0.00041   2.06215
   A36        2.11007   0.00000   0.00000  -0.00030  -0.00030   2.10977
   A37        2.11018  -0.00000   0.00000  -0.00022  -0.00022   2.10996
   A38        2.07943   0.00004   0.00000  -0.00063  -0.00063   2.07880
   A39        2.14696  -0.00002   0.00000  -0.00005  -0.00005   2.14691
   A40        2.05543  -0.00002   0.00000   0.00059   0.00059   2.05602
   A41        2.20453  -0.00005   0.00000  -0.00071  -0.00072   2.20381
   A42        2.09800   0.00012   0.00000  -0.00079  -0.00078   2.09722
   A43        1.97916  -0.00005   0.00000   0.00140   0.00140   1.98056
    D1        1.58745  -0.00010   0.00000  -0.03750  -0.03750   1.54996
    D2       -1.71522   0.00010   0.00000  -0.04147  -0.04147  -1.75670
    D3       -2.54775  -0.00010   0.00000  -0.03494  -0.03494  -2.58268
    D4        0.43276   0.00010   0.00000  -0.03892  -0.03891   0.39385
    D5       -0.48664  -0.00010   0.00000  -0.03596  -0.03596  -0.52260
    D6        2.49386   0.00010   0.00000  -0.03994  -0.03993   2.45393
    D7        2.84518   0.00022   0.00000  -0.00559  -0.00559   2.83959
    D8       -0.22247   0.00018   0.00000  -0.00382  -0.00383  -0.22629
    D9       -0.14920  -0.00001   0.00000  -0.00155  -0.00155  -0.15075
   D10        3.06634  -0.00005   0.00000   0.00022   0.00022   3.06656
   D11       -2.61002  -0.00025   0.00000   0.00834   0.00833  -2.60169
   D12        0.52922  -0.00023   0.00000   0.00744   0.00744   0.53666
   D13        0.36077  -0.00004   0.00000   0.00417   0.00418   0.36494
   D14       -2.78318  -0.00002   0.00000   0.00328   0.00328  -2.77990
   D15       -0.12396   0.00002   0.00000  -0.00151  -0.00151  -0.12547
   D16        3.12893   0.00002   0.00000   0.00007   0.00007   3.12900
   D17        2.94243   0.00006   0.00000  -0.00332  -0.00333   2.93910
   D18       -0.08788   0.00006   0.00000  -0.00174  -0.00174  -0.08962
   D19        0.14173   0.00002   0.00000   0.00165   0.00165   0.14338
   D20       -2.94759   0.00007   0.00000   0.00283   0.00283  -2.94476
   D21       -3.11099   0.00002   0.00000   0.00011   0.00011  -3.11088
   D22        0.08288   0.00006   0.00000   0.00129   0.00129   0.08417
   D23       -2.95416   0.00027   0.00000   0.00447   0.00447  -2.94969
   D24        0.12070  -0.00005   0.00000   0.00124   0.00125   0.12194
   D25        0.13769   0.00023   0.00000   0.00333   0.00334   0.14103
   D26       -3.07064  -0.00009   0.00000   0.00011   0.00011  -3.07053
   D27       -0.36593   0.00003   0.00000  -0.00389  -0.00389  -0.36982
   D28        2.77783   0.00001   0.00000  -0.00304  -0.00304   2.77480
   D29        2.70472  -0.00030   0.00000  -0.00727  -0.00727   2.69745
   D30       -0.43470  -0.00031   0.00000  -0.00642  -0.00642  -0.44112
   D31        2.93341  -0.00126   0.00000   0.02725   0.02725   2.96066
   D32       -0.05402  -0.00126   0.00000   0.02727   0.02727  -0.02675
   D33       -0.21076  -0.00123   0.00000   0.02625   0.02625  -0.18451
   D34        3.08499  -0.00124   0.00000   0.02628   0.02628   3.11126
   D35       -0.21274  -0.00028   0.00000  -0.00983  -0.00983  -0.22257
   D36        3.02538   0.00001   0.00000  -0.00879  -0.00879   3.01659
   D37        2.79187  -0.00026   0.00000  -0.01029  -0.01029   2.78159
   D38       -0.25318   0.00003   0.00000  -0.00925  -0.00925  -0.26244
   D39       -3.02858   0.00002   0.00000   0.00868   0.00868  -3.01989
   D40        0.17570  -0.00036   0.00000   0.01082   0.01082   0.18653
   D41        0.24798   0.00001   0.00000   0.00823   0.00823   0.25621
   D42       -2.83093  -0.00037   0.00000   0.01037   0.01037  -2.82056
   D43        0.58719   0.00015   0.00000  -0.01432  -0.01432   0.57287
   D44       -2.64278  -0.00011   0.00000  -0.01535  -0.01535  -2.65813
   D45        0.12607  -0.00004   0.00000   0.00493   0.00493   0.13100
   D46       -3.06603  -0.00007   0.00000   0.00273   0.00273  -3.06330
   D47       -2.93200   0.00021   0.00000   0.00586   0.00586  -2.92614
   D48        0.15908   0.00018   0.00000   0.00367   0.00367   0.16274
   D49        0.04770   0.00001   0.00000   0.00184   0.00184   0.04954
   D50        3.13732   0.00003   0.00000  -0.00065  -0.00065   3.13667
   D51       -3.04035   0.00004   0.00000   0.00416   0.00416  -3.03619
   D52        0.04928   0.00006   0.00000   0.00167   0.00167   0.05095
   D53       -0.06406   0.00004   0.00000  -0.00319  -0.00319  -0.06726
   D54        3.02020   0.00009   0.00000  -0.00505  -0.00505   3.01515
   D55        3.12950   0.00002   0.00000  -0.00070  -0.00070   3.12880
   D56       -0.06942   0.00007   0.00000  -0.00256  -0.00256  -0.07198
   D57       -0.09914  -0.00005   0.00000  -0.00224  -0.00223  -0.10137
   D58        2.98343   0.00031   0.00000  -0.00431  -0.00431   2.97912
   D59        3.09678  -0.00010   0.00000  -0.00046  -0.00046   3.09632
   D60       -0.10384   0.00026   0.00000  -0.00254  -0.00254  -0.10637
         Item               Value     Threshold  Converged?
 Maximum Force            0.001263     0.000450     NO 
 RMS     Force            0.000248     0.000300     YES
 Maximum Displacement     0.124432     0.001800     NO 
 RMS     Displacement     0.027431     0.001200     NO 
 Predicted change in Energy= 7.051731D-05
 GradGradGradGradGradGradGradGradGradGradGradGradGradGradGradGradGradGrad

                          Input orientation:                          
 ---------------------------------------------------------------------
 Center     Atomic      Atomic             Coordinates (Angstroms)
 Number     Number       Type             X           Y           Z
 ---------------------------------------------------------------------
      1          6           0        1.316213    2.587364    0.523599
      2          6           0        1.622078    1.182667    0.024664
      3          6           0        2.976398    1.015447   -0.343519
      4          6           0        3.592033   -0.230774   -0.496443
      5          6           0        2.853213   -1.354995   -0.119150
      6          6           0        1.511818   -1.181170    0.212893
      7          9           0        0.947924   -2.302042    0.797147
      8          6           0        0.744370    0.019608    0.081373
      9          6           0       -0.759639   -0.002781    0.021507
     10          6           0       -1.579620   -1.201557   -0.132016
     11          8           0       -1.144701   -2.432528   -0.482200
     12          6           0       -2.991921   -1.153687   -0.029913
     13          6           0       -3.687148    0.046944    0.068155
     14          6           0       -2.957476    1.239871    0.003536
     15          6           0       -1.565763    1.180785   -0.073708
     16          9           0       -0.990085    2.374854   -0.330363
     17          1           0        1.025003    3.293803   -0.276811
     18          1           0        0.524646    2.601608    1.291832
     19          1           0        2.241738    2.979032    0.991992
     20          1           0        3.585928    1.927731   -0.444509
     21          1           0        4.646964   -0.315935   -0.796049
     22          1           0        3.290722   -2.359279   -0.024958
     23          1           0       -0.240786   -2.603274   -0.145478
     24          1           0       -3.509686   -2.121758   -0.084797
     25          1           0       -4.785003    0.059479    0.141861
     26          1           0       -3.431884    2.230020   -0.043858
 ---------------------------------------------------------------------
                    Distance matrix (angstroms):
                    1          2          3          4          5
     1  C    0.000000
     2  C    1.521731   0.000000
     3  C    2.445207   1.413402   0.000000
     4  C    3.763209   2.479937   1.398377   0.000000
     5  C    4.279918   2.824200   2.384221   1.397169   0.000000
     6  C    3.786377   2.373881   2.698095   2.394516   1.392770
     7  F    4.910882   3.632411   4.052352   3.599283   2.316597
     8  C    2.667572   1.458181   2.480761   2.916461   2.525265
     9  C    3.357099   2.660427   3.889474   4.388314   3.860177
    10  C    4.813690   3.994990   5.071207   5.274583   4.435506
    11  O    5.680409   4.580568   5.375055   5.223464   4.156465
    12  C    5.732526   5.172089   6.358013   6.664673   5.849280
    13  C    5.629812   5.429515   6.746134   7.306324   6.691550
    14  C    4.511166   4.579960   5.948250   6.731184   6.364942
    15  C    3.262058   3.189359   4.553171   5.364146   5.095056
    16  F    2.468485   2.893224   4.192988   5.273773   5.359788
    17  H    1.106578   2.214561   3.000550   4.365835   4.997853
    18  H    1.103161   2.196239   3.346845   4.541935   4.802895
    19  H    1.108779   2.132283   2.485756   3.787029   4.515787
    20  H    2.554204   2.152197   1.101811   2.159138   3.379204
    21  H    4.611347   3.474092   2.183610   1.099953   2.180684
    22  H    5.354333   3.915638   3.404270   2.200823   1.099487
    23  H    5.460278   4.222861   4.846095   4.521331   3.336424
    24  H    6.770176   6.104605   7.209596   7.360685   6.409024
    25  H    6.615192   6.505841   7.835102   8.406332   7.772465
    26  H    4.795219   5.161800   6.529247   7.456256   7.236052
                    6          7          8          9         10
     6  C    0.000000
     7  F    1.384082   0.000000
     8  C    1.431133   2.437997   0.000000
     9  C    2.566076   2.967152   1.505367   0.000000
    10  C    3.110686   2.909105   2.633953   1.460480   0.000000
    11  O    3.017638   2.456183   3.146295   2.511108   1.351692
    12  C    4.510363   4.186302   3.917764   2.512033   1.416796
    13  C    5.344012   5.247196   4.431623   2.928303   2.457743
    14  C    5.087225   5.331709   3.898560   2.524875   2.806677
    15  C    3.890048   4.382591   2.590193   1.435176   2.383097
    16  F    4.381775   5.186571   2.953819   2.414553   3.630098
    17  H    4.527933   5.698492   3.305662   3.760506   5.197431
    18  H    4.055617   4.946682   2.860107   3.169535   4.573767
    19  H    4.295004   5.440741   3.439408   4.340658   5.774383
    20  H    3.794650   5.137290   3.462937   4.777865   6.047560
    21  H    3.405251   4.490634   4.014062   5.477027   6.324209
    22  H    2.146861   2.483512   3.486304   4.686221   5.007196
    23  H    2.285264   1.546711   2.810962   2.657002   1.938419
    24  H    5.117502   4.547595   4.765507   3.473344   2.138727
    25  H    6.418272   6.234793   5.529848   4.027644   3.455388
    26  H    6.011849   6.358428   4.726807   3.482896   3.900561
                   11         12         13         14         15
    11  O    0.000000
    12  C    2.291772   0.000000
    13  C    3.593704   1.390854   0.000000
    14  C    4.124149   2.394040   1.399882   0.000000
    15  C    3.660627   2.735984   2.409563   1.395107   0.000000
    16  F    4.812264   4.067951   3.584987   2.295715   1.350214
    17  H    6.127043   5.998066   5.732840   4.489696   3.349352
    18  H    5.592533   5.311826   5.075717   3.954644   2.872846
    19  H    6.551808   6.746469   6.678495   5.570777   4.343555
    20  H    6.433671   7.275652   7.529795   6.594697   5.218749
    21  H    6.174289   7.722781   8.386654   7.803037   6.431168
    22  H    4.459530   6.397271   7.381683   7.210733   6.009982
    23  H    0.979591   3.111816   4.352782   4.708755   4.009965
    24  H    2.418193   1.099206   2.181320   3.407828   3.832200
    25  H    4.455486   2.171733   1.100398   2.179980   3.415744
    26  H    5.211785   3.412219   2.200801   1.098956   2.141073
                   16         17         18         19         20
    16  F    0.000000
    17  H    2.215381   0.000000
    18  H    2.230996   1.786094   0.000000
    19  H    3.543773   1.785885   1.783468   0.000000
    20  H    4.599221   2.907337   3.583356   2.230609   0.000000
    21  H    6.263667   5.139885   5.464871   4.454101   2.506674
    22  H    6.389882   6.095428   5.830567   5.534630   4.317595
    23  H    5.037598   6.032826   5.453672   6.214411   5.938279
    24  H    5.160253   7.066015   6.362478   7.762500   8.177743
    25  H    4.470499   6.662755   5.998102   7.656474   8.596899
    26  H    2.462813   4.588000   4.192407   5.815840   7.035736
                   21         22         23         24         25
    21  H    0.000000
    22  H    2.570842   0.000000
    23  H    5.435555   3.541978   0.000000
    24  H    8.384379   6.804817   3.304731   0.000000
    25  H    9.485917   8.431818   5.274725   2.536850   0.000000
    26  H    8.503850   8.139745   5.792596   4.352666   2.564502
                   26
    26  H    0.000000
 Stoichiometry    C13H10F2O
 Framework group  C1[X(C13H10F2O)]
 Deg. of freedom    72
 Full point group                 C1      NOp   1
 Largest Abelian subgroup         C1      NOp   1
 Largest concise Abelian subgroup C1      NOp   1
                         Standard orientation:                         
 ---------------------------------------------------------------------
 Center     Atomic      Atomic             Coordinates (Angstroms)
 Number     Number       Type             X           Y           Z
 ---------------------------------------------------------------------
      1          6           0        1.313488    2.586134    0.545530
      2          6           0        1.619674    1.184624    0.037903
      3          6           0        2.974135    1.019862   -0.330871
      4          6           0        3.589958   -0.225308   -0.491398
      5          6           0        2.851138   -1.351953   -0.121404
      6          6           0        1.509613   -1.180358    0.211276
      7          9           0        0.945650   -2.304931    0.788306
      8          6           0        0.742077    0.021138    0.087029
      9          6           0       -0.761911   -0.001039    0.026524
     10          6           0       -1.581708   -1.198919   -0.134782
     11          8           0       -1.146536   -2.427623   -0.492529
     12          6           0       -2.994047   -1.151842   -0.032850
     13          6           0       -3.689440    0.048075    0.072509
     14          6           0       -2.959879    1.241463    0.015611
     15          6           0       -1.568133    1.183014   -0.061539
     16          9           0       -0.992502    2.378730   -0.310514
     17          1           0        1.022466    3.297543   -0.250533
     18          1           0        0.521665    2.595476    1.313575
     19          1           0        2.238814    2.974959    1.016677
     20          1           0        3.583597    1.932827   -0.425939
     21          1           0        4.644998   -0.308476   -0.791181
     22          1           0        3.288726   -2.356760   -0.033363
     23          1           0       -0.242714   -2.600378   -0.156584
     24          1           0       -3.511687   -2.119607   -0.093973
     25          1           0       -4.787321    0.060029    0.145928
     26          1           0       -3.434381    2.231838   -0.025734
 ---------------------------------------------------------------------
 Rotational constants (GHZ):           0.8392982           0.4707249           0.3127996
 Standard basis: def2SVP (5D, 7F)
 There are   290 symmetry adapted cartesian basis functions of A   symmetry.
 There are   274 symmetry adapted basis functions of A   symmetry.
   274 basis functions,   470 primitive gaussians,   290 cartesian basis functions
    57 alpha electrons       57 beta electrons
       nuclear repulsion energy      1069.5571703237 Hartrees.
 NAtoms=   26 NActive=   26 NUniq=   26 SFac= 1.00D+00 NAtFMM=   60 NAOKFM=F Big=F
 Integral buffers will be    131072 words long.
 Raffenetti 2 integral format.
 Two-electron integral symmetry is turned on.
 Nuclear repulsion after empirical dispersion term =     1069.5056208828 Hartrees.
 One-electron integrals computed using PRISM.
   1 Symmetry operations used in ECPInt.
 ECPInt:  NShTT=    8001 NPrTT=   29641 LenC2=    7591 LenP2D=   20283.
 LDataN:  DoStor=T MaxTD1= 4 Len=   56
 NBasis=   274 RedAO= T EigKep=  3.15D-04  NBF=   274
 NBsUse=   274 1.00D-06 EigRej= -1.00D+00 NBFU=   274
 Initial guess from the checkpoint file:  "/scratch/gaussian_tmp/Gau-3600660.chk"
 B after Tr=     0.000000   -0.000000   -0.000000
         Rot=    1.000000   -0.000831   -0.000039    0.000033 Ang=  -0.10 deg.
 ExpMin= 1.22D-01 ExpMax= 2.89D+03 ExpMxC= 4.35D+02 IAcc=3 IRadAn=         5 AccDes= 0.00D+00
 Harris functional with IExCor=  404 and IRadAn=       5 diagonalized for initial guess.
 HarFok:  IExCor=  404 AccDes= 0.00D+00 IRadAn=         5 IDoV= 1 UseB2=F ITyADJ=14
 ICtDFT=  3500011 ScaDFX=  1.000000  1.000000  1.000000  1.000000
 FoFCou: FMM=F IPFlag=           0 FMFlag=      100000 FMFlg1=           0
         NFxFlg=           0 DoJE=T BraDBF=F KetDBF=T FulRan=T
         wScrn=  0.000000 ICntrl=       500 IOpCl=  0 I1Cent=   200000004 NGrid=           0
         NMat0=    1 NMatS0=      1 NMatT0=    0 NMatD0=    1 NMtDS0=    0 NMtDT0=    0
 Petite list used in FoFCou.
 Requested convergence on RMS density matrix=1.00D-08 within 128 cycles.
 Requested convergence on MAX density matrix=1.00D-06.
 Requested convergence on             energy=1.00D-06.
 No special actions if energy rises.
 Integral accuracy reduced to 1.0D-05 until final iterations.
 Initial convergence to 1.0D-05 achieved.  Increase integral accuracy.
 SCF Done:  E(RB-P86) =  -775.751000325     A.U. after   12 cycles
            NFock= 12  Conv=0.39D-08     -V/T= 2.0104
 DoSCS=F DFT=T ScalE2(SS,OS)=  1.000000  1.000000
 Range of M.O.s used for correlation:     1   274
 NBasis=   274 NAE=    57 NBE=    57 NFC=     0 NFV=     0
 NROrb=    274 NOA=    57 NOB=    57 NVA=   217 NVB=   217

 **** Warning!!: The largest alpha MO coefficient is  0.10079431D+02

 Symmetrizing basis deriv contribution to polar:
 IMax=3 JMax=2 DiffMx= 0.00D+00
   1 Symmetry operations used in ECPInt.
 ECPInt:  NShTT=    8001 NPrTT=   29641 LenC2=    7591 LenP2D=   20283.
 LDataN:  DoStor=T MaxTD1= 5 Len=  102
 Calling FoFJK, ICntrl=      2527 FMM=F ISym2X=0 I1Cent= 0 IOpClX= 0 NMat=1 NMatS=1 NMatT=0.
 ***** Axes restored to original set *****
 -------------------------------------------------------------------
 Center     Atomic                   Forces (Hartrees/Bohr)
 Number     Number              X              Y              Z
 -------------------------------------------------------------------
      1        6          -0.000082587   -0.000024555   -0.000050828
      2        6           0.000004923   -0.000006997   -0.000003186
      3        6           0.000007610    0.000007287    0.000002279
      4        6          -0.000000870   -0.000000582    0.000006128
      5        6           0.000003488    0.000000513   -0.000000448
      6        6          -0.000017380   -0.000017899    0.000022440
      7        9          -0.000051036    0.000000844   -0.000046041
      8        6           0.000015331   -0.000006727   -0.000014511
      9        6          -0.000013348   -0.000004422    0.000011066
     10        6           0.000000500    0.000018253   -0.000003377
     11        8           0.000048915   -0.000019189    0.000016626
     12        6           0.000003737   -0.000003222   -0.000003137
     13        6          -0.000000267    0.000005041   -0.000001904
     14        6          -0.000004265   -0.000000834   -0.000005306
     15        6           0.000008739    0.000002521    0.000004675
     16        9           0.000133912    0.000048057    0.000070201
     17        1          -0.000030601   -0.000003683   -0.000016060
     18        1          -0.000028299   -0.000006529    0.000002425
     19        1          -0.000009643    0.000006654   -0.000001097
     20        1           0.000000571   -0.000003568   -0.000003094
     21        1          -0.000000041   -0.000000220   -0.000000894
     22        1          -0.000000529   -0.000000640   -0.000000816
     23        1           0.000012301    0.000008748    0.000014048
     24        1          -0.000001154    0.000000381   -0.000000647
     25        1           0.000000186    0.000000451    0.000000261
     26        1          -0.000000193    0.000000318    0.000001198
 -------------------------------------------------------------------
 Cartesian Forces:  Max     0.000133912 RMS     0.000024894

 GradGradGradGradGradGradGradGradGradGradGradGradGradGradGradGradGradGrad
 Berny optimization.
 FormGI is forming the generalized inverse of G from B-inverse, IUseBI=4.
 Internal  Forces:  Max     0.000310087 RMS     0.000066148
 Search for a saddle point.
 Step number   2 out of a maximum of  140
 All quantities printed in internal units (Hartrees-Bohrs-Radians)
 Swapping is turned off.
 Update second derivatives using D2CorX and points    1    2
 ITU=  0  0
     Eigenvalues ---   -0.02491   0.00346   0.00703   0.01085   0.01437
     Eigenvalues ---    0.01567   0.01580   0.01624   0.01706   0.01754
     Eigenvalues ---    0.01835   0.02127   0.02158   0.02258   0.02318
     Eigenvalues ---    0.02591   0.02843   0.02906   0.03031   0.03899
     Eigenvalues ---    0.05172   0.05480   0.05643   0.09870   0.09908
     Eigenvalues ---    0.10617   0.10813   0.10990   0.11146   0.11592
     Eigenvalues ---    0.13162   0.14024   0.14708   0.16255   0.16435
     Eigenvalues ---    0.17024   0.17588   0.17860   0.18147   0.18673
     Eigenvalues ---    0.19473   0.19679   0.22769   0.25339   0.26561
     Eigenvalues ---    0.27382   0.29344   0.31505   0.32342   0.32819
     Eigenvalues ---    0.33061   0.33632   0.34036   0.34363   0.34503
     Eigenvalues ---    0.34533   0.34805   0.34905   0.35023   0.35775
     Eigenvalues ---    0.39977   0.40436   0.43596   0.44731   0.45893
     Eigenvalues ---    0.46369   0.47562   0.49122   0.49435   0.51364
     Eigenvalues ---    0.88730   2.27570
 Eigenvectors required to have negative eigenvalues:
                          D31       D32       D33       D34       D43
   1                    0.45594   0.44410   0.38832   0.37648  -0.16894
                          D40       D6        D2        D4        D44
   1                    0.15966  -0.15766  -0.15764  -0.14654  -0.14593
 RFO step:  Lambda0=1.368118158D-07 Lambda=-7.17591448D-07.
 Linear search not attempted -- option 19 set.
 Iteration  1 RMS(Cart)=  0.00116746 RMS(Int)=  0.00000036
 Iteration  2 RMS(Cart)=  0.00000050 RMS(Int)=  0.00000001
 Variable       Old X    -DE/DX   Delta X   Delta X   Delta X     New X
                                 (Linear)    (Quad)   (Total)
    R1        2.87565  -0.00002   0.00000  -0.00005  -0.00005   2.87561
    R2        2.09113   0.00002   0.00000  -0.00001  -0.00001   2.09112
    R3        2.08467   0.00002   0.00000   0.00002   0.00002   2.08469
    R4        2.09529  -0.00001   0.00000   0.00001   0.00001   2.09530
    R5        2.67094  -0.00000   0.00000  -0.00001  -0.00001   2.67093
    R6        2.75556  -0.00016   0.00000  -0.00004  -0.00004   2.75552
    R7        2.64255   0.00004   0.00000  -0.00001  -0.00001   2.64254
    R8        2.08212  -0.00000   0.00000  -0.00001  -0.00001   2.08211
    R9        2.64027   0.00005   0.00000  -0.00000  -0.00000   2.64026
   R10        2.07861   0.00000   0.00000   0.00000   0.00000   2.07861
   R11        2.63195   0.00001   0.00000   0.00001   0.00001   2.63197
   R12        2.07773   0.00000   0.00000  -0.00000  -0.00000   2.07773
   R13        2.61554   0.00000   0.00000  -0.00000  -0.00000   2.61554
   R14        2.70445  -0.00006   0.00000  -0.00003  -0.00003   2.70442
   R15        2.84473  -0.00019   0.00000   0.00006   0.00006   2.84479
   R16        2.75991  -0.00009   0.00000  -0.00004  -0.00004   2.75987
   R17        2.71209  -0.00009   0.00000   0.00003   0.00003   2.71212
   R18        2.55433   0.00002   0.00000  -0.00007  -0.00007   2.55425
   R19        2.67736   0.00000   0.00000   0.00003   0.00003   2.67739
   R20        1.85116   0.00002   0.00000   0.00002   0.00002   1.85118
   R21        2.62833   0.00005   0.00000  -0.00002  -0.00002   2.62832
   R22        2.07720   0.00000   0.00000   0.00000   0.00000   2.07720
   R23        2.64539   0.00005   0.00000   0.00001   0.00001   2.64540
   R24        2.07945  -0.00000   0.00000   0.00000   0.00000   2.07945
   R25        2.63637  -0.00000   0.00000  -0.00001  -0.00001   2.63636
   R26        2.07673   0.00000   0.00000  -0.00000  -0.00000   2.07672
   R27        2.55153   0.00009   0.00000   0.00004   0.00004   2.55157
    A1        1.98782  -0.00002   0.00000  -0.00007  -0.00007   1.98775
    A2        1.96543  -0.00002   0.00000   0.00001   0.00001   1.96545
    A3        1.87214   0.00003   0.00000   0.00002   0.00002   1.87216
    A4        1.88246  -0.00000   0.00000   0.00005   0.00005   1.88251
    A5        1.87519   0.00001   0.00000   0.00002   0.00002   1.87521
    A6        1.87571   0.00001   0.00000  -0.00004  -0.00004   1.87567
    A7        1.96841   0.00023   0.00000   0.00010   0.00010   1.96851
    A8        2.21747  -0.00021   0.00000  -0.00019  -0.00019   2.21728
    A9        2.08578  -0.00001   0.00000   0.00011   0.00011   2.08590
   A10        2.16009  -0.00005   0.00000  -0.00008  -0.00008   2.16001
   A11        2.04429   0.00003   0.00000   0.00006   0.00006   2.04435
   A12        2.07638   0.00002   0.00000   0.00003   0.00003   2.07641
   A13        2.04289   0.00003   0.00000   0.00004   0.00004   2.04293
   A14        2.11884  -0.00001   0.00000   0.00000   0.00000   2.11884
   A15        2.11579  -0.00001   0.00000  -0.00002  -0.00002   2.11577
   A16        2.06377  -0.00001   0.00000   0.00006   0.00006   2.06383
   A17        2.15039   0.00001   0.00000  -0.00002  -0.00002   2.15037
   A18        2.06783   0.00001   0.00000  -0.00004  -0.00004   2.06779
   A19        1.97355   0.00009   0.00000  -0.00010  -0.00010   1.97345
   A20        2.21340  -0.00008   0.00000  -0.00004  -0.00004   2.21336
   A21        2.09416  -0.00001   0.00000   0.00014   0.00014   2.09430
   A22        1.92839   0.00014   0.00000   0.00006   0.00006   1.92845
   A23        2.22899  -0.00031   0.00000  -0.00044  -0.00044   2.22855
   A24        2.12580   0.00017   0.00000   0.00038   0.00038   2.12618
   A25        2.18625   0.00010   0.00000   0.00026   0.00026   2.18650
   A26        2.15503  -0.00024   0.00000  -0.00031  -0.00031   2.15471
   A27        1.93326   0.00014   0.00000   0.00006   0.00006   1.93332
   A28        2.20692  -0.00005   0.00000   0.00008   0.00008   2.20701
   A29        2.12275  -0.00006   0.00000  -0.00003  -0.00003   2.12272
   A30        1.95000   0.00011   0.00000  -0.00003  -0.00003   1.94997
   A31        1.94613  -0.00003   0.00000   0.00001   0.00001   1.94615
   A32        2.13237  -0.00002   0.00000   0.00002   0.00002   2.13239
   A33        2.02215   0.00001   0.00000  -0.00001  -0.00001   2.02214
   A34        2.12742   0.00001   0.00000  -0.00001  -0.00001   2.12741
   A35        2.06215   0.00003   0.00000   0.00003   0.00003   2.06218
   A36        2.10977  -0.00001   0.00000  -0.00002  -0.00002   2.10975
   A37        2.10996  -0.00001   0.00000  -0.00001  -0.00001   2.10995
   A38        2.07880  -0.00003   0.00000  -0.00003  -0.00003   2.07877
   A39        2.14691   0.00002   0.00000   0.00001   0.00001   2.14692
   A40        2.05602   0.00001   0.00000   0.00003   0.00003   2.05605
   A41        2.20381  -0.00005   0.00000   0.00002   0.00002   2.20383
   A42        2.09722  -0.00010   0.00000  -0.00004  -0.00004   2.09718
   A43        1.98056   0.00015   0.00000   0.00002   0.00002   1.98058
    D1        1.54996   0.00001   0.00000  -0.00046  -0.00046   1.54950
    D2       -1.75670   0.00004   0.00000  -0.00023  -0.00023  -1.75693
    D3       -2.58268  -0.00003   0.00000  -0.00043  -0.00043  -2.58312
    D4        0.39385   0.00000   0.00000  -0.00020  -0.00020   0.39364
    D5       -0.52260  -0.00001   0.00000  -0.00045  -0.00045  -0.52306
    D6        2.45393   0.00002   0.00000  -0.00022  -0.00022   2.45371
    D7        2.83959   0.00004   0.00000   0.00031   0.00031   2.83990
    D8       -0.22629   0.00002   0.00000   0.00019   0.00019  -0.22610
    D9       -0.15075   0.00003   0.00000   0.00013   0.00013  -0.15061
   D10        3.06656   0.00002   0.00000   0.00001   0.00001   3.06657
   D11       -2.60169  -0.00009   0.00000  -0.00061  -0.00061  -2.60230
   D12        0.53666  -0.00008   0.00000  -0.00069  -0.00069   0.53597
   D13        0.36494  -0.00003   0.00000  -0.00037  -0.00037   0.36457
   D14       -2.77990  -0.00003   0.00000  -0.00045  -0.00045  -2.78035
   D15       -0.12547   0.00002   0.00000   0.00018   0.00018  -0.12529
   D16        3.12900  -0.00001   0.00000  -0.00001  -0.00001   3.12899
   D17        2.93910   0.00004   0.00000   0.00030   0.00030   2.93940
   D18       -0.08962   0.00001   0.00000   0.00012   0.00012  -0.08950
   D19        0.14338  -0.00003   0.00000  -0.00019  -0.00019   0.14319
   D20       -2.94476  -0.00003   0.00000  -0.00025  -0.00025  -2.94502
   D21       -3.11088  -0.00000   0.00000  -0.00001  -0.00001  -3.11088
   D22        0.08417  -0.00000   0.00000  -0.00007  -0.00007   0.08410
   D23       -2.94969  -0.00002   0.00000  -0.00014  -0.00014  -2.94983
   D24        0.12194  -0.00002   0.00000  -0.00012  -0.00012   0.12183
   D25        0.14103  -0.00002   0.00000  -0.00008  -0.00008   0.14095
   D26       -3.07053  -0.00002   0.00000  -0.00005  -0.00005  -3.07058
   D27       -0.36982   0.00004   0.00000   0.00041   0.00041  -0.36941
   D28        2.77480   0.00003   0.00000   0.00048   0.00048   2.77528
   D29        2.69745   0.00005   0.00000   0.00043   0.00043   2.69788
   D30       -0.44112   0.00004   0.00000   0.00050   0.00050  -0.44061
   D31        2.96066  -0.00004   0.00000   0.00114   0.00114   2.96180
   D32       -0.02675  -0.00006   0.00000   0.00114   0.00114  -0.02562
   D33       -0.18451  -0.00003   0.00000   0.00105   0.00105  -0.18346
   D34        3.11126  -0.00005   0.00000   0.00105   0.00105   3.11231
   D35       -0.22257   0.00004   0.00000   0.00050   0.00050  -0.22207
   D36        3.01659   0.00004   0.00000   0.00026   0.00026   3.01685
   D37        2.78159   0.00003   0.00000   0.00047   0.00047   2.78206
   D38       -0.26244   0.00002   0.00000   0.00023   0.00023  -0.26220
   D39       -3.01989  -0.00001   0.00000  -0.00028  -0.00028  -3.02017
   D40        0.18653  -0.00005   0.00000  -0.00038  -0.00038   0.18614
   D41        0.25621  -0.00002   0.00000  -0.00030  -0.00030   0.25591
   D42       -2.82056  -0.00007   0.00000  -0.00041  -0.00041  -2.82096
   D43        0.57287   0.00000   0.00000  -0.00195  -0.00195   0.57092
   D44       -2.65813   0.00000   0.00000  -0.00173  -0.00173  -2.65986
   D45        0.13100  -0.00002   0.00000  -0.00004  -0.00004   0.13096
   D46       -3.06330  -0.00001   0.00000  -0.00002  -0.00002  -3.06332
   D47       -2.92614  -0.00002   0.00000  -0.00025  -0.00025  -2.92639
   D48        0.16274  -0.00001   0.00000  -0.00023  -0.00023   0.16251
   D49        0.04954  -0.00002   0.00000  -0.00012  -0.00012   0.04942
   D50        3.13667   0.00001   0.00000  -0.00004  -0.00004   3.13663
   D51       -3.03619  -0.00002   0.00000  -0.00014  -0.00014  -3.03633
   D52        0.05095   0.00000   0.00000  -0.00007  -0.00007   0.05088
   D53       -0.06726   0.00002   0.00000   0.00006   0.00006  -0.06720
   D54        3.01515   0.00003   0.00000   0.00016   0.00016   3.01531
   D55        3.12880  -0.00001   0.00000  -0.00002  -0.00002   3.12878
   D56       -0.07198   0.00001   0.00000   0.00008   0.00008  -0.07189
   D57       -0.10137   0.00002   0.00000   0.00018   0.00018  -0.10119
   D58        2.97912   0.00005   0.00000   0.00028   0.00028   2.97939
   D59        3.09632   0.00000   0.00000   0.00008   0.00008   3.09641
   D60       -0.10637   0.00004   0.00000   0.00018   0.00018  -0.10619
         Item               Value     Threshold  Converged?
 Maximum Force            0.000310     0.000450     YES
 RMS     Force            0.000066     0.000300     YES
 Maximum Displacement     0.003896     0.001800     NO 
 RMS     Displacement     0.001167     0.001200     YES
 Predicted change in Energy=-2.903894D-07
 GradGradGradGradGradGradGradGradGradGradGradGradGradGradGradGradGradGrad

                          Input orientation:                          
 ---------------------------------------------------------------------
 Center     Atomic      Atomic             Coordinates (Angstroms)
 Number     Number       Type             X           Y           Z
 ---------------------------------------------------------------------
      1          6           0        1.315073    2.586721    0.523896
      2          6           0        1.621875    1.182294    0.024854
      3          6           0        2.976332    1.015801   -0.343134
      4          6           0        3.592433   -0.230140   -0.496412
      5          6           0        2.853898   -1.354812   -0.119905
      6          6           0        1.512369   -1.181687    0.211993
      7          9           0        0.948858   -2.303241    0.795309
      8          6           0        0.744582    0.018929    0.081139
      9          6           0       -0.759469   -0.003268    0.021509
     10          6           0       -1.579952   -1.201786   -0.131157
     11          8           0       -1.145632   -2.433266   -0.480138
     12          6           0       -2.992251   -1.153179   -0.029137
     13          6           0       -3.686940    0.047825    0.068057
     14          6           0       -2.956748    1.240403    0.002775
     15          6           0       -1.565062    1.180630   -0.074299
     16          9           0       -0.988754    2.374343   -0.331300
     17          1           0        1.024037    3.293139   -0.276586
     18          1           0        0.523046    2.600453    1.291680
     19          1           0        2.240131    2.978736    0.992938
     20          1           0        3.585506    1.928354   -0.443774
     21          1           0        4.647451   -0.314817   -0.795852
     22          1           0        3.291714   -2.359013   -0.026266
     23          1           0       -0.241193   -2.603549   -0.144564
     24          1           0       -3.510457   -2.121054   -0.083336
     25          1           0       -4.784796    0.060884    0.141672
     26          1           0       -3.430718    2.230733   -0.045173
 ---------------------------------------------------------------------
                    Distance matrix (angstroms):
                    1          2          3          4          5
     1  C    0.000000
     2  C    1.521705   0.000000
     3  C    2.445263   1.413396   0.000000
     4  C    3.763257   2.479876   1.398372   0.000000
     5  C    4.279970   2.824135   2.384245   1.397167   0.000000
     6  C    3.786438   2.373904   2.698204   2.394565   1.392777
     7  F    4.911161   3.632562   4.052498   3.599274   2.316530
     8  C    2.667405   1.458160   2.480820   2.916480   2.525232
     9  C    3.356212   2.660144   3.889431   4.388481   3.860452
    10  C    4.812800   3.994981   5.071720   5.275516   4.436504
    11  O    5.680090   4.581090   5.376376   5.225255   4.158013
    12  C    5.731121   5.171800   6.358227   6.665464   5.850330
    13  C    5.627959   5.428850   6.745758   7.306515   6.692181
    14  C    4.509168   4.579046   5.947398   6.730785   6.365045
    15  C    3.260384   3.188479   4.552328   5.363600   5.094875
    16  F    2.466593   2.891921   4.191381   5.272368   5.358848
    17  H    1.106571   2.214485   3.000359   4.365602   4.997638
    18  H    1.103172   2.196235   3.346991   4.542099   4.803078
    19  H    1.108787   2.132283   2.486000   3.787317   4.516057
    20  H    2.554349   2.152223   1.101805   2.159147   3.379248
    21  H    4.611442   3.474048   2.183606   1.099953   2.180671
    22  H    5.354444   3.915588   3.404297   2.200811   1.099487
    23  H    5.459643   4.222834   4.846812   4.522560   3.337595
    24  H    6.768872   6.104478   7.210117   7.361877   6.410420
    25  H    6.613195   6.505124   7.834667   8.406534   7.773176
    26  H    4.793027   5.160701   6.528027   7.455479   7.235891
                    6          7          8          9         10
     6  C    0.000000
     7  F    1.384082   0.000000
     8  C    1.431118   2.438081   0.000000
     9  C    2.566361   2.967663   1.505397   0.000000
    10  C    3.111367   2.909711   2.634136   1.460460   0.000000
    11  O    3.018355   2.455719   3.146618   2.511108   1.351653
    12  C    4.511160   4.187445   3.917898   2.512007   1.416813
    13  C    5.344646   5.248527   4.431636   2.928287   2.457766
    14  C    5.087564   5.332849   3.898460   2.524897   2.806740
    15  C    3.890127   4.383305   2.590013   1.435191   2.383140
    16  F    4.381340   5.186846   2.953394   2.414556   3.630189
    17  H    4.527831   5.698603   3.305528   3.759794   5.196754
    18  H    4.055745   4.947111   2.859852   3.168207   4.572098
    19  H    4.295187   5.441114   3.439259   4.339772   5.773507
    20  H    3.794770   5.137473   3.462988   4.777704   6.047930
    21  H    3.405283   4.490569   4.014086   5.477219   6.325273
    22  H    2.146842   2.483359   3.486262   4.686566   5.008324
    23  H    2.285564   1.545887   2.810709   2.656624   1.938400
    24  H    5.118439   4.548703   4.765705   3.473320   2.138736
    25  H    6.418973   6.236274   5.529869   4.027631   3.455401
    26  H    6.012060   6.359561   4.726645   3.482927   3.900630
                   11         12         13         14         15
    11  O    0.000000
    12  C    2.291730   0.000000
    13  C    3.593686   1.390845   0.000000
    14  C    4.124221   2.394058   1.399887   0.000000
    15  C    3.660720   2.735978   2.409540   1.395100   0.000000
    16  F    4.812471   4.068012   3.585022   2.295742   1.350234
    17  H    6.127040   5.996795   5.730982   4.487585   3.347693
    18  H    5.591257   5.309579   5.073179   3.952212   2.870886
    19  H    6.551573   6.745012   6.676512   5.568642   4.341851
    20  H    6.434960   7.275621   7.529066   6.593464   5.217657
    21  H    6.176351   7.723714   8.386890   7.802587   6.430576
    22  H    4.461116   6.398614   7.382641   7.211097   6.009963
    23  H    0.979600   3.112108   4.352949   4.708706   4.009685
    24  H    2.418125   1.099207   2.181307   3.407844   3.832201
    25  H    4.455440   2.171714   1.100398   2.179981   3.415723
    26  H    5.211882   3.412239   2.200809   1.098954   2.141084
                   16         17         18         19         20
    16  F    0.000000
    17  H    2.213257   0.000000
    18  H    2.229512   1.786131   0.000000
    19  H    3.541834   1.785896   1.783459   0.000000
    20  H    4.597326   2.907183   3.583598   2.231027   0.000000
    21  H    6.262124   5.139661   5.465099   4.454487   2.506692
    22  H    6.389062   6.095231   5.830849   5.534995   4.317655
    23  H    5.037174   6.032343   5.452383   6.213918   5.938964
    24  H    5.160337   7.064876   6.360223   7.761153   8.178039
    25  H    4.470541   6.660702   5.995424   7.654287   8.596054
    26  H    2.462861   4.585532   4.190002   5.813408   7.034040
                   21         22         23         24         25
    21  H    0.000000
    22  H    2.570802   0.000000
    23  H    5.437031   3.543335   0.000000
    24  H    8.385800   6.806572   3.305244   0.000000
    25  H    9.486168   8.432919   5.274984   2.536813   0.000000
    26  H    8.502950   8.139854   5.792515   4.352685   2.564505
                   26
    26  H    0.000000
 Stoichiometry    C13H10F2O
 Framework group  C1[X(C13H10F2O)]
 Deg. of freedom    72
 Full point group                 C1      NOp   1
 Largest Abelian subgroup         C1      NOp   1
 Largest concise Abelian subgroup C1      NOp   1
                         Standard orientation:                         
 ---------------------------------------------------------------------
 Center     Atomic      Atomic             Coordinates (Angstroms)
 Number     Number       Type             X           Y           Z
 ---------------------------------------------------------------------
      1          6           0        1.311878    2.585719    0.546331
      2          6           0        1.619178    1.184574    0.038448
      3          6           0        2.973816    1.020720   -0.330054
      4          6           0        3.590243   -0.224087   -0.491043
      5          6           0        2.851797   -1.351296   -0.122026
      6          6           0        1.510099   -1.180578    0.210435
      7          9           0        0.946594   -2.305954    0.786347
      8          6           0        0.742110    0.020689    0.086948
      9          6           0       -0.761913   -0.001442    0.026576
     10          6           0       -1.582081   -1.199132   -0.134074
     11          8           0       -1.147360   -2.428266   -0.490743
     12          6           0       -2.994431   -1.151475   -0.032310
     13          6           0       -3.689414    0.048738    0.072277
     14          6           0       -2.959449    1.241862    0.014910
     15          6           0       -1.567719    1.182875   -0.061988
     16          9           0       -0.991562    2.378327   -0.311125
     17          1           0        1.021012    3.297177   -0.249736
     18          1           0        0.519542    2.594378    1.313870
     19          1           0        2.236666    2.974923    1.018239
     20          1           0        3.582836    1.934025   -0.424618
     21          1           0        4.645398   -0.306628   -0.790597
     22          1           0        3.289789   -2.355984   -0.034630
     23          1           0       -0.243019   -2.600500   -0.155901
     24          1           0       -3.512410   -2.119092   -0.092900
     25          1           0       -4.787301    0.061096    0.145536
     26          1           0       -3.433610    2.232379   -0.026899
 ---------------------------------------------------------------------
 Rotational constants (GHZ):           0.8393131           0.4707585           0.3127842
 Standard basis: def2SVP (5D, 7F)
 There are   290 symmetry adapted cartesian basis functions of A   symmetry.
 There are   274 symmetry adapted basis functions of A   symmetry.
   274 basis functions,   470 primitive gaussians,   290 cartesian basis functions
    57 alpha electrons       57 beta electrons
       nuclear repulsion energy      1069.5779776944 Hartrees.
 NAtoms=   26 NActive=   26 NUniq=   26 SFac= 1.00D+00 NAtFMM=   60 NAOKFM=F Big=F
 Integral buffers will be    131072 words long.
 Raffenetti 2 integral format.
 Two-electron integral symmetry is turned on.
 Nuclear repulsion after empirical dispersion term =     1069.5264264233 Hartrees.
 One-electron integrals computed using PRISM.
   1 Symmetry operations used in ECPInt.
 ECPInt:  NShTT=    8001 NPrTT=   29641 LenC2=    7591 LenP2D=   20283.
 LDataN:  DoStor=T MaxTD1= 4 Len=   56
 NBasis=   274 RedAO= T EigKep=  3.15D-04  NBF=   274
 NBsUse=   274 1.00D-06 EigRej= -1.00D+00 NBFU=   274
 Initial guess from the checkpoint file:  "/scratch/gaussian_tmp/Gau-3600660.chk"
 B after Tr=    -0.000000    0.000000   -0.000000
         Rot=    1.000000   -0.000044    0.000004   -0.000032 Ang=  -0.01 deg.
 Requested convergence on RMS density matrix=1.00D-08 within 128 cycles.
 Requested convergence on MAX density matrix=1.00D-06.
 Requested convergence on             energy=1.00D-06.
 No special actions if energy rises.
 SCF Done:  E(RB-P86) =  -775.751000676     A.U. after    8 cycles
            NFock=  8  Conv=0.66D-08     -V/T= 2.0104
 DoSCS=F DFT=T ScalE2(SS,OS)=  1.000000  1.000000
 Range of M.O.s used for correlation:     1   274
 NBasis=   274 NAE=    57 NBE=    57 NFC=     0 NFV=     0
 NROrb=    274 NOA=    57 NOB=    57 NVA=   217 NVB=   217

 **** Warning!!: The largest alpha MO coefficient is  0.10054888D+02

 Symmetrizing basis deriv contribution to polar:
 IMax=3 JMax=2 DiffMx= 0.00D+00
   1 Symmetry operations used in ECPInt.
 ECPInt:  NShTT=    8001 NPrTT=   29641 LenC2=    7591 LenP2D=   20283.
 LDataN:  DoStor=T MaxTD1= 5 Len=  102
 Calling FoFJK, ICntrl=      2527 FMM=F ISym2X=0 I1Cent= 0 IOpClX= 0 NMat=1 NMatS=1 NMatT=0.
 ***** Axes restored to original set *****
 -------------------------------------------------------------------
 Center     Atomic                   Forces (Hartrees/Bohr)
 Number     Number              X              Y              Z
 -------------------------------------------------------------------
      1        6          -0.000004075   -0.000002937    0.000003997
      2        6           0.000000728   -0.000000260   -0.000000564
      3        6           0.000001280   -0.000000893    0.000002266
      4        6          -0.000000116    0.000000050    0.000000062
      5        6          -0.000000315   -0.000000290    0.000000039
      6        6          -0.000001331   -0.000001269    0.000003086
      7        9          -0.000005546   -0.000000948   -0.000007570
      8        6           0.000000740    0.000000753   -0.000007649
      9        6          -0.000001937   -0.000000273    0.000005663
     10        6          -0.000001740    0.000003799   -0.000001229
     11        8           0.000005876   -0.000002274    0.000002584
     12        6           0.000001035   -0.000000289   -0.000000582
     13        6          -0.000000101    0.000001486   -0.000000114
     14        6          -0.000000782    0.000000043   -0.000000075
     15        6           0.000001745    0.000000335    0.000001494
     16        9           0.000006867    0.000001499   -0.000004187
     17        1          -0.000003041   -0.000000203    0.000000627
     18        1          -0.000000141   -0.000000607    0.000002109
     19        1           0.000000373    0.000000650   -0.000000805
     20        1           0.000000317   -0.000000448    0.000000641
     21        1           0.000000054   -0.000000346    0.000000483
     22        1          -0.000000341   -0.000000426   -0.000000192
     23        1           0.000000637    0.000001171    0.000001446
     24        1          -0.000000375    0.000000540   -0.000000945
     25        1          -0.000000037    0.000000632   -0.000000757
     26        1           0.000000227    0.000000506    0.000000172
 -------------------------------------------------------------------
 Cartesian Forces:  Max     0.000007649 RMS     0.000002301

 GradGradGradGradGradGradGradGradGradGradGradGradGradGradGradGradGradGrad
 Berny optimization.
 FormGI is forming the generalized inverse of G from B-inverse, IUseBI=4.
 Internal  Forces:  Max     0.000013698 RMS     0.000004082
 Search for a saddle point.
 Step number   3 out of a maximum of  140
 All quantities printed in internal units (Hartrees-Bohrs-Radians)
 Swapping is turned off.
 Update second derivatives using D2CorX and points    1    2    3
 ITU=  0  0  0
     Eigenvalues ---   -0.02867   0.00348   0.00748   0.01106   0.01445
     Eigenvalues ---    0.01569   0.01581   0.01624   0.01721   0.01754
     Eigenvalues ---    0.01963   0.02127   0.02162   0.02261   0.02342
     Eigenvalues ---    0.02601   0.02850   0.02924   0.03101   0.03948
     Eigenvalues ---    0.05166   0.05480   0.05591   0.09869   0.09907
     Eigenvalues ---    0.10616   0.10813   0.10990   0.11146   0.11592
     Eigenvalues ---    0.13162   0.14023   0.14708   0.16255   0.16435
     Eigenvalues ---    0.17023   0.17588   0.17858   0.18147   0.18672
     Eigenvalues ---    0.19470   0.19678   0.22767   0.25329   0.26563
     Eigenvalues ---    0.27382   0.29344   0.31502   0.32341   0.32819
     Eigenvalues ---    0.33061   0.33632   0.34036   0.34363   0.34503
     Eigenvalues ---    0.34532   0.34805   0.34905   0.35023   0.35775
     Eigenvalues ---    0.39978   0.40436   0.43596   0.44731   0.45893
     Eigenvalues ---    0.46368   0.47562   0.49122   0.49435   0.51363
     Eigenvalues ---    0.88423   2.27572
 Eigenvectors required to have negative eigenvalues:
                          D31       D32       D33       D34       D43
   1                    0.46046   0.45436   0.38964   0.38355  -0.18448
                          D44       D40       D6        D2        D42
   1                   -0.15623   0.15286  -0.14321  -0.14257   0.13803
 RFO step:  Lambda0=1.089184450D-08 Lambda=-1.33610097D-08.
 Linear search not attempted -- option 19 set.
 Iteration  1 RMS(Cart)=  0.00023178 RMS(Int)=  0.00000003
 Iteration  2 RMS(Cart)=  0.00000003 RMS(Int)=  0.00000000
 Variable       Old X    -DE/DX   Delta X   Delta X   Delta X     New X
                                 (Linear)    (Quad)   (Total)
    R1        2.87561   0.00000   0.00000  -0.00000  -0.00000   2.87560
    R2        2.09112   0.00000   0.00000  -0.00001  -0.00001   2.09111
    R3        2.08469   0.00000   0.00000   0.00001   0.00001   2.08470
    R4        2.09530  -0.00000   0.00000  -0.00000  -0.00000   2.09530
    R5        2.67093  -0.00000   0.00000   0.00000   0.00000   2.67093
    R6        2.75552  -0.00001   0.00000   0.00001   0.00001   2.75553
    R7        2.64254   0.00000   0.00000   0.00000   0.00000   2.64254
    R8        2.08211  -0.00000   0.00000  -0.00000  -0.00000   2.08211
    R9        2.64026   0.00000   0.00000  -0.00001  -0.00001   2.64026
   R10        2.07861   0.00000   0.00000  -0.00000  -0.00000   2.07861
   R11        2.63197   0.00000   0.00000   0.00000   0.00000   2.63197
   R12        2.07773   0.00000   0.00000  -0.00000  -0.00000   2.07773
   R13        2.61554  -0.00000   0.00000  -0.00001  -0.00001   2.61553
   R14        2.70442  -0.00001   0.00000  -0.00000  -0.00000   2.70442
   R15        2.84479  -0.00001   0.00000   0.00001   0.00001   2.84480
   R16        2.75987  -0.00001   0.00000  -0.00000  -0.00000   2.75987
   R17        2.71212  -0.00001   0.00000  -0.00001  -0.00001   2.71211
   R18        2.55425   0.00000   0.00000   0.00001   0.00001   2.55426
   R19        2.67739  -0.00000   0.00000  -0.00000  -0.00000   2.67739
   R20        1.85118   0.00000   0.00000  -0.00000  -0.00000   1.85117
   R21        2.62832   0.00000   0.00000   0.00000   0.00000   2.62832
   R22        2.07720  -0.00000   0.00000  -0.00000  -0.00000   2.07720
   R23        2.64540   0.00000   0.00000  -0.00000  -0.00000   2.64540
   R24        2.07945  -0.00000   0.00000   0.00000   0.00000   2.07945
   R25        2.63636   0.00000   0.00000   0.00000   0.00000   2.63636
   R26        2.07672   0.00000   0.00000   0.00000   0.00000   2.07672
   R27        2.55157   0.00000   0.00000  -0.00000  -0.00000   2.55157
    A1        1.98775  -0.00000   0.00000   0.00002   0.00002   1.98777
    A2        1.96545  -0.00000   0.00000  -0.00003  -0.00003   1.96541
    A3        1.87216   0.00000   0.00000   0.00002   0.00002   1.87218
    A4        1.88251  -0.00000   0.00000  -0.00001  -0.00001   1.88250
    A5        1.87521   0.00000   0.00000  -0.00000  -0.00000   1.87521
    A6        1.87567   0.00000   0.00000   0.00001   0.00001   1.87568
    A7        1.96851   0.00001   0.00000  -0.00000  -0.00000   1.96851
    A8        2.21728  -0.00001   0.00000   0.00001   0.00001   2.21729
    A9        2.08590  -0.00000   0.00000  -0.00000  -0.00000   2.08590
   A10        2.16001  -0.00000   0.00000   0.00001   0.00001   2.16002
   A11        2.04435   0.00000   0.00000  -0.00000  -0.00000   2.04435
   A12        2.07641   0.00000   0.00000  -0.00001  -0.00001   2.07641
   A13        2.04293   0.00000   0.00000   0.00000   0.00000   2.04293
   A14        2.11884  -0.00000   0.00000  -0.00000  -0.00000   2.11884
   A15        2.11577  -0.00000   0.00000   0.00000   0.00000   2.11577
   A16        2.06383  -0.00000   0.00000  -0.00000  -0.00000   2.06383
   A17        2.15037   0.00000   0.00000   0.00000   0.00000   2.15037
   A18        2.06779   0.00000   0.00000  -0.00000  -0.00000   2.06779
   A19        1.97345   0.00001   0.00000  -0.00001  -0.00001   1.97344
   A20        2.21336  -0.00001   0.00000   0.00001   0.00001   2.21337
   A21        2.09430  -0.00000   0.00000   0.00000   0.00000   2.09430
   A22        1.92845   0.00001   0.00000   0.00001   0.00001   1.92846
   A23        2.22855  -0.00001   0.00000   0.00004   0.00004   2.22859
   A24        2.12618   0.00000   0.00000  -0.00004  -0.00004   2.12613
   A25        2.18650  -0.00000   0.00000  -0.00002  -0.00002   2.18648
   A26        2.15471  -0.00001   0.00000   0.00003   0.00003   2.15474
   A27        1.93332   0.00001   0.00000  -0.00000  -0.00000   1.93331
   A28        2.20701  -0.00001   0.00000  -0.00001  -0.00001   2.20700
   A29        2.12272  -0.00000   0.00000   0.00000   0.00000   2.12272
   A30        1.94997   0.00001   0.00000   0.00000   0.00000   1.94997
   A31        1.94615  -0.00000   0.00000  -0.00001  -0.00001   1.94613
   A32        2.13239  -0.00000   0.00000  -0.00000  -0.00000   2.13239
   A33        2.02214   0.00000   0.00000   0.00000   0.00000   2.02214
   A34        2.12741   0.00000   0.00000   0.00000   0.00000   2.12741
   A35        2.06218   0.00000   0.00000  -0.00000  -0.00000   2.06217
   A36        2.10975  -0.00000   0.00000   0.00000   0.00000   2.10975
   A37        2.10995  -0.00000   0.00000   0.00000   0.00000   2.10995
   A38        2.07877  -0.00000   0.00000  -0.00000  -0.00000   2.07877
   A39        2.14692   0.00000   0.00000  -0.00000  -0.00000   2.14692
   A40        2.05605   0.00000   0.00000  -0.00000  -0.00000   2.05605
   A41        2.20383  -0.00000   0.00000  -0.00000  -0.00000   2.20383
   A42        2.09718  -0.00001   0.00000   0.00000   0.00000   2.09718
   A43        1.98058   0.00001   0.00000  -0.00000  -0.00000   1.98058
    D1        1.54950   0.00000   0.00000   0.00052   0.00052   1.55001
    D2       -1.75693   0.00000   0.00000   0.00055   0.00055  -1.75637
    D3       -2.58312   0.00000   0.00000   0.00049   0.00049  -2.58263
    D4        0.39364   0.00000   0.00000   0.00052   0.00052   0.39417
    D5       -0.52306   0.00000   0.00000   0.00049   0.00049  -0.52256
    D6        2.45371   0.00000   0.00000   0.00053   0.00053   2.45423
    D7        2.83990  -0.00000   0.00000   0.00008   0.00008   2.83998
    D8       -0.22610  -0.00000   0.00000   0.00004   0.00004  -0.22606
    D9       -0.15061   0.00000   0.00000   0.00004   0.00004  -0.15057
   D10        3.06657   0.00000   0.00000   0.00001   0.00001   3.06658
   D11       -2.60230  -0.00000   0.00000  -0.00011  -0.00011  -2.60241
   D12        0.53597  -0.00000   0.00000  -0.00023  -0.00023   0.53574
   D13        0.36457  -0.00000   0.00000  -0.00007  -0.00007   0.36450
   D14       -2.78035  -0.00000   0.00000  -0.00019  -0.00019  -2.78054
   D15       -0.12529   0.00000   0.00000   0.00001   0.00001  -0.12528
   D16        3.12899  -0.00000   0.00000  -0.00000  -0.00000   3.12899
   D17        2.93940   0.00000   0.00000   0.00005   0.00005   2.93945
   D18       -0.08950  -0.00000   0.00000   0.00003   0.00003  -0.08947
   D19        0.14319  -0.00000   0.00000  -0.00003  -0.00003   0.14316
   D20       -2.94502  -0.00000   0.00000  -0.00004  -0.00004  -2.94505
   D21       -3.11088  -0.00000   0.00000  -0.00002  -0.00002  -3.11090
   D22        0.08410  -0.00000   0.00000  -0.00002  -0.00002   0.08407
   D23       -2.94983  -0.00000   0.00000  -0.00004  -0.00004  -2.94987
   D24        0.12183  -0.00000   0.00000  -0.00000  -0.00000   0.12183
   D25        0.14095  -0.00000   0.00000  -0.00003  -0.00003   0.14091
   D26       -3.07058   0.00000   0.00000   0.00000   0.00000  -3.07057
   D27       -0.36941   0.00000   0.00000   0.00005   0.00005  -0.36936
   D28        2.77528   0.00000   0.00000   0.00016   0.00016   2.77544
   D29        2.69788   0.00001   0.00000   0.00009   0.00009   2.69798
   D30       -0.44061   0.00001   0.00000   0.00020   0.00020  -0.44041
   D31        2.96180   0.00001   0.00000  -0.00009  -0.00009   2.96171
   D32       -0.02562   0.00001   0.00000  -0.00009  -0.00009  -0.02570
   D33       -0.18346   0.00001   0.00000  -0.00022  -0.00022  -0.18368
   D34        3.11231   0.00001   0.00000  -0.00022  -0.00022   3.11210
   D35       -0.22207   0.00001   0.00000   0.00001   0.00001  -0.22206
   D36        3.01685   0.00000   0.00000  -0.00001  -0.00001   3.01684
   D37        2.78206   0.00000   0.00000   0.00001   0.00001   2.78207
   D38       -0.26220   0.00000   0.00000  -0.00002  -0.00002  -0.26222
   D39       -3.02017  -0.00000   0.00000   0.00002   0.00002  -3.02015
   D40        0.18614   0.00000   0.00000   0.00004   0.00004   0.18618
   D41        0.25591  -0.00000   0.00000   0.00003   0.00003   0.25594
   D42       -2.82096   0.00000   0.00000   0.00004   0.00004  -2.82092
   D43        0.57092  -0.00000   0.00000   0.00006   0.00006   0.57099
   D44       -2.65986   0.00000   0.00000   0.00008   0.00008  -2.65978
   D45        0.13096  -0.00000   0.00000  -0.00000  -0.00000   0.13096
   D46       -3.06332   0.00000   0.00000   0.00000   0.00000  -3.06331
   D47       -2.92639  -0.00000   0.00000  -0.00002  -0.00002  -2.92641
   D48        0.16251  -0.00000   0.00000  -0.00001  -0.00001   0.16250
   D49        0.04942  -0.00000   0.00000   0.00001   0.00001   0.04943
   D50        3.13663   0.00000   0.00000   0.00000   0.00000   3.13663
   D51       -3.03633  -0.00000   0.00000   0.00000   0.00000  -3.03633
   D52        0.05088  -0.00000   0.00000  -0.00001  -0.00001   0.05088
   D53       -0.06720   0.00000   0.00000   0.00000   0.00000  -0.06720
   D54        3.01531   0.00000   0.00000  -0.00001  -0.00001   3.01531
   D55        3.12878  -0.00000   0.00000   0.00001   0.00001   3.12879
   D56       -0.07189  -0.00000   0.00000  -0.00000  -0.00000  -0.07189
   D57       -0.10119   0.00000   0.00000  -0.00003  -0.00003  -0.10122
   D58        2.97939  -0.00000   0.00000  -0.00004  -0.00004   2.97936
   D59        3.09641   0.00000   0.00000  -0.00001  -0.00001   3.09639
   D60       -0.10619  -0.00000   0.00000  -0.00002  -0.00002  -0.10622
         Item               Value     Threshold  Converged?
 Maximum Force            0.000014     0.000450     YES
 RMS     Force            0.000004     0.000300     YES
 Maximum Displacement     0.001190     0.001800     YES
 RMS     Displacement     0.000232     0.001200     YES
 Predicted change in Energy=-1.234581D-09
 Optimization completed.
    -- Stationary point found.
                           ----------------------------
                           !   Optimized Parameters   !
                           ! (Angstroms and Degrees)  !
 --------------------------                            --------------------------
 ! Name  Definition              Value          Derivative Info.                !
 --------------------------------------------------------------------------------
 ! R1    R(1,2)                  1.5217         -DE/DX =    0.0                 !
 ! R2    R(1,17)                 1.1066         -DE/DX =    0.0                 !
 ! R3    R(1,18)                 1.1032         -DE/DX =    0.0                 !
 ! R4    R(1,19)                 1.1088         -DE/DX =    0.0                 !
 ! R5    R(2,3)                  1.4134         -DE/DX =    0.0                 !
 ! R6    R(2,8)                  1.4582         -DE/DX =    0.0                 !
 ! R7    R(3,4)                  1.3984         -DE/DX =    0.0                 !
 ! R8    R(3,20)                 1.1018         -DE/DX =    0.0                 !
 ! R9    R(4,5)                  1.3972         -DE/DX =    0.0                 !
 ! R10   R(4,21)                 1.1            -DE/DX =    0.0                 !
 ! R11   R(5,6)                  1.3928         -DE/DX =    0.0                 !
 ! R12   R(5,22)                 1.0995         -DE/DX =    0.0                 !
 ! R13   R(6,7)                  1.3841         -DE/DX =    0.0                 !
 ! R14   R(6,8)                  1.4311         -DE/DX =    0.0                 !
 ! R15   R(8,9)                  1.5054         -DE/DX =    0.0                 !
 ! R16   R(9,10)                 1.4605         -DE/DX =    0.0                 !
 ! R17   R(9,15)                 1.4352         -DE/DX =    0.0                 !
 ! R18   R(10,11)                1.3517         -DE/DX =    0.0                 !
 ! R19   R(10,12)                1.4168         -DE/DX =    0.0                 !
 ! R20   R(11,23)                0.9796         -DE/DX =    0.0                 !
 ! R21   R(12,13)                1.3908         -DE/DX =    0.0                 !
 ! R22   R(12,24)                1.0992         -DE/DX =    0.0                 !
 ! R23   R(13,14)                1.3999         -DE/DX =    0.0                 !
 ! R24   R(13,25)                1.1004         -DE/DX =    0.0                 !
 ! R25   R(14,15)                1.3951         -DE/DX =    0.0                 !
 ! R26   R(14,26)                1.099          -DE/DX =    0.0                 !
 ! R27   R(15,16)                1.3502         -DE/DX =    0.0                 !
 ! A1    A(2,1,17)             113.8896         -DE/DX =    0.0                 !
 ! A2    A(2,1,18)             112.6118         -DE/DX =    0.0                 !
 ! A3    A(2,1,19)             107.2671         -DE/DX =    0.0                 !
 ! A4    A(17,1,18)            107.8599         -DE/DX =    0.0                 !
 ! A5    A(17,1,19)            107.4416         -DE/DX =    0.0                 !
 ! A6    A(18,1,19)            107.4679         -DE/DX =    0.0                 !
 ! A7    A(1,2,3)              112.7873         -DE/DX =    0.0                 !
 ! A8    A(1,2,8)              127.0407         -DE/DX =    0.0                 !
 ! A9    A(3,2,8)              119.5131         -DE/DX =    0.0                 !
 ! A10   A(2,3,4)              123.7594         -DE/DX =    0.0                 !
 ! A11   A(2,3,20)             117.1325         -DE/DX =    0.0                 !
 ! A12   A(4,3,20)             118.9697         -DE/DX =    0.0                 !
 ! A13   A(3,4,5)              117.0515         -DE/DX =    0.0                 !
 ! A14   A(3,4,21)             121.4004         -DE/DX =    0.0                 !
 ! A15   A(5,4,21)             121.2245         -DE/DX =    0.0                 !
 ! A16   A(4,5,6)              118.2489         -DE/DX =    0.0                 !
 ! A17   A(4,5,22)             123.2072         -DE/DX =    0.0                 !
 ! A18   A(6,5,22)             118.4754         -DE/DX =    0.0                 !
 ! A19   A(5,6,7)              113.0704         -DE/DX =    0.0                 !
 ! A20   A(5,6,8)              126.8159         -DE/DX =    0.0                 !
 ! A21   A(7,6,8)              119.9945         -DE/DX =    0.0                 !
 ! A22   A(2,8,6)              110.4922         -DE/DX =    0.0                 !
 ! A23   A(2,8,9)              127.6865         -DE/DX =    0.0                 !
 ! A24   A(6,8,9)              121.821          -DE/DX =    0.0                 !
 ! A25   A(8,9,10)             125.2774         -DE/DX =    0.0                 !
 ! A26   A(8,9,15)             123.4558         -DE/DX =    0.0                 !
 ! A27   A(10,9,15)            110.7708         -DE/DX =    0.0                 !
 ! A28   A(9,10,11)            126.4522         -DE/DX =    0.0                 !
 ! A29   A(9,10,12)            121.6229         -DE/DX =    0.0                 !
 ! A30   A(11,10,12)           111.7248         -DE/DX =    0.0                 !
 ! A31   A(10,11,23)           111.506          -DE/DX =    0.0                 !
 ! A32   A(10,12,13)           122.177          -DE/DX =    0.0                 !
 ! A33   A(10,12,24)           115.8602         -DE/DX =    0.0                 !
 ! A34   A(13,12,24)           121.8914         -DE/DX =    0.0                 !
 ! A35   A(12,13,14)           118.154          -DE/DX =    0.0                 !
 ! A36   A(12,13,25)           120.88           -DE/DX =    0.0                 !
 ! A37   A(14,13,25)           120.8914         -DE/DX =    0.0                 !
 ! A38   A(13,14,15)           119.1047         -DE/DX =    0.0                 !
 ! A39   A(13,14,26)           123.0092         -DE/DX =    0.0                 !
 ! A40   A(15,14,26)           117.8032         -DE/DX =    0.0                 !
 ! A41   A(9,15,14)            126.2703         -DE/DX =    0.0                 !
 ! A42   A(9,15,16)            120.1594         -DE/DX =    0.0                 !
 ! A43   A(14,15,16)           113.479          -DE/DX =    0.0                 !
 ! D1    D(17,1,2,3)            88.7797         -DE/DX =    0.0                 !
 ! D2    D(17,1,2,8)          -100.6645         -DE/DX =    0.0                 !
 ! D3    D(18,1,2,3)          -148.0016         -DE/DX =    0.0                 !
 ! D4    D(18,1,2,8)            22.5542         -DE/DX =    0.0                 !
 ! D5    D(19,1,2,3)           -29.9688         -DE/DX =    0.0                 !
 ! D6    D(19,1,2,8)           140.587          -DE/DX =    0.0                 !
 ! D7    D(1,2,3,4)            162.7143         -DE/DX =    0.0                 !
 ! D8    D(1,2,3,20)           -12.9546         -DE/DX =    0.0                 !
 ! D9    D(8,2,3,4)             -8.6296         -DE/DX =    0.0                 !
 ! D10   D(8,2,3,20)           175.7015         -DE/DX =    0.0                 !
 ! D11   D(1,2,8,6)           -149.1007         -DE/DX =    0.0                 !
 ! D12   D(1,2,8,9)             30.7087         -DE/DX =    0.0                 !
 ! D13   D(3,2,8,6)             20.8883         -DE/DX =    0.0                 !
 ! D14   D(3,2,8,9)           -159.3022         -DE/DX =    0.0                 !
 ! D15   D(2,3,4,5)             -7.1787         -DE/DX =    0.0                 !
 ! D16   D(2,3,4,21)           179.2781         -DE/DX =    0.0                 !
 ! D17   D(20,3,4,5)           168.4155         -DE/DX =    0.0                 !
 ! D18   D(20,3,4,21)           -5.1278         -DE/DX =    0.0                 !
 ! D19   D(3,4,5,6)              8.2042         -DE/DX =    0.0                 !
 ! D20   D(3,4,5,22)          -168.7369         -DE/DX =    0.0                 !
 ! D21   D(21,4,5,6)          -178.2405         -DE/DX =    0.0                 !
 ! D22   D(21,4,5,22)            4.8184         -DE/DX =    0.0                 !
 ! D23   D(4,5,6,7)           -169.0128         -DE/DX =    0.0                 !
 ! D24   D(4,5,6,8)              6.9802         -DE/DX =    0.0                 !
 ! D25   D(22,5,6,7)             8.0757         -DE/DX =    0.0                 !
 ! D26   D(22,5,6,8)          -175.9313         -DE/DX =    0.0                 !
 ! D27   D(5,6,8,2)            -21.1657         -DE/DX =    0.0                 !
 ! D28   D(5,6,8,9)            159.0118         -DE/DX =    0.0                 !
 ! D29   D(7,6,8,2)            154.5773         -DE/DX =    0.0                 !
 ! D30   D(7,6,8,9)            -25.2452         -DE/DX =    0.0                 !
 ! D31   D(2,8,9,10)           169.6986         -DE/DX =    0.0                 !
 ! D32   D(2,8,9,15)            -1.4676         -DE/DX =    0.0                 !
 ! D33   D(6,8,9,10)           -10.5115         -DE/DX =    0.0                 !
 ! D34   D(6,8,9,15)           178.3223         -DE/DX =    0.0                 !
 ! D35   D(8,9,10,11)          -12.7235         -DE/DX =    0.0                 !
 ! D36   D(8,9,10,12)          172.8528         -DE/DX =    0.0                 !
 ! D37   D(15,9,10,11)         159.4005         -DE/DX =    0.0                 !
 ! D38   D(15,9,10,12)         -15.0232         -DE/DX =    0.0                 !
 ! D39   D(8,9,15,14)         -173.0432         -DE/DX =    0.0                 !
 ! D40   D(8,9,15,16)           10.6652         -DE/DX =    0.0                 !
 ! D41   D(10,9,15,14)          14.6623         -DE/DX =    0.0                 !
 ! D42   D(10,9,15,16)        -161.6292         -DE/DX =    0.0                 !
 ! D43   D(9,10,11,23)          32.7115         -DE/DX =    0.0                 !
 ! D44   D(12,10,11,23)       -152.3986         -DE/DX =    0.0                 !
 ! D45   D(9,10,12,13)           7.5037         -DE/DX =    0.0                 !
 ! D46   D(9,10,12,24)        -175.5151         -DE/DX =    0.0                 !
 ! D47   D(11,10,12,13)       -167.6699         -DE/DX =    0.0                 !
 ! D48   D(11,10,12,24)          9.3112         -DE/DX =    0.0                 !
 ! D49   D(10,12,13,14)          2.8313         -DE/DX =    0.0                 !
 ! D50   D(10,12,13,25)        179.7157         -DE/DX =    0.0                 !
 ! D51   D(24,12,13,14)       -173.969          -DE/DX =    0.0                 !
 ! D52   D(24,12,13,25)          2.9153         -DE/DX =    0.0                 !
 ! D53   D(12,13,14,15)         -3.8502         -DE/DX =    0.0                 !
 ! D54   D(12,13,14,26)        172.7648         -DE/DX =    0.0                 !
 ! D55   D(25,13,14,15)        179.2658         -DE/DX =    0.0                 !
 ! D56   D(25,13,14,26)         -4.1192         -DE/DX =    0.0                 !
 ! D57   D(13,14,15,9)          -5.7978         -DE/DX =    0.0                 !
 ! D58   D(13,14,15,16)        170.7066         -DE/DX =    0.0                 !
 ! D59   D(26,14,15,9)         177.4111         -DE/DX =    0.0                 !
 ! D60   D(26,14,15,16)         -6.0845         -DE/DX =    0.0                 !
 --------------------------------------------------------------------------------
 GradGradGradGradGradGradGradGradGradGradGradGradGradGradGradGradGradGrad

                          Input orientation:                          
 ---------------------------------------------------------------------
 Center     Atomic      Atomic             Coordinates (Angstroms)
 Number     Number       Type             X           Y           Z
 ---------------------------------------------------------------------
      1          6           0        1.315073    2.586721    0.523896
      2          6           0        1.621875    1.182294    0.024854
      3          6           0        2.976332    1.015801   -0.343134
      4          6           0        3.592433   -0.230140   -0.496412
      5          6           0        2.853898   -1.354812   -0.119905
      6          6           0        1.512369   -1.181687    0.211993
      7          9           0        0.948858   -2.303241    0.795309
      8          6           0        0.744582    0.018929    0.081139
      9          6           0       -0.759469   -0.003268    0.021509
     10          6           0       -1.579952   -1.201786   -0.131157
     11          8           0       -1.145632   -2.433266   -0.480138
     12          6           0       -2.992251   -1.153179   -0.029137
     13          6           0       -3.686940    0.047825    0.068057
     14          6           0       -2.956748    1.240403    0.002775
     15          6           0       -1.565062    1.180630   -0.074299
     16          9           0       -0.988754    2.374343   -0.331300
     17          1           0        1.024037    3.293139   -0.276586
     18          1           0        0.523046    2.600453    1.291680
     19          1           0        2.240131    2.978736    0.992938
     20          1           0        3.585506    1.928354   -0.443774
     21          1           0        4.647451   -0.314817   -0.795852
     22          1           0        3.291714   -2.359013   -0.026266
     23          1           0       -0.241193   -2.603549   -0.144564
     24          1           0       -3.510457   -2.121054   -0.083336
     25          1           0       -4.784796    0.060884    0.141672
     26          1           0       -3.430718    2.230733   -0.045173
 ---------------------------------------------------------------------
                    Distance matrix (angstroms):
                    1          2          3          4          5
     1  C    0.000000
     2  C    1.521705   0.000000
     3  C    2.445263   1.413396   0.000000
     4  C    3.763257   2.479876   1.398372   0.000000
     5  C    4.279970   2.824135   2.384245   1.397167   0.000000
     6  C    3.786438   2.373904   2.698204   2.394565   1.392777
     7  F    4.911161   3.632562   4.052498   3.599274   2.316530
     8  C    2.667405   1.458160   2.480820   2.916480   2.525232
     9  C    3.356212   2.660144   3.889431   4.388481   3.860452
    10  C    4.812800   3.994981   5.071720   5.275516   4.436504
    11  O    5.680090   4.581090   5.376376   5.225255   4.158013
    12  C    5.731121   5.171800   6.358227   6.665464   5.850330
    13  C    5.627959   5.428850   6.745758   7.306515   6.692181
    14  C    4.509168   4.579046   5.947398   6.730785   6.365045
    15  C    3.260384   3.188479   4.552328   5.363600   5.094875
    16  F    2.466593   2.891921   4.191381   5.272368   5.358848
    17  H    1.106571   2.214485   3.000359   4.365602   4.997638
    18  H    1.103172   2.196235   3.346991   4.542099   4.803078
    19  H    1.108787   2.132283   2.486000   3.787317   4.516057
    20  H    2.554349   2.152223   1.101805   2.159147   3.379248
    21  H    4.611442   3.474048   2.183606   1.099953   2.180671
    22  H    5.354444   3.915588   3.404297   2.200811   1.099487
    23  H    5.459643   4.222834   4.846812   4.522560   3.337595
    24  H    6.768872   6.104478   7.210117   7.361877   6.410420
    25  H    6.613195   6.505124   7.834667   8.406534   7.773176
    26  H    4.793027   5.160701   6.528027   7.455479   7.235891
                    6          7          8          9         10
     6  C    0.000000
     7  F    1.384082   0.000000
     8  C    1.431118   2.438081   0.000000
     9  C    2.566361   2.967663   1.505397   0.000000
    10  C    3.111367   2.909711   2.634136   1.460460   0.000000
    11  O    3.018355   2.455719   3.146618   2.511108   1.351653
    12  C    4.511160   4.187445   3.917898   2.512007   1.416813
    13  C    5.344646   5.248527   4.431636   2.928287   2.457766
    14  C    5.087564   5.332849   3.898460   2.524897   2.806740
    15  C    3.890127   4.383305   2.590013   1.435191   2.383140
    16  F    4.381340   5.186846   2.953394   2.414556   3.630189
    17  H    4.527831   5.698603   3.305528   3.759794   5.196754
    18  H    4.055745   4.947111   2.859852   3.168207   4.572098
    19  H    4.295187   5.441114   3.439259   4.339772   5.773507
    20  H    3.794770   5.137473   3.462988   4.777704   6.047930
    21  H    3.405283   4.490569   4.014086   5.477219   6.325273
    22  H    2.146842   2.483359   3.486262   4.686566   5.008324
    23  H    2.285564   1.545887   2.810709   2.656624   1.938400
    24  H    5.118439   4.548703   4.765705   3.473320   2.138736
    25  H    6.418973   6.236274   5.529869   4.027631   3.455401
    26  H    6.012060   6.359561   4.726645   3.482927   3.900630
                   11         12         13         14         15
    11  O    0.000000
    12  C    2.291730   0.000000
    13  C    3.593686   1.390845   0.000000
    14  C    4.124221   2.394058   1.399887   0.000000
    15  C    3.660720   2.735978   2.409540   1.395100   0.000000
    16  F    4.812471   4.068012   3.585022   2.295742   1.350234
    17  H    6.127040   5.996795   5.730982   4.487585   3.347693
    18  H    5.591257   5.309579   5.073179   3.952212   2.870886
    19  H    6.551573   6.745012   6.676512   5.568642   4.341851
    20  H    6.434960   7.275621   7.529066   6.593464   5.217657
    21  H    6.176351   7.723714   8.386890   7.802587   6.430576
    22  H    4.461116   6.398614   7.382641   7.211097   6.009963
    23  H    0.979600   3.112108   4.352949   4.708706   4.009685
    24  H    2.418125   1.099207   2.181307   3.407844   3.832201
    25  H    4.455440   2.171714   1.100398   2.179981   3.415723
    26  H    5.211882   3.412239   2.200809   1.098954   2.141084
                   16         17         18         19         20
    16  F    0.000000
    17  H    2.213257   0.000000
    18  H    2.229512   1.786131   0.000000
    19  H    3.541834   1.785896   1.783459   0.000000
    20  H    4.597326   2.907183   3.583598   2.231027   0.000000
    21  H    6.262124   5.139661   5.465099   4.454487   2.506692
    22  H    6.389062   6.095231   5.830849   5.534995   4.317655
    23  H    5.037174   6.032343   5.452383   6.213918   5.938964
    24  H    5.160337   7.064876   6.360223   7.761153   8.178039
    25  H    4.470541   6.660702   5.995424   7.654287   8.596054
    26  H    2.462861   4.585532   4.190002   5.813408   7.034040
                   21         22         23         24         25
    21  H    0.000000
    22  H    2.570802   0.000000
    23  H    5.437031   3.543335   0.000000
    24  H    8.385800   6.806572   3.305244   0.000000
    25  H    9.486168   8.432919   5.274984   2.536813   0.000000
    26  H    8.502950   8.139854   5.792515   4.352685   2.564505
                   26
    26  H    0.000000
 Stoichiometry    C13H10F2O
 Framework group  C1[X(C13H10F2O)]
 Deg. of freedom    72
 Full point group                 C1      NOp   1
 Largest Abelian subgroup         C1      NOp   1
 Largest concise Abelian subgroup C1      NOp   1
                         Standard orientation:                         
 ---------------------------------------------------------------------
 Center     Atomic      Atomic             Coordinates (Angstroms)
 Number     Number       Type             X           Y           Z
 ---------------------------------------------------------------------
      1          6           0        1.311878    2.585719    0.546331
      2          6           0        1.619178    1.184574    0.038448
      3          6           0        2.973816    1.020720   -0.330054
      4          6           0        3.590243   -0.224087   -0.491043
      5          6           0        2.851797   -1.351296   -0.122026
      6          6           0        1.510099   -1.180578    0.210435
      7          9           0        0.946594   -2.305954    0.786347
      8          6           0        0.742110    0.020689    0.086948
      9          6           0       -0.761913   -0.001442    0.026576
     10          6           0       -1.582081   -1.199132   -0.134074
     11          8           0       -1.147360   -2.428266   -0.490743
     12          6           0       -2.994431   -1.151475   -0.032310
     13          6           0       -3.689414    0.048738    0.072277
     14          6           0       -2.959449    1.241862    0.014910
     15          6           0       -1.567719    1.182875   -0.061988
     16          9           0       -0.991562    2.378327   -0.311125
     17          1           0        1.021012    3.297177   -0.249736
     18          1           0        0.519542    2.594378    1.313870
     19          1           0        2.236666    2.974923    1.018239
     20          1           0        3.582836    1.934025   -0.424618
     21          1           0        4.645398   -0.306628   -0.790597
     22          1           0        3.289789   -2.355984   -0.034630
     23          1           0       -0.243019   -2.600500   -0.155901
     24          1           0       -3.512410   -2.119092   -0.092900
     25          1           0       -4.787301    0.061096    0.145536
     26          1           0       -3.433610    2.232379   -0.026899
 ---------------------------------------------------------------------
 Rotational constants (GHZ):           0.8393131           0.4707585           0.3127842

 **********************************************************************

            Population analysis using the SCF Density.

 **********************************************************************

 Orbital symmetries:
       Occupied  (A) (A) (A) (A) (A) (A) (A) (A) (A) (A) (A) (A)
                 (A) (A) (A) (A) (A) (A) (A) (A) (A) (A) (A) (A)
                 (A) (A) (A) (A) (A) (A) (A) (A) (A) (A) (A) (A)
                 (A) (A) (A) (A) (A) (A) (A) (A) (A) (A) (A) (A)
                 (A) (A) (A) (A) (A) (A) (A) (A) (A)
       Virtual   (A) (A) (A) (A) (A) (A) (A) (A) (A) (A) (A) (A)
                 (A) (A) (A) (A) (A) (A) (A) (A) (A) (A) (A) (A)
                 (A) (A) (A) (A) (A) (A) (A) (A) (A) (A) (A) (A)
                 (A) (A) (A) (A) (A) (A) (A) (A) (A) (A) (A) (A)
                 (A) (A) (A) (A) (A) (A) (A) (A) (A) (A) (A) (A)
                 (A) (A) (A) (A) (A) (A) (A) (A) (A) (A) (A) (A)
                 (A) (A) (A) (A) (A) (A) (A) (A) (A) (A) (A) (A)
                 (A) (A) (A) (A) (A) (A) (A) (A) (A) (A) (A) (A)
                 (A) (A) (A) (A) (A) (A) (A) (A) (A) (A) (A) (A)
                 (A) (A) (A) (A) (A) (A) (A) (A) (A) (A) (A) (A)
                 (A) (A) (A) (A) (A) (A) (A) (A) (A) (A) (A) (A)
                 (A) (A) (A) (A) (A) (A) (A) (A) (A) (A) (A) (A)
                 (A) (A) (A) (A) (A) (A) (A) (A) (A) (A) (A) (A)
                 (A) (A) (A) (A) (A) (A) (A) (A) (A) (A) (A) (A)
                 (A) (A) (A) (A) (A) (A) (A) (A) (A) (A) (A) (A)
                 (A) (A) (A) (A) (A) (A) (A) (A) (A) (A) (A) (A)
                 (A) (A) (A) (A) (A) (A) (A) (A) (A) (A) (A) (A)
                 (A) (A) (A) (A) (A) (A) (A) (A) (A) (A) (A) (A)
                 (A)
 The electronic state is 1-A.
 Alpha  occ. eigenvalues --  -24.33321 -24.30363 -18.80094 -10.01160 -10.00336
 Alpha  occ. eigenvalues --   -9.98896  -9.96251  -9.95146  -9.94811  -9.93315
 Alpha  occ. eigenvalues --   -9.93241  -9.92721  -9.92484  -9.91750  -9.91690
 Alpha  occ. eigenvalues --   -9.91213  -1.13490  -1.11374  -0.96077  -0.79513
 Alpha  occ. eigenvalues --   -0.77254  -0.71563  -0.70152  -0.66810  -0.66210
 Alpha  occ. eigenvalues --   -0.62549  -0.58959  -0.56159  -0.55006  -0.53583
 Alpha  occ. eigenvalues --   -0.51757  -0.48583  -0.47911  -0.46179  -0.44244
 Alpha  occ. eigenvalues --   -0.43472  -0.42991  -0.42334  -0.41730  -0.40421
 Alpha  occ. eigenvalues --   -0.38724  -0.38179  -0.38043  -0.36626  -0.35943
 Alpha  occ. eigenvalues --   -0.34297  -0.33945  -0.33124  -0.32905  -0.31026
 Alpha  occ. eigenvalues --   -0.30654  -0.30251  -0.28621  -0.26722  -0.22480
 Alpha  occ. eigenvalues --   -0.20898  -0.19734
 Alpha virt. eigenvalues --   -0.09117  -0.04999  -0.03062  -0.02554   0.02489
 Alpha virt. eigenvalues --    0.03871   0.04614   0.06545   0.07596   0.08105
 Alpha virt. eigenvalues --    0.09552   0.10062   0.11033   0.11138   0.12040
 Alpha virt. eigenvalues --    0.12681   0.13909   0.15801   0.17027   0.19040
 Alpha virt. eigenvalues --    0.19904   0.21881   0.23659   0.25090   0.25688
 Alpha virt. eigenvalues --    0.26494   0.27595   0.28563   0.29592   0.30600
 Alpha virt. eigenvalues --    0.32715   0.34903   0.35993   0.36576   0.37320
 Alpha virt. eigenvalues --    0.38768   0.39668   0.40282   0.41627   0.41683
 Alpha virt. eigenvalues --    0.42374   0.42847   0.43958   0.44245   0.45790
 Alpha virt. eigenvalues --    0.46815   0.47250   0.48755   0.49905   0.51281
 Alpha virt. eigenvalues --    0.51964   0.52099   0.53256   0.53896   0.55301
 Alpha virt. eigenvalues --    0.56002   0.56806   0.58424   0.59089   0.59563
 Alpha virt. eigenvalues --    0.60468   0.61052   0.61473   0.61935   0.62632
 Alpha virt. eigenvalues --    0.63573   0.64674   0.64932   0.65576   0.65952
 Alpha virt. eigenvalues --    0.67392   0.68396   0.70167   0.71425   0.71826
 Alpha virt. eigenvalues --    0.72590   0.73853   0.75076   0.76094   0.77810
 Alpha virt. eigenvalues --    0.80953   0.82075   0.82239   0.88348   0.92104
 Alpha virt. eigenvalues --    0.94138   0.95486   0.96690   0.97956   1.00983
 Alpha virt. eigenvalues --    1.04361   1.05268   1.07615   1.09292   1.10430
 Alpha virt. eigenvalues --    1.11861   1.14035   1.15937   1.17287   1.19332
 Alpha virt. eigenvalues --    1.20995   1.22144   1.23028   1.25446   1.27234
 Alpha virt. eigenvalues --    1.28094   1.31041   1.31350   1.34570   1.35885
 Alpha virt. eigenvalues --    1.37117   1.38463   1.42298   1.44012   1.46710
 Alpha virt. eigenvalues --    1.49383   1.52312   1.55075   1.56841   1.57300
 Alpha virt. eigenvalues --    1.58842   1.59224   1.61602   1.61908   1.62573
 Alpha virt. eigenvalues --    1.63303   1.64006   1.64375   1.65345   1.65979
 Alpha virt. eigenvalues --    1.67153   1.67549   1.70638   1.71865   1.72247
 Alpha virt. eigenvalues --    1.72518   1.73501   1.74562   1.76059   1.77877
 Alpha virt. eigenvalues --    1.78069   1.81290   1.82862   1.84609   1.85783
 Alpha virt. eigenvalues --    1.86231   1.87419   1.90125   1.90716   1.92678
 Alpha virt. eigenvalues --    1.93971   1.95508   1.96852   1.97715   1.99057
 Alpha virt. eigenvalues --    1.99904   2.01767   2.04673   2.05793   2.08895
 Alpha virt. eigenvalues --    2.09186   2.09663   2.13706   2.15170   2.17441
 Alpha virt. eigenvalues --    2.17614   2.18544   2.19534   2.20259   2.23422
 Alpha virt. eigenvalues --    2.23591   2.28350   2.31101   2.33343   2.35495
 Alpha virt. eigenvalues --    2.36549   2.37786   2.43557   2.45120   2.46969
 Alpha virt. eigenvalues --    2.48296   2.48737   2.52161   2.54760   2.55240
 Alpha virt. eigenvalues --    2.59344   2.61626   2.62758   2.65398   2.67591
 Alpha virt. eigenvalues --    2.68850   2.75869   2.77535   2.81023   2.81770
 Alpha virt. eigenvalues --    2.83985   2.86907   2.88458   2.90075   2.93030
 Alpha virt. eigenvalues --    2.93703   2.98042   3.00540   3.02023   3.06674
 Alpha virt. eigenvalues --    3.10026   3.12393   3.15354   3.20185   3.29592
 Alpha virt. eigenvalues --    3.32256   3.38543   3.43450   3.48015   3.67792
 Alpha virt. eigenvalues --    3.74536   3.79131
          Condensed to atoms (all electrons):
               1          2          3          4          5          6
     1  C    4.556672   0.438273  -0.073882   0.013358   0.000082   0.009005
     2  C    0.438273   5.192671   0.362579   0.057248  -0.117530   0.037834
     3  C   -0.073882   0.362579   5.091106   0.293952   0.083895  -0.134503
     4  C    0.013358   0.057248   0.293952   5.069122   0.238170   0.089310
     5  C    0.000082  -0.117530   0.083895   0.238170   5.195303   0.321491
     6  C    0.009005   0.037834  -0.134503   0.089310   0.321491   5.208628
     7  F   -0.000015   0.001790  -0.000002   0.005066  -0.059215   0.299482
     8  C   -0.063167   0.303673   0.032524  -0.088704  -0.003490   0.209590
     9  C   -0.019251  -0.046321   0.013935  -0.000238   0.011282  -0.064451
    10  C   -0.000363   0.007952   0.000262  -0.000239   0.001378  -0.026608
    11  O   -0.000003  -0.000022   0.000001   0.000002  -0.001034   0.008008
    12  C    0.000001   0.000112  -0.000002   0.000001  -0.000043   0.001640
    13  C   -0.000020  -0.000080   0.000001  -0.000000   0.000002  -0.000286
    14  C   -0.000014   0.000299  -0.000017   0.000001  -0.000002   0.000163
    15  C   -0.001285  -0.022083   0.000140  -0.000060  -0.000050   0.011186
    16  F    0.004697  -0.004163  -0.000128   0.000002  -0.000002   0.000287
    17  H    0.357990  -0.000179  -0.000061  -0.000198  -0.000048  -0.000238
    18  H    0.372307  -0.002335   0.007879  -0.000860   0.000209  -0.000829
    19  H    0.376127  -0.023474  -0.018742   0.002012  -0.000056  -0.000020
    20  H   -0.018386  -0.065034   0.424893  -0.066042   0.013758  -0.000523
    21  H   -0.000411   0.014371  -0.064883   0.432245  -0.070549   0.013573
    22  H    0.000017  -0.000894   0.012519  -0.064251   0.414963  -0.057902
    23  H   -0.000001   0.000444  -0.000069   0.000241  -0.002116  -0.017063
    24  H    0.000000   0.000001  -0.000000   0.000000   0.000001   0.000006
    25  H    0.000000  -0.000000   0.000000   0.000000  -0.000000   0.000001
    26  H   -0.000010   0.000027  -0.000000   0.000000  -0.000000   0.000001
               7          8          9         10         11         12
     1  C   -0.000015  -0.063167  -0.019251  -0.000363  -0.000003   0.000001
     2  C    0.001790   0.303673  -0.046321   0.007952  -0.000022   0.000112
     3  C   -0.000002   0.032524   0.013935   0.000262   0.000001  -0.000002
     4  C    0.005066  -0.088704  -0.000238  -0.000239   0.000002   0.000001
     5  C   -0.059215  -0.003490   0.011282   0.001378  -0.001034  -0.000043
     6  C    0.299482   0.209590  -0.064451  -0.026608   0.008008   0.001640
     7  F    8.989374  -0.069272   0.001663   0.001230  -0.026976  -0.000482
     8  C   -0.069272   5.457252   0.229192  -0.067364  -0.004229   0.009150
     9  C    0.001663   0.229192   5.752338   0.136034  -0.074804   0.008817
    10  C    0.001230  -0.067364   0.136034   5.182407   0.455960   0.289365
    11  O   -0.026976  -0.004229  -0.074804   0.455960   7.556058  -0.089498
    12  C   -0.000482   0.009150   0.008817   0.289365  -0.089498   5.252397
    13  C    0.000001  -0.000040  -0.103034   0.114368   0.005904   0.213932
    14  C    0.000000   0.013441   0.002204  -0.139927   0.000105   0.108290
    15  C    0.000152  -0.055922   0.166917   0.091740   0.001448  -0.137517
    16  F   -0.000000  -0.000347  -0.073971   0.001831  -0.000001   0.000032
    17  H    0.000000  -0.000993   0.003872   0.000031   0.000000  -0.000002
    18  H   -0.000004  -0.011387   0.005312   0.000186   0.000001  -0.000011
    19  H    0.000001   0.006996  -0.000633   0.000005   0.000000   0.000000
    20  H    0.000004   0.015041  -0.000231   0.000001   0.000000  -0.000000
    21  H   -0.000074  -0.001321   0.000017   0.000000  -0.000000   0.000000
    22  H    0.000815   0.017098  -0.000279   0.000053   0.000008  -0.000000
    23  H    0.051462   0.005634  -0.011812  -0.024912   0.338494   0.004722
    24  H    0.000017  -0.000194   0.019853  -0.056246   0.003592   0.415510
    25  H   -0.000000   0.000011  -0.001942   0.014438  -0.000111  -0.069369
    26  H   -0.000000  -0.000227   0.019150  -0.001342   0.000006   0.013480
              13         14         15         16         17         18
     1  C   -0.000020  -0.000014  -0.001285   0.004697   0.357990   0.372307
     2  C   -0.000080   0.000299  -0.022083  -0.004163  -0.000179  -0.002335
     3  C    0.000001  -0.000017   0.000140  -0.000128  -0.000061   0.007879
     4  C   -0.000000   0.000001  -0.000060   0.000002  -0.000198  -0.000860
     5  C    0.000002  -0.000002  -0.000050  -0.000002  -0.000048   0.000209
     6  C   -0.000286   0.000163   0.011186   0.000287  -0.000238  -0.000829
     7  F    0.000001   0.000000   0.000152  -0.000000   0.000000  -0.000004
     8  C   -0.000040   0.013441  -0.055922  -0.000347  -0.000993  -0.011387
     9  C   -0.103034   0.002204   0.166917  -0.073971   0.003872   0.005312
    10  C    0.114368  -0.139927   0.091740   0.001831   0.000031   0.000186
    11  O    0.005904   0.000105   0.001448  -0.000001   0.000000   0.000001
    12  C    0.213932   0.108290  -0.137517   0.000032  -0.000002  -0.000011
    13  C    5.173440   0.165666   0.114567   0.005218   0.000002   0.000074
    14  C    0.165666   5.283199   0.317362  -0.061588  -0.000178  -0.001240
    15  C    0.114567   0.317362   5.056709   0.359651  -0.002165   0.001305
    16  F    0.005218  -0.061588   0.359651   8.927770   0.003330  -0.001542
    17  H    0.000002  -0.000178  -0.002165   0.003330   0.624836  -0.018024
    18  H    0.000074  -0.001240   0.001305  -0.001542  -0.018024   0.641990
    19  H   -0.000001   0.000036   0.000190   0.001717  -0.023231  -0.028659
    20  H    0.000000  -0.000000   0.000024  -0.000011   0.002018   0.000530
    21  H   -0.000000   0.000000   0.000000   0.000000   0.000013   0.000010
    22  H    0.000000  -0.000000   0.000001  -0.000000  -0.000001  -0.000001
    23  H    0.000015  -0.000160   0.000206   0.000001   0.000000   0.000002
    24  H   -0.073318   0.014348  -0.001540   0.000004  -0.000000  -0.000000
    25  H    0.436305  -0.070772   0.014058  -0.000084   0.000000  -0.000001
    26  H   -0.069505   0.416105  -0.059294   0.001758   0.000025   0.000041
              19         20         21         22         23         24
     1  C    0.376127  -0.018386  -0.000411   0.000017  -0.000001   0.000000
     2  C   -0.023474  -0.065034   0.014371  -0.000894   0.000444   0.000001
     3  C   -0.018742   0.424893  -0.064883   0.012519  -0.000069  -0.000000
     4  C    0.002012  -0.066042   0.432245  -0.064251   0.000241   0.000000
     5  C   -0.000056   0.013758  -0.070549   0.414963  -0.002116   0.000001
     6  C   -0.000020  -0.000523   0.013573  -0.057902  -0.017063   0.000006
     7  F    0.000001   0.000004  -0.000074   0.000815   0.051462   0.000017
     8  C    0.006996   0.015041  -0.001321   0.017098   0.005634  -0.000194
     9  C   -0.000633  -0.000231   0.000017  -0.000279  -0.011812   0.019853
    10  C    0.000005   0.000001   0.000000   0.000053  -0.024912  -0.056246
    11  O    0.000000   0.000000  -0.000000   0.000008   0.338494   0.003592
    12  C    0.000000  -0.000000   0.000000  -0.000000   0.004722   0.415510
    13  C   -0.000001   0.000000  -0.000000   0.000000   0.000015  -0.073318
    14  C    0.000036  -0.000000   0.000000  -0.000000  -0.000160   0.014348
    15  C    0.000190   0.000024   0.000000   0.000001   0.000206  -0.001540
    16  F    0.001717  -0.000011   0.000000  -0.000000   0.000001   0.000004
    17  H   -0.023231   0.002018   0.000013  -0.000001   0.000000  -0.000000
    18  H   -0.028659   0.000530   0.000010  -0.000001   0.000002  -0.000000
    19  H    0.671021   0.004752  -0.000017  -0.000002  -0.000001  -0.000000
    20  H    0.004752   0.700419  -0.012385  -0.000366  -0.000001   0.000000
    21  H   -0.000017  -0.012385   0.688866  -0.011754   0.000003  -0.000000
    22  H   -0.000002  -0.000366  -0.011754   0.673878   0.000138  -0.000000
    23  H   -0.000001  -0.000001   0.000003   0.000138   0.469861   0.000022
    24  H   -0.000000   0.000000  -0.000000  -0.000000   0.000022   0.686143
    25  H    0.000000  -0.000000   0.000000  -0.000000   0.000012  -0.013183
    26  H   -0.000002  -0.000000  -0.000000   0.000000  -0.000002  -0.000306
              25         26
     1  C    0.000000  -0.000010
     2  C   -0.000000   0.000027
     3  C    0.000000  -0.000000
     4  C    0.000000   0.000000
     5  C   -0.000000  -0.000000
     6  C    0.000001   0.000001
     7  F   -0.000000  -0.000000
     8  C    0.000011  -0.000227
     9  C   -0.001942   0.019150
    10  C    0.014438  -0.001342
    11  O   -0.000111   0.000006
    12  C   -0.069369   0.013480
    13  C    0.436305  -0.069505
    14  C   -0.070772   0.416105
    15  C    0.014058  -0.059294
    16  F   -0.000084   0.001758
    17  H    0.000000   0.000025
    18  H   -0.000001   0.000041
    19  H    0.000000  -0.000002
    20  H   -0.000000  -0.000000
    21  H    0.000000  -0.000000
    22  H   -0.000000   0.000000
    23  H    0.000012  -0.000002
    24  H   -0.013183  -0.000306
    25  H    0.691581  -0.012317
    26  H   -0.012317   0.685390
 Mulliken charges:
               1
     1  C    0.048279
     2  C   -0.135159
     3  C   -0.031395
     4  C    0.019861
     5  C   -0.026399
     6  C    0.092219
     7  F   -0.195017
     8  C    0.067055
     9  C    0.026381
    10  C    0.019759
    11  O   -0.172909
    12  C   -0.020524
    13  C    0.016791
    14  C   -0.047321
    15  C    0.144258
    16  F   -0.164461
    17  H    0.053199
    18  H    0.035048
    19  H    0.031981
    20  H    0.001540
    21  H    0.012295
    22  H    0.015959
    23  H    0.184879
    24  H    0.005289
    25  H    0.011374
    26  H    0.007021
 Sum of Mulliken charges =  -0.00000
 Mulliken charges with hydrogens summed into heavy atoms:
               1
     1  C    0.168506
     2  C   -0.135159
     3  C   -0.029855
     4  C    0.032155
     5  C   -0.010440
     6  C    0.092219
     7  F   -0.195017
     8  C    0.067055
     9  C    0.026381
    10  C    0.019759
    11  O    0.011970
    12  C   -0.015235
    13  C    0.028165
    14  C   -0.040301
    15  C    0.144258
    16  F   -0.164461
 APT charges:
               1
     1  C   -0.607977
     2  C   -0.606441
     3  C   -0.528481
     4  C   -0.412883
     5  C   -0.427568
     6  C   -0.356908
     7  F    0.040813
     8  C   -0.427717
     9  C   -0.380386
    10  C   -0.575154
    11  O    0.185418
    12  C   -0.538206
    13  C   -0.301361
    14  C   -0.454337
    15  C   -0.405609
    16  F    0.113864
    17  H    0.383986
    18  H    0.121982
    19  H    0.578026
    20  H    0.664401
    21  H    0.883997
    22  H    0.675052
    23  H    0.143789
    24  H    0.665058
    25  H    0.898028
    26  H    0.668615
 Sum of APT charges =  -0.00000
 APT charges with hydrogens summed into heavy atoms:
               1
     1  C    0.476017
     2  C   -0.606441
     3  C    0.135920
     4  C    0.471114
     5  C    0.247484
     6  C   -0.356908
     7  F    0.040813
     8  C   -0.427717
     9  C   -0.380386
    10  C   -0.575154
    11  O    0.329207
    12  C    0.126852
    13  C    0.596667
    14  C    0.214278
    15  C   -0.405609
    16  F    0.113864
 Electronic spatial extent (au):  <R**2>=           3383.6201
 Charge=             -0.0000 electrons
 Dipole moment (field-independent basis, Debye):
    X=              1.4308    Y=              0.6028    Z=              0.3780  Tot=              1.5979
 Quadrupole moment (field-independent basis, Debye-Ang):
   XX=            -79.0671   YY=            -88.3141   ZZ=            -95.3841
   XY=             -2.2721   XZ=             -1.9064   YZ=              0.1464
 Traceless Quadrupole moment (field-independent basis, Debye-Ang):
   XX=              8.5213   YY=             -0.7257   ZZ=             -7.7957
   XY=             -2.2721   XZ=             -1.9064   YZ=              0.1464
 Octapole moment (field-independent basis, Debye-Ang**2):
  XXX=             -4.0029  YYY=             -4.8712  ZZZ=              3.5990  XYY=             12.0625
  XXY=             -0.6227  XXZ=             -4.8188  XZZ=              0.7151  YZZ=             -0.2878
  YYZ=              3.5200  XYZ=              2.4366
 Hexadecapole moment (field-independent basis, Debye-Ang**3):
 XXXX=          -2591.6415 YYYY=          -1359.5837 ZZZZ=           -165.1885 XXXY=            -41.7160
 XXXZ=            -29.8909 YYYX=            -42.8125 YYYZ=            -19.9859 ZZZX=             15.7521
 ZZZY=            -15.8366 XXYY=           -662.3124 XXZZ=           -549.6688 YYZZ=           -264.5400
 XXYZ=             -5.4271 YYXZ=             -3.8096 ZZXY=             -7.3384
 N-N= 1.069526426423D+03 E-N=-3.950118657317D+03  KE= 7.677390366660D+02
  Exact polarizability:       0.000       0.000       0.000       0.000       0.000       0.000
 Approx polarizability:     469.680      -5.753     375.997     -29.464       1.953     129.128
 Rotating derivatives to standard orientation.
 ***** Axes restored to original set *****
 -------------------------------------------------------------------
 Center     Atomic                   Forces (Hartrees/Bohr)
 Number     Number              X              Y              Z
 -------------------------------------------------------------------
      1        6          -0.000004075   -0.000002937    0.000003997
      2        6           0.000000728   -0.000000260   -0.000000564
      3        6           0.000001280   -0.000000893    0.000002266
      4        6          -0.000000116    0.000000050    0.000000062
      5        6          -0.000000315   -0.000000290    0.000000039
      6        6          -0.000001331   -0.000001269    0.000003086
      7        9          -0.000005546   -0.000000948   -0.000007570
      8        6           0.000000740    0.000000753   -0.000007649
      9        6          -0.000001937   -0.000000273    0.000005663
     10        6          -0.000001740    0.000003799   -0.000001229
     11        8           0.000005876   -0.000002274    0.000002584
     12        6           0.000001035   -0.000000289   -0.000000582
     13        6          -0.000000101    0.000001486   -0.000000114
     14        6          -0.000000782    0.000000043   -0.000000075
     15        6           0.000001745    0.000000335    0.000001494
     16        9           0.000006867    0.000001499   -0.000004187
     17        1          -0.000003041   -0.000000203    0.000000627
     18        1          -0.000000141   -0.000000607    0.000002109
     19        1           0.000000373    0.000000650   -0.000000805
     20        1           0.000000317   -0.000000448    0.000000641
     21        1           0.000000054   -0.000000346    0.000000483
     22        1          -0.000000341   -0.000000426   -0.000000192
     23        1           0.000000637    0.000001171    0.000001446
     24        1          -0.000000375    0.000000540   -0.000000945
     25        1          -0.000000037    0.000000632   -0.000000757
     26        1           0.000000227    0.000000506    0.000000172
 -------------------------------------------------------------------
 Cartesian Forces:  Max     0.000007649 RMS     0.000002301
 Unable to Open any file for archive entry.
 1\1\GINC-SEMLSCPN037\FTS\RBP86\def2SVP\C13H10F2O1\USER-ID\02-Dec-2025\
 0\\# opt=(TS,recalcFC=15,noeigentest) freq bp86 def2svp empiricaldispe
 rsion=GD3BJ\\example\\0,1\C,1.3150731715,2.5867210124,0.5238957537\C,1
 .6218752135,1.1822940076,0.0248538425\C,2.976331576,1.0158007164,-0.34
 31341335\C,3.5924328487,-0.2301404384,-0.4964119668\C,2.8538981588,-1.
 3548116581,-0.1199051663\C,1.5123694844,-1.1816874496,0.2119931214\F,0
 .9488578771,-2.3032406083,0.7953086921\C,0.7445824109,0.0189288087,0.0
 811393204\C,-0.75946889,-0.0032675905,0.0215089659\C,-1.5799519106,-1.
 201785557,-0.1311567993\O,-1.1456318129,-2.4332663191,-0.4801379546\C,
 -2.9922513,-1.153179337,-0.029137079\C,-3.6869404557,0.0478249127,0.06
 8056547\C,-2.9567483666,1.240403115,0.0027754261\C,-1.5650616043,1.180
 6299461,-0.0742989885\F,-0.988753528,2.3743432482,-0.33129981\H,1.0240
 373474,3.2931390602,-0.2765858539\H,0.5230460021,2.6004527276,1.291679
 5061\H,2.2401306997,2.9787360824,0.9929381206\H,3.5855057589,1.9283538
 703,-0.44377448\H,4.6474508599,-0.3148171652,-0.7958522384\H,3.2917142
 071,-2.3590130931,-0.0262657986\H,-0.2411930638,-2.6035485386,-0.14456
 35976\H,-3.5104574825,-2.1210539943,-0.0833356425\H,-4.7847957857,0.06
 08837834,0.1416721524\H,-3.430718416,2.2307334583,-0.0451729394\\Versi
 on=ES64L-G16RevC.02\State=1-A\HF=-775.7510007\RMSD=6.637e-09\RMSF=2.30
 1e-06\Dipole=0.5630155,0.2379694,0.1469684\Polar=0.,0.,0.,0.,0.,0.\Qua
 drupole=6.3335372,-0.5376083,-5.7959289,-1.6997109,-1.4113872,0.076245
 5\PG=C01 [X(C13H10F2O1)]\\@
 The archive entry for this job was punched.


 IT MATTERS NOT HOW DEEP YOU PLOW,
 BUT HOW LONG YOU STAY IN THE FURROW.
 Job cpu time:       0 days  0 hours 30 minutes  6.3 seconds.
 Elapsed time:       0 days  0 hours  3 minutes 55.7 seconds.
 File lengths (MBytes):  RWF=    233 Int=      0 D2E=      0 Chk=      8 Scr=      1
 Normal termination of Gaussian 16 at Tue Dec  2 16:10:00 2025.
 Link1:  Proceeding to internal job step number  2.
 ------------------------------------------------------------------
 #N Geom=AllCheck Guess=TCheck SCRF=Check GenChk RBP86/def2SVP Freq
 ------------------------------------------------------------------
 1/5=1,10=4,11=1,29=7,30=1,38=1,40=1,71=15/1,3;
 2/12=2,40=1/2;
 3/5=43,7=101,11=2,14=-4,25=1,30=1,70=2,71=2,74=404,116=1,124=41,140=1/1,2,3;
 4/5=101/1;
 5/5=2,38=6,98=1/2;
 8/6=4,10=90,11=11/1;
 11/6=1,8=1,9=11,15=111,16=1/1,2,10;
 10/6=1/2;
 6/7=2,8=2,9=2,10=2,28=1/1;
 7/8=1,10=1,25=1/1,2,3,16;
 1/5=1,10=4,11=1,30=1,71=15/3;
 99//99;
 Structure from the checkpoint file:  "/scratch/gaussian_tmp/Gau-3600660.chk"
 -------
 example
 -------
 Charge =  0 Multiplicity = 1
 Redundant internal coordinates found in file.  (old form).
 C,0,1.3150731715,2.5867210124,0.5238957537
 C,0,1.6218752135,1.1822940076,0.0248538425
 C,0,2.976331576,1.0158007164,-0.3431341335
 C,0,3.5924328487,-0.2301404384,-0.4964119668
 C,0,2.8538981588,-1.3548116581,-0.1199051663
 C,0,1.5123694844,-1.1816874496,0.2119931214
 F,0,0.9488578771,-2.3032406083,0.7953086921
 C,0,0.7445824109,0.0189288087,0.0811393204
 C,0,-0.75946889,-0.0032675905,0.0215089659
 C,0,-1.5799519106,-1.201785557,-0.1311567993
 O,0,-1.1456318129,-2.4332663191,-0.4801379546
 C,0,-2.9922513,-1.153179337,-0.029137079
 C,0,-3.6869404557,0.0478249127,0.068056547
 C,0,-2.9567483666,1.240403115,0.0027754261
 C,0,-1.5650616043,1.1806299461,-0.0742989885
 F,0,-0.988753528,2.3743432482,-0.33129981
 H,0,1.0240373474,3.2931390602,-0.2765858539
 H,0,0.5230460021,2.6004527276,1.2916795061
 H,0,2.2401306997,2.9787360824,0.9929381206
 H,0,3.5855057589,1.9283538703,-0.44377448
 H,0,4.6474508599,-0.3148171652,-0.7958522384
 H,0,3.2917142071,-2.3590130931,-0.0262657986
 H,0,-0.2411930638,-2.6035485386,-0.1445635976
 H,0,-3.5104574825,-2.1210539943,-0.0833356425
 H,0,-4.7847957857,0.0608837834,0.1416721524
 H,0,-3.430718416,2.2307334583,-0.0451729394
 Recover connectivity data from disk.

 GradGradGradGradGradGradGradGradGradGradGradGradGradGradGradGradGradGrad
 Berny optimization.
 Initialization pass.
                           ----------------------------
                           !    Initial Parameters    !
                           ! (Angstroms and Degrees)  !
 --------------------------                            --------------------------
 ! Name  Definition              Value          Derivative Info.                !
 --------------------------------------------------------------------------------
 ! R1    R(1,2)                  1.5217         calculate D2E/DX2 analytically  !
 ! R2    R(1,17)                 1.1066         calculate D2E/DX2 analytically  !
 ! R3    R(1,18)                 1.1032         calculate D2E/DX2 analytically  !
 ! R4    R(1,19)                 1.1088         calculate D2E/DX2 analytically  !
 ! R5    R(2,3)                  1.4134         calculate D2E/DX2 analytically  !
 ! R6    R(2,8)                  1.4582         calculate D2E/DX2 analytically  !
 ! R7    R(3,4)                  1.3984         calculate D2E/DX2 analytically  !
 ! R8    R(3,20)                 1.1018         calculate D2E/DX2 analytically  !
 ! R9    R(4,5)                  1.3972         calculate D2E/DX2 analytically  !
 ! R10   R(4,21)                 1.1            calculate D2E/DX2 analytically  !
 ! R11   R(5,6)                  1.3928         calculate D2E/DX2 analytically  !
 ! R12   R(5,22)                 1.0995         calculate D2E/DX2 analytically  !
 ! R13   R(6,7)                  1.3841         calculate D2E/DX2 analytically  !
 ! R14   R(6,8)                  1.4311         calculate D2E/DX2 analytically  !
 ! R15   R(8,9)                  1.5054         calculate D2E/DX2 analytically  !
 ! R16   R(9,10)                 1.4605         calculate D2E/DX2 analytically  !
 ! R17   R(9,15)                 1.4352         calculate D2E/DX2 analytically  !
 ! R18   R(10,11)                1.3517         calculate D2E/DX2 analytically  !
 ! R19   R(10,12)                1.4168         calculate D2E/DX2 analytically  !
 ! R20   R(11,23)                0.9796         calculate D2E/DX2 analytically  !
 ! R21   R(12,13)                1.3908         calculate D2E/DX2 analytically  !
 ! R22   R(12,24)                1.0992         calculate D2E/DX2 analytically  !
 ! R23   R(13,14)                1.3999         calculate D2E/DX2 analytically  !
 ! R24   R(13,25)                1.1004         calculate D2E/DX2 analytically  !
 ! R25   R(14,15)                1.3951         calculate D2E/DX2 analytically  !
 ! R26   R(14,26)                1.099          calculate D2E/DX2 analytically  !
 ! R27   R(15,16)                1.3502         calculate D2E/DX2 analytically  !
 ! A1    A(2,1,17)             113.8896         calculate D2E/DX2 analytically  !
 ! A2    A(2,1,18)             112.6118         calculate D2E/DX2 analytically  !
 ! A3    A(2,1,19)             107.2671         calculate D2E/DX2 analytically  !
 ! A4    A(17,1,18)            107.8599         calculate D2E/DX2 analytically  !
 ! A5    A(17,1,19)            107.4416         calculate D2E/DX2 analytically  !
 ! A6    A(18,1,19)            107.4679         calculate D2E/DX2 analytically  !
 ! A7    A(1,2,3)              112.7873         calculate D2E/DX2 analytically  !
 ! A8    A(1,2,8)              127.0407         calculate D2E/DX2 analytically  !
 ! A9    A(3,2,8)              119.5131         calculate D2E/DX2 analytically  !
 ! A10   A(2,3,4)              123.7594         calculate D2E/DX2 analytically  !
 ! A11   A(2,3,20)             117.1325         calculate D2E/DX2 analytically  !
 ! A12   A(4,3,20)             118.9697         calculate D2E/DX2 analytically  !
 ! A13   A(3,4,5)              117.0515         calculate D2E/DX2 analytically  !
 ! A14   A(3,4,21)             121.4004         calculate D2E/DX2 analytically  !
 ! A15   A(5,4,21)             121.2245         calculate D2E/DX2 analytically  !
 ! A16   A(4,5,6)              118.2489         calculate D2E/DX2 analytically  !
 ! A17   A(4,5,22)             123.2072         calculate D2E/DX2 analytically  !
 ! A18   A(6,5,22)             118.4754         calculate D2E/DX2 analytically  !
 ! A19   A(5,6,7)              113.0704         calculate D2E/DX2 analytically  !
 ! A20   A(5,6,8)              126.8159         calculate D2E/DX2 analytically  !
 ! A21   A(7,6,8)              119.9945         calculate D2E/DX2 analytically  !
 ! A22   A(2,8,6)              110.4922         calculate D2E/DX2 analytically  !
 ! A23   A(2,8,9)              127.6865         calculate D2E/DX2 analytically  !
 ! A24   A(6,8,9)              121.821          calculate D2E/DX2 analytically  !
 ! A25   A(8,9,10)             125.2774         calculate D2E/DX2 analytically  !
 ! A26   A(8,9,15)             123.4558         calculate D2E/DX2 analytically  !
 ! A27   A(10,9,15)            110.7708         calculate D2E/DX2 analytically  !
 ! A28   A(9,10,11)            126.4522         calculate D2E/DX2 analytically  !
 ! A29   A(9,10,12)            121.6229         calculate D2E/DX2 analytically  !
 ! A30   A(11,10,12)           111.7248         calculate D2E/DX2 analytically  !
 ! A31   A(10,11,23)           111.506          calculate D2E/DX2 analytically  !
 ! A32   A(10,12,13)           122.177          calculate D2E/DX2 analytically  !
 ! A33   A(10,12,24)           115.8602         calculate D2E/DX2 analytically  !
 ! A34   A(13,12,24)           121.8914         calculate D2E/DX2 analytically  !
 ! A35   A(12,13,14)           118.154          calculate D2E/DX2 analytically  !
 ! A36   A(12,13,25)           120.88           calculate D2E/DX2 analytically  !
 ! A37   A(14,13,25)           120.8914         calculate D2E/DX2 analytically  !
 ! A38   A(13,14,15)           119.1047         calculate D2E/DX2 analytically  !
 ! A39   A(13,14,26)           123.0092         calculate D2E/DX2 analytically  !
 ! A40   A(15,14,26)           117.8032         calculate D2E/DX2 analytically  !
 ! A41   A(9,15,14)            126.2703         calculate D2E/DX2 analytically  !
 ! A42   A(9,15,16)            120.1594         calculate D2E/DX2 analytically  !
 ! A43   A(14,15,16)           113.479          calculate D2E/DX2 analytically  !
 ! D1    D(17,1,2,3)            88.7797         calculate D2E/DX2 analytically  !
 ! D2    D(17,1,2,8)          -100.6645         calculate D2E/DX2 analytically  !
 ! D3    D(18,1,2,3)          -148.0016         calculate D2E/DX2 analytically  !
 ! D4    D(18,1,2,8)            22.5542         calculate D2E/DX2 analytically  !
 ! D5    D(19,1,2,3)           -29.9688         calculate D2E/DX2 analytically  !
 ! D6    D(19,1,2,8)           140.587          calculate D2E/DX2 analytically  !
 ! D7    D(1,2,3,4)            162.7143         calculate D2E/DX2 analytically  !
 ! D8    D(1,2,3,20)           -12.9546         calculate D2E/DX2 analytically  !
 ! D9    D(8,2,3,4)             -8.6296         calculate D2E/DX2 analytically  !
 ! D10   D(8,2,3,20)           175.7015         calculate D2E/DX2 analytically  !
 ! D11   D(1,2,8,6)           -149.1007         calculate D2E/DX2 analytically  !
 ! D12   D(1,2,8,9)             30.7087         calculate D2E/DX2 analytically  !
 ! D13   D(3,2,8,6)             20.8883         calculate D2E/DX2 analytically  !
 ! D14   D(3,2,8,9)           -159.3022         calculate D2E/DX2 analytically  !
 ! D15   D(2,3,4,5)             -7.1787         calculate D2E/DX2 analytically  !
 ! D16   D(2,3,4,21)           179.2781         calculate D2E/DX2 analytically  !
 ! D17   D(20,3,4,5)           168.4155         calculate D2E/DX2 analytically  !
 ! D18   D(20,3,4,21)           -5.1278         calculate D2E/DX2 analytically  !
 ! D19   D(3,4,5,6)              8.2042         calculate D2E/DX2 analytically  !
 ! D20   D(3,4,5,22)          -168.7369         calculate D2E/DX2 analytically  !
 ! D21   D(21,4,5,6)          -178.2405         calculate D2E/DX2 analytically  !
 ! D22   D(21,4,5,22)            4.8184         calculate D2E/DX2 analytically  !
 ! D23   D(4,5,6,7)           -169.0128         calculate D2E/DX2 analytically  !
 ! D24   D(4,5,6,8)              6.9802         calculate D2E/DX2 analytically  !
 ! D25   D(22,5,6,7)             8.0757         calculate D2E/DX2 analytically  !
 ! D26   D(22,5,6,8)          -175.9313         calculate D2E/DX2 analytically  !
 ! D27   D(5,6,8,2)            -21.1657         calculate D2E/DX2 analytically  !
 ! D28   D(5,6,8,9)            159.0118         calculate D2E/DX2 analytically  !
 ! D29   D(7,6,8,2)            154.5773         calculate D2E/DX2 analytically  !
 ! D30   D(7,6,8,9)            -25.2452         calculate D2E/DX2 analytically  !
 ! D31   D(2,8,9,10)           169.6986         calculate D2E/DX2 analytically  !
 ! D32   D(2,8,9,15)            -1.4676         calculate D2E/DX2 analytically  !
 ! D33   D(6,8,9,10)           -10.5115         calculate D2E/DX2 analytically  !
 ! D34   D(6,8,9,15)           178.3223         calculate D2E/DX2 analytically  !
 ! D35   D(8,9,10,11)          -12.7235         calculate D2E/DX2 analytically  !
 ! D36   D(8,9,10,12)          172.8528         calculate D2E/DX2 analytically  !
 ! D37   D(15,9,10,11)         159.4005         calculate D2E/DX2 analytically  !
 ! D38   D(15,9,10,12)         -15.0232         calculate D2E/DX2 analytically  !
 ! D39   D(8,9,15,14)         -173.0432         calculate D2E/DX2 analytically  !
 ! D40   D(8,9,15,16)           10.6652         calculate D2E/DX2 analytically  !
 ! D41   D(10,9,15,14)          14.6623         calculate D2E/DX2 analytically  !
 ! D42   D(10,9,15,16)        -161.6292         calculate D2E/DX2 analytically  !
 ! D43   D(9,10,11,23)          32.7115         calculate D2E/DX2 analytically  !
 ! D44   D(12,10,11,23)       -152.3986         calculate D2E/DX2 analytically  !
 ! D45   D(9,10,12,13)           7.5037         calculate D2E/DX2 analytically  !
 ! D46   D(9,10,12,24)        -175.5151         calculate D2E/DX2 analytically  !
 ! D47   D(11,10,12,13)       -167.6699         calculate D2E/DX2 analytically  !
 ! D48   D(11,10,12,24)          9.3112         calculate D2E/DX2 analytically  !
 ! D49   D(10,12,13,14)          2.8313         calculate D2E/DX2 analytically  !
 ! D50   D(10,12,13,25)        179.7157         calculate D2E/DX2 analytically  !
 ! D51   D(24,12,13,14)       -173.969          calculate D2E/DX2 analytically  !
 ! D52   D(24,12,13,25)          2.9153         calculate D2E/DX2 analytically  !
 ! D53   D(12,13,14,15)         -3.8502         calculate D2E/DX2 analytically  !
 ! D54   D(12,13,14,26)        172.7648         calculate D2E/DX2 analytically  !
 ! D55   D(25,13,14,15)        179.2658         calculate D2E/DX2 analytically  !
 ! D56   D(25,13,14,26)         -4.1192         calculate D2E/DX2 analytically  !
 ! D57   D(13,14,15,9)          -5.7978         calculate D2E/DX2 analytically  !
 ! D58   D(13,14,15,16)        170.7066         calculate D2E/DX2 analytically  !
 ! D59   D(26,14,15,9)         177.4111         calculate D2E/DX2 analytically  !
 ! D60   D(26,14,15,16)         -6.0845         calculate D2E/DX2 analytically  !
 --------------------------------------------------------------------------------
 Trust Radius=3.00D-01 FncErr=1.00D-07 GrdErr=1.00D-07 EigMax=2.50D+02 EigMin=1.00D-04
 Number of steps in this run=      2 maximum allowed number of steps=      2.
 Search for a saddle point of order  1.
 GradGradGradGradGradGradGradGradGradGradGradGradGradGradGradGradGradGrad

                          Input orientation:                          
 ---------------------------------------------------------------------
 Center     Atomic      Atomic             Coordinates (Angstroms)
 Number     Number       Type             X           Y           Z
 ---------------------------------------------------------------------
      1          6           0        1.315073    2.586721    0.523896
      2          6           0        1.621875    1.182294    0.024854
      3          6           0        2.976332    1.015801   -0.343134
      4          6           0        3.592433   -0.230140   -0.496412
      5          6           0        2.853898   -1.354812   -0.119905
      6          6           0        1.512369   -1.181687    0.211993
      7          9           0        0.948858   -2.303241    0.795309
      8          6           0        0.744582    0.018929    0.081139
      9          6           0       -0.759469   -0.003268    0.021509
     10          6           0       -1.579952   -1.201786   -0.131157
     11          8           0       -1.145632   -2.433266   -0.480138
     12          6           0       -2.992251   -1.153179   -0.029137
     13          6           0       -3.686940    0.047825    0.068057
     14          6           0       -2.956748    1.240403    0.002775
     15          6           0       -1.565062    1.180630   -0.074299
     16          9           0       -0.988754    2.374343   -0.331300
     17          1           0        1.024037    3.293139   -0.276586
     18          1           0        0.523046    2.600453    1.291680
     19          1           0        2.240131    2.978736    0.992938
     20          1           0        3.585506    1.928354   -0.443774
     21          1           0        4.647451   -0.314817   -0.795852
     22          1           0        3.291714   -2.359013   -0.026266
     23          1           0       -0.241193   -2.603549   -0.144564
     24          1           0       -3.510457   -2.121054   -0.083336
     25          1           0       -4.784796    0.060884    0.141672
     26          1           0       -3.430718    2.230733   -0.045173
 ---------------------------------------------------------------------
                    Distance matrix (angstroms):
                    1          2          3          4          5
     1  C    0.000000
     2  C    1.521705   0.000000
     3  C    2.445263   1.413396   0.000000
     4  C    3.763257   2.479876   1.398372   0.000000
     5  C    4.279970   2.824135   2.384245   1.397167   0.000000
     6  C    3.786438   2.373904   2.698204   2.394565   1.392777
     7  F    4.911161   3.632562   4.052498   3.599274   2.316530
     8  C    2.667405   1.458160   2.480820   2.916480   2.525232
     9  C    3.356212   2.660144   3.889431   4.388481   3.860452
    10  C    4.812800   3.994981   5.071720   5.275516   4.436504
    11  O    5.680090   4.581090   5.376376   5.225255   4.158013
    12  C    5.731121   5.171800   6.358227   6.665464   5.850330
    13  C    5.627959   5.428850   6.745758   7.306515   6.692181
    14  C    4.509168   4.579046   5.947398   6.730785   6.365045
    15  C    3.260384   3.188479   4.552328   5.363600   5.094875
    16  F    2.466593   2.891921   4.191381   5.272368   5.358848
    17  H    1.106571   2.214485   3.000359   4.365602   4.997638
    18  H    1.103172   2.196235   3.346991   4.542099   4.803078
    19  H    1.108787   2.132283   2.486000   3.787317   4.516057
    20  H    2.554349   2.152223   1.101805   2.159147   3.379248
    21  H    4.611442   3.474048   2.183606   1.099953   2.180671
    22  H    5.354444   3.915588   3.404297   2.200811   1.099487
    23  H    5.459643   4.222834   4.846812   4.522560   3.337595
    24  H    6.768872   6.104478   7.210117   7.361877   6.410420
    25  H    6.613195   6.505124   7.834667   8.406534   7.773176
    26  H    4.793027   5.160701   6.528027   7.455479   7.235891
                    6          7          8          9         10
     6  C    0.000000
     7  F    1.384082   0.000000
     8  C    1.431118   2.438081   0.000000
     9  C    2.566361   2.967663   1.505397   0.000000
    10  C    3.111367   2.909711   2.634136   1.460460   0.000000
    11  O    3.018355   2.455719   3.146618   2.511108   1.351653
    12  C    4.511160   4.187445   3.917898   2.512007   1.416813
    13  C    5.344646   5.248527   4.431636   2.928287   2.457766
    14  C    5.087564   5.332849   3.898460   2.524897   2.806740
    15  C    3.890127   4.383305   2.590013   1.435191   2.383140
    16  F    4.381340   5.186846   2.953394   2.414556   3.630189
    17  H    4.527831   5.698603   3.305528   3.759794   5.196754
    18  H    4.055745   4.947111   2.859852   3.168207   4.572098
    19  H    4.295187   5.441114   3.439259   4.339772   5.773507
    20  H    3.794770   5.137473   3.462988   4.777704   6.047930
    21  H    3.405283   4.490569   4.014086   5.477219   6.325273
    22  H    2.146842   2.483359   3.486262   4.686566   5.008324
    23  H    2.285564   1.545887   2.810709   2.656624   1.938400
    24  H    5.118439   4.548703   4.765705   3.473320   2.138736
    25  H    6.418973   6.236274   5.529869   4.027631   3.455401
    26  H    6.012060   6.359561   4.726645   3.482927   3.900630
                   11         12         13         14         15
    11  O    0.000000
    12  C    2.291730   0.000000
    13  C    3.593686   1.390845   0.000000
    14  C    4.124221   2.394058   1.399887   0.000000
    15  C    3.660720   2.735978   2.409540   1.395100   0.000000
    16  F    4.812471   4.068012   3.585022   2.295742   1.350234
    17  H    6.127040   5.996795   5.730982   4.487585   3.347693
    18  H    5.591257   5.309579   5.073179   3.952212   2.870886
    19  H    6.551573   6.745012   6.676512   5.568642   4.341851
    20  H    6.434960   7.275621   7.529066   6.593464   5.217657
    21  H    6.176351   7.723714   8.386890   7.802587   6.430576
    22  H    4.461116   6.398614   7.382641   7.211097   6.009963
    23  H    0.979600   3.112108   4.352949   4.708706   4.009685
    24  H    2.418125   1.099207   2.181307   3.407844   3.832201
    25  H    4.455440   2.171714   1.100398   2.179981   3.415723
    26  H    5.211882   3.412239   2.200809   1.098954   2.141084
                   16         17         18         19         20
    16  F    0.000000
    17  H    2.213257   0.000000
    18  H    2.229512   1.786131   0.000000
    19  H    3.541834   1.785896   1.783459   0.000000
    20  H    4.597326   2.907183   3.583598   2.231027   0.000000
    21  H    6.262124   5.139661   5.465099   4.454487   2.506692
    22  H    6.389062   6.095231   5.830849   5.534995   4.317655
    23  H    5.037174   6.032343   5.452383   6.213918   5.938964
    24  H    5.160337   7.064876   6.360223   7.761153   8.178039
    25  H    4.470541   6.660702   5.995424   7.654287   8.596054
    26  H    2.462861   4.585532   4.190002   5.813408   7.034040
                   21         22         23         24         25
    21  H    0.000000
    22  H    2.570802   0.000000
    23  H    5.437031   3.543335   0.000000
    24  H    8.385800   6.806572   3.305244   0.000000
    25  H    9.486168   8.432919   5.274984   2.536813   0.000000
    26  H    8.502950   8.139854   5.792515   4.352685   2.564505
                   26
    26  H    0.000000
 Stoichiometry    C13H10F2O
 Framework group  C1[X(C13H10F2O)]
 Deg. of freedom    72
 Full point group                 C1      NOp   1
 Largest Abelian subgroup         C1      NOp   1
 Largest concise Abelian subgroup C1      NOp   1
                         Standard orientation:                         
 ---------------------------------------------------------------------
 Center     Atomic      Atomic             Coordinates (Angstroms)
 Number     Number       Type             X           Y           Z
 ---------------------------------------------------------------------
      1          6           0        1.311878    2.585719    0.546331
      2          6           0        1.619178    1.184574    0.038448
      3          6           0        2.973816    1.020720   -0.330054
      4          6           0        3.590243   -0.224087   -0.491043
      5          6           0        2.851797   -1.351296   -0.122026
      6          6           0        1.510099   -1.180578    0.210435
      7          9           0        0.946594   -2.305954    0.786347
      8          6           0        0.742110    0.020689    0.086948
      9          6           0       -0.761913   -0.001442    0.026576
     10          6           0       -1.582081   -1.199132   -0.134074
     11          8           0       -1.147360   -2.428266   -0.490743
     12          6           0       -2.994431   -1.151475   -0.032310
     13          6           0       -3.689414    0.048738    0.072277
     14          6           0       -2.959449    1.241862    0.014910
     15          6           0       -1.567719    1.182875   -0.061988
     16          9           0       -0.991562    2.378327   -0.311125
     17          1           0        1.021012    3.297177   -0.249736
     18          1           0        0.519542    2.594378    1.313870
     19          1           0        2.236666    2.974923    1.018239
     20          1           0        3.582836    1.934025   -0.424618
     21          1           0        4.645398   -0.306628   -0.790597
     22          1           0        3.289789   -2.355984   -0.034630
     23          1           0       -0.243019   -2.600500   -0.155901
     24          1           0       -3.512410   -2.119092   -0.092900
     25          1           0       -4.787301    0.061096    0.145536
     26          1           0       -3.433610    2.232379   -0.026899
 ---------------------------------------------------------------------
 Rotational constants (GHZ):           0.8393131           0.4707585           0.3127842
 Standard basis: def2SVP (5D, 7F)
 There are   290 symmetry adapted cartesian basis functions of A   symmetry.
 There are   274 symmetry adapted basis functions of A   symmetry.
   274 basis functions,   470 primitive gaussians,   290 cartesian basis functions
    57 alpha electrons       57 beta electrons
       nuclear repulsion energy      1069.5779776944 Hartrees.
 NAtoms=   26 NActive=   26 NUniq=   26 SFac= 1.00D+00 NAtFMM=   60 NAOKFM=F Big=F
 Integral buffers will be    131072 words long.
 Raffenetti 2 integral format.
 Two-electron integral symmetry is turned on.
 Nuclear repulsion after empirical dispersion term =     1069.5264264233 Hartrees.
 One-electron integrals computed using PRISM.
   1 Symmetry operations used in ECPInt.
 ECPInt:  NShTT=    8001 NPrTT=   29641 LenC2=    7591 LenP2D=   20283.
 LDataN:  DoStor=T MaxTD1= 4 Len=   56
 NBasis=   274 RedAO= T EigKep=  3.15D-04  NBF=   274
 NBsUse=   274 1.00D-06 EigRej= -1.00D+00 NBFU=   274
 Initial guess from the checkpoint file:  "/scratch/gaussian_tmp/Gau-3600660.chk"
 B after Tr=    -0.000000    0.000000   -0.000000
         Rot=    1.000000   -0.000000   -0.000000   -0.000000 Ang=   0.00 deg.
 Requested convergence on RMS density matrix=1.00D-08 within 128 cycles.
 Requested convergence on MAX density matrix=1.00D-06.
 Requested convergence on             energy=1.00D-06.
 No special actions if energy rises.
 SCF Done:  E(RB-P86) =  -775.751000676     A.U. after    1 cycles
            NFock=  1  Conv=0.56D-08     -V/T= 2.0104
 DoSCS=F DFT=T ScalE2(SS,OS)=  1.000000  1.000000
 Range of M.O.s used for correlation:     1   274
 NBasis=   274 NAE=    57 NBE=    57 NFC=     0 NFV=     0
 NROrb=    274 NOA=    57 NOB=    57 NVA=   217 NVB=   217

 **** Warning!!: The largest alpha MO coefficient is  0.10054887D+02

   1 Symmetry operations used in ECPInt.
 ECPInt:  NShTT=    8001 NPrTT=   29641 LenC2=    7591 LenP2D=   20283.
 LDataN:  DoStor=T MaxTD1= 5 Len=  102
 Symmetrizing basis deriv contribution to polar:
 IMax=3 JMax=2 DiffMx= 0.00D+00
 G2DrvN: will do    27 centers at a time, making    1 passes.
 Calling FoFCou, ICntrl=  3507 FMM=F I1Cent=   0 AccDes= 0.00D+00.
 End of G2Drv F.D. properties file   721 does not exist.
 End of G2Drv F.D. properties file   722 does not exist.
 End of G2Drv F.D. properties file   788 does not exist.
          IDoAtm=11111111111111111111111111
          Differentiating once with respect to electric field.
                with respect to dipole field.
          Differentiating once with respect to nuclear coordinates.
 Keep J ints in memory in canonical form, NReq=722056073.
          There are    81 degrees of freedom in the 1st order CPHF.  IDoFFX=6 NUNeed=     3.
     78 vectors produced by pass  0 Test12= 1.53D-14 1.23D-09 XBig12= 6.84D+02 1.57D+01.
 AX will form    78 AO Fock derivatives at one time.
     78 vectors produced by pass  1 Test12= 1.53D-14 1.23D-09 XBig12= 1.67D+02 2.77D+00.
     78 vectors produced by pass  2 Test12= 1.53D-14 1.23D-09 XBig12= 1.08D+00 9.13D-02.
     78 vectors produced by pass  3 Test12= 1.53D-14 1.23D-09 XBig12= 2.64D-03 4.15D-03.
     75 vectors produced by pass  4 Test12= 1.53D-14 1.23D-09 XBig12= 1.11D-06 7.75D-05.
     26 vectors produced by pass  5 Test12= 1.53D-14 1.23D-09 XBig12= 1.39D-10 7.00D-07.
      3 vectors produced by pass  6 Test12= 1.53D-14 1.23D-09 XBig12= 1.67D-14 9.27D-09.
 InvSVY:  IOpt=1 It=  1 EMax= 7.11D-15
 Solved reduced A of dimension   416 with    81 vectors.
 Isotropic polarizability for W=    0.000000      157.86 Bohr**3.
 End of Minotr F.D. properties file   721 does not exist.
 End of Minotr F.D. properties file   722 does not exist.
 End of Minotr F.D. properties file   788 does not exist.

 **********************************************************************

            Population analysis using the SCF Density.

 **********************************************************************

 Orbital symmetries:
       Occupied  (A) (A) (A) (A) (A) (A) (A) (A) (A) (A) (A) (A)
                 (A) (A) (A) (A) (A) (A) (A) (A) (A) (A) (A) (A)
                 (A) (A) (A) (A) (A) (A) (A) (A) (A) (A) (A) (A)
                 (A) (A) (A) (A) (A) (A) (A) (A) (A) (A) (A) (A)
                 (A) (A) (A) (A) (A) (A) (A) (A) (A)
       Virtual   (A) (A) (A) (A) (A) (A) (A) (A) (A) (A) (A) (A)
                 (A) (A) (A) (A) (A) (A) (A) (A) (A) (A) (A) (A)
                 (A) (A) (A) (A) (A) (A) (A) (A) (A) (A) (A) (A)
                 (A) (A) (A) (A) (A) (A) (A) (A) (A) (A) (A) (A)
                 (A) (A) (A) (A) (A) (A) (A) (A) (A) (A) (A) (A)
                 (A) (A) (A) (A) (A) (A) (A) (A) (A) (A) (A) (A)
                 (A) (A) (A) (A) (A) (A) (A) (A) (A) (A) (A) (A)
                 (A) (A) (A) (A) (A) (A) (A) (A) (A) (A) (A) (A)
                 (A) (A) (A) (A) (A) (A) (A) (A) (A) (A) (A) (A)
                 (A) (A) (A) (A) (A) (A) (A) (A) (A) (A) (A) (A)
                 (A) (A) (A) (A) (A) (A) (A) (A) (A) (A) (A) (A)
                 (A) (A) (A) (A) (A) (A) (A) (A) (A) (A) (A) (A)
                 (A) (A) (A) (A) (A) (A) (A) (A) (A) (A) (A) (A)
                 (A) (A) (A) (A) (A) (A) (A) (A) (A) (A) (A) (A)
                 (A) (A) (A) (A) (A) (A) (A) (A) (A) (A) (A) (A)
                 (A) (A) (A) (A) (A) (A) (A) (A) (A) (A) (A) (A)
                 (A) (A) (A) (A) (A) (A) (A) (A) (A) (A) (A) (A)
                 (A) (A) (A) (A) (A) (A) (A) (A) (A) (A) (A) (A)
                 (A)
 The electronic state is 1-A.
 Alpha  occ. eigenvalues --  -24.33321 -24.30363 -18.80094 -10.01160 -10.00336
 Alpha  occ. eigenvalues --   -9.98896  -9.96251  -9.95146  -9.94811  -9.93315
 Alpha  occ. eigenvalues --   -9.93241  -9.92721  -9.92484  -9.91750  -9.91690
 Alpha  occ. eigenvalues --   -9.91213  -1.13490  -1.11374  -0.96077  -0.79513
 Alpha  occ. eigenvalues --   -0.77254  -0.71563  -0.70152  -0.66810  -0.66210
 Alpha  occ. eigenvalues --   -0.62549  -0.58959  -0.56159  -0.55006  -0.53583
 Alpha  occ. eigenvalues --   -0.51757  -0.48583  -0.47911  -0.46179  -0.44244
 Alpha  occ. eigenvalues --   -0.43472  -0.42991  -0.42334  -0.41730  -0.40421
 Alpha  occ. eigenvalues --   -0.38724  -0.38179  -0.38043  -0.36626  -0.35943
 Alpha  occ. eigenvalues --   -0.34297  -0.33945  -0.33124  -0.32905  -0.31026
 Alpha  occ. eigenvalues --   -0.30654  -0.30251  -0.28621  -0.26722  -0.22480
 Alpha  occ. eigenvalues --   -0.20898  -0.19734
 Alpha virt. eigenvalues --   -0.09117  -0.04999  -0.03062  -0.02554   0.02489
 Alpha virt. eigenvalues --    0.03871   0.04614   0.06545   0.07596   0.08105
 Alpha virt. eigenvalues --    0.09552   0.10062   0.11033   0.11138   0.12040
 Alpha virt. eigenvalues --    0.12681   0.13909   0.15801   0.17027   0.19040
 Alpha virt. eigenvalues --    0.19904   0.21881   0.23659   0.25090   0.25688
 Alpha virt. eigenvalues --    0.26494   0.27595   0.28563   0.29592   0.30600
 Alpha virt. eigenvalues --    0.32715   0.34903   0.35993   0.36576   0.37320
 Alpha virt. eigenvalues --    0.38768   0.39668   0.40282   0.41627   0.41683
 Alpha virt. eigenvalues --    0.42374   0.42847   0.43958   0.44245   0.45790
 Alpha virt. eigenvalues --    0.46815   0.47250   0.48755   0.49905   0.51281
 Alpha virt. eigenvalues --    0.51964   0.52099   0.53256   0.53896   0.55301
 Alpha virt. eigenvalues --    0.56002   0.56806   0.58424   0.59089   0.59563
 Alpha virt. eigenvalues --    0.60468   0.61052   0.61473   0.61935   0.62632
 Alpha virt. eigenvalues --    0.63573   0.64674   0.64932   0.65576   0.65952
 Alpha virt. eigenvalues --    0.67392   0.68396   0.70167   0.71425   0.71826
 Alpha virt. eigenvalues --    0.72590   0.73853   0.75076   0.76094   0.77810
 Alpha virt. eigenvalues --    0.80953   0.82075   0.82239   0.88348   0.92104
 Alpha virt. eigenvalues --    0.94138   0.95486   0.96690   0.97956   1.00983
 Alpha virt. eigenvalues --    1.04361   1.05268   1.07615   1.09292   1.10430
 Alpha virt. eigenvalues --    1.11861   1.14035   1.15937   1.17287   1.19332
 Alpha virt. eigenvalues --    1.20995   1.22144   1.23028   1.25446   1.27234
 Alpha virt. eigenvalues --    1.28094   1.31041   1.31350   1.34570   1.35885
 Alpha virt. eigenvalues --    1.37117   1.38463   1.42298   1.44012   1.46710
 Alpha virt. eigenvalues --    1.49383   1.52312   1.55075   1.56841   1.57300
 Alpha virt. eigenvalues --    1.58842   1.59224   1.61602   1.61908   1.62573
 Alpha virt. eigenvalues --    1.63303   1.64006   1.64375   1.65345   1.65979
 Alpha virt. eigenvalues --    1.67153   1.67549   1.70638   1.71865   1.72247
 Alpha virt. eigenvalues --    1.72518   1.73501   1.74562   1.76059   1.77877
 Alpha virt. eigenvalues --    1.78069   1.81290   1.82862   1.84609   1.85783
 Alpha virt. eigenvalues --    1.86231   1.87419   1.90125   1.90716   1.92678
 Alpha virt. eigenvalues --    1.93971   1.95508   1.96852   1.97715   1.99057
 Alpha virt. eigenvalues --    1.99904   2.01767   2.04673   2.05793   2.08895
 Alpha virt. eigenvalues --    2.09186   2.09663   2.13706   2.15170   2.17441
 Alpha virt. eigenvalues --    2.17614   2.18544   2.19534   2.20259   2.23422
 Alpha virt. eigenvalues --    2.23591   2.28350   2.31101   2.33343   2.35495
 Alpha virt. eigenvalues --    2.36549   2.37786   2.43557   2.45120   2.46969
 Alpha virt. eigenvalues --    2.48296   2.48737   2.52161   2.54760   2.55240
 Alpha virt. eigenvalues --    2.59344   2.61626   2.62758   2.65398   2.67591
 Alpha virt. eigenvalues --    2.68850   2.75869   2.77535   2.81023   2.81770
 Alpha virt. eigenvalues --    2.83985   2.86907   2.88458   2.90075   2.93030
 Alpha virt. eigenvalues --    2.93703   2.98042   3.00540   3.02023   3.06674
 Alpha virt. eigenvalues --    3.10026   3.12393   3.15354   3.20185   3.29592
 Alpha virt. eigenvalues --    3.32256   3.38543   3.43450   3.48015   3.67792
 Alpha virt. eigenvalues --    3.74536   3.79131
          Condensed to atoms (all electrons):
               1          2          3          4          5          6
     1  C    4.556672   0.438273  -0.073882   0.013358   0.000082   0.009005
     2  C    0.438273   5.192671   0.362579   0.057248  -0.117530   0.037834
     3  C   -0.073882   0.362579   5.091107   0.293952   0.083895  -0.134504
     4  C    0.013358   0.057248   0.293952   5.069122   0.238170   0.089310
     5  C    0.000082  -0.117530   0.083895   0.238170   5.195302   0.321491
     6  C    0.009005   0.037834  -0.134504   0.089310   0.321491   5.208627
     7  F   -0.000015   0.001790  -0.000002   0.005066  -0.059215   0.299482
     8  C   -0.063167   0.303673   0.032524  -0.088704  -0.003490   0.209590
     9  C   -0.019251  -0.046321   0.013935  -0.000238   0.011282  -0.064451
    10  C   -0.000363   0.007952   0.000262  -0.000239   0.001378  -0.026608
    11  O   -0.000003  -0.000022   0.000001   0.000002  -0.001034   0.008008
    12  C    0.000001   0.000112  -0.000002   0.000001  -0.000043   0.001640
    13  C   -0.000020  -0.000080   0.000001  -0.000000   0.000002  -0.000286
    14  C   -0.000014   0.000299  -0.000017   0.000001  -0.000002   0.000163
    15  C   -0.001285  -0.022083   0.000140  -0.000060  -0.000050   0.011186
    16  F    0.004697  -0.004163  -0.000128   0.000002  -0.000002   0.000287
    17  H    0.357990  -0.000179  -0.000061  -0.000198  -0.000048  -0.000238
    18  H    0.372307  -0.002335   0.007879  -0.000860   0.000209  -0.000829
    19  H    0.376127  -0.023474  -0.018742   0.002012  -0.000056  -0.000020
    20  H   -0.018386  -0.065034   0.424893  -0.066042   0.013758  -0.000523
    21  H   -0.000411   0.014371  -0.064883   0.432245  -0.070549   0.013573
    22  H    0.000017  -0.000894   0.012519  -0.064251   0.414963  -0.057902
    23  H   -0.000001   0.000444  -0.000069   0.000241  -0.002116  -0.017063
    24  H    0.000000   0.000001  -0.000000   0.000000   0.000001   0.000006
    25  H    0.000000  -0.000000   0.000000   0.000000  -0.000000   0.000001
    26  H   -0.000010   0.000027  -0.000000   0.000000  -0.000000   0.000001
               7          8          9         10         11         12
     1  C   -0.000015  -0.063167  -0.019251  -0.000363  -0.000003   0.000001
     2  C    0.001790   0.303673  -0.046321   0.007952  -0.000022   0.000112
     3  C   -0.000002   0.032524   0.013935   0.000262   0.000001  -0.000002
     4  C    0.005066  -0.088704  -0.000238  -0.000239   0.000002   0.000001
     5  C   -0.059215  -0.003490   0.011282   0.001378  -0.001034  -0.000043
     6  C    0.299482   0.209590  -0.064451  -0.026608   0.008008   0.001640
     7  F    8.989374  -0.069272   0.001663   0.001230  -0.026976  -0.000482
     8  C   -0.069272   5.457252   0.229192  -0.067364  -0.004229   0.009150
     9  C    0.001663   0.229192   5.752339   0.136034  -0.074804   0.008817
    10  C    0.001230  -0.067364   0.136034   5.182408   0.455960   0.289365
    11  O   -0.026976  -0.004229  -0.074804   0.455960   7.556058  -0.089498
    12  C   -0.000482   0.009150   0.008817   0.289365  -0.089498   5.252398
    13  C    0.000001  -0.000040  -0.103034   0.114368   0.005904   0.213931
    14  C    0.000000   0.013441   0.002203  -0.139927   0.000105   0.108290
    15  C    0.000152  -0.055922   0.166917   0.091740   0.001448  -0.137517
    16  F   -0.000000  -0.000347  -0.073971   0.001831  -0.000001   0.000032
    17  H    0.000000  -0.000993   0.003872   0.000031   0.000000  -0.000002
    18  H   -0.000004  -0.011387   0.005312   0.000186   0.000001  -0.000011
    19  H    0.000001   0.006996  -0.000633   0.000005   0.000000   0.000000
    20  H    0.000004   0.015041  -0.000231   0.000001   0.000000  -0.000000
    21  H   -0.000074  -0.001321   0.000017   0.000000  -0.000000   0.000000
    22  H    0.000815   0.017098  -0.000279   0.000053   0.000008  -0.000000
    23  H    0.051462   0.005634  -0.011812  -0.024912   0.338494   0.004722
    24  H    0.000017  -0.000194   0.019853  -0.056246   0.003592   0.415510
    25  H   -0.000000   0.000011  -0.001942   0.014438  -0.000111  -0.069369
    26  H   -0.000000  -0.000227   0.019150  -0.001342   0.000006   0.013480
              13         14         15         16         17         18
     1  C   -0.000020  -0.000014  -0.001285   0.004697   0.357990   0.372307
     2  C   -0.000080   0.000299  -0.022083  -0.004163  -0.000179  -0.002335
     3  C    0.000001  -0.000017   0.000140  -0.000128  -0.000061   0.007879
     4  C   -0.000000   0.000001  -0.000060   0.000002  -0.000198  -0.000860
     5  C    0.000002  -0.000002  -0.000050  -0.000002  -0.000048   0.000209
     6  C   -0.000286   0.000163   0.011186   0.000287  -0.000238  -0.000829
     7  F    0.000001   0.000000   0.000152  -0.000000   0.000000  -0.000004
     8  C   -0.000040   0.013441  -0.055922  -0.000347  -0.000993  -0.011387
     9  C   -0.103034   0.002203   0.166917  -0.073971   0.003872   0.005312
    10  C    0.114368  -0.139927   0.091740   0.001831   0.000031   0.000186
    11  O    0.005904   0.000105   0.001448  -0.000001   0.000000   0.000001
    12  C    0.213931   0.108290  -0.137517   0.000032  -0.000002  -0.000011
    13  C    5.173439   0.165667   0.114567   0.005218   0.000002   0.000074
    14  C    0.165667   5.283197   0.317362  -0.061588  -0.000178  -0.001240
    15  C    0.114567   0.317362   5.056709   0.359651  -0.002165   0.001305
    16  F    0.005218  -0.061588   0.359651   8.927770   0.003330  -0.001542
    17  H    0.000002  -0.000178  -0.002165   0.003330   0.624836  -0.018024
    18  H    0.000074  -0.001240   0.001305  -0.001542  -0.018024   0.641989
    19  H   -0.000001   0.000036   0.000190   0.001717  -0.023231  -0.028659
    20  H    0.000000  -0.000000   0.000024  -0.000011   0.002018   0.000530
    21  H   -0.000000   0.000000   0.000000   0.000000   0.000013   0.000010
    22  H    0.000000  -0.000000   0.000001  -0.000000  -0.000001  -0.000001
    23  H    0.000015  -0.000160   0.000206   0.000001   0.000000   0.000002
    24  H   -0.073318   0.014348  -0.001540   0.000004  -0.000000  -0.000000
    25  H    0.436305  -0.070772   0.014058  -0.000084   0.000000  -0.000001
    26  H   -0.069505   0.416105  -0.059294   0.001758   0.000025   0.000041
              19         20         21         22         23         24
     1  C    0.376127  -0.018386  -0.000411   0.000017  -0.000001   0.000000
     2  C   -0.023474  -0.065034   0.014371  -0.000894   0.000444   0.000001
     3  C   -0.018742   0.424893  -0.064883   0.012519  -0.000069  -0.000000
     4  C    0.002012  -0.066042   0.432245  -0.064251   0.000241   0.000000
     5  C   -0.000056   0.013758  -0.070549   0.414963  -0.002116   0.000001
     6  C   -0.000020  -0.000523   0.013573  -0.057902  -0.017063   0.000006
     7  F    0.000001   0.000004  -0.000074   0.000815   0.051462   0.000017
     8  C    0.006996   0.015041  -0.001321   0.017098   0.005634  -0.000194
     9  C   -0.000633  -0.000231   0.000017  -0.000279  -0.011812   0.019853
    10  C    0.000005   0.000001   0.000000   0.000053  -0.024912  -0.056246
    11  O    0.000000   0.000000  -0.000000   0.000008   0.338494   0.003592
    12  C    0.000000  -0.000000   0.000000  -0.000000   0.004722   0.415510
    13  C   -0.000001   0.000000  -0.000000   0.000000   0.000015  -0.073318
    14  C    0.000036  -0.000000   0.000000  -0.000000  -0.000160   0.014348
    15  C    0.000190   0.000024   0.000000   0.000001   0.000206  -0.001540
    16  F    0.001717  -0.000011   0.000000  -0.000000   0.000001   0.000004
    17  H   -0.023231   0.002018   0.000013  -0.000001   0.000000  -0.000000
    18  H   -0.028659   0.000530   0.000010  -0.000001   0.000002  -0.000000
    19  H    0.671021   0.004752  -0.000017  -0.000002  -0.000001  -0.000000
    20  H    0.004752   0.700419  -0.012385  -0.000366  -0.000001   0.000000
    21  H   -0.000017  -0.012385   0.688866  -0.011754   0.000003  -0.000000
    22  H   -0.000002  -0.000366  -0.011754   0.673878   0.000138  -0.000000
    23  H   -0.000001  -0.000001   0.000003   0.000138   0.469861   0.000022
    24  H   -0.000000   0.000000  -0.000000  -0.000000   0.000022   0.686143
    25  H    0.000000  -0.000000   0.000000  -0.000000   0.000012  -0.013183
    26  H   -0.000002  -0.000000  -0.000000   0.000000  -0.000002  -0.000306
              25         26
     1  C    0.000000  -0.000010
     2  C   -0.000000   0.000027
     3  C    0.000000  -0.000000
     4  C    0.000000   0.000000
     5  C   -0.000000  -0.000000
     6  C    0.000001   0.000001
     7  F   -0.000000  -0.000000
     8  C    0.000011  -0.000227
     9  C   -0.001942   0.019150
    10  C    0.014438  -0.001342
    11  O   -0.000111   0.000006
    12  C   -0.069369   0.013480
    13  C    0.436305  -0.069505
    14  C   -0.070772   0.416105
    15  C    0.014058  -0.059294
    16  F   -0.000084   0.001758
    17  H    0.000000   0.000025
    18  H   -0.000001   0.000041
    19  H    0.000000  -0.000002
    20  H   -0.000000  -0.000000
    21  H    0.000000  -0.000000
    22  H   -0.000000   0.000000
    23  H    0.000012  -0.000002
    24  H   -0.013183  -0.000306
    25  H    0.691581  -0.012317
    26  H   -0.012317   0.685390
 Mulliken charges:
               1
     1  C    0.048278
     2  C   -0.135159
     3  C   -0.031395
     4  C    0.019861
     5  C   -0.026398
     6  C    0.092219
     7  F   -0.195017
     8  C    0.067055
     9  C    0.026380
    10  C    0.019758
    11  O   -0.172909
    12  C   -0.020525
    13  C    0.016791
    14  C   -0.047320
    15  C    0.144259
    16  F   -0.164461
    17  H    0.053199
    18  H    0.035048
    19  H    0.031981
    20  H    0.001540
    21  H    0.012295
    22  H    0.015959
    23  H    0.184879
    24  H    0.005289
    25  H    0.011374
    26  H    0.007020
 Sum of Mulliken charges =  -0.00000
 Mulliken charges with hydrogens summed into heavy atoms:
               1
     1  C    0.168506
     2  C   -0.135159
     3  C   -0.029856
     4  C    0.032156
     5  C   -0.010440
     6  C    0.092219
     7  F   -0.195017
     8  C    0.067055
     9  C    0.026380
    10  C    0.019758
    11  O    0.011970
    12  C   -0.015236
    13  C    0.028165
    14  C   -0.040300
    15  C    0.144259
    16  F   -0.164461
 APT charges:
               1
     1  C    0.019299
     2  C    0.050273
     3  C   -0.076905
     4  C   -0.010663
     5  C   -0.131538
     6  C    0.397585
     7  F   -0.486064
     8  C    0.145695
     9  C   -0.213707
    10  C    0.483951
    11  O   -0.651593
    12  C   -0.154950
    13  C    0.098834
    14  C   -0.276153
    15  C    0.563391
    16  F   -0.449113
    17  H    0.020580
    18  H    0.012386
    19  H   -0.014310
    20  H    0.028895
    21  H    0.040195
    22  H    0.067345
    23  H    0.390837
    24  H    0.049025
    25  H    0.039150
    26  H    0.057555
 Sum of APT charges =   0.00000
 APT charges with hydrogens summed into heavy atoms:
               1
     1  C    0.037955
     2  C    0.050273
     3  C   -0.048010
     4  C    0.029532
     5  C   -0.064194
     6  C    0.397585
     7  F   -0.486064
     8  C    0.145695
     9  C   -0.213707
    10  C    0.483951
    11  O   -0.260755
    12  C   -0.105924
    13  C    0.137984
    14  C   -0.218599
    15  C    0.563391
    16  F   -0.449113
 Electronic spatial extent (au):  <R**2>=           3383.6201
 Charge=             -0.0000 electrons
 Dipole moment (field-independent basis, Debye):
    X=              1.4308    Y=              0.6028    Z=              0.3780  Tot=              1.5979
 Quadrupole moment (field-independent basis, Debye-Ang):
   XX=            -79.0671   YY=            -88.3141   ZZ=            -95.3841
   XY=             -2.2722   XZ=             -1.9064   YZ=              0.1464
 Traceless Quadrupole moment (field-independent basis, Debye-Ang):
   XX=              8.5213   YY=             -0.7257   ZZ=             -7.7957
   XY=             -2.2722   XZ=             -1.9064   YZ=              0.1464
 Octapole moment (field-independent basis, Debye-Ang**2):
  XXX=             -4.0029  YYY=             -4.8712  ZZZ=              3.5990  XYY=             12.0625
  XXY=             -0.6226  XXZ=             -4.8188  XZZ=              0.7151  YZZ=             -0.2878
  YYZ=              3.5200  XYZ=              2.4366
 Hexadecapole moment (field-independent basis, Debye-Ang**3):
 XXXX=          -2591.6410 YYYY=          -1359.5835 ZZZZ=           -165.1885 XXXY=            -41.7163
 XXXZ=            -29.8909 YYYX=            -42.8125 YYYZ=            -19.9859 ZZZX=             15.7521
 ZZZY=            -15.8365 XXYY=           -662.3124 XXZZ=           -549.6688 YYZZ=           -264.5400
 XXYZ=             -5.4270 YYXZ=             -3.8096 ZZXY=             -7.3384
 N-N= 1.069526426423D+03 E-N=-3.950118661167D+03  KE= 7.677390364455D+02
  Exact polarizability:     239.024      -0.425     164.312     -10.136       2.985      70.244
 Approx polarizability:     469.680      -5.753     375.997     -29.465       1.953     129.128
   1 Symmetry operations used in ECPInt.
 ECPInt:  NShTT=    8001 NPrTT=   29641 LenC2=    7591 LenP2D=   20283.
 LDataN:  DoStor=T MaxTD1= 6 Len=  172
 Calling FoFJK, ICntrl=    100527 FMM=F ISym2X=0 I1Cent= 0 IOpClX= 0 NMat=1 NMatS=1 NMatT=0.
 Full mass-weighted force constant matrix:
 Low frequencies ---  -78.0277   -3.7774   -1.9128   -1.2249   -0.0003    0.0003
 Low frequencies ---    0.0005   46.2162  118.2088
 ******    1 imaginary frequencies (negative Signs) ****** 
 Diagonal vibrational polarizability:
       11.3485106      13.2507888      18.7339269
 Harmonic frequencies (cm**-1), IR intensities (KM/Mole), Raman scattering
 activities (A**4/AMU), depolarization ratios for plane and unpolarized
 incident light, reduced masses (AMU), force constants (mDyne/A),
 and normal coordinates:
                      1                      2                      3
                      A                      A                      A
 Frequencies --    -78.0273                46.2160               118.2088
 Red. masses --      5.5886                 5.2518                 6.5145
 Frc consts  --      0.0200                 0.0066                 0.0536
 IR Inten    --      0.0854                 0.2415                 1.3576
  Atom  AN      X      Y      Z        X      Y      Z        X      Y      Z
     1   6     0.10   0.08  -0.25    -0.04   0.03  -0.14    -0.04  -0.08   0.21
     2   6     0.04   0.01  -0.10     0.02   0.00  -0.02    -0.02  -0.01   0.03
     3   6     0.04  -0.07  -0.07     0.06  -0.00   0.14    -0.06  -0.02  -0.10
     4   6     0.00  -0.10   0.02     0.08  -0.00   0.23    -0.12  -0.05  -0.16
     5   6    -0.04  -0.05   0.09     0.03  -0.00   0.13    -0.09  -0.04  -0.03
     6   6    -0.03   0.02   0.07    -0.00  -0.00  -0.02    -0.06  -0.00   0.08
     7   9    -0.08   0.07   0.13    -0.07  -0.02  -0.14    -0.09   0.09   0.24
     8   6     0.01   0.03  -0.01     0.01   0.00  -0.07    -0.02   0.01   0.03
     9   6     0.00   0.03  -0.00     0.01   0.00  -0.08     0.02   0.03  -0.00
    10   6     0.04   0.01  -0.09     0.00   0.00  -0.04     0.08   0.02  -0.07
    11   8     0.10   0.04  -0.16    -0.03   0.03  -0.18     0.16   0.09  -0.24
    12   6     0.04  -0.05  -0.11     0.02  -0.01   0.15     0.09  -0.03   0.02
    13   6    -0.01  -0.08  -0.04     0.02  -0.01   0.26     0.08  -0.05   0.13
    14   6    -0.05  -0.05   0.07     0.01  -0.01   0.15     0.03  -0.01   0.08
    15   6    -0.04   0.00   0.10    -0.00  -0.00  -0.03     0.02   0.02  -0.03
    16   9    -0.09   0.06   0.26    -0.04  -0.01  -0.16     0.02  -0.00  -0.19
    17   1    -0.05  -0.05  -0.31    -0.06  -0.05  -0.20     0.08   0.06   0.30
    18   1     0.23   0.17  -0.12    -0.05   0.07  -0.15    -0.14  -0.19   0.12
    19   1     0.17   0.17  -0.46    -0.06   0.11  -0.16    -0.09  -0.20   0.40
    20   1     0.07  -0.10  -0.14     0.07  -0.00   0.18    -0.04  -0.04  -0.13
    21   1     0.00  -0.16   0.03     0.12  -0.00   0.35    -0.16  -0.08  -0.27
    22   1    -0.07  -0.06   0.15     0.02  -0.01   0.17    -0.08  -0.03  -0.02
    23   1     0.05   0.02  -0.05     0.00   0.01  -0.30     0.08   0.02  -0.05
    24   1     0.07  -0.06  -0.19     0.01  -0.01   0.19     0.10  -0.04  -0.01
    25   1    -0.01  -0.12  -0.06     0.03  -0.02   0.42     0.08  -0.07   0.23
    26   1    -0.08  -0.07   0.16    -0.01  -0.01   0.19    -0.02  -0.04   0.09
                      4                      5                      6
                      A                      A                      A
 Frequencies --    181.7865               198.2577               205.2050
 Red. masses --      4.6466                 7.1603                 4.2455
 Frc consts  --      0.0905                 0.1658                 0.1053
 IR Inten    --      0.7983                 1.1388                 0.4222
  Atom  AN      X      Y      Z        X      Y      Z        X      Y      Z
     1   6    -0.01  -0.02   0.04     0.14   0.18   0.04     0.02  -0.11   0.12
     2   6    -0.08   0.02  -0.13     0.01   0.12   0.06     0.01  -0.03  -0.11
     3   6    -0.10   0.06  -0.24    -0.00   0.05   0.05    -0.00  -0.01  -0.15
     4   6    -0.00   0.08   0.03    -0.06   0.03  -0.03     0.04  -0.02   0.04
     5   6     0.09   0.09   0.25    -0.08   0.03  -0.06     0.06   0.01   0.16
     6   6     0.04   0.02   0.08    -0.06   0.11  -0.01     0.01  -0.00   0.01
     7   9    -0.01   0.00  -0.01    -0.21   0.19  -0.04    -0.02  -0.01  -0.05
     8   6    -0.01  -0.03  -0.04    -0.01   0.11   0.02     0.01  -0.01  -0.08
     9   6    -0.01  -0.08  -0.03     0.01  -0.10  -0.00     0.00   0.04  -0.06
    10   6    -0.05  -0.04  -0.08     0.00  -0.12   0.03     0.01   0.02   0.05
    11   8    -0.08  -0.07  -0.01    -0.11  -0.13  -0.08    -0.00   0.04  -0.04
    12   6    -0.06   0.04  -0.14     0.01  -0.07   0.17     0.03  -0.03   0.24
    13   6     0.01   0.07   0.02     0.04  -0.04   0.01    -0.01  -0.03   0.01
    14   6     0.06   0.04   0.16     0.04  -0.05  -0.17    -0.04  -0.02  -0.23
    15   6     0.05  -0.04   0.05     0.04  -0.11  -0.04    -0.02   0.03  -0.10
    16   9     0.13  -0.09   0.02     0.22  -0.18   0.09    -0.06   0.10   0.13
    17   1     0.01   0.11   0.15     0.10   0.15   0.03     0.02   0.05   0.27
    18   1     0.01  -0.09   0.07     0.22   0.27   0.11     0.02  -0.27   0.12
    19   1     0.02  -0.14   0.09     0.22   0.15  -0.08     0.01  -0.21   0.21
    20   1    -0.17   0.09  -0.39     0.05   0.01   0.07    -0.02  -0.01  -0.21
    21   1     0.01   0.11   0.06    -0.07   0.00  -0.07     0.06  -0.03   0.10
    22   1     0.17   0.14   0.42    -0.12   0.01  -0.11     0.07   0.03   0.29
    23   1    -0.04  -0.01  -0.09    -0.03  -0.12  -0.30     0.03   0.04  -0.15
    24   1    -0.11   0.08  -0.24    -0.02  -0.06   0.30     0.06  -0.06   0.42
    25   1     0.01   0.11   0.03     0.04  -0.02   0.02    -0.00  -0.04   0.04
    26   1     0.11   0.07   0.27     0.06  -0.04  -0.27    -0.06  -0.04  -0.33
                      7                      8                      9
                      A                      A                      A
 Frequencies --    214.4812               297.7059               310.3778
 Red. masses --      6.0663                 6.2511                 5.4213
 Frc consts  --      0.1644                 0.3264                 0.3077
 IR Inten    --      2.5403                 4.0453                 2.8841
  Atom  AN      X      Y      Z        X      Y      Z        X      Y      Z
     1   6    -0.01   0.10  -0.12     0.13  -0.05   0.10     0.12   0.09   0.05
     2   6    -0.05  -0.00   0.10     0.15   0.02  -0.04     0.07   0.04   0.16
     3   6    -0.11   0.02  -0.09     0.14  -0.04  -0.11     0.01  -0.01  -0.04
     4   6    -0.09   0.03  -0.07     0.11  -0.08   0.00    -0.06  -0.04  -0.13
     5   6     0.00   0.03   0.08     0.04  -0.01   0.05    -0.02   0.01   0.10
     6   6     0.01  -0.04   0.17     0.03   0.09  -0.02     0.01   0.04   0.17
     7   9     0.05  -0.21  -0.12    -0.11   0.13  -0.14    -0.06  -0.07  -0.11
     8   6    -0.01  -0.03   0.27     0.06   0.09   0.04     0.04   0.05   0.15
     9   6     0.00   0.00   0.23     0.01   0.03   0.25     0.04   0.03  -0.16
    10   6     0.01   0.03   0.10     0.00   0.03   0.15     0.05  -0.02  -0.13
    11   8     0.04   0.12  -0.18    -0.05   0.05   0.02    -0.09  -0.15   0.14
    12   6     0.01   0.01   0.09    -0.02  -0.04  -0.06     0.05  -0.03  -0.10
    13   6     0.00   0.02  -0.05    -0.10  -0.08  -0.13     0.04  -0.07   0.09
    14   6     0.01   0.02  -0.12    -0.10  -0.07   0.09     0.00  -0.04   0.04
    15   6     0.02   0.00   0.06    -0.08  -0.02   0.17    -0.01   0.04  -0.14
    16   9     0.05  -0.04  -0.05    -0.11  -0.07  -0.17    -0.12   0.14  -0.02
    17   1     0.06  -0.04  -0.27     0.14   0.05   0.18     0.35   0.05  -0.07
    18   1    -0.02   0.29  -0.14     0.06  -0.19   0.04    -0.03   0.24  -0.11
    19   1     0.01   0.13  -0.18     0.08  -0.08   0.23     0.08   0.03   0.20
    20   1    -0.17   0.03  -0.30     0.16  -0.06  -0.17     0.02  -0.03  -0.19
    21   1    -0.13   0.05  -0.22     0.12  -0.14   0.03    -0.13  -0.09  -0.37
    22   1     0.04   0.03   0.00    -0.04  -0.04   0.10    -0.05  -0.01   0.03
    23   1     0.04   0.06  -0.22     0.03   0.06  -0.19     0.07  -0.03  -0.23
    24   1     0.01   0.01   0.05     0.05  -0.06  -0.27     0.08  -0.05  -0.03
    25   1    -0.01   0.03  -0.16    -0.11  -0.12  -0.38     0.06  -0.10   0.28
    26   1     0.02   0.01  -0.30    -0.12  -0.08  -0.03    -0.05  -0.06   0.19
                     10                     11                     12
                      A                      A                      A
 Frequencies --    333.9878               338.8731               354.6980
 Red. masses --      1.1108                 7.0402                 4.0885
 Frc consts  --      0.0730                 0.4763                 0.3031
 IR Inten    --      0.7410                 1.7094                 6.8196
  Atom  AN      X      Y      Z        X      Y      Z        X      Y      Z
     1   6     0.03   0.01  -0.03     0.20   0.00   0.03     0.20   0.09   0.08
     2   6    -0.02  -0.01  -0.02     0.10  -0.04   0.08    -0.05   0.05  -0.04
     3   6    -0.01   0.00  -0.00     0.11  -0.01   0.04    -0.06  -0.03  -0.03
     4   6    -0.00   0.01   0.03     0.12   0.02  -0.10    -0.05  -0.04   0.09
     5   6    -0.01   0.00  -0.01     0.12   0.06  -0.01    -0.11   0.01   0.04
     6   6    -0.02  -0.00  -0.04     0.12   0.04   0.10    -0.12   0.03  -0.07
     7   9     0.00   0.00   0.00     0.20   0.02   0.14     0.08  -0.11  -0.06
     8   6    -0.02  -0.00  -0.02     0.00  -0.01   0.04    -0.11   0.06  -0.05
     9   6    -0.01   0.00   0.01    -0.10  -0.04  -0.08    -0.09   0.06  -0.04
    10   6     0.00  -0.00   0.01    -0.19   0.03  -0.12     0.01   0.02  -0.00
    11   8     0.02   0.01   0.00    -0.08   0.08  -0.13     0.16   0.06   0.08
    12   6     0.00  -0.01   0.00    -0.22   0.02   0.01     0.01  -0.05  -0.03
    13   6     0.00  -0.01  -0.00    -0.21   0.03   0.11    -0.01  -0.07   0.04
    14   6    -0.00  -0.00   0.01    -0.16  -0.01  -0.06    -0.08   0.00   0.03
    15   6    -0.00   0.00   0.02    -0.14  -0.07  -0.10    -0.08   0.05  -0.04
    16   9     0.02   0.00   0.02    -0.01  -0.13   0.00     0.09  -0.04  -0.05
    17   1     0.60   0.12  -0.15     0.31  -0.02  -0.04     0.01   0.15   0.20
    18   1    -0.33   0.19  -0.41     0.13   0.12  -0.04     0.40   0.11   0.30
    19   1    -0.10  -0.25   0.44     0.20  -0.05   0.07     0.36  -0.01  -0.17
    20   1    -0.02   0.00   0.01     0.08   0.02   0.07    -0.01  -0.06  -0.02
    21   1     0.01   0.01   0.08     0.08   0.02  -0.24    -0.02  -0.07   0.22
    22   1    -0.01   0.00   0.01     0.09   0.04  -0.05    -0.16  -0.00   0.13
    23   1    -0.00  -0.01   0.05    -0.11   0.16   0.02     0.08   0.06   0.32
    24   1     0.00  -0.01  -0.00    -0.21   0.01   0.10     0.04  -0.07  -0.02
    25   1     0.00  -0.01  -0.02    -0.20   0.06   0.31    -0.01  -0.11   0.09
    26   1    -0.02  -0.01   0.01    -0.10   0.03  -0.01    -0.17  -0.04   0.08
                     13                     14                     15
                      A                      A                      A
 Frequencies --    446.6169               471.0290               479.4002
 Red. masses --      4.1169                 4.6130                 3.6434
 Frc consts  --      0.4838                 0.6030                 0.4934
 IR Inten    --      3.0447                 1.9435                 6.7610
  Atom  AN      X      Y      Z        X      Y      Z        X      Y      Z
     1   6     0.20   0.09   0.05     0.00  -0.00  -0.00    -0.02   0.00   0.01
     2   6    -0.06   0.01   0.03    -0.08  -0.10   0.26     0.01   0.03  -0.06
     3   6    -0.08   0.03  -0.03    -0.15  -0.09  -0.01    -0.00   0.02  -0.12
     4   6    -0.01   0.07   0.07     0.00  -0.00  -0.06     0.05   0.01   0.15
     5   6     0.04  -0.01  -0.04     0.16  -0.08   0.09    -0.02  -0.04  -0.11
     6   6     0.01  -0.09  -0.12     0.09  -0.05  -0.21    -0.00  -0.02  -0.06
     7   9     0.04  -0.01   0.10    -0.09   0.16  -0.06    -0.02   0.02   0.00
     8   6    -0.00  -0.05  -0.02    -0.01  -0.07  -0.01     0.04   0.02   0.17
     9   6     0.01  -0.05   0.05    -0.00  -0.01  -0.00     0.02  -0.01   0.17
    10   6    -0.04  -0.09   0.06    -0.03   0.04  -0.00     0.01   0.02  -0.08
    11   8    -0.10  -0.10  -0.13     0.11   0.11   0.07    -0.01  -0.02   0.02
    12   6    -0.03  -0.04   0.04    -0.04  -0.01  -0.04    -0.00   0.04  -0.16
    13   6     0.03   0.01  -0.05    -0.02  -0.02   0.04     0.00   0.00   0.21
    14   6     0.08  -0.02   0.03     0.01  -0.03  -0.02     0.00  -0.02  -0.16
    15   6     0.07   0.03   0.04     0.01  -0.01  -0.04     0.00  -0.04  -0.08
    16   9    -0.12   0.15  -0.08     0.01  -0.00   0.01    -0.02  -0.00   0.03
    17   1     0.15   0.09   0.07     0.02  -0.24  -0.23    -0.06   0.05   0.07
    18   1     0.32   0.26   0.19     0.03   0.29   0.02    -0.01  -0.10   0.02
    19   1     0.35  -0.03  -0.14     0.06   0.09  -0.20    -0.03   0.00   0.04
    20   1    -0.11   0.04  -0.05    -0.25  -0.04  -0.22    -0.02   0.02  -0.22
    21   1     0.04   0.16   0.21    -0.01   0.18  -0.14     0.12   0.02   0.37
    22   1     0.15   0.05   0.06     0.26  -0.01   0.37    -0.03  -0.05  -0.17
    23   1    -0.25  -0.30   0.23     0.07   0.17   0.18    -0.12  -0.09   0.29
    24   1    -0.09  -0.00  -0.03    -0.01  -0.03  -0.02     0.02   0.03  -0.15
    25   1     0.03   0.09  -0.18    -0.02   0.01   0.13     0.03  -0.01   0.59
    26   1     0.07  -0.03  -0.03     0.01  -0.03   0.01     0.03  -0.01  -0.17
                     16                     17                     18
                      A                      A                      A
 Frequencies --    500.5216               511.2275               526.1921
 Red. masses --      2.7491                 5.0266                 2.4652
 Frc consts  --      0.4058                 0.7740                 0.4022
 IR Inten    --     24.4699                11.5016                18.9094
  Atom  AN      X      Y      Z        X      Y      Z        X      Y      Z
     1   6    -0.07   0.14   0.05     0.05   0.07   0.01     0.01  -0.10  -0.04
     2   6     0.07   0.12   0.04    -0.02   0.05  -0.10     0.07  -0.06   0.01
     3   6     0.04   0.03  -0.05    -0.01   0.11   0.01     0.09   0.07   0.01
     4   6    -0.05  -0.05  -0.02    -0.04   0.09   0.03     0.02   0.06  -0.05
     5   6     0.00  -0.07   0.06     0.04  -0.03  -0.09    -0.04   0.13   0.04
     6   6    -0.02  -0.06  -0.08     0.04  -0.14   0.06    -0.06   0.03   0.02
     7   9    -0.01  -0.07   0.01    -0.14  -0.10   0.07    -0.08  -0.02  -0.04
     8   6     0.09   0.04  -0.05     0.09  -0.07  -0.05    -0.02  -0.00   0.02
     9   6     0.08  -0.00  -0.08     0.10   0.03  -0.05    -0.02  -0.00   0.01
    10   6     0.03   0.04   0.00    -0.05   0.16   0.05    -0.06  -0.04   0.09
    11   8    -0.00   0.03  -0.03    -0.07   0.21   0.09     0.05   0.03  -0.03
    12   6     0.02   0.08   0.04    -0.08  -0.08  -0.03    -0.07  -0.07  -0.02
    13   6    -0.06   0.04  -0.03    -0.08  -0.12  -0.02     0.01  -0.02   0.01
    14   6    -0.01  -0.01   0.02     0.07  -0.19   0.03     0.06  -0.05   0.01
    15   6    -0.00  -0.09   0.00     0.08  -0.04  -0.08     0.06   0.01  -0.07
    16   9    -0.06  -0.09   0.02     0.04   0.00   0.00     0.04   0.05   0.01
    17   1    -0.06   0.12   0.03     0.06   0.16   0.10    -0.01  -0.15  -0.08
    18   1    -0.15   0.07  -0.03     0.10   0.06   0.07     0.01  -0.11  -0.05
    19   1    -0.14   0.21   0.15     0.11  -0.05  -0.01    -0.02  -0.02  -0.05
    20   1     0.13  -0.04  -0.15     0.02   0.09   0.11     0.04   0.11   0.05
    21   1    -0.06  -0.09  -0.03    -0.02   0.14   0.10    -0.01  -0.05  -0.14
    22   1     0.06  -0.03   0.16     0.20   0.03  -0.23    -0.04   0.12  -0.02
    23   1    -0.30  -0.25   0.67     0.13   0.36  -0.44    -0.28  -0.23   0.77
    24   1     0.07   0.05   0.09     0.10  -0.16  -0.11    -0.09  -0.06  -0.12
    25   1    -0.06   0.02  -0.06    -0.07  -0.01  -0.01     0.01   0.08   0.03
    26   1     0.10   0.04   0.05     0.08  -0.18   0.17     0.04  -0.06   0.13
                     19                     20                     21
                      A                      A                      A
 Frequencies --    529.4414               559.7297               566.3257
 Red. masses --      5.2381                 5.5381                 3.8369
 Frc consts  --      0.8651                 1.0223                 0.7250
 IR Inten    --      1.6040                12.4221                 0.4028
  Atom  AN      X      Y      Z        X      Y      Z        X      Y      Z
     1   6     0.10  -0.13  -0.04    -0.14   0.04  -0.01    -0.03  -0.04  -0.00
     2   6     0.05  -0.12   0.09     0.05   0.03   0.09     0.02  -0.03   0.08
     3   6     0.04   0.14  -0.02     0.04  -0.03  -0.05    -0.03  -0.01  -0.16
     4   6     0.02   0.17  -0.02     0.01  -0.07  -0.01     0.09   0.01   0.17
     5   6     0.01   0.13  -0.01    -0.01  -0.03   0.05    -0.01  -0.03  -0.15
     6   6    -0.06  -0.14  -0.09    -0.04  -0.01  -0.13     0.03   0.01   0.03
     7   9    -0.13  -0.09   0.08     0.13   0.01   0.06    -0.02   0.04  -0.00
     8   6     0.01  -0.05  -0.01     0.00   0.06  -0.00     0.00   0.01   0.20
     9   6     0.01   0.07  -0.01    -0.02   0.12   0.04    -0.02   0.02  -0.17
    10   6     0.15   0.07  -0.10    -0.03   0.09  -0.02    -0.01  -0.01   0.00
    11   8    -0.06  -0.05   0.03    -0.24  -0.01  -0.04     0.02  -0.00  -0.02
    12   6     0.18   0.10   0.01    -0.00  -0.15  -0.03    -0.00  -0.02   0.13
    13   6    -0.01  -0.03   0.00     0.00  -0.20   0.01    -0.03  -0.00  -0.15
    14   6    -0.16   0.08  -0.02    -0.04  -0.10   0.00    -0.04   0.03   0.15
    15   6    -0.14   0.04   0.11     0.01   0.17   0.06    -0.03   0.01  -0.12
    16   9     0.02  -0.09  -0.02     0.22   0.10  -0.01     0.05  -0.00   0.01
    17   1     0.10  -0.26  -0.15    -0.17  -0.07  -0.08    -0.05  -0.11  -0.05
    18   1     0.13   0.03  -0.01    -0.18  -0.03  -0.05    -0.03  -0.03  -0.01
    19   1     0.13  -0.07  -0.16    -0.23   0.22   0.02    -0.05   0.04  -0.02
    20   1    -0.08   0.21  -0.04     0.06  -0.05  -0.17    -0.14   0.04  -0.42
    21   1     0.03   0.14   0.02     0.02  -0.10   0.02     0.13   0.04   0.29
    22   1     0.22   0.22   0.06    -0.01  -0.01   0.29    -0.08  -0.08  -0.33
    23   1    -0.08  -0.19  -0.00    -0.26  -0.18  -0.03    -0.02  -0.02   0.08
    24   1     0.27   0.05   0.17     0.14  -0.22  -0.04     0.00  -0.03   0.20
    25   1    -0.01  -0.27   0.02     0.00  -0.20   0.01    -0.04  -0.02  -0.30
    26   1    -0.23   0.05  -0.17    -0.29  -0.22  -0.04    -0.05   0.03   0.39
                     22                     23                     24
                      A                      A                      A
 Frequencies --    590.7260               601.0661               605.5924
 Red. masses --      2.8285                 3.3555                 6.0349
 Frc consts  --      0.5815                 0.7142                 1.3040
 IR Inten    --     14.2105                 8.4063                 1.5786
  Atom  AN      X      Y      Z        X      Y      Z        X      Y      Z
     1   6     0.00   0.01  -0.00    -0.03   0.03   0.02     0.08  -0.16  -0.03
     2   6    -0.06   0.01  -0.09     0.11   0.02   0.10    -0.02  -0.10   0.07
     3   6    -0.05  -0.03   0.04     0.10   0.07  -0.10    -0.07  -0.04  -0.01
     4   6     0.01  -0.00   0.00     0.03   0.01   0.03    -0.07  -0.00   0.06
     5   6     0.07  -0.05  -0.02    -0.07   0.04  -0.01    -0.19   0.12   0.02
     6   6     0.09   0.03   0.12    -0.08  -0.04  -0.09    -0.12   0.12  -0.01
     7   9    -0.05   0.02  -0.05    -0.03  -0.06   0.04     0.16   0.09  -0.03
     8   6     0.01  -0.03   0.03    -0.00   0.02  -0.01    -0.06   0.04   0.04
     9   6    -0.00  -0.00  -0.05    -0.04  -0.05  -0.02     0.12  -0.01  -0.06
    10   6    -0.02   0.04  -0.19    -0.10  -0.06  -0.15     0.03   0.17  -0.13
    11   8     0.02   0.00   0.03     0.11  -0.02   0.06    -0.14   0.12   0.03
    12   6    -0.02  -0.03   0.04    -0.14  -0.07   0.04     0.06   0.06   0.03
    13   6    -0.02  -0.04  -0.01     0.01   0.04   0.00     0.01  -0.02  -0.04
    14   6    -0.01  -0.03  -0.02     0.08  -0.00  -0.03     0.18  -0.16  -0.00
    15   6     0.01   0.06   0.21     0.06   0.01   0.17     0.13  -0.13   0.07
    16   9     0.03   0.03  -0.04    -0.02   0.03  -0.03    -0.11  -0.09  -0.00
    17   1     0.01   0.12   0.09    -0.06  -0.09  -0.08     0.10  -0.24  -0.12
    18   1     0.04  -0.02   0.04    -0.09   0.01  -0.05     0.09  -0.03  -0.03
    19   1     0.04  -0.10   0.01    -0.11   0.20   0.04     0.11  -0.16  -0.10
    20   1    -0.05  -0.03   0.08     0.09   0.06  -0.22    -0.13  -0.00  -0.04
    21   1    -0.01   0.08  -0.10     0.04  -0.12   0.12    -0.06  -0.08   0.12
    22   1     0.03  -0.09  -0.27    -0.02   0.07   0.12    -0.33   0.07   0.11
    23   1    -0.22  -0.10   0.64     0.32   0.36  -0.34    -0.16   0.03   0.05
    24   1     0.03  -0.08   0.35    -0.24  -0.03   0.24     0.23  -0.04   0.23
    25   1    -0.02  -0.03  -0.00     0.00   0.19  -0.01     0.02   0.07  -0.02
    26   1    -0.06  -0.06  -0.29     0.10  -0.01  -0.30     0.35  -0.09  -0.09
                     25                     26                     27
                      A                      A                      A
 Frequencies --    687.5600               723.3490               736.3470
 Red. masses --      2.8923                 2.6129                 6.8355
 Frc consts  --      0.8056                 0.8055                 2.1837
 IR Inten    --     32.4917                 3.0069                 4.7503
  Atom  AN      X      Y      Z        X      Y      Z        X      Y      Z
     1   6    -0.00   0.00   0.02     0.00  -0.03  -0.03    -0.06   0.17   0.05
     2   6     0.02  -0.02   0.11    -0.02   0.02  -0.08    -0.08  -0.01  -0.02
     3   6    -0.03   0.00  -0.07     0.00  -0.01   0.04     0.02  -0.17   0.00
     4   6     0.02   0.00   0.10    -0.03  -0.00  -0.08     0.39  -0.04  -0.12
     5   6    -0.02  -0.01  -0.05     0.00   0.00   0.00     0.07   0.14  -0.04
     6   6     0.03   0.04   0.12    -0.02  -0.03  -0.09    -0.05   0.03  -0.04
     7   9     0.01  -0.00  -0.00     0.00   0.02  -0.00    -0.09  -0.10   0.07
     8   6    -0.01  -0.01  -0.16     0.02   0.02   0.24    -0.18   0.00   0.06
     9   6     0.01   0.01  -0.16     0.03   0.01  -0.20    -0.11   0.00  -0.05
    10   6     0.01  -0.02   0.17     0.00  -0.02   0.08    -0.03   0.05  -0.00
    11   8    -0.01   0.02  -0.02     0.01  -0.00  -0.01    -0.10   0.12   0.03
    12   6     0.01   0.01  -0.07    -0.02   0.01  -0.01     0.08  -0.06  -0.01
    13   6     0.02  -0.00   0.13    -0.04   0.00   0.09     0.28  -0.02  -0.01
    14   6    -0.01   0.00  -0.07    -0.01  -0.01  -0.00     0.09   0.04  -0.00
    15   6    -0.00   0.02   0.12     0.00   0.01   0.07    -0.01  -0.02  -0.01
    16   9    -0.00  -0.02  -0.00     0.01  -0.00  -0.00    -0.09  -0.10   0.02
    17   1     0.01  -0.13  -0.10    -0.00   0.09   0.07    -0.05   0.27   0.13
    18   1    -0.03   0.11  -0.01     0.03  -0.12   0.00    -0.05   0.14   0.07
    19   1    -0.01   0.08  -0.02     0.01  -0.10   0.02    -0.05   0.08   0.10
    20   1    -0.11   0.03  -0.31     0.08  -0.03   0.28    -0.17  -0.04  -0.00
    21   1    -0.04  -0.01  -0.10     0.08   0.04   0.27     0.40  -0.01  -0.12
    22   1    -0.13  -0.09  -0.37     0.14   0.10   0.41    -0.12   0.06   0.07
    23   1    -0.04  -0.07   0.01     0.03  -0.01  -0.06    -0.13   0.03   0.09
    24   1    -0.02   0.05  -0.52    -0.04   0.05  -0.39     0.02  -0.02  -0.08
    25   1    -0.00  -0.01  -0.17    -0.07   0.02  -0.31     0.28  -0.01  -0.09
    26   1    -0.04  -0.03  -0.44    -0.01  -0.03  -0.43     0.01  -0.01  -0.11
                     28                     29                     30
                      A                      A                      A
 Frequencies --    755.0164               765.4934               787.2212
 Red. masses --      1.5032                 1.8617                 6.1467
 Frc consts  --      0.5049                 0.6427                 2.2443
 IR Inten    --     48.6908                27.9253                 0.5199
  Atom  AN      X      Y      Z        X      Y      Z        X      Y      Z
     1   6    -0.01   0.00   0.02     0.00  -0.00  -0.01     0.06  -0.08  -0.02
     2   6     0.02  -0.01   0.06    -0.01   0.00  -0.01     0.08   0.03  -0.01
     3   6    -0.03  -0.01  -0.08     0.00  -0.00   0.01     0.04   0.14  -0.01
     4   6    -0.00  -0.01  -0.06     0.01   0.00  -0.00    -0.24   0.02   0.06
     5   6    -0.02  -0.01  -0.09     0.00   0.01   0.01     0.04  -0.15   0.02
     6   6     0.03   0.04   0.11    -0.01  -0.01  -0.02     0.07  -0.04  -0.00
     7   9    -0.01  -0.01  -0.02     0.00   0.00   0.00     0.05   0.06  -0.03
     8   6    -0.00  -0.01  -0.06     0.00   0.01   0.05     0.06   0.00   0.05
     9   6    -0.00  -0.00   0.01     0.01   0.01  -0.10    -0.11   0.02  -0.03
    10   6     0.00  -0.00   0.01     0.00  -0.02   0.13    -0.11   0.01  -0.02
    11   8    -0.00   0.00  -0.00    -0.00   0.01  -0.02    -0.08   0.11   0.02
    12   6     0.00  -0.00  -0.01    -0.01  -0.00  -0.08    -0.02  -0.19  -0.01
    13   6     0.01  -0.00  -0.01     0.00   0.01  -0.06     0.40  -0.01  -0.02
    14   6    -0.00   0.00  -0.01    -0.01   0.00  -0.12    -0.00   0.18  -0.01
    15   6    -0.00   0.00   0.01     0.01   0.02   0.14    -0.08   0.02  -0.01
    16   9     0.00   0.00  -0.00    -0.01  -0.01  -0.02    -0.08  -0.11   0.02
    17   1     0.01  -0.12  -0.09    -0.00   0.03   0.03     0.02  -0.11  -0.04
    18   1    -0.04   0.10  -0.01     0.01  -0.03   0.00     0.02  -0.14  -0.07
    19   1    -0.01   0.09  -0.04     0.00  -0.03   0.01     0.00   0.00   0.01
    20   1     0.12  -0.06   0.45    -0.02   0.00  -0.05     0.21   0.03   0.06
    21   1     0.20   0.05   0.63    -0.01  -0.00  -0.05    -0.23   0.04   0.09
    22   1     0.13   0.11   0.45    -0.01   0.00  -0.00     0.24  -0.06  -0.05
    23   1    -0.04  -0.03   0.08     0.02  -0.03  -0.11    -0.14   0.09   0.16
    24   1     0.01  -0.01   0.07     0.02  -0.05   0.40    -0.22  -0.08  -0.03
    25   1     0.01  -0.01   0.09     0.04  -0.00   0.56     0.40   0.00  -0.03
    26   1    -0.01   0.01   0.10     0.04   0.06   0.65    -0.26   0.05  -0.03
                     31                     32                     33
                      A                      A                      A
 Frequencies --    841.5264               846.7462               907.8830
 Red. masses --      1.4591                 1.3833                 4.2715
 Frc consts  --      0.6088                 0.5843                 2.0744
 IR Inten    --      6.8285                 3.5514                32.1508
  Atom  AN      X      Y      Z        X      Y      Z        X      Y      Z
     1   6    -0.00   0.00   0.00     0.00  -0.01  -0.02     0.08  -0.15  -0.06
     2   6     0.00  -0.00   0.00    -0.01   0.00  -0.01     0.01   0.13   0.05
     3   6    -0.00   0.00  -0.01     0.03  -0.01   0.10    -0.16  -0.10   0.03
     4   6    -0.00  -0.00  -0.00     0.00   0.02   0.02     0.01   0.04  -0.01
     5   6     0.00   0.00   0.01    -0.04  -0.03  -0.11     0.11  -0.05   0.00
     6   6    -0.00  -0.00  -0.00     0.02   0.01   0.05     0.03   0.13  -0.06
     7   9     0.00   0.00   0.00    -0.01  -0.01  -0.01    -0.05  -0.14   0.07
     8   6    -0.00  -0.00   0.00     0.01   0.02  -0.02     0.02   0.30  -0.04
     9   6     0.00  -0.01  -0.01     0.00   0.00   0.01     0.03   0.13   0.02
    10   6     0.01  -0.01   0.08    -0.00  -0.00   0.00     0.00  -0.01   0.00
    11   8    -0.00   0.01  -0.02     0.00   0.00  -0.00     0.00  -0.05  -0.01
    12   6    -0.02   0.01  -0.12    -0.01  -0.01  -0.01    -0.06  -0.04  -0.00
    13   6    -0.00  -0.00  -0.03     0.01   0.00  -0.00    -0.00   0.02  -0.00
    14   6     0.01   0.01   0.12     0.00   0.00   0.01     0.04  -0.03   0.00
    15   6    -0.01  -0.00  -0.05    -0.00  -0.00  -0.01     0.00   0.01  -0.01
    16   9     0.00   0.01   0.01    -0.00  -0.00   0.00    -0.01  -0.04   0.01
    17   1     0.00  -0.01  -0.01    -0.01   0.11   0.09    -0.06  -0.23  -0.07
    18   1    -0.00   0.01  -0.00     0.04  -0.10   0.01    -0.03  -0.45  -0.19
    19   1    -0.00   0.01  -0.00     0.02  -0.10   0.03    -0.07   0.04   0.07
    20   1     0.02  -0.01   0.06    -0.18   0.06  -0.63    -0.13  -0.12   0.08
    21   1     0.00  -0.01   0.01    -0.04   0.02  -0.13     0.05   0.53   0.01
    22   1    -0.02  -0.01  -0.06     0.16   0.13   0.65     0.04  -0.10  -0.13
    23   1    -0.00  -0.05  -0.05    -0.01  -0.01   0.04     0.04   0.01  -0.03
    24   1     0.03  -0.07   0.70    -0.01  -0.01   0.06    -0.11  -0.02   0.02
    25   1     0.01  -0.02   0.17     0.01   0.01   0.02     0.00   0.20   0.03
    26   1    -0.02  -0.03  -0.65    -0.00  -0.00  -0.06     0.08  -0.01  -0.03
                     34                     35                     36
                      A                      A                      A
 Frequencies --    938.4215               943.0065               972.7559
 Red. masses --      1.3182                 1.2873                 3.4145
 Frc consts  --      0.6839                 0.6744                 1.9036
 IR Inten    --      0.4043                 0.3391                 4.2753
  Atom  AN      X      Y      Z        X      Y      Z        X      Y      Z
     1   6     0.00   0.01  -0.01    -0.00   0.00   0.00    -0.10  -0.01   0.01
     2   6     0.00  -0.01   0.01    -0.00  -0.00  -0.00    -0.04  -0.02   0.01
     3   6     0.02  -0.02   0.08    -0.00  -0.00  -0.00    -0.05  -0.08  -0.01
     4   6    -0.04  -0.01  -0.11     0.00  -0.00   0.01     0.06  -0.01   0.01
     5   6     0.00   0.03   0.06    -0.00   0.00  -0.00    -0.09   0.11   0.01
     6   6    -0.00  -0.01   0.00    -0.00  -0.00   0.00    -0.02  -0.05   0.01
     7   9     0.00   0.01  -0.00     0.00   0.00  -0.00     0.01   0.01  -0.01
     8   6     0.02  -0.01  -0.02     0.01  -0.00   0.00     0.21   0.01  -0.02
     9   6     0.01  -0.00   0.00     0.01   0.00  -0.01     0.21   0.12   0.02
    10   6    -0.00   0.00  -0.00    -0.00  -0.00  -0.00     0.01   0.04  -0.01
    11   8     0.00   0.00   0.00     0.00  -0.00   0.00     0.02  -0.04  -0.00
    12   6    -0.01  -0.01   0.00     0.00  -0.01   0.08    -0.14  -0.15  -0.01
    13   6     0.00  -0.00  -0.01    -0.01   0.00  -0.13     0.03   0.02   0.02
    14   6    -0.01   0.01   0.00    -0.00   0.01   0.05    -0.06   0.11  -0.00
    15   6    -0.00  -0.00  -0.00     0.00   0.00   0.01    -0.01   0.02  -0.02
    16   9     0.00   0.00   0.00     0.00   0.00   0.00    -0.02  -0.05   0.01
    17   1    -0.02   0.08   0.06     0.00   0.00   0.00     0.20   0.13   0.02
    18   1     0.02  -0.07   0.01     0.00   0.01   0.01     0.11   0.40   0.23
    19   1    -0.01  -0.03   0.04     0.00  -0.01  -0.01     0.19  -0.41  -0.23
    20   1    -0.15   0.03  -0.49     0.00  -0.00   0.03    -0.07  -0.05   0.13
    21   1     0.20   0.04   0.71    -0.01  -0.01  -0.04     0.02  -0.12  -0.10
    22   1    -0.10  -0.05  -0.37    -0.00   0.01   0.02    -0.18   0.08   0.02
    23   1    -0.00   0.00   0.00    -0.00  -0.00   0.01    -0.00  -0.11  -0.01
    24   1    -0.01  -0.00  -0.03    -0.03   0.04  -0.49    -0.21  -0.13   0.03
    25   1     0.01  -0.01   0.04     0.05  -0.02   0.79     0.02   0.21  -0.08
    26   1    -0.02   0.01  -0.02    -0.01  -0.01  -0.33    -0.14   0.08   0.02
                     37                     38                     39
                      A                      A                      A
 Frequencies --    978.2613              1002.7080              1012.8979
 Red. masses --      1.9179                 2.2996                 2.0915
 Frc consts  --      1.0814                 1.3622                 1.2642
 IR Inten    --     17.2170                 6.1782                 3.2636
  Atom  AN      X      Y      Z        X      Y      Z        X      Y      Z
     1   6    -0.09  -0.07   0.08    -0.03   0.05  -0.12     0.08   0.04   0.10
     2   6    -0.05   0.01  -0.05     0.03  -0.07   0.11    -0.00  -0.03  -0.11
     3   6     0.09   0.09   0.01     0.03   0.04  -0.05    -0.02  -0.03   0.04
     4   6     0.01  -0.01  -0.03    -0.02   0.00   0.01    -0.01  -0.00   0.00
     5   6     0.04  -0.10   0.01     0.03  -0.04   0.00    -0.00   0.03  -0.01
     6   6     0.02   0.04  -0.01    -0.00  -0.04   0.02    -0.02  -0.07   0.03
     7   9    -0.01  -0.03   0.01     0.01   0.03  -0.01     0.01   0.04  -0.02
     8   6    -0.06   0.07   0.02    -0.07  -0.02  -0.02    -0.02  -0.07   0.01
     9   6    -0.06   0.06  -0.00    -0.07   0.15   0.01    -0.00   0.14   0.00
    10   6     0.01   0.01   0.01     0.02   0.04   0.01     0.03   0.05   0.01
    11   8     0.00  -0.03  -0.01     0.03  -0.07  -0.01     0.03  -0.06  -0.01
    12   6     0.01   0.02   0.00    -0.01   0.01   0.00    -0.04  -0.03   0.00
    13   6    -0.01   0.01  -0.00    -0.02   0.03  -0.00    -0.01   0.03  -0.00
    14   6     0.05  -0.06   0.00     0.07  -0.09   0.00     0.04  -0.04   0.00
    15   6     0.00   0.02  -0.00    -0.00   0.08  -0.01    -0.01   0.07  -0.01
    16   9    -0.01  -0.03   0.00    -0.03  -0.07   0.01    -0.02  -0.06   0.01
    17   1     0.26  -0.25  -0.21    -0.02   0.57   0.34    -0.13  -0.40  -0.22
    18   1     0.03   0.64   0.19     0.18  -0.24   0.12    -0.21   0.01  -0.20
    19   1     0.19  -0.23  -0.34     0.02  -0.35   0.12    -0.16   0.59   0.11
    20   1     0.08   0.09  -0.16     0.06   0.03   0.15    -0.09  -0.00  -0.11
    21   1     0.05  -0.05   0.10    -0.01  -0.04   0.03    -0.02  -0.02  -0.01
    22   1    -0.03  -0.14  -0.00     0.15   0.01  -0.07     0.16   0.10  -0.01
    23   1     0.02  -0.01  -0.02     0.02  -0.13  -0.05     0.01  -0.18  -0.05
    24   1     0.02   0.02  -0.00     0.02  -0.01   0.00    -0.00  -0.06  -0.01
    25   1    -0.00   0.12   0.03    -0.01   0.34   0.03    -0.01   0.34   0.01
    26   1     0.07  -0.05  -0.01     0.06  -0.10  -0.01     0.01  -0.05  -0.00
                     40                     41                     42
                      A                      A                      A
 Frequencies --   1072.4967              1084.5410              1122.5823
 Red. masses --      1.6244                 1.3420                 1.1716
 Frc consts  --      1.1009                 0.9300                 0.8699
 IR Inten    --      3.2723                10.6003                 5.6607
  Atom  AN      X      Y      Z        X      Y      Z        X      Y      Z
     1   6     0.02   0.01  -0.01    -0.03  -0.01   0.01    -0.00  -0.01  -0.00
     2   6    -0.01  -0.02   0.01     0.01   0.02  -0.00    -0.00   0.02   0.01
     3   6     0.01   0.06  -0.00     0.01  -0.09  -0.00     0.00  -0.01  -0.00
     4   6     0.02   0.00  -0.02    -0.05  -0.02   0.04    -0.01  -0.00   0.00
     5   6     0.01  -0.06   0.01     0.02   0.08  -0.02     0.00   0.01  -0.00
     6   6    -0.00   0.01   0.00    -0.00  -0.01   0.00     0.01   0.02  -0.01
     7   9     0.00  -0.00   0.00    -0.00   0.00   0.00    -0.00  -0.01   0.01
     8   6    -0.05  -0.01   0.00    -0.02   0.05  -0.00    -0.00  -0.00   0.00
     9   6     0.01   0.00  -0.00    -0.04  -0.00  -0.00    -0.01  -0.09  -0.00
    10   6     0.04   0.03  -0.00    -0.00  -0.00  -0.00     0.02   0.00   0.00
    11   8    -0.01   0.00   0.00    -0.00   0.01   0.00    -0.00   0.01   0.00
    12   6    -0.02  -0.13  -0.00     0.01  -0.02  -0.00     0.01  -0.02  -0.00
    13   6    -0.07  -0.01   0.02    -0.02  -0.01   0.01    -0.01   0.04   0.00
    14   6     0.01   0.13  -0.00     0.02   0.03  -0.00    -0.02   0.01  -0.00
    15   6     0.00  -0.02   0.00    -0.00  -0.01   0.00    -0.01  -0.01   0.00
    16   9    -0.01   0.01  -0.00     0.00   0.01  -0.00     0.00   0.01  -0.00
    17   1    -0.04   0.02   0.02     0.06  -0.01  -0.02     0.01  -0.01  -0.00
    18   1    -0.00  -0.06  -0.03     0.01   0.09   0.05     0.00  -0.01   0.00
    19   1    -0.02   0.04   0.05     0.04  -0.09  -0.07     0.01  -0.03  -0.01
    20   1    -0.07   0.12   0.04     0.21  -0.24  -0.10     0.07  -0.06  -0.03
    21   1     0.03   0.06   0.00    -0.08  -0.21   0.03    -0.01  -0.02   0.00
    22   1    -0.18  -0.15   0.08     0.66   0.35  -0.24     0.02   0.02  -0.01
    23   1    -0.02  -0.13  -0.04    -0.01  -0.01   0.00    -0.00  -0.02  -0.02
    24   1     0.39  -0.36  -0.07     0.13  -0.09  -0.02     0.51  -0.29  -0.05
    25   1    -0.09  -0.04  -0.02    -0.03  -0.11  -0.00    -0.00   0.67   0.02
    26   1     0.60   0.42  -0.04     0.29   0.16  -0.02    -0.39  -0.17   0.02
                     43                     44                     45
                      A                      A                      A
 Frequencies --   1130.3072              1176.6829              1192.1078
 Red. masses --      1.2200                 1.8503                 5.2291
 Frc consts  --      0.9183                 1.5094                 4.3783
 IR Inten    --      1.6499               156.6738                31.4954
  Atom  AN      X      Y      Z        X      Y      Z        X      Y      Z
     1   6    -0.03   0.01   0.01     0.00   0.01   0.01    -0.01   0.09   0.02
     2   6     0.06  -0.01  -0.02     0.01  -0.01  -0.01     0.02  -0.23  -0.04
     3   6     0.02  -0.06  -0.00    -0.03  -0.01   0.01     0.06  -0.00  -0.01
     4   6    -0.03   0.05   0.01    -0.02   0.00   0.01    -0.16   0.01   0.05
     5   6    -0.01   0.02   0.00    -0.02   0.05  -0.01     0.08   0.04  -0.03
     6   6    -0.03  -0.03   0.01     0.07   0.02  -0.03     0.14   0.31  -0.12
     7   9     0.00   0.01  -0.01    -0.02  -0.02   0.01    -0.05  -0.09   0.05
     8   6     0.01  -0.04   0.00     0.09  -0.03   0.00    -0.20  -0.09   0.03
     9   6    -0.04  -0.00  -0.00    -0.05   0.07   0.00     0.23   0.03   0.00
    10   6    -0.01   0.00   0.00    -0.15  -0.01   0.03     0.08   0.00   0.00
    11   8     0.00  -0.00   0.00    -0.00  -0.08  -0.03    -0.03  -0.01  -0.01
    12   6     0.01   0.01   0.00     0.06   0.04  -0.01    -0.06  -0.05  -0.00
    13   6    -0.00  -0.00   0.00    -0.00   0.01   0.00    -0.03  -0.01   0.00
    14   6     0.01  -0.00  -0.00     0.01   0.00   0.00    -0.04   0.07  -0.00
    15   6    -0.00   0.01  -0.00     0.06   0.06  -0.01     0.07   0.03  -0.01
    16   9    -0.00  -0.00   0.00    -0.02  -0.04   0.01    -0.02  -0.03   0.01
    17   1     0.06   0.04   0.00     0.01  -0.00  -0.01    -0.09   0.14   0.09
    18   1     0.01   0.10   0.05     0.00   0.00   0.01    -0.02   0.11   0.01
    19   1     0.02  -0.03  -0.05    -0.01   0.03   0.01    -0.08   0.16   0.11
    20   1     0.39  -0.32  -0.13    -0.05  -0.00   0.02     0.41  -0.26  -0.13
    21   1     0.01   0.79  -0.06    -0.04  -0.18   0.02    -0.18  -0.07   0.06
    22   1    -0.22  -0.06   0.06    -0.23  -0.03   0.07    -0.00   0.02   0.03
    23   1    -0.00  -0.02  -0.01     0.06   0.63   0.21     0.03   0.15   0.06
    24   1     0.05  -0.02  -0.00     0.53  -0.21  -0.01    -0.30   0.07   0.02
    25   1    -0.00  -0.03  -0.00    -0.00  -0.24   0.00    -0.04  -0.09  -0.00
    26   1     0.07   0.02  -0.00     0.02   0.01  -0.03    -0.31  -0.05   0.02
                     46                     47                     48
                      A                      A                      A
 Frequencies --   1205.8626              1222.9206              1255.2069
 Red. masses --      1.8799                 2.5819                 2.3535
 Frc consts  --      1.6106                 2.2750                 2.1847
 IR Inten    --      3.7246                 5.8635                11.0561
  Atom  AN      X      Y      Z        X      Y      Z        X      Y      Z
     1   6    -0.03   0.03   0.01     0.04  -0.07  -0.03     0.02   0.00  -0.01
     2   6     0.08  -0.09  -0.04    -0.13   0.17   0.07    -0.09  -0.01   0.02
     3   6     0.02  -0.01  -0.01     0.02   0.06   0.00     0.04   0.02  -0.01
     4   6     0.02  -0.01  -0.01     0.07  -0.01  -0.02     0.03   0.02  -0.01
     5   6    -0.00  -0.09   0.02     0.02  -0.02  -0.00    -0.01  -0.02   0.01
     6   6    -0.13  -0.02   0.04    -0.05  -0.08   0.04    -0.02  -0.06   0.02
     7   9     0.02   0.02  -0.02     0.01   0.03  -0.02     0.01   0.02  -0.01
     8   6    -0.06   0.08  -0.00    -0.13  -0.04  -0.01    -0.08   0.01  -0.00
     9   6     0.09   0.00   0.00     0.10   0.01   0.01     0.11   0.10   0.00
    10   6    -0.07  -0.01   0.00    -0.04   0.04   0.01    -0.05  -0.02   0.02
    11   8     0.00  -0.02  -0.01     0.02  -0.03  -0.00    -0.02  -0.04  -0.02
    12   6     0.00   0.00  -0.00    -0.04  -0.00   0.00     0.06  -0.02  -0.01
    13   6    -0.00   0.02   0.00    -0.03   0.01   0.00     0.06   0.01  -0.00
    14   6    -0.03   0.04   0.00     0.01   0.07  -0.00    -0.10  -0.06   0.01
    15   6     0.08  -0.03  -0.00     0.13   0.05  -0.02    -0.10  -0.16   0.03
    16   9    -0.01  -0.00   0.00    -0.03  -0.04   0.01     0.05   0.07  -0.01
    17   1     0.02   0.07   0.03    -0.02  -0.09  -0.03    -0.10  -0.02   0.02
    18   1     0.01   0.13   0.06    -0.00  -0.17  -0.08    -0.05  -0.07  -0.08
    19   1    -0.02   0.04   0.00     0.01  -0.06   0.01     0.01  -0.01   0.03
    20   1    -0.41   0.28   0.12     0.53  -0.28  -0.18     0.29  -0.14  -0.06
    21   1     0.04   0.41  -0.04     0.08  -0.08  -0.01     0.04   0.03  -0.01
    22   1     0.46   0.09  -0.13     0.05  -0.02  -0.03     0.05  -0.00  -0.03
    23   1     0.01   0.19   0.06     0.01  -0.05  -0.02     0.02   0.62   0.23
    24   1     0.20  -0.10  -0.00     0.11  -0.09  -0.01    -0.10   0.07   0.03
    25   1    -0.01  -0.19  -0.00    -0.04  -0.43  -0.01     0.08   0.43   0.01
    26   1    -0.30  -0.09   0.00    -0.41  -0.13   0.02     0.30   0.12  -0.05
                     49                     50                     51
                      A                      A                      A
 Frequencies --   1302.9380              1327.4488              1339.4075
 Red. masses --      4.3132                 2.7963                 1.2844
 Frc consts  --      4.3141                 2.9032                 1.3576
 IR Inten    --     30.5372                17.2093                 1.6254
  Atom  AN      X      Y      Z        X      Y      Z        X      Y      Z
     1   6     0.05   0.05   0.01     0.02  -0.05  -0.01     0.03  -0.13  -0.03
     2   6    -0.22  -0.24   0.01    -0.06   0.00   0.01     0.02   0.03   0.01
     3   6     0.14  -0.06  -0.05     0.04  -0.01  -0.02    -0.01   0.00   0.00
     4   6    -0.02   0.15  -0.01     0.03   0.02  -0.01    -0.00  -0.01   0.00
     5   6    -0.10  -0.02   0.04    -0.07  -0.02   0.03     0.02   0.01  -0.01
     6   6     0.14  -0.12   0.01     0.01  -0.06   0.01    -0.00   0.01  -0.00
     7   9     0.00   0.00  -0.00     0.01   0.01  -0.01    -0.00  -0.00   0.00
     8   6     0.07   0.27  -0.02     0.01   0.05  -0.01    -0.00  -0.02   0.00
     9   6    -0.06  -0.00  -0.00     0.03  -0.09   0.01    -0.00   0.01  -0.00
    10   6    -0.03  -0.01  -0.01     0.13  -0.13  -0.01    -0.02   0.02   0.00
    11   8     0.02   0.02   0.02    -0.07   0.06  -0.00     0.01  -0.01  -0.00
    12   6    -0.03   0.01   0.00     0.06  -0.03  -0.01    -0.01   0.01   0.00
    13   6     0.00   0.04   0.00    -0.09  -0.08   0.01     0.02   0.01  -0.00
    14   6     0.02   0.01  -0.00     0.04   0.04  -0.00    -0.01  -0.01   0.00
    15   6     0.04  -0.06   0.01     0.02   0.22  -0.03    -0.01  -0.03   0.00
    16   9     0.00   0.02  -0.00    -0.03  -0.06   0.01     0.01   0.01  -0.00
    17   1    -0.33   0.03   0.14    -0.03   0.12   0.15    -0.08   0.42   0.47
    18   1    -0.14   0.07  -0.18    -0.01   0.15  -0.04    -0.08   0.56  -0.14
    19   1    -0.07   0.17   0.15    -0.10   0.20   0.02    -0.18   0.43  -0.05
    20   1     0.27  -0.14   0.07    -0.00   0.03   0.03    -0.02  -0.00  -0.01
    21   1    -0.03  -0.11   0.03     0.03   0.11  -0.02    -0.00  -0.02   0.00
    22   1    -0.16  -0.06  -0.03     0.10   0.04  -0.06    -0.02  -0.01   0.01
    23   1    -0.02  -0.38  -0.13    -0.04   0.64   0.26     0.01  -0.09  -0.04
    24   1     0.17  -0.09  -0.02    -0.28   0.13   0.02     0.05  -0.02  -0.00
    25   1    -0.00  -0.26  -0.01    -0.10   0.31   0.01     0.02  -0.03  -0.00
    26   1    -0.20  -0.10   0.01     0.09   0.08   0.01     0.02  -0.00  -0.00
                     52                     53                     54
                      A                      A                      A
 Frequencies --   1344.4696              1392.9374              1424.0639
 Red. masses --      6.2614                 1.8935                 1.6056
 Frc consts  --      6.6684                 2.1646                 1.9184
 IR Inten    --     76.4855                 8.3872                24.4413
  Atom  AN      X      Y      Z        X      Y      Z        X      Y      Z
     1   6     0.01   0.01   0.00    -0.06  -0.02   0.01    -0.02  -0.01   0.00
     2   6    -0.05  -0.02   0.01     0.09   0.02  -0.02    -0.09  -0.03   0.01
     3   6     0.06  -0.01  -0.02    -0.01  -0.07   0.00     0.02   0.03  -0.01
     4   6     0.01  -0.00  -0.00    -0.05   0.09   0.01     0.03  -0.02  -0.01
     5   6    -0.06  -0.03   0.02     0.05   0.03  -0.02    -0.07  -0.03   0.03
     6   6     0.00   0.03  -0.01     0.06  -0.13   0.02     0.00   0.07  -0.02
     7   9    -0.01  -0.01  -0.00    -0.00   0.02  -0.01    -0.00  -0.01   0.01
     8   6     0.02   0.03   0.00    -0.13   0.07  -0.00     0.05  -0.03   0.00
     9   6     0.02  -0.24  -0.01     0.03  -0.02   0.00     0.05  -0.01   0.00
    10   6     0.10   0.38   0.10     0.02   0.02   0.01    -0.07  -0.04  -0.01
    11   8     0.05  -0.19  -0.07    -0.00  -0.01  -0.01     0.01   0.02   0.01
    12   6    -0.24   0.11   0.03    -0.02  -0.00   0.00    -0.01   0.04   0.00
    13   6     0.11  -0.13  -0.01    -0.00  -0.01  -0.00     0.05   0.00  -0.00
    14   6     0.14   0.02  -0.01     0.01   0.01  -0.00    -0.05  -0.05   0.00
    15   6    -0.23   0.06  -0.00    -0.01  -0.03   0.00    -0.03   0.07  -0.01
    16   9     0.01   0.02  -0.00     0.00   0.01  -0.00     0.00  -0.01   0.00
    17   1    -0.08  -0.04  -0.01     0.59   0.16  -0.08     0.54   0.15  -0.07
    18   1    -0.04  -0.03  -0.05     0.15  -0.23   0.22     0.16  -0.33   0.18
    19   1     0.02  -0.05   0.02    -0.07   0.35  -0.21    -0.12   0.45  -0.14
    20   1    -0.05   0.07   0.04    -0.12  -0.01   0.03     0.10  -0.01  -0.02
    21   1     0.02   0.19  -0.02    -0.07  -0.27   0.05     0.05   0.13  -0.03
    22   1     0.18   0.07  -0.07    -0.32  -0.13   0.10     0.21   0.08  -0.08
    23   1     0.09   0.54   0.23    -0.01   0.10   0.05     0.01  -0.22  -0.09
    24   1     0.10  -0.05  -0.07    -0.02  -0.00  -0.00     0.15  -0.04  -0.01
    25   1     0.12  -0.20  -0.01    -0.00  -0.02   0.00     0.06   0.03  -0.01
    26   1     0.09  -0.02   0.06    -0.06  -0.02   0.01     0.20   0.06  -0.02
                     55                     56                     57
                      A                      A                      A
 Frequencies --   1427.1346              1434.4059              1439.0213
 Red. masses --      1.1822                 2.7994                 2.7834
 Frc consts  --      1.4187                 3.3935                 3.3959
 IR Inten    --     14.4113               103.7178                 6.5906
  Atom  AN      X      Y      Z        X      Y      Z        X      Y      Z
     1   6     0.00  -0.01  -0.06    -0.01  -0.03  -0.03     0.01  -0.02  -0.03
     2   6     0.01  -0.03  -0.02    -0.07   0.04   0.01    -0.02   0.15   0.02
     3   6    -0.05   0.02   0.02     0.07  -0.02  -0.02     0.16  -0.10  -0.05
     4   6     0.01   0.01  -0.00    -0.00  -0.04   0.00    -0.07  -0.05   0.03
     5   6     0.04  -0.00  -0.01    -0.06   0.01   0.02    -0.08   0.07   0.01
     6   6    -0.04  -0.01   0.01     0.05   0.03  -0.02     0.18  -0.05  -0.03
     7   9     0.00   0.00  -0.00    -0.01  -0.01   0.00    -0.01  -0.00   0.00
     8   6     0.01   0.03  -0.00     0.05  -0.03   0.00    -0.13  -0.04   0.00
     9   6     0.02  -0.02   0.00    -0.14   0.01  -0.01     0.09   0.01   0.01
    10   6    -0.01  -0.02  -0.00     0.01   0.18   0.03    -0.06  -0.04  -0.01
    11   8     0.00   0.01   0.00     0.01  -0.06  -0.02     0.01   0.02   0.01
    12   6    -0.02   0.02   0.00     0.12  -0.10  -0.02    -0.01   0.03   0.00
    13   6     0.02  -0.01  -0.00    -0.07  -0.02   0.01     0.04   0.01  -0.00
    14   6    -0.00  -0.01   0.00    -0.05   0.07   0.00    -0.04  -0.04   0.00
    15   6    -0.03   0.02  -0.00     0.17  -0.11   0.01    -0.03   0.05  -0.00
    16   9     0.00  -0.00  -0.00    -0.01   0.01  -0.00     0.00  -0.01   0.00
    17   1    -0.09  -0.17  -0.14     0.23  -0.03  -0.11    -0.22  -0.18  -0.07
    18   1     0.42   0.27   0.41     0.32  -0.03   0.31     0.10   0.16   0.07
    19   1    -0.32   0.01   0.59    -0.24   0.24   0.25    -0.05  -0.21   0.25
    20   1     0.13  -0.11  -0.05    -0.11   0.11   0.06    -0.46   0.34   0.19
    21   1     0.01  -0.11   0.00     0.01   0.20  -0.02    -0.07   0.34  -0.00
    22   1    -0.04  -0.04   0.03     0.10   0.08  -0.05    -0.06   0.10  -0.03
    23   1    -0.00  -0.02  -0.01     0.01   0.09   0.03     0.00  -0.23  -0.08
    24   1     0.07  -0.02  -0.01    -0.44   0.20   0.06     0.14  -0.04  -0.01
    25   1     0.02   0.00  -0.00    -0.08   0.19   0.02     0.05   0.00  -0.01
    26   1     0.06   0.02  -0.00    -0.17   0.03  -0.01     0.15   0.04  -0.01
                     58                     59                     60
                      A                      A                      A
 Frequencies --   1457.8677              1555.9319              1572.5328
 Red. masses --      3.1503                 6.3583                 6.4923
 Frc consts  --      3.9450                 9.0693                 9.4590
 IR Inten    --     52.8450                19.3498                56.6785
  Atom  AN      X      Y      Z        X      Y      Z        X      Y      Z
     1   6    -0.00  -0.02  -0.02    -0.01  -0.01  -0.01     0.01   0.00   0.00
     2   6    -0.05   0.03   0.01     0.11   0.12  -0.01    -0.03  -0.02   0.01
     3   6     0.02   0.02  -0.01    -0.00  -0.19  -0.00     0.02   0.02  -0.00
     4   6     0.01  -0.07   0.00     0.09   0.45  -0.06    -0.03  -0.07   0.02
     5   6    -0.05   0.01   0.01    -0.22  -0.26   0.11     0.08   0.06  -0.03
     6   6     0.04   0.01  -0.01     0.01   0.14  -0.04    -0.04  -0.03   0.02
     7   9     0.00   0.00   0.00     0.01  -0.01   0.00    -0.00   0.00  -0.00
     8   6     0.03  -0.07   0.00    -0.01  -0.18   0.01     0.00   0.06  -0.00
     9   6    -0.06   0.13  -0.00    -0.02   0.01  -0.00    -0.03  -0.17  -0.00
    10   6     0.19  -0.13  -0.02     0.04   0.02   0.00     0.15   0.11   0.02
    11   8    -0.05   0.04  -0.00    -0.01  -0.00  -0.00    -0.02  -0.01  -0.01
    12   6    -0.11  -0.04   0.01     0.00  -0.05  -0.00     0.00  -0.21  -0.02
    13   6    -0.03   0.13   0.01     0.01   0.11   0.00     0.06   0.45   0.01
    14   6     0.16   0.01  -0.01    -0.04  -0.06   0.00    -0.24  -0.27   0.02
    15   6    -0.12  -0.14   0.02     0.00   0.01  -0.00     0.06   0.15  -0.02
    16   9     0.02   0.04  -0.01     0.00  -0.00   0.00     0.00  -0.02   0.00
    17   1     0.18   0.02  -0.05    -0.10  -0.06  -0.01    -0.03  -0.01   0.01
    18   1     0.18  -0.05   0.17     0.02   0.13   0.03    -0.04  -0.02  -0.04
    19   1    -0.13   0.17   0.10    -0.00  -0.12   0.07     0.02  -0.01  -0.03
    20   1    -0.03   0.07   0.02    -0.05  -0.18   0.03    -0.02   0.05   0.00
    21   1     0.02   0.20  -0.03     0.05  -0.53   0.02    -0.03   0.07   0.01
    22   1     0.09   0.08  -0.05     0.31  -0.08  -0.11    -0.11  -0.02   0.05
    23   1    -0.02   0.32   0.14     0.01   0.01  -0.00    -0.02   0.26   0.09
    24   1     0.16  -0.20  -0.04    -0.02  -0.05  -0.00    -0.09  -0.19  -0.00
    25   1    -0.04  -0.47  -0.01     0.01  -0.14  -0.00     0.06  -0.50  -0.01
    26   1    -0.33  -0.25   0.05     0.04  -0.03  -0.01     0.32  -0.03  -0.05
                     61                     62                     63
                      A                      A                      A
 Frequencies --   1607.6602              1620.7825              2981.2909
 Red. masses --      6.8849                 7.1837                 1.0398
 Frc consts  --     10.4843                11.1185                 5.4449
 IR Inten    --      3.1660                75.7015                18.1341
  Atom  AN      X      Y      Z        X      Y      Z        X      Y      Z
     1   6    -0.01   0.01   0.01    -0.00  -0.00   0.00    -0.01  -0.05  -0.02
     2   6     0.22  -0.07  -0.06     0.05   0.01  -0.01    -0.00   0.00   0.00
     3   6    -0.29   0.22   0.09    -0.05   0.03   0.01    -0.00   0.00   0.00
     4   6     0.16  -0.14  -0.04     0.03  -0.02  -0.01     0.00  -0.00   0.00
     5   6    -0.32  -0.01   0.09    -0.06  -0.00   0.02     0.00   0.00  -0.00
     6   6     0.34  -0.10  -0.06     0.06  -0.04  -0.01    -0.00   0.00   0.00
     7   9    -0.01  -0.00   0.00     0.00   0.01  -0.00    -0.00  -0.00   0.00
     8   6    -0.14   0.09   0.00    -0.02   0.01  -0.00     0.00   0.00   0.00
     9   6     0.02  -0.04   0.00    -0.15   0.08  -0.01    -0.00  -0.00   0.00
    10   6    -0.04   0.06   0.01     0.27  -0.08  -0.02    -0.00   0.00   0.00
    11   8     0.01  -0.01  -0.00    -0.03   0.01  -0.01     0.00  -0.00  -0.00
    12   6     0.06  -0.06  -0.01    -0.34   0.21   0.04    -0.00  -0.00   0.00
    13   6    -0.02   0.06   0.00     0.17  -0.17  -0.02    -0.00   0.00  -0.00
    14   6     0.02  -0.02  -0.00    -0.31  -0.03   0.02    -0.00  -0.00  -0.00
    15   6    -0.03   0.01   0.00     0.34  -0.07  -0.01     0.00  -0.00   0.00
    16   9     0.00   0.00  -0.00    -0.02  -0.01   0.00     0.00   0.00   0.00
    17   1    -0.07   0.01   0.03    -0.02  -0.00   0.01    -0.16   0.34  -0.40
    18   1    -0.04   0.11  -0.03    -0.02   0.02  -0.02    -0.30  -0.01   0.27
    19   1     0.05  -0.10  -0.03     0.01  -0.03  -0.01     0.62   0.24   0.31
    20   1     0.34  -0.21  -0.15     0.04  -0.03  -0.02    -0.01  -0.01   0.00
    21   1     0.20   0.17  -0.09     0.04   0.03  -0.02     0.00  -0.00  -0.00
    22   1     0.25   0.24  -0.16     0.03   0.04  -0.03    -0.00   0.00  -0.00
    23   1     0.01  -0.11  -0.03     0.00   0.21   0.10    -0.00   0.00   0.00
    24   1    -0.10   0.03   0.01     0.37  -0.15  -0.06     0.00   0.00   0.00
    25   1    -0.03  -0.06   0.00     0.21   0.19  -0.02     0.00   0.00   0.00
    26   1    -0.02  -0.04   0.00     0.25   0.26  -0.05    -0.00   0.00   0.00
                     64                     65                     66
                      A                      A                      A
 Frequencies --   3054.8674              3097.4658              3100.1328
 Red. masses --      1.1009                 1.0920                 1.0985
 Frc consts  --      6.0532                 6.1728                 6.2205
 IR Inten    --      8.0168                 4.5524                 8.1416
  Atom  AN      X      Y      Z        X      Y      Z        X      Y      Z
     1   6    -0.07   0.02  -0.05     0.03   0.01  -0.03    -0.05  -0.02   0.06
     2   6    -0.00   0.00   0.00     0.00  -0.00  -0.00     0.00  -0.00  -0.00
     3   6     0.00   0.00   0.00    -0.04  -0.06   0.01    -0.02  -0.03   0.00
     4   6    -0.00  -0.00   0.00     0.02   0.00  -0.01     0.01   0.00  -0.00
     5   6     0.00   0.00  -0.00    -0.00   0.00  -0.00    -0.00   0.00  -0.00
     6   6    -0.00   0.00   0.00     0.00   0.00  -0.00    -0.00   0.00  -0.00
     7   9     0.00   0.00  -0.00     0.00  -0.00   0.00     0.00   0.00  -0.00
     8   6    -0.00  -0.00  -0.00     0.00   0.00   0.00     0.00   0.00  -0.00
     9   6     0.00  -0.00   0.00    -0.00  -0.00   0.00     0.00  -0.00   0.00
    10   6    -0.00  -0.00   0.00    -0.00   0.00   0.00    -0.00   0.00   0.00
    11   8    -0.00  -0.00  -0.00    -0.00  -0.00  -0.00    -0.00  -0.00  -0.00
    12   6     0.00  -0.00  -0.00    -0.00  -0.00  -0.00     0.00  -0.00  -0.00
    13   6    -0.00   0.00   0.00     0.00  -0.00  -0.00    -0.00   0.00   0.00
    14   6    -0.00  -0.00   0.00    -0.00   0.00  -0.00     0.00  -0.00  -0.00
    15   6     0.00   0.00  -0.00    -0.00  -0.00   0.00     0.00   0.00  -0.00
    16   9    -0.00  -0.00  -0.00     0.00   0.00   0.00    -0.00  -0.00  -0.00
    17   1     0.19  -0.47   0.53     0.06  -0.12   0.14    -0.11   0.21  -0.24
    18   1     0.13   0.00  -0.15    -0.31   0.00   0.29     0.58  -0.00  -0.53
    19   1     0.54   0.22   0.26    -0.05  -0.02  -0.03     0.14   0.06   0.08
    20   1    -0.02  -0.03   0.00     0.46   0.70  -0.07     0.26   0.38  -0.04
    21   1     0.00  -0.00  -0.00    -0.22   0.01   0.06    -0.12   0.01   0.04
    22   1     0.00  -0.00  -0.00     0.02  -0.04   0.00     0.01  -0.02   0.00
    23   1     0.00  -0.00   0.00     0.00  -0.00   0.00     0.00  -0.00   0.00
    24   1    -0.00  -0.00  -0.00     0.00   0.00   0.00    -0.00  -0.00  -0.00
    25   1     0.00  -0.00  -0.00    -0.00   0.00   0.00     0.00  -0.00  -0.00
    26   1    -0.00   0.00  -0.00     0.00  -0.00   0.00    -0.00   0.00  -0.00
                     67                     68                     69
                      A                      A                      A
 Frequencies --   3118.4510              3125.5647              3137.2953
 Red. masses --      1.0873                 1.0905                 1.0926
 Frc consts  --      6.2301                 6.2765                 6.3359
 IR Inten    --      4.3983                 5.4060                 3.5267
  Atom  AN      X      Y      Z        X      Y      Z        X      Y      Z
     1   6     0.00   0.00  -0.00    -0.00  -0.00  -0.00     0.00   0.00  -0.00
     2   6     0.00  -0.00  -0.00     0.00  -0.00  -0.00    -0.00   0.00   0.00
     3   6    -0.00  -0.00   0.00    -0.01  -0.02   0.00    -0.00  -0.00  -0.00
     4   6    -0.00   0.00   0.00    -0.07   0.01   0.02    -0.00   0.00   0.00
     5   6     0.00  -0.00   0.00     0.02  -0.04   0.00    -0.00   0.00  -0.00
     6   6     0.00   0.00  -0.00    -0.00  -0.00   0.00    -0.00  -0.00   0.00
     7   9    -0.00  -0.00   0.00     0.00   0.00  -0.00     0.00   0.00  -0.00
     8   6     0.00  -0.00  -0.00    -0.00   0.00  -0.00     0.00  -0.00  -0.00
     9   6    -0.00   0.00  -0.00     0.00  -0.00  -0.00    -0.00   0.00   0.00
    10   6    -0.00   0.00   0.00     0.00  -0.00  -0.00     0.00  -0.00  -0.00
    11   8     0.00  -0.00   0.00     0.00  -0.00   0.00    -0.00   0.00   0.00
    12   6     0.02   0.03   0.00    -0.00  -0.00   0.00    -0.03  -0.06  -0.00
    13   6    -0.08   0.00   0.01     0.00  -0.00  -0.00    -0.02   0.00   0.00
    14   6     0.01  -0.02   0.00    -0.00   0.00   0.00     0.02  -0.04   0.00
    15   6    -0.00  -0.00   0.00    -0.00   0.00  -0.00    -0.00  -0.00   0.00
    16   9    -0.00   0.00  -0.00    -0.00  -0.00   0.00     0.00   0.00  -0.00
    17   1     0.00  -0.00   0.00    -0.00   0.00   0.00     0.00  -0.00   0.00
    18   1    -0.00   0.00   0.00     0.00   0.00  -0.00    -0.00  -0.00   0.00
    19   1    -0.00  -0.00  -0.00     0.00   0.00   0.00    -0.00  -0.00  -0.00
    20   1     0.00   0.00  -0.00     0.13   0.20  -0.02     0.00   0.00  -0.00
    21   1     0.00  -0.00  -0.00     0.76  -0.06  -0.22     0.00  -0.00  -0.00
    22   1    -0.00   0.00  -0.00    -0.23   0.50  -0.04     0.00  -0.00   0.00
    23   1    -0.00   0.00  -0.00    -0.00   0.00  -0.00    -0.00   0.00   0.00
    24   1    -0.18  -0.33  -0.02     0.00   0.00   0.00     0.39   0.72   0.04
    25   1     0.87  -0.01  -0.06    -0.01   0.00   0.00     0.16  -0.01  -0.01
    26   1    -0.13   0.26  -0.01     0.00  -0.00   0.00    -0.24   0.49  -0.02
                     70                     71                     72
                      A                      A                      A
 Frequencies --   3140.2320              3143.2710              3590.0843
 Red. masses --      1.0985                 1.0984                 1.0633
 Frc consts  --      6.3822                 6.3939                 8.0743
 IR Inten    --      1.8387                 2.2773               364.0550
  Atom  AN      X      Y      Z        X      Y      Z        X      Y      Z
     1   6     0.00   0.00  -0.00     0.00   0.00  -0.00     0.00  -0.00  -0.00
     2   6    -0.00   0.00   0.00     0.00  -0.00  -0.00    -0.00  -0.00  -0.00
     3   6     0.00   0.01  -0.00    -0.00  -0.00   0.00     0.00   0.00  -0.00
     4   6     0.05  -0.00  -0.01    -0.00   0.00   0.00    -0.00  -0.00   0.00
     5   6     0.03  -0.07   0.01    -0.00   0.00  -0.00     0.00   0.00  -0.00
     6   6    -0.00  -0.00   0.00     0.00   0.00  -0.00    -0.00  -0.01   0.00
     7   9     0.00   0.00  -0.00    -0.00  -0.00   0.00    -0.00   0.00  -0.00
     8   6    -0.00   0.00  -0.00    -0.00  -0.00  -0.00     0.00   0.00  -0.00
     9   6    -0.00  -0.00  -0.00     0.00   0.00  -0.00    -0.00  -0.00  -0.00
    10   6     0.00  -0.00  -0.00    -0.00   0.00   0.00    -0.00   0.00   0.00
    11   8     0.00   0.00   0.00     0.00  -0.00   0.00    -0.06   0.01  -0.02
    12   6    -0.00  -0.00  -0.00     0.02   0.04   0.00     0.00  -0.00  -0.00
    13   6     0.00   0.00  -0.00     0.04   0.00  -0.00    -0.00   0.00   0.00
    14   6     0.00  -0.00   0.00     0.03  -0.06   0.00    -0.00  -0.00  -0.00
    15   6    -0.00   0.00   0.00    -0.00  -0.00   0.00     0.00  -0.00  -0.00
    16   9     0.00  -0.00  -0.00     0.00   0.00  -0.00    -0.00  -0.00   0.00
    17   1     0.00  -0.00   0.00     0.00  -0.00   0.00     0.00   0.00  -0.00
    18   1    -0.00  -0.00   0.00    -0.00  -0.00   0.00    -0.00   0.00   0.00
    19   1    -0.00  -0.00  -0.00    -0.00  -0.00  -0.00    -0.00   0.00  -0.00
    20   1    -0.05  -0.09   0.01     0.00   0.00  -0.00    -0.00  -0.00   0.00
    21   1    -0.52   0.04   0.15     0.00  -0.00  -0.00     0.00   0.00  -0.00
    22   1    -0.33   0.76  -0.06     0.00  -0.01   0.00    -0.00   0.00   0.00
    23   1    -0.00   0.00  -0.00    -0.00  -0.00  -0.00     0.93  -0.18   0.32
    24   1     0.00   0.00   0.00    -0.20  -0.38  -0.02    -0.00  -0.00  -0.00
    25   1    -0.00   0.00   0.00    -0.44   0.00   0.03     0.00  -0.00   0.00
    26   1    -0.00   0.01  -0.00    -0.34   0.70  -0.03    -0.00   0.00   0.00

 -------------------
 - Thermochemistry -
 -------------------
 Temperature   298.150 Kelvin.  Pressure   1.00000 Atm.
 Atom     1 has atomic number  6 and mass  12.00000
 Atom     2 has atomic number  6 and mass  12.00000
 Atom     3 has atomic number  6 and mass  12.00000
 Atom     4 has atomic number  6 and mass  12.00000
 Atom     5 has atomic number  6 and mass  12.00000
 Atom     6 has atomic number  6 and mass  12.00000
 Atom     7 has atomic number  9 and mass  18.99840
 Atom     8 has atomic number  6 and mass  12.00000
 Atom     9 has atomic number  6 and mass  12.00000
 Atom    10 has atomic number  6 and mass  12.00000
 Atom    11 has atomic number  8 and mass  15.99491
 Atom    12 has atomic number  6 and mass  12.00000
 Atom    13 has atomic number  6 and mass  12.00000
 Atom    14 has atomic number  6 and mass  12.00000
 Atom    15 has atomic number  6 and mass  12.00000
 Atom    16 has atomic number  9 and mass  18.99840
 Atom    17 has atomic number  1 and mass   1.00783
 Atom    18 has atomic number  1 and mass   1.00783
 Atom    19 has atomic number  1 and mass   1.00783
 Atom    20 has atomic number  1 and mass   1.00783
 Atom    21 has atomic number  1 and mass   1.00783
 Atom    22 has atomic number  1 and mass   1.00783
 Atom    23 has atomic number  1 and mass   1.00783
 Atom    24 has atomic number  1 and mass   1.00783
 Atom    25 has atomic number  1 and mass   1.00783
 Atom    26 has atomic number  1 and mass   1.00783
 Molecular mass:   220.06997 amu.
 Principal axes and moments of inertia in atomic units:
                           1         2         3
     Eigenvalues --  2150.259673833.688345769.92368
           X            0.99956   0.02941  -0.00361
           Y           -0.02935   0.99946   0.01499
           Z            0.00405  -0.01488   0.99988
 This molecule is an asymmetric top.
 Rotational symmetry number  1.
 Warning -- assumption of classical behavior for rotation
           may cause significant error
 Rotational temperatures (Kelvin)      0.04028     0.02259     0.01501
 Rotational constants (GHZ):           0.83931     0.47076     0.31278
    1 imaginary frequencies ignored.
 Zero-point vibrational energy     502938.9 (Joules/Mol)
                                  120.20529 (Kcal/Mol)
 Warning -- explicit consideration of  23 degrees of freedom as
           vibrations may cause significant error
 Vibrational temperatures:     66.49   170.08   261.55   285.25   295.24
          (Kelvin)            308.59   428.33   446.56   480.53   487.56
                              510.33   642.58   677.71   689.75   720.14
                              735.54   757.07   761.75   805.33   814.82
                              849.92   864.80   871.31   989.25  1040.74
                             1059.44  1086.30  1101.37  1132.64  1210.77
                             1218.28  1306.24  1350.18  1356.78  1399.58
                             1407.50  1442.67  1457.33  1543.08  1560.41
                             1615.15  1626.26  1692.98  1715.18  1734.97
                             1759.51  1805.96  1874.64  1909.90  1927.11
                             1934.39  2004.13  2048.91  2053.33  2063.79
                             2070.43  2097.55  2238.64  2262.52  2313.06
                             2331.94  4289.41  4395.27  4456.56  4460.40
                             4486.76  4496.99  4513.87  4518.09  4522.47
                             5165.33
 
 Zero-point correction=                           0.191559 (Hartree/Particle)
 Thermal correction to Energy=                    0.203852
 Thermal correction to Enthalpy=                  0.204796
 Thermal correction to Gibbs Free Energy=         0.153572
 Sum of electronic and zero-point Energies=           -775.559441
 Sum of electronic and thermal Energies=              -775.547148
 Sum of electronic and thermal Enthalpies=            -775.546204
 Sum of electronic and thermal Free Energies=         -775.597429
 
                     E (Thermal)             CV                S
                      KCal/Mol        Cal/Mol-Kelvin    Cal/Mol-Kelvin
 Total                  127.919             51.533            107.811
 Electronic               0.000              0.000              0.000
 Translational            0.889              2.981             42.069
 Rotational               0.889              2.981             32.231
 Vibrational            126.142             45.571             33.510
 Vibration     1          0.595              1.979              4.973
 Vibration     2          0.608              1.934              3.129
 Vibration     3          0.630              1.865              2.310
 Vibration     4          0.637              1.842              2.149
 Vibration     5          0.640              1.832              2.086
 Vibration     6          0.644              1.819              2.005
 Vibration     7          0.691              1.678              1.430
 Vibration     8          0.699              1.654              1.360
 Vibration     9          0.716              1.608              1.241
 Vibration    10          0.719              1.598              1.217
 Vibration    11          0.731              1.566              1.145
 Vibration    12          0.806              1.368              0.806
 Vibration    13          0.828              1.314              0.735
 Vibration    14          0.836              1.296              0.712
 Vibration    15          0.856              1.249              0.657
 Vibration    16          0.866              1.225              0.631
 Vibration    17          0.881              1.192              0.596
 Vibration    18          0.884              1.185              0.588
 Vibration    19          0.915              1.118              0.524
 Vibration    20          0.922              1.104              0.511
 Vibration    21          0.948              1.052              0.466
 Vibration    22          0.959              1.030              0.448
 Vibration    23          0.964              1.020              0.440
                       Q            Log10(Q)             Ln(Q)
 Total Bot       0.230034D-70        -70.638208       -162.650484
 Total V=0       0.297090D+18         17.472888         40.232812
 Vib (Bot)       0.726127D-85        -85.138987       -196.039763
 Vib (Bot)    1  0.447455D+01          0.650749          1.498405
 Vib (Bot)    2  0.172949D+01          0.237919          0.547829
 Vib (Bot)    3  0.110419D+01          0.043042          0.099108
 Vib (Bot)    4  0.100640D+01          0.002772          0.006384
 Vib (Bot)    5  0.969732D+00         -0.013348         -0.030736
 Vib (Bot)    6  0.924351D+00         -0.034163         -0.078663
 Vib (Bot)    7  0.639629D+00         -0.194072         -0.446867
 Vib (Bot)    8  0.609100D+00         -0.215311         -0.495773
 Vib (Bot)    9  0.558062D+00         -0.253318         -0.583285
 Vib (Bot)   10  0.548338D+00         -0.260952         -0.600864
 Vib (Bot)   11  0.518566D+00         -0.285196         -0.656689
 Vib (Bot)   12  0.385021D+00         -0.414515         -0.954457
 Vib (Bot)   13  0.357786D+00         -0.446376         -1.027820
 Vib (Bot)   14  0.349045D+00         -0.457118         -1.052554
 Vib (Bot)   15  0.328211D+00         -0.483847         -1.114098
 Vib (Bot)   16  0.318269D+00         -0.497205         -1.144857
 Vib (Bot)   17  0.305013D+00         -0.515682         -1.187402
 Vib (Bot)   18  0.302228D+00         -0.519666         -1.196574
 Vib (Bot)   19  0.277747D+00         -0.556351         -1.281046
 Vib (Bot)   20  0.272746D+00         -0.564241         -1.299213
 Vib (Bot)   21  0.255181D+00         -0.593152         -1.365783
 Vib (Bot)   22  0.248152D+00         -0.605282         -1.393714
 Vib (Bot)   23  0.245148D+00         -0.610571         -1.405892
 Vib (V=0)       0.937797D+03          2.972109          6.843533
 Vib (V=0)    1  0.500240D+01          0.699178          1.609917
 Vib (V=0)    2  0.230032D+01          0.361788          0.833048
 Vib (V=0)    3  0.171212D+01          0.233533          0.537730
 Vib (V=0)    4  0.162377D+01          0.210523          0.484748
 Vib (V=0)    5  0.159105D+01          0.201683          0.464391
 Vib (V=0)    6  0.155092D+01          0.190588          0.438846
 Vib (V=0)    7  0.131187D+01          0.117889          0.271450
 Vib (V=0)    8  0.128804D+01          0.109928          0.253120
 Vib (V=0)    9  0.124929D+01          0.096663          0.222574
 Vib (V=0)   10  0.124207D+01          0.094148          0.216783
 Vib (V=0)   11  0.122035D+01          0.086486          0.199141
 Vib (V=0)   12  0.113106D+01          0.053487          0.123158
 Vib (V=0)   13  0.111483D+01          0.047207          0.108698
 Vib (V=0)   14  0.110978D+01          0.045237          0.104162
 Vib (V=0)   15  0.109810D+01          0.040642          0.093581
 Vib (V=0)   16  0.109270D+01          0.038502          0.088653
 Vib (V=0)   17  0.108569D+01          0.035706          0.082216
 Vib (V=0)   18  0.108424D+01          0.035127          0.080883
 Vib (V=0)   19  0.107196D+01          0.030180          0.069493
 Vib (V=0)   20  0.106955D+01          0.029202          0.067241
 Vib (V=0)   21  0.106135D+01          0.025860          0.059545
 Vib (V=0)   22  0.105819D+01          0.024565          0.056563
 Vib (V=0)   23  0.105686D+01          0.024019          0.055306
 Electronic      0.100000D+01          0.000000          0.000000
 Translational   0.128320D+09          8.108295         18.670039
 Rotational      0.246879D+07          6.392484         14.719239
 ***** Axes restored to original set *****
 -------------------------------------------------------------------
 Center     Atomic                   Forces (Hartrees/Bohr)
 Number     Number              X              Y              Z
 -------------------------------------------------------------------
      1        6          -0.000004079   -0.000002885    0.000004005
      2        6           0.000000689   -0.000000349   -0.000000600
      3        6           0.000001320   -0.000000948    0.000002258
      4        6          -0.000000103    0.000000008    0.000000071
      5        6          -0.000000329   -0.000000276    0.000000044
      6        6          -0.000001259   -0.000001225    0.000003053
      7        9          -0.000005559   -0.000000970   -0.000007565
      8        6           0.000000803    0.000000694   -0.000007618
      9        6          -0.000001876   -0.000000143    0.000005670
     10        6          -0.000001651    0.000003751   -0.000001227
     11        8           0.000005860   -0.000002405    0.000002534
     12        6           0.000000941   -0.000000191   -0.000000560
     13        6          -0.000000098    0.000001651   -0.000000110
     14        6          -0.000000732    0.000000033   -0.000000079
     15        6           0.000001530    0.000000564    0.000001455
     16        9           0.000006830    0.000001341   -0.000004148
     17        1          -0.000003057   -0.000000175    0.000000592
     18        1          -0.000000178   -0.000000606    0.000002146
     19        1           0.000000420    0.000000673   -0.000000779
     20        1           0.000000337   -0.000000413    0.000000642
     21        1           0.000000017   -0.000000338    0.000000491
     22        1          -0.000000358   -0.000000392   -0.000000199
     23        1           0.000000662    0.000001172    0.000001463
     24        1          -0.000000423    0.000000434   -0.000000958
     25        1           0.000000003    0.000000615   -0.000000761
     26        1           0.000000289    0.000000381    0.000000181
 -------------------------------------------------------------------
 Cartesian Forces:  Max     0.000007618 RMS     0.000002292
 FormGI is forming the generalized inverse of G from B-inverse, IUseBI=4.

 GradGradGradGradGradGradGradGradGradGradGradGradGradGradGradGradGradGrad
 Berny optimization.
 Internal  Forces:  Max     0.000013678 RMS     0.000004073
 Search for a saddle point.
 Step number   1 out of a maximum of    2
 All quantities printed in internal units (Hartrees-Bohrs-Radians)
 Swapping is turned off.
 Second derivative matrix not updated -- analytic derivatives used.
 ITU=  0
     Eigenvalues ---   -0.02560   0.00351   0.00712   0.01096   0.01446
     Eigenvalues ---    0.01564   0.01579   0.01627   0.01711   0.01753
     Eigenvalues ---    0.01849   0.02125   0.02157   0.02254   0.02321
     Eigenvalues ---    0.02594   0.02849   0.02910   0.03046   0.03879
     Eigenvalues ---    0.05147   0.05470   0.05509   0.09863   0.09901
     Eigenvalues ---    0.10608   0.10810   0.10981   0.11143   0.11583
     Eigenvalues ---    0.13163   0.14061   0.14678   0.16276   0.16441
     Eigenvalues ---    0.17031   0.17617   0.17867   0.18143   0.18671
     Eigenvalues ---    0.19478   0.19719   0.22792   0.25361   0.26642
     Eigenvalues ---    0.27387   0.29354   0.31514   0.32297   0.32774
     Eigenvalues ---    0.33042   0.33627   0.34028   0.34354   0.34497
     Eigenvalues ---    0.34522   0.34803   0.34903   0.35006   0.35760
     Eigenvalues ---    0.39913   0.40441   0.43560   0.44621   0.45847
     Eigenvalues ---    0.46309   0.47516   0.49096   0.49420   0.51375
     Eigenvalues ---    0.87602   2.26616
 Eigenvectors required to have negative eigenvalues:
                          D31       D32       D33       D34       D43
   1                    0.46028   0.44720   0.39449   0.38142  -0.17433
                          D40       D6        D2        D44       D4
   1                    0.15519  -0.15088  -0.14890  -0.14842  -0.13997
 Angle between quadratic step and forces=  87.10 degrees.
 Linear search not attempted -- option 19 set.
 Iteration  1 RMS(Cart)=  0.00025283 RMS(Int)=  0.00000003
 Iteration  2 RMS(Cart)=  0.00000004 RMS(Int)=  0.00000000
 Variable       Old X    -DE/DX   Delta X   Delta X   Delta X     New X
                                 (Linear)    (Quad)   (Total)
    R1        2.87561   0.00000   0.00000  -0.00000  -0.00000   2.87560
    R2        2.09112   0.00000   0.00000  -0.00001  -0.00001   2.09111
    R3        2.08469   0.00000   0.00000   0.00001   0.00001   2.08470
    R4        2.09530  -0.00000   0.00000  -0.00001  -0.00001   2.09530
    R5        2.67093  -0.00000   0.00000   0.00000   0.00000   2.67093
    R6        2.75552  -0.00001   0.00000   0.00001   0.00001   2.75553
    R7        2.64254   0.00000   0.00000   0.00000   0.00000   2.64254
    R8        2.08211  -0.00000   0.00000  -0.00000  -0.00000   2.08211
    R9        2.64026   0.00000   0.00000  -0.00001  -0.00001   2.64026
   R10        2.07861  -0.00000   0.00000  -0.00000  -0.00000   2.07861
   R11        2.63197   0.00000   0.00000   0.00000   0.00000   2.63197
   R12        2.07773  -0.00000   0.00000  -0.00000  -0.00000   2.07773
   R13        2.61554  -0.00000   0.00000  -0.00001  -0.00001   2.61553
   R14        2.70442  -0.00001   0.00000  -0.00001  -0.00001   2.70442
   R15        2.84479  -0.00001   0.00000   0.00001   0.00001   2.84479
   R16        2.75987  -0.00001   0.00000  -0.00000  -0.00000   2.75987
   R17        2.71212  -0.00001   0.00000  -0.00001  -0.00001   2.71211
   R18        2.55425   0.00000   0.00000   0.00001   0.00001   2.55426
   R19        2.67739  -0.00000   0.00000  -0.00000  -0.00000   2.67739
   R20        1.85118   0.00000   0.00000  -0.00000  -0.00000   1.85117
   R21        2.62832   0.00000   0.00000   0.00000   0.00000   2.62832
   R22        2.07720   0.00000   0.00000   0.00000   0.00000   2.07720
   R23        2.64540   0.00000   0.00000  -0.00000  -0.00000   2.64540
   R24        2.07945  -0.00000   0.00000  -0.00000  -0.00000   2.07945
   R25        2.63636   0.00000   0.00000   0.00000   0.00000   2.63636
   R26        2.07672  -0.00000   0.00000   0.00000   0.00000   2.07672
   R27        2.55157   0.00000   0.00000  -0.00000  -0.00000   2.55157
    A1        1.98775  -0.00000   0.00000   0.00003   0.00003   1.98778
    A2        1.96545  -0.00000   0.00000  -0.00004  -0.00004   1.96540
    A3        1.87216   0.00000   0.00000   0.00002   0.00002   1.87219
    A4        1.88251  -0.00000   0.00000  -0.00002  -0.00002   1.88249
    A5        1.87521   0.00000   0.00000  -0.00000  -0.00000   1.87521
    A6        1.87567   0.00000   0.00000   0.00001   0.00001   1.87568
    A7        1.96851   0.00001   0.00000   0.00000   0.00000   1.96851
    A8        2.21728  -0.00001   0.00000   0.00000   0.00000   2.21728
    A9        2.08590  -0.00000   0.00000  -0.00000  -0.00000   2.08590
   A10        2.16001  -0.00000   0.00000   0.00001   0.00001   2.16002
   A11        2.04435   0.00000   0.00000  -0.00000  -0.00000   2.04435
   A12        2.07641   0.00000   0.00000  -0.00001  -0.00001   2.07641
   A13        2.04293   0.00000   0.00000   0.00000   0.00000   2.04294
   A14        2.11884  -0.00000   0.00000  -0.00000  -0.00000   2.11883
   A15        2.11577  -0.00000   0.00000   0.00000   0.00000   2.11577
   A16        2.06383  -0.00000   0.00000  -0.00000  -0.00000   2.06383
   A17        2.15037   0.00000   0.00000   0.00000   0.00000   2.15037
   A18        2.06779   0.00000   0.00000  -0.00000  -0.00000   2.06779
   A19        1.97345   0.00001   0.00000  -0.00001  -0.00001   1.97344
   A20        2.21336  -0.00001   0.00000   0.00001   0.00001   2.21336
   A21        2.09430  -0.00000   0.00000   0.00000   0.00000   2.09430
   A22        1.92845   0.00001   0.00000   0.00001   0.00001   1.92846
   A23        2.22855  -0.00001   0.00000   0.00004   0.00004   2.22859
   A24        2.12618   0.00000   0.00000  -0.00005  -0.00005   2.12613
   A25        2.18650  -0.00000   0.00000  -0.00003  -0.00003   2.18648
   A26        2.15471  -0.00001   0.00000   0.00003   0.00003   2.15474
   A27        1.93332   0.00001   0.00000  -0.00000  -0.00000   1.93331
   A28        2.20701  -0.00001   0.00000  -0.00001  -0.00001   2.20699
   A29        2.12272  -0.00000   0.00000   0.00000   0.00000   2.12272
   A30        1.94997   0.00001   0.00000   0.00002   0.00002   1.94998
   A31        1.94615  -0.00000   0.00000  -0.00002  -0.00002   1.94613
   A32        2.13239  -0.00000   0.00000  -0.00000  -0.00000   2.13239
   A33        2.02214   0.00000   0.00000   0.00000   0.00000   2.02215
   A34        2.12741   0.00000   0.00000   0.00000   0.00000   2.12741
   A35        2.06218   0.00000   0.00000   0.00000   0.00000   2.06218
   A36        2.10975  -0.00000   0.00000   0.00000   0.00000   2.10975
   A37        2.10995  -0.00000   0.00000  -0.00000  -0.00000   2.10995
   A38        2.07877  -0.00000   0.00000  -0.00000  -0.00000   2.07877
   A39        2.14692   0.00000   0.00000  -0.00000  -0.00000   2.14692
   A40        2.05605   0.00000   0.00000   0.00000   0.00000   2.05605
   A41        2.20383  -0.00000   0.00000  -0.00000  -0.00000   2.20383
   A42        2.09718  -0.00001   0.00000  -0.00000  -0.00000   2.09718
   A43        1.98058   0.00001   0.00000   0.00001   0.00001   1.98059
    D1        1.54950   0.00000   0.00000   0.00059   0.00059   1.55008
    D2       -1.75693   0.00000   0.00000   0.00061   0.00061  -1.75632
    D3       -2.58312   0.00000   0.00000   0.00055   0.00055  -2.58257
    D4        0.39364   0.00000   0.00000   0.00057   0.00057   0.39422
    D5       -0.52306   0.00000   0.00000   0.00055   0.00055  -0.52250
    D6        2.45371   0.00000   0.00000   0.00058   0.00058   2.45429
    D7        2.83990  -0.00000   0.00000   0.00007   0.00007   2.83997
    D8       -0.22610  -0.00000   0.00000   0.00004   0.00004  -0.22606
    D9       -0.15061   0.00000   0.00000   0.00005   0.00005  -0.15056
   D10        3.06657   0.00000   0.00000   0.00002   0.00002   3.06659
   D11       -2.60230  -0.00000   0.00000  -0.00010  -0.00010  -2.60240
   D12        0.53597  -0.00000   0.00000  -0.00024  -0.00024   0.53573
   D13        0.36457  -0.00000   0.00000  -0.00008  -0.00008   0.36449
   D14       -2.78035  -0.00000   0.00000  -0.00021  -0.00021  -2.78056
   D15       -0.12529   0.00000   0.00000   0.00001   0.00001  -0.12528
   D16        3.12899  -0.00000   0.00000  -0.00001  -0.00001   3.12899
   D17        2.93940   0.00000   0.00000   0.00004   0.00004   2.93945
   D18       -0.08950  -0.00000   0.00000   0.00003   0.00003  -0.08947
   D19        0.14319  -0.00000   0.00000  -0.00004  -0.00004   0.14315
   D20       -2.94502  -0.00000   0.00000  -0.00004  -0.00004  -2.94505
   D21       -3.11088  -0.00000   0.00000  -0.00002  -0.00002  -3.11090
   D22        0.08410  -0.00000   0.00000  -0.00002  -0.00002   0.08407
   D23       -2.94983  -0.00000   0.00000  -0.00004  -0.00004  -2.94987
   D24        0.12183  -0.00000   0.00000   0.00000   0.00000   0.12183
   D25        0.14095  -0.00000   0.00000  -0.00004  -0.00004   0.14091
   D26       -3.07058   0.00000   0.00000   0.00001   0.00001  -3.07057
   D27       -0.36941   0.00000   0.00000   0.00005   0.00005  -0.36936
   D28        2.77528   0.00000   0.00000   0.00017   0.00017   2.77545
   D29        2.69788   0.00001   0.00000   0.00009   0.00009   2.69798
   D30       -0.44061   0.00001   0.00000   0.00022   0.00022  -0.44039
   D31        2.96180   0.00001   0.00000  -0.00008  -0.00008   2.96172
   D32       -0.02562   0.00001   0.00000  -0.00009  -0.00009  -0.02571
   D33       -0.18346   0.00001   0.00000  -0.00023  -0.00023  -0.18369
   D34        3.11231   0.00001   0.00000  -0.00024  -0.00024   3.11207
   D35       -0.22207   0.00001   0.00000  -0.00004  -0.00004  -0.22211
   D36        3.01685   0.00000   0.00000  -0.00005  -0.00005   3.01680
   D37        2.78206   0.00000   0.00000  -0.00003  -0.00003   2.78204
   D38       -0.26220   0.00000   0.00000  -0.00004  -0.00004  -0.26224
   D39       -3.02017  -0.00000   0.00000   0.00006   0.00006  -3.02011
   D40        0.18614   0.00000   0.00000   0.00008   0.00008   0.18623
   D41        0.25591  -0.00000   0.00000   0.00006   0.00006   0.25596
   D42       -2.82096   0.00000   0.00000   0.00008   0.00008  -2.82088
   D43        0.57092  -0.00000   0.00000   0.00018   0.00018   0.57110
   D44       -2.65986   0.00000   0.00000   0.00018   0.00018  -2.65967
   D45        0.13096  -0.00000   0.00000   0.00000   0.00000   0.13097
   D46       -3.06332   0.00000   0.00000   0.00001   0.00001  -3.06331
   D47       -2.92639  -0.00000   0.00000  -0.00000  -0.00000  -2.92640
   D48        0.16251  -0.00000   0.00000   0.00000   0.00000   0.16251
   D49        0.04942  -0.00000   0.00000   0.00002   0.00002   0.04943
   D50        3.13663   0.00000   0.00000   0.00001   0.00001   3.13664
   D51       -3.03633  -0.00000   0.00000   0.00001   0.00001  -3.03632
   D52        0.05088  -0.00000   0.00000  -0.00000  -0.00000   0.05088
   D53       -0.06720   0.00000   0.00000  -0.00000  -0.00000  -0.06720
   D54        3.01531   0.00000   0.00000  -0.00002  -0.00002   3.01529
   D55        3.12878  -0.00000   0.00000   0.00001   0.00001   3.12879
   D56       -0.07189  -0.00000   0.00000  -0.00001  -0.00001  -0.07190
   D57       -0.10119   0.00000   0.00000  -0.00004  -0.00004  -0.10123
   D58        2.97939  -0.00000   0.00000  -0.00006  -0.00006   2.97933
   D59        3.09641   0.00000   0.00000  -0.00002  -0.00002   3.09639
   D60       -0.10619  -0.00000   0.00000  -0.00004  -0.00004  -0.10624
         Item               Value     Threshold  Converged?
 Maximum Force            0.000014     0.000450     YES
 RMS     Force            0.000004     0.000300     YES
 Maximum Displacement     0.001282     0.001800     YES
 RMS     Displacement     0.000253     0.001200     YES
 Predicted change in Energy=-1.841662D-09
 Optimization completed.
    -- Stationary point found.
                           ----------------------------
                           !   Optimized Parameters   !
                           ! (Angstroms and Degrees)  !
 --------------------------                            --------------------------
 ! Name  Definition              Value          Derivative Info.                !
 --------------------------------------------------------------------------------
 ! R1    R(1,2)                  1.5217         -DE/DX =    0.0                 !
 ! R2    R(1,17)                 1.1066         -DE/DX =    0.0                 !
 ! R3    R(1,18)                 1.1032         -DE/DX =    0.0                 !
 ! R4    R(1,19)                 1.1088         -DE/DX =    0.0                 !
 ! R5    R(2,3)                  1.4134         -DE/DX =    0.0                 !
 ! R6    R(2,8)                  1.4582         -DE/DX =    0.0                 !
 ! R7    R(3,4)                  1.3984         -DE/DX =    0.0                 !
 ! R8    R(3,20)                 1.1018         -DE/DX =    0.0                 !
 ! R9    R(4,5)                  1.3972         -DE/DX =    0.0                 !
 ! R10   R(4,21)                 1.1            -DE/DX =    0.0                 !
 ! R11   R(5,6)                  1.3928         -DE/DX =    0.0                 !
 ! R12   R(5,22)                 1.0995         -DE/DX =    0.0                 !
 ! R13   R(6,7)                  1.3841         -DE/DX =    0.0                 !
 ! R14   R(6,8)                  1.4311         -DE/DX =    0.0                 !
 ! R15   R(8,9)                  1.5054         -DE/DX =    0.0                 !
 ! R16   R(9,10)                 1.4605         -DE/DX =    0.0                 !
 ! R17   R(9,15)                 1.4352         -DE/DX =    0.0                 !
 ! R18   R(10,11)                1.3517         -DE/DX =    0.0                 !
 ! R19   R(10,12)                1.4168         -DE/DX =    0.0                 !
 ! R20   R(11,23)                0.9796         -DE/DX =    0.0                 !
 ! R21   R(12,13)                1.3908         -DE/DX =    0.0                 !
 ! R22   R(12,24)                1.0992         -DE/DX =    0.0                 !
 ! R23   R(13,14)                1.3999         -DE/DX =    0.0                 !
 ! R24   R(13,25)                1.1004         -DE/DX =    0.0                 !
 ! R25   R(14,15)                1.3951         -DE/DX =    0.0                 !
 ! R26   R(14,26)                1.099          -DE/DX =    0.0                 !
 ! R27   R(15,16)                1.3502         -DE/DX =    0.0                 !
 ! A1    A(2,1,17)             113.8896         -DE/DX =    0.0                 !
 ! A2    A(2,1,18)             112.6118         -DE/DX =    0.0                 !
 ! A3    A(2,1,19)             107.2671         -DE/DX =    0.0                 !
 ! A4    A(17,1,18)            107.8599         -DE/DX =    0.0                 !
 ! A5    A(17,1,19)            107.4416         -DE/DX =    0.0                 !
 ! A6    A(18,1,19)            107.4679         -DE/DX =    0.0                 !
 ! A7    A(1,2,3)              112.7873         -DE/DX =    0.0                 !
 ! A8    A(1,2,8)              127.0407         -DE/DX =    0.0                 !
 ! A9    A(3,2,8)              119.5131         -DE/DX =    0.0                 !
 ! A10   A(2,3,4)              123.7594         -DE/DX =    0.0                 !
 ! A11   A(2,3,20)             117.1325         -DE/DX =    0.0                 !
 ! A12   A(4,3,20)             118.9697         -DE/DX =    0.0                 !
 ! A13   A(3,4,5)              117.0515         -DE/DX =    0.0                 !
 ! A14   A(3,4,21)             121.4004         -DE/DX =    0.0                 !
 ! A15   A(5,4,21)             121.2245         -DE/DX =    0.0                 !
 ! A16   A(4,5,6)              118.2489         -DE/DX =    0.0                 !
 ! A17   A(4,5,22)             123.2072         -DE/DX =    0.0                 !
 ! A18   A(6,5,22)             118.4754         -DE/DX =    0.0                 !
 ! A19   A(5,6,7)              113.0704         -DE/DX =    0.0                 !
 ! A20   A(5,6,8)              126.8159         -DE/DX =    0.0                 !
 ! A21   A(7,6,8)              119.9945         -DE/DX =    0.0                 !
 ! A22   A(2,8,6)              110.4922         -DE/DX =    0.0                 !
 ! A23   A(2,8,9)              127.6865         -DE/DX =    0.0                 !
 ! A24   A(6,8,9)              121.821          -DE/DX =    0.0                 !
 ! A25   A(8,9,10)             125.2774         -DE/DX =    0.0                 !
 ! A26   A(8,9,15)             123.4558         -DE/DX =    0.0                 !
 ! A27   A(10,9,15)            110.7708         -DE/DX =    0.0                 !
 ! A28   A(9,10,11)            126.4522         -DE/DX =    0.0                 !
 ! A29   A(9,10,12)            121.6229         -DE/DX =    0.0                 !
 ! A30   A(11,10,12)           111.7248         -DE/DX =    0.0                 !
 ! A31   A(10,11,23)           111.506          -DE/DX =    0.0                 !
 ! A32   A(10,12,13)           122.177          -DE/DX =    0.0                 !
 ! A33   A(10,12,24)           115.8602         -DE/DX =    0.0                 !
 ! A34   A(13,12,24)           121.8914         -DE/DX =    0.0                 !
 ! A35   A(12,13,14)           118.154          -DE/DX =    0.0                 !
 ! A36   A(12,13,25)           120.88           -DE/DX =    0.0                 !
 ! A37   A(14,13,25)           120.8914         -DE/DX =    0.0                 !
 ! A38   A(13,14,15)           119.1047         -DE/DX =    0.0                 !
 ! A39   A(13,14,26)           123.0092         -DE/DX =    0.0                 !
 ! A40   A(15,14,26)           117.8032         -DE/DX =    0.0                 !
 ! A41   A(9,15,14)            126.2703         -DE/DX =    0.0                 !
 ! A42   A(9,15,16)            120.1594         -DE/DX =    0.0                 !
 ! A43   A(14,15,16)           113.479          -DE/DX =    0.0                 !
 ! D1    D(17,1,2,3)            88.7797         -DE/DX =    0.0                 !
 ! D2    D(17,1,2,8)          -100.6645         -DE/DX =    0.0                 !
 ! D3    D(18,1,2,3)          -148.0016         -DE/DX =    0.0                 !
 ! D4    D(18,1,2,8)            22.5542         -DE/DX =    0.0                 !
 ! D5    D(19,1,2,3)           -29.9688         -DE/DX =    0.0                 !
 ! D6    D(19,1,2,8)           140.587          -DE/DX =    0.0                 !
 ! D7    D(1,2,3,4)            162.7143         -DE/DX =    0.0                 !
 ! D8    D(1,2,3,20)           -12.9546         -DE/DX =    0.0                 !
 ! D9    D(8,2,3,4)             -8.6296         -DE/DX =    0.0                 !
 ! D10   D(8,2,3,20)           175.7015         -DE/DX =    0.0                 !
 ! D11   D(1,2,8,6)           -149.1007         -DE/DX =    0.0                 !
 ! D12   D(1,2,8,9)             30.7087         -DE/DX =    0.0                 !
 ! D13   D(3,2,8,6)             20.8883         -DE/DX =    0.0                 !
 ! D14   D(3,2,8,9)           -159.3022         -DE/DX =    0.0                 !
 ! D15   D(2,3,4,5)             -7.1787         -DE/DX =    0.0                 !
 ! D16   D(2,3,4,21)           179.2781         -DE/DX =    0.0                 !
 ! D17   D(20,3,4,5)           168.4155         -DE/DX =    0.0                 !
 ! D18   D(20,3,4,21)           -5.1278         -DE/DX =    0.0                 !
 ! D19   D(3,4,5,6)              8.2042         -DE/DX =    0.0                 !
 ! D20   D(3,4,5,22)          -168.7369         -DE/DX =    0.0                 !
 ! D21   D(21,4,5,6)          -178.2405         -DE/DX =    0.0                 !
 ! D22   D(21,4,5,22)            4.8184         -DE/DX =    0.0                 !
 ! D23   D(4,5,6,7)           -169.0128         -DE/DX =    0.0                 !
 ! D24   D(4,5,6,8)              6.9802         -DE/DX =    0.0                 !
 ! D25   D(22,5,6,7)             8.0757         -DE/DX =    0.0                 !
 ! D26   D(22,5,6,8)          -175.9313         -DE/DX =    0.0                 !
 ! D27   D(5,6,8,2)            -21.1657         -DE/DX =    0.0                 !
 ! D28   D(5,6,8,9)            159.0118         -DE/DX =    0.0                 !
 ! D29   D(7,6,8,2)            154.5773         -DE/DX =    0.0                 !
 ! D30   D(7,6,8,9)            -25.2452         -DE/DX =    0.0                 !
 ! D31   D(2,8,9,10)           169.6986         -DE/DX =    0.0                 !
 ! D32   D(2,8,9,15)            -1.4676         -DE/DX =    0.0                 !
 ! D33   D(6,8,9,10)           -10.5115         -DE/DX =    0.0                 !
 ! D34   D(6,8,9,15)           178.3223         -DE/DX =    0.0                 !
 ! D35   D(8,9,10,11)          -12.7235         -DE/DX =    0.0                 !
 ! D36   D(8,9,10,12)          172.8528         -DE/DX =    0.0                 !
 ! D37   D(15,9,10,11)         159.4005         -DE/DX =    0.0                 !
 ! D38   D(15,9,10,12)         -15.0232         -DE/DX =    0.0                 !
 ! D39   D(8,9,15,14)         -173.0432         -DE/DX =    0.0                 !
 ! D40   D(8,9,15,16)           10.6652         -DE/DX =    0.0                 !
 ! D41   D(10,9,15,14)          14.6623         -DE/DX =    0.0                 !
 ! D42   D(10,9,15,16)        -161.6292         -DE/DX =    0.0                 !
 ! D43   D(9,10,11,23)          32.7115         -DE/DX =    0.0                 !
 ! D44   D(12,10,11,23)       -152.3986         -DE/DX =    0.0                 !
 ! D45   D(9,10,12,13)           7.5037         -DE/DX =    0.0                 !
 ! D46   D(9,10,12,24)        -175.5151         -DE/DX =    0.0                 !
 ! D47   D(11,10,12,13)       -167.6699         -DE/DX =    0.0                 !
 ! D48   D(11,10,12,24)          9.3112         -DE/DX =    0.0                 !
 ! D49   D(10,12,13,14)          2.8313         -DE/DX =    0.0                 !
 ! D50   D(10,12,13,25)        179.7157         -DE/DX =    0.0                 !
 ! D51   D(24,12,13,14)       -173.969          -DE/DX =    0.0                 !
 ! D52   D(24,12,13,25)          2.9153         -DE/DX =    0.0                 !
 ! D53   D(12,13,14,15)         -3.8502         -DE/DX =    0.0                 !
 ! D54   D(12,13,14,26)        172.7648         -DE/DX =    0.0                 !
 ! D55   D(25,13,14,15)        179.2658         -DE/DX =    0.0                 !
 ! D56   D(25,13,14,26)         -4.1192         -DE/DX =    0.0                 !
 ! D57   D(13,14,15,9)          -5.7978         -DE/DX =    0.0                 !
 ! D58   D(13,14,15,16)        170.7066         -DE/DX =    0.0                 !
 ! D59   D(26,14,15,9)         177.4111         -DE/DX =    0.0                 !
 ! D60   D(26,14,15,16)         -6.0845         -DE/DX =    0.0                 !
 --------------------------------------------------------------------------------
 GradGradGradGradGradGradGradGradGradGradGradGradGradGradGradGradGradGrad


 ----------------------------------------------------------------------

 Electric dipole moment (input orientation):
 (Debye = 10**-18 statcoulomb cm , SI units = C m)
                  (au)            (Debye)         (10**-30 SI)
   Tot        0.628662D+00      0.159790D+01      0.533002D+01
   x          0.563015D+00      0.143104D+01      0.477344D+01
   y          0.237973D+00      0.604868D+00      0.201762D+01
   z          0.146967D+00      0.373553D+00      0.124604D+01

 Dipole polarizability, Alpha (input orientation).
 (esu units = cm**3 , SI units = C**2 m**2 J**-1)
 Alpha(0;0):
               (au)            (10**-24 esu)      (10**-40 SI)
   iso        0.157860D+03      0.233924D+02      0.260276D+02
   aniso      0.147629D+03      0.218763D+02      0.243407D+02
   xx         0.239016D+03      0.354185D+02      0.394084D+02
   yx        -0.504655D+00     -0.747821D-01     -0.832063D-01
   yy         0.164347D+03      0.243537D+02      0.270971D+02
   zx        -0.101999D+02     -0.151147D+01     -0.168173D+01
   zy         0.238622D+01      0.353601D+00      0.393434D+00
   zz         0.702177D+02      0.104052D+02      0.115773D+02

 ----------------------------------------------------------------------

 Dipole orientation:
     6         -1.36019800          3.26286288          4.30743901
     6          0.41649701          1.11479253          3.60156747
     6          2.02136252          0.39664185          5.61217354
     6          3.33511920         -1.89465801          5.69587840
     6          2.79355022         -3.65898725          3.80780105
     6          1.25486798         -2.91065771          1.80787352
     9          0.47741217         -4.90859728          0.30959743
     6          0.34520645         -0.41304960          1.30951190
     6         -0.53690344          0.37350957         -1.27815519
     6         -0.19874789         -1.09307463         -3.59152175
     8          1.31850446         -3.12583872         -3.89157489
     6         -1.33052651         -0.35153346         -5.90184793
     6         -2.57799943          1.94563618         -6.17547595
     6         -2.60392381          3.60508817         -4.11544955
     6         -1.52219411          2.83775419         -1.83697595
     9         -1.32599855          4.71615016         -0.12126677
     1         -0.56472260          5.16649190          3.96658540
     1         -3.19044775          3.14783432          3.31602815
     1         -1.74586152          3.10176870          6.36063358
     1          2.12065951          1.67651372          7.25145730
     1          4.58348839         -2.36970604          7.28852606
     1          3.44601181         -5.63057529          3.87178416
     1          1.43705937         -4.11993005         -2.33446963
     1         -1.07889701         -1.66027937         -7.49515549
     1         -3.43532319          2.48484809         -7.99161571
     1         -3.35041680          5.53959652         -4.23035679

 Electric dipole moment (dipole orientation):
 (Debye = 10**-18 statcoulomb cm , SI units = C m)
                  (au)            (Debye)         (10**-30 SI)
   Tot        0.628662D+00      0.159790D+01      0.533002D+01
   x          0.000000D+00      0.000000D+00      0.000000D+00
   y          0.000000D+00      0.000000D+00      0.000000D+00
   z          0.628662D+00      0.159790D+01      0.533002D+01

 Dipole polarizability, Alpha (dipole orientation).
 (esu units = cm**3 , SI units = C**2 m**2 J**-1)
 Alpha(0;0):
               (au)            (10**-24 esu)      (10**-40 SI)
   iso        0.157860D+03      0.233924D+02      0.260276D+02
   aniso      0.147629D+03      0.218763D+02      0.243407D+02
   xx         0.105657D+03      0.156567D+02      0.174205D+02
   yx        -0.420838D+02     -0.623618D+01     -0.693868D+01
   yy         0.153023D+03      0.226756D+02      0.252301D+02
   zx         0.495486D+02      0.734234D+01      0.816946D+01
   zy        -0.612762D+01     -0.908019D+00     -0.101031D+01
   zz         0.214900D+03      0.318449D+02      0.354323D+02

 ----------------------------------------------------------------------
 Unable to Open any file for archive entry.
 1\1\GINC-SEMLSCPN037\Freq\RBP86\def2SVP\C13H10F2O1\USER-ID\02-Dec-2025
 \0\\#N Geom=AllCheck Guess=TCheck SCRF=Check GenChk RBP86/def2SVP Freq
 \\example\\0,1\C,1.3150731715,2.5867210124,0.5238957537\C,1.6218752135
 ,1.1822940076,0.0248538425\C,2.976331576,1.0158007164,-0.3431341335\C,
 3.5924328487,-0.2301404384,-0.4964119668\C,2.8538981588,-1.3548116581,
 -0.1199051663\C,1.5123694844,-1.1816874496,0.2119931214\F,0.9488578771
 ,-2.3032406083,0.7953086921\C,0.7445824109,0.0189288087,0.0811393204\C
 ,-0.75946889,-0.0032675905,0.0215089659\C,-1.5799519106,-1.201785557,-
 0.1311567993\O,-1.1456318129,-2.4332663191,-0.4801379546\C,-2.9922513,
 -1.153179337,-0.029137079\C,-3.6869404557,0.0478249127,0.068056547\C,-
 2.9567483666,1.240403115,0.0027754261\C,-1.5650616043,1.1806299461,-0.
 0742989885\F,-0.988753528,2.3743432482,-0.33129981\H,1.0240373474,3.29
 31390602,-0.2765858539\H,0.5230460021,2.6004527276,1.2916795061\H,2.24
 01306997,2.9787360824,0.9929381206\H,3.5855057589,1.9283538703,-0.4437
 7448\H,4.6474508599,-0.3148171652,-0.7958522384\H,3.2917142071,-2.3590
 130931,-0.0262657986\H,-0.2411930638,-2.6035485386,-0.1445635976\H,-3.
 5104574825,-2.1210539943,-0.0833356425\H,-4.7847957857,0.0608837834,0.
 1416721524\H,-3.430718416,2.2307334583,-0.0451729394\\Version=ES64L-G1
 6RevC.02\State=1-A\HF=-775.7510007\RMSD=5.623e-09\RMSF=2.292e-06\ZeroP
 oint=0.1915593\Thermal=0.2038522\ETot=-775.5471484\HTot=-775.5462043\G
 Tot=-775.5974286\Dipole=0.5630146,0.2379734,0.1469669\DipoleDeriv=0.05
 89181,-0.0011073,0.0425806,0.0193666,-0.0874073,-0.0265475,-0.0110425,
 0.0279617,0.0863875,-0.1066931,-0.1011933,-0.0876901,0.044556,0.280835
 8,0.1107236,-0.1225194,0.1679379,-0.0233243,-0.0347435,0.1974051,0.024
 3399,0.096288,-0.0504335,-0.0284709,0.0107033,-0.0827441,-0.1455375,-0
 .0615667,0.001407,-0.0747012,0.0070293,0.1071041,-0.002574,-0.067814,-
 0.0077528,-0.077527,-0.1697491,-0.106016,0.0420075,-0.0213739,-0.09081
 65,-0.0437135,0.0544676,0.0171203,-0.1340486,0.2581617,0.1841034,-0.20
 62643,0.1471564,0.7190908,-0.3145597,-0.2569841,-0.365289,0.215502,-0.
 4633092,-0.2592635,0.0969649,-0.2416156,-0.7405813,0.2579615,-0.102201
 6,0.317601,-0.2543007,0.6250017,0.1017123,0.0559118,-0.0546579,-0.1569
 836,0.0048265,0.2788866,-0.0316395,-0.0309336,-0.3379687,-0.0693795,-0
 .004751,0.0931218,-0.2545481,-0.0111442,0.1195751,-0.0578537,-0.048604
 6,0.3350474,-0.4469893,-0.1350104,0.0740197,0.9813369,0.2196289,-0.122
 9186,0.3121493,0.1354696,-0.4819335,0.4509866,0.0850039,0.1452232,-1.1
 225511,-0.1411528,-0.0407415,-0.3,-0.350293,-0.1687034,0.3907539,0.053
 2352,0.0274087,-0.134836,0.0081959,0.0661309,0.0200636,-0.1613094,0.05
 12666,0.0019198,-0.0343901,0.1616328,0.3427469,0.0186135,-0.0821812,0.
 0140356,-0.097511,-0.5061783,-0.2746522,0.0218791,-0.0837854,-0.162004
 1,-0.0295584,0.0474712,0.0067308,-0.1602776,0.733968,0.3576517,-0.0748
 681,-0.1537005,0.8607102,-0.1323259,-0.1191519,-0.1930198,0.095494,-0.
 386763,-0.3510987,0.021167,-0.2200781,-0.8506924,0.0998604,-0.0168849,
 0.1414341,-0.1098836,0.1072129,0.0766682,-0.01178,0.0404401,-0.0396419
 ,0.0239827,-0.0181748,0.0475435,-0.0058319,0.021894,0.0293745,0.085465
 4,-0.0189259,0.0168283,0.0121422,0.0745387,-0.0270011,-0.0015642,-0.07
 83434,-0.0639292,-0.0704928,-0.0262158,0.0001666,-0.0322901,-0.0531097
 ,-0.0675284,0.0352475,0.0290497,-0.0633199,0.0137375,-0.0863598,-0.043
 4391,0.0135853,0.0311535,-0.0380128,0.1010734,-0.057456,0.0189311,0.05
 59379,0.011829,0.0732362,-0.0030313,0.0447303,-0.0011422,0.1048053,0.0
 828604,0.0243139,0.0077623,0.0453836,-0.0061222,0.0157639,0.0349078,0.
 0513382,0.1252953,0.5306618,-0.0926874,0.0721673,0.0022701,0.3191483,-
 0.0212566,0.2009388,0.0591886,0.3227011,0.0448694,-0.0266633,0.003465,
 -0.0608407,-0.0235368,-0.0042304,0.0165895,-0.0416365,0.1257438,-0.081
 5031,0.0008879,0.015571,0.0057853,0.0857611,0.0000934,0.0119372,-0.006
 6528,0.1131918,0.0559995,0.0201842,0.0027518,0.0460432,-0.023371,0.005
 4775,0.0216937,0.0371681,0.1400356\Polar=239.0156218,-0.5046547,164.34
 65984,-10.1998856,2.3862166,70.2177361\Quadrupole=6.3335541,-0.5376152
 ,-5.7959389,-1.6997498,-1.4113897,0.0762482\PG=C01 [X(C13H10F2O1)]\NIm
 ag=1\\0.56680541,-0.00062876,0.45694717,-0.01282000,-0.03005426,0.5200
 5957,-0.08029578,0.02841466,0.01362867,0.56221174,0.01757300,-0.174159
 64,-0.04746246,0.00488707,0.54324207,0.01104037,-0.03182058,-0.0785485
 4,-0.09012298,0.05965869,0.19173467,-0.01201259,0.01327449,0.00975850,
 -0.28372052,0.04563578,0.05880554,0.60516573,0.03050519,-0.01488493,-0
 .01452216,-0.01044717,-0.10600847,0.00237383,0.00654575,0.71056322,0.0
 0832445,-0.01267791,0.00138225,0.06436422,-0.00744752,-0.07766100,-0.1
 3008765,0.02278094,0.15650208,-0.00431104,-0.00224140,0.00206532,-0.01
 629483,0.02815646,0.00738036,-0.15659030,0.12110627,0.02411371,0.67142
 954,0.00093464,0.00487913,0.00068672,0.06736531,0.01039320,-0.01814893
 ,0.06411678,-0.29928399,-0.02371604,-0.01193654,0.65324477,0.00114800,
 -0.00216357,0.00388592,0.00506236,-0.00719170,0.00427994,0.02377932,-0
 .02843248,-0.06066131,-0.17199633,-0.03869064,0.17824838,-0.00179906,-
 0.00058244,-0.00242129,-0.04327771,-0.01227812,0.01243077,0.05119192,-
 0.02753878,-0.00570856,-0.17731311,-0.07390031,0.04578640,0.63297247,-
 0.00027313,-0.00239278,0.00052667,-0.01911630,-0.00494668,0.00719247,0
 .01009312,-0.05655263,0.00234972,-0.12911252,-0.26644132,0.06969339,-0
 .03047967,0.71196925,0.00003975,0.00093478,-0.00039757,0.01211790,0.00
 322648,-0.00486983,-0.00823262,0.01052673,0.00927879,0.05418850,0.0631
 8908,-0.07805423,-0.13915473,-0.10793291,0.16882630,-0.00163260,-0.001
 68343,0.00177897,0.05355580,0.00586129,-0.02138828,-0.04127192,0.02803
 850,0.00847285,-0.03128240,-0.06948897,0.01635943,-0.31726352,0.084083
 13,0.05834292,0.64272207,-0.00198691,-0.00054295,-0.00076167,-0.032094
 08,-0.04917057,0.01401046,0.02020844,-0.02097837,-0.00303161,-0.019814
 38,0.03042391,0.00163046,0.01484374,-0.10683370,0.00211374,-0.06213760
 ,0.52301894,0.00125275,-0.00191065,0.00377214,-0.01549747,-0.00174508,
 0.00639002,0.00847560,-0.00561136,-0.00428665,0.01261659,0.01484572,-0
 .00246644,0.06166645,-0.01486555,-0.07028991,-0.10198582,-0.10027556,0
 .18044677,0.00044468,0.00021025,0.00022501,-0.00252409,0.00200927,0.00
 294237,0.00029779,-0.00244950,-0.00024852,-0.00431166,0.00685034,0.002
 05430,-0.02919348,-0.05032513,0.02483138,-0.09438737,-0.04883627,0.034
 49635,0.15166641,-0.00206459,0.00039089,0.00019641,0.01001348,-0.00210
 259,0.00096177,-0.00332075,-0.00015262,0.00079201,-0.00032861,0.000580
 98,0.00169572,-0.01181283,-0.01044520,0.01104631,-0.06095180,-0.174651
 27,0.06966238,0.09121995,0.22075553,0.00133839,-0.00015734,0.00015871,
 0.00047174,0.00164366,0.00419801,-0.00260179,0.00128483,-0.00069837,0.
 00296692,-0.00356292,0.00616546,0.01647314,0.01980125,-0.00477617,0.03
 906378,0.08138331,-0.07314766,-0.03339045,-0.10100911,0.09432645,0.011
 06047,0.00011467,0.00230325,-0.14599288,-0.06930786,0.01219431,-0.0304
 4707,-0.02063698,0.00243630,0.00497935,-0.00081917,-0.00272770,-0.0179
 7317,0.02108297,-0.00147834,-0.16104063,0.10584625,-0.00579674,0.00854
 805,-0.02380908,0.00868344,0.54648933,-0.01220280,-0.02054969,0.005776
 92,-0.03842830,-0.18820742,-0.01866261,-0.04914373,0.03006463,0.006760
 02,-0.00263434,-0.04588298,0.00416399,0.05478497,0.01672061,-0.0132470
 2,0.05804003,-0.19667211,0.03924332,0.00631101,-0.03906512,0.00298300,
 -0.01971844,0.53871504,-0.00239348,-0.00661527,0.00187126,0.00612281,0
 .00319524,-0.05646181,0.01156153,0.00066253,0.00135505,0.00092694,0.00
 318431,-0.00092691,0.00222517,-0.00416155,0.00499732,-0.00027594,0.016
 36258,-0.06003280,-0.00332736,0.01774352,-0.00038350,-0.01275289,-0.02
 922620,0.14832327,0.00004335,0.00247757,-0.00111904,-0.02626767,-0.014
 04599,-0.00056579,0.00705761,-0.00278959,-0.00095549,-0.00364181,0.000
 89420,0.00187175,0.00603823,0.00097156,-0.00129257,-0.02998013,0.01728
 369,0.00009732,0.00268754,-0.00198728,-0.00114462,-0.16621989,0.001569
 75,-0.00165598,0.54809645,0.00066848,0.00138639,-0.00010432,-0.0237976
 9,0.00775073,0.00213997,-0.00125236,-0.00500244,0.00035745,0.00000078,
 0.00001492,-0.00016396,0.00016115,-0.00459310,0.00157670,0.02859014,0.
 00099584,-0.00192244,0.00113177,0.00380861,-0.00069175,-0.00069151,-0.
 09892272,0.00084536,-0.02590750,0.55032839,-0.00076079,0.00120968,-0.0
 0172022,0.00257812,0.00143243,-0.00060691,0.00043029,-0.00053499,0.005
 83077,0.00084337,-0.00067820,-0.00163334,0.00099699,0.00173574,0.00390
 687,-0.00125350,-0.00083293,0.00194706,-0.00048237,-0.00117012,-0.0021
 5814,-0.00701674,0.00038641,-0.04783490,0.01856084,0.00525880,0.129657
 71,0.00022592,-0.00029179,0.00023278,-0.00132067,0.00540074,0.00044879
 ,-0.00149367,-0.00023984,-0.00012561,0.00021392,-0.00033400,-0.0000028
 8,-0.00080432,-0.00010558,-0.00020683,-0.00255751,-0.00991980,0.002104
 47,0.00597296,0.00546186,-0.00041216,-0.02446770,-0.02401214,-0.001482
 59,-0.15698489,-0.02772362,-0.00948901,0.63237627,0.00009974,-0.000730
 59,0.00058578,0.00695825,0.00067785,0.00030655,-0.00157006,0.00041246,
 -0.00004623,0.00199225,-0.00016346,-0.00084712,-0.00161832,-0.00142841
 ,0.00083251,0.01225897,0.01303450,-0.00536938,-0.01806838,-0.01306960,
 -0.00398651,-0.01897434,0.00505081,0.00087553,-0.06271153,-0.17402655,
 -0.01459992,-0.04164271,0.60966623,0.00004587,0.00002523,-0.00001294,0
 .00168869,0.00055602,0.00198112,-0.00045455,-0.00020606,0.00047996,0.0
 0030434,-0.00024276,-0.00009002,-0.00000746,-0.00051012,-0.00052849,0.
 00208098,0.00339047,-0.00036311,-0.00608591,-0.00336667,-0.00145615,-0
 .00129997,0.00038897,-0.00165820,-0.00968729,-0.02774632,-0.05673702,-
 0.01497524,0.08504545,0.17053584,-0.00022993,-0.00002707,0.00008059,0.
 00125074,-0.00052714,0.00062645,-0.00000925,-0.00117725,0.00020069,0.0
 0110723,0.00088632,-0.00056426,-0.00192812,-0.00168590,0.00159693,0.01
 126842,0.01828406,-0.00683576,-0.03634677,-0.01660007,-0.01804772,-0.0
 0221754,-0.00098622,-0.00034636,0.01755126,-0.01360387,-0.00079665,-0.
 11910110,0.08313042,0.01347684,0.54961825,-0.00002157,0.00011803,-0.00
 025025,-0.00226417,-0.00045434,-0.00003103,0.00116515,0.00028714,-0.00
 036392,-0.00109818,0.00056467,0.00045507,0.00043184,0.00096185,-0.0003
 1601,-0.00617455,-0.01048925,0.00518554,0.01023753,0.01477921,0.000567
 50,0.00922573,0.00328182,0.00047527,0.00608465,-0.04061001,-0.01294396
 ,0.06060766,-0.28360843,-0.07044613,-0.16837871,0.38237699,-0.00004632
 ,0.00004820,-0.00013418,0.00012210,0.00013969,-0.00010972,-0.00008863,
 0.00030060,0.00001365,-0.00044685,0.00000315,0.00034816,-0.00058285,-0
 .00065846,0.00088002,-0.00047465,0.00261659,-0.00236149,-0.01732451,-0
 .00336420,-0.00648185,0.00005662,0.00033241,-0.00126464,0.00397918,-0.
 00319211,0.00396667,-0.00117352,-0.06231984,-0.06200914,0.13960867,0.0
 7206928,0.11513251,0.00009549,0.00037515,-0.00008963,-0.00083474,-0.00
 059507,-0.00020163,0.00024278,-0.00051974,0.00012367,0.00010061,0.0000
 1398,-0.00006626,0.00016660,-0.00003889,0.00002413,0.00111780,0.003187
 07,-0.00093308,-0.00382944,-0.00281621,-0.00127659,0.00327470,-0.00199
 938,0.00020367,-0.01803866,-0.04572480,0.00157175,-0.29357998,0.017591
 24,0.01206562,-0.04129206,0.02937919,0.01311692,0.64080499,0.00009487,
 -0.00005163,-0.00000524,-0.00066600,0.00077030,-0.00006351,-0.00037088
 ,-0.00034666,0.00021009,0.00023981,-0.00016632,-0.00009962,-0.00001518
 ,0.00052669,-0.00009437,-0.00041818,-0.00262254,0.00101079,0.00281848,
 0.00232165,0.00131365,-0.00216328,-0.00405959,-0.00169440,-0.02013612,
 0.02274968,0.00023896,-0.04183168,-0.10194204,0.00124247,0.06125846,-0
 .02041289,-0.00938397,-0.01722947,0.74655230,0.00005216,-0.00004745,0.
 00015173,-0.00081785,-0.00018864,0.00025811,0.00012820,-0.00016964,-0.
 00055174,0.00004136,0.00023189,0.00007051,-0.00013910,0.00006899,-0.00
 001828,-0.00014750,-0.00014530,-0.00094360,0.00122894,0.00014029,0.001
 49424,0.00010789,-0.00094804,0.00503947,-0.00311220,0.00118265,0.00278
 591,0.01465924,-0.00011393,-0.06365737,0.01619374,-0.01080119,0.007200
 92,-0.03894701,0.04984500,0.11589311,-0.00006975,-0.00014701,0.0001293
 5,0.00039329,0.00092301,0.00010120,-0.00019695,0.00035103,-0.00016210,
 -0.00015386,0.00006452,0.00002436,-0.00035696,-0.00037860,0.00001853,0
 .00024214,-0.00148418,0.00015469,0.00058651,0.00073124,-0.00018698,-0.
 00219845,-0.00017051,0.00112348,0.00311259,-0.00183469,-0.00003308,-0.
 01961283,0.02869805,0.00359700,-0.00379280,-0.00114919,-0.00183748,-0.
 18063241,0.13810298,0.01401305,0.71899462,0.00026394,0.00029175,0.0000
 2795,0.00020709,0.00031015,0.00003561,-0.00026189,-0.00019948,0.000131
 53,0.00037495,-0.00006506,-0.00017298,-0.00022861,-0.00014991,0.000014
 30,0.00156702,0.00130141,-0.00067934,-0.00264837,-0.00189373,-0.000368
 15,-0.00266743,-0.00137989,-0.00018745,0.00458004,-0.04192420,-0.00019
 949,0.07065140,0.01700324,-0.00484310,-0.01190259,0.00516150,0.0053165
 7,0.08544517,-0.30656413,-0.02453007,-0.00652959,0.67292712,0.00000094
 ,0.00012700,-0.00014953,0.00002468,-0.00008695,0.00005328,0.00007838,-
 0.00003220,0.00007418,-0.00002654,0.00001627,0.00001079,0.00003607,0.0
 0003543,0.00008324,0.00010812,0.00014420,0.00010904,0.00002763,0.00003
 184,0.00002241,0.00066913,0.00000187,-0.00143148,-0.00058056,0.0000020
 5,0.00145655,0.00411427,-0.00163203,0.00009478,-0.00038239,0.00096015,
 0.00507255,0.01092839,-0.02003720,-0.05394779,-0.04604009,0.00965545,0
 .12709450,-0.00049464,-0.00015140,-0.00010422,-0.00109014,-0.00138568,
 -0.00027239,0.00069672,-0.00007636,-0.00007369,-0.00065363,0.00008347,
 0.00027531,0.00069440,0.00027112,-0.00002309,-0.00219190,0.00045945,0.
 00034205,0.00161244,0.00106421,-0.00008593,0.00860912,0.00124982,0.000
 26768,-0.02412634,0.05010852,0.00188728,-0.04725230,-0.01708227,0.0040
 6289,0.00629176,0.00025738,-0.00349993,0.05216821,-0.01935567,0.000534
 27,-0.17876086,-0.08003419,0.00638287,0.66974745,-0.00016598,-0.000339
 69,-0.00009101,-0.00065113,-0.00076741,-0.00023694,0.00024196,0.000448
 30,-0.00012374,-0.00046897,-0.00001150,0.00022020,0.00030719,-0.000538
 46,-0.00000857,-0.00002646,-0.00033858,0.00025521,0.00175055,0.0015073
 9,0.00004884,0.00304717,-0.00472372,0.00157819,0.01827660,0.01934297,-
 0.00052037,-0.02278923,-0.00618141,0.00315274,0.00605648,-0.00482147,-
 0.00325693,0.01399960,-0.05595263,-0.00013683,-0.13443556,-0.28620653,
 0.01175365,-0.00194306,0.73103264,0.00066491,0.00052069,0.00028728,-0.
 00065629,-0.00004558,-0.00058657,-0.00005356,0.00003768,-0.00019023,-0
 .00011584,-0.00001912,0.00010580,0.00000589,-0.00016153,-0.00045402,-0
 .00043268,0.00021253,0.00021814,0.00007938,0.00008901,0.00007658,-0.00
 020476,0.00051290,0.00462658,-0.00245149,-0.00113057,0.00449771,0.0018
 5726,0.00016643,-0.00039192,-0.00005557,0.00011229,-0.00130495,-0.0001
 7153,-0.00035623,0.00813200,0.00904334,0.01514417,-0.05263017,-0.03103
 657,-0.03467113,0.10717637,-0.00153807,-0.00143755,0.00066187,0.002274
 89,0.00464878,0.00057229,-0.00118449,0.00039693,-0.00008570,0.00069694
 ,-0.00009359,-0.00027503,-0.00124578,0.00050722,-0.00046280,-0.0018401
 1,-0.00453490,0.00080353,-0.00099239,-0.00104363,0.00025976,-0.0303603
 8,0.02774874,-0.00124700,-0.16593467,0.05379025,-0.00637318,0.06777983
 ,0.01333437,-0.00948797,-0.01213446,-0.00302018,0.00311503,-0.04534310
 ,0.02569141,0.00150358,-0.02821210,-0.07416653,0.00295685,-0.33198920,
 0.06319834,0.01396864,0.67265866,-0.00088365,0.00114543,0.00075590,-0.
 00551091,0.00285988,0.00093632,0.00154811,-0.00143768,-0.00032607,-0.0
 0196182,0.00038844,0.00062471,0.00132768,-0.00000522,-0.00001533,-0.00
 638181,0.00124882,-0.00009224,0.00061149,0.00023400,-0.00056577,0.0200
 9951,0.00535316,-0.00030229,0.09467674,-0.19824004,0.01275898,-0.02319
 991,-0.05140811,0.00074829,0.00124336,0.00170996,-0.00099233,0.0173704
 9,-0.01397598,0.00033924,-0.02498924,0.02316509,-0.00012255,-0.0031788
 5,-0.10430319,0.00049111,-0.00525652,0.59414637,-0.00134651,0.00016154
 ,-0.00006898,0.00124378,-0.00116498,0.00036154,-0.00029144,0.00035644,
 -0.00043724,0.00040326,-0.00009492,-0.00017184,-0.00023414,0.00055108,
 0.00059976,0.00126713,-0.00092297,0.00217316,0.00034609,0.00017219,0.0
 0006874,-0.00236344,-0.00056390,-0.00052406,-0.00762028,0.02298783,-0.
 05376037,-0.00726976,-0.00237783,-0.00292739,0.00054063,-0.00267493,0.
 00479101,0.00312903,-0.00221560,0.00004760,0.00271089,0.00318418,0.000
 12431,0.01372475,-0.00151519,-0.05924457,-0.02383409,-0.06056264,0.145
 39488,-0.01549655,-0.00505001,-0.00823900,-0.00022347,-0.00321707,-0.0
 0085460,0.00003419,0.00031694,0.00012605,0.00047235,-0.00019049,-0.000
 09036,-0.00002043,0.00054964,-0.00004922,0.00048047,-0.00019358,0.0003
 7837,0.00049221,0.00059679,0.00011813,-0.00035574,-0.00058552,-0.00048
 861,0.01483576,0.01093934,-0.00077050,-0.00782827,0.00109621,0.0013804
 6,0.00227051,-0.00009861,-0.00027112,0.00297265,-0.00323785,-0.0001422
 8,-0.00515554,0.00825813,0.00066673,-0.03519904,-0.05840634,0.01072584
 ,-0.11423516,-0.08978609,0.02126103,0.17001479,-0.00355986,-0.00110343
 ,-0.00123586,0.00318571,-0.00316359,-0.00107382,-0.00038506,0.00085093
 ,0.00058418,0.00091755,-0.00030509,-0.00028711,-0.00020739,0.00084917,
 -0.00002484,0.00016382,-0.00077348,0.00053883,0.00094546,0.00069016,0.
 00035145,-0.00645392,0.00301893,-0.00117841,-0.01802122,-0.04475633,0.
 00874019,0.00725431,-0.00047499,0.00241569,-0.00082382,-0.00315928,-0.
 00070406,-0.00210671,-0.00181268,-0.00036082,-0.00062502,0.00198722,0.
 00070395,-0.02008069,-0.01655715,0.00692844,-0.09612892,-0.25311204,0.
 04373186,0.14112891,0.31223640,-0.00588230,-0.00218971,-0.00515033,-0.
 00071330,0.00114290,0.00027899,0.00047065,-0.00026118,0.00023414,-0.00
 012474,0.00054465,-0.00003618,-0.00048197,-0.00030065,0.00019777,0.000
 53793,-0.00047870,-0.00021410,-0.00020285,-0.00006819,-0.00024925,-0.0
 0106443,-0.00010266,-0.00247719,0.00614755,0.00236978,0.00341577,-0.00
 016865,0.00009184,0.00511968,0.00020372,0.00095685,0.00025022,-0.00123
 179,0.00057816,-0.00117962,0.00086393,-0.00132442,0.00671671,0.0070126
 9,0.00889283,0.00773641,0.02204650,0.04902563,-0.04474484,-0.01936618,
 -0.05740654,0.03393622,-0.05367325,0.04581161,-0.05419318,-0.00283023,
 0.00387112,-0.00168239,0.00023652,0.00182361,0.00139449,0.00003847,-0.
 00127389,0.00060982,0.00093444,0.00045049,-0.00024194,-0.00110839,0.00
 084656,0.00023865,-0.00000485,-0.00007248,-0.00000945,-0.00037818,-0.0
 0179253,-0.00087235,0.00056494,0.00031237,-0.00027254,-0.00008069,-0.0
 0025215,-0.00009803,-0.00013263,0.00027153,0.00009777,-0.00000082,0.00
 004883,0.00001015,0.00001182,-0.00011914,0.00007134,0.00033610,0.00033
 583,0.00009589,-0.00130400,-0.00210454,0.00067210,-0.00576660,-0.00144
 143,-0.00086309,0.06393384,0.04386507,-0.14190009,0.12383567,0.0074696
 2,-0.01742554,0.01609809,-0.00233598,0.00019789,-0.00028005,-0.0000729
 7,-0.00127577,-0.00072945,0.00107473,0.00006748,-0.00005819,-0.0006360
 3,0.00042075,-0.00114168,-0.00015927,-0.00030864,0.00006129,0.00156426
 ,-0.00195686,-0.00028958,-0.00002576,0.00035601,0.00034656,0.00000450,
 0.00003306,-0.00004884,-0.00008343,0.00011330,-0.00001564,-0.00004453,
 0.00013532,-0.00001671,-0.00004540,-0.00012412,0.00001758,0.00026519,0
 .00040711,-0.00019808,-0.00085197,-0.00244595,0.00058863,0.00043016,0.
 00226411,-0.00053157,-0.04837074,0.15470170,-0.04988662,0.12070047,-0.
 18322209,0.00409781,-0.00658201,0.01149050,0.00057812,-0.00055549,-0.0
 0049867,-0.00018799,0.00051455,-0.00018004,0.00009044,-0.00044584,0.00
 009838,0.00001917,0.00007651,-0.00042861,-0.00002691,0.00001518,0.0000
 2579,-0.00060861,-0.00091436,-0.00011010,-0.00024085,-0.00001495,0.000
 04065,0.00004268,-0.00001494,0.00000077,0.00003056,-0.00004861,0.00001
 682,-0.00001915,-0.00000260,-0.00001282,-0.00007318,-0.00001943,0.0000
 6734,0.00000689,-0.00013352,0.00020869,-0.00041546,0.00030773,-0.00026
 397,-0.00326664,-0.00191757,0.00004899,0.05827620,-0.12935228,0.194648
 89,-0.18207382,-0.00158103,0.14037907,-0.00343640,0.00028624,0.0011362
 7,-0.00024822,0.00104094,0.00074029,-0.00010632,0.00013951,0.00022949,
 0.00017901,-0.00016036,-0.00005656,-0.00028247,0.00030712,-0.00004311,
 0.00003591,0.00013295,-0.00010850,0.00047757,-0.00113275,-0.00081553,0
 .00038046,0.00034992,0.00022651,0.00006208,-0.00017724,0.00003573,-0.0
 0008888,0.00017372,0.00001911,-0.00000469,0.00010960,-0.00002513,-0.00
 003919,-0.00006161,0.00004180,0.00014781,0.00008223,-0.00004537,-0.000
 95942,-0.00122269,-0.00023900,-0.00521313,0.00005798,-0.00601416,0.005
 24037,0.00016210,-0.00687740,0.20061372,-0.00259634,-0.04174005,-0.000
 64507,0.02094974,-0.00061599,-0.01927780,0.00040499,-0.00493303,-0.000
 80307,0.00138365,0.00026404,0.00034403,-0.00025849,-0.00003909,-0.0000
 7817,0.00065198,0.00022004,0.00021706,-0.00017306,-0.00010378,-0.00003
 198,0.00078848,0.00166067,-0.00023790,-0.00021295,-0.00011394,0.000119
 76,-0.00016223,-0.00008170,0.00010663,-0.00001283,0.00009331,-0.000026
 89,0.00008740,-0.00000281,0.00000918,-0.00002254,0.00010790,-0.0000113
 0,-0.00018679,-0.00008768,0.00004683,-0.00060625,-0.00004580,-0.000590
 61,-0.00085021,0.00023724,-0.00068719,-0.01377685,0.00003697,0.0116754
 7,0.00060835,0.04639099,0.13654018,-0.00219889,-0.17027886,0.00459829,
 0.00153741,-0.00522106,0.00032456,-0.00216092,-0.00021622,0.00014862,0
 .00095266,0.00035197,-0.00039891,-0.00042577,0.00001359,0.00055050,-0.
 00009675,-0.00005444,-0.00017739,-0.00011381,-0.00003616,0.00099692,0.
 00065359,0.00051744,-0.00033935,0.00024887,-0.00015930,0.00004701,0.00
 005572,-0.00013816,-0.00011555,0.00021038,0.00003544,-0.00009063,0.000
 22730,0.00001136,-0.00009120,-0.00022009,0.00003788,0.00041921,0.00035
 392,-0.00020623,-0.00220896,-0.00371044,0.00009955,-0.00001896,0.00247
 436,-0.00018063,0.01501197,-0.00094283,-0.01333015,-0.14517608,0.00274
 829,0.17939048,-0.22455793,-0.07567375,-0.09039628,0.00431252,0.003682
 19,0.00351103,-0.00104172,0.00508188,0.00307908,0.00073739,-0.00126890
 ,0.00061439,0.00086432,0.00072225,-0.00031736,-0.00087312,0.00063866,0
 .00017276,0.00009727,0.00003207,-0.00018583,-0.00048129,-0.00007601,0.
 00019454,0.00005382,-0.00026555,0.00022192,-0.00006011,0.00009893,0.00
 003249,0.00012026,-0.00018926,-0.00002542,0.00004590,-0.00017127,-0.00
 000811,0.00003395,0.00015037,0.00001898,-0.00030174,-0.00035501,0.0001
 3919,0.00113496,0.00254598,-0.00052456,-0.00325918,-0.00228575,-0.0011
 4498,-0.00549484,-0.00279115,-0.00159651,-0.01520208,-0.00647097,-0.01
 010510,0.24386289,-0.07358921,-0.06751163,-0.03547316,-0.02124036,-0.0
 1755378,-0.01263272,-0.00159537,-0.00057911,0.00012287,0.00006751,0.00
 015760,0.00034820,-0.00019769,-0.00001432,-0.00013019,-0.00061723,-0.0
 0003786,0.00033522,0.00014577,-0.00065791,0.00054435,0.00298984,-0.001
 65934,-0.00174251,-0.00027630,0.00023015,-0.00033324,0.00009114,0.0001
 8543,0.00005549,-0.00006791,-0.00006406,-0.00004005,-0.00003102,0.0000
 6375,0.00000994,0.00000216,-0.00000039,-0.00001711,-0.00001036,0.00018
 151,0.00000984,0.00011317,-0.00113273,0.00024297,0.00118766,0.00159468
 ,-0.00004669,0.01546798,0.00658496,0.00648941,0.00044957,-0.00091318,0
 .00043101,0.07654054,0.08035695,-0.08874404,-0.03672911,-0.08937686,-0
 .00761034,-0.00292279,-0.00343377,-0.00042248,-0.00155888,0.00061791,0
 .00005961,0.00037064,-0.00009583,-0.00000958,-0.00023327,-0.00011801,-
 0.00017690,0.00023263,0.00038642,0.00009563,-0.00009286,0.00000272,0.0
 0111404,-0.00056147,-0.00080959,0.00006025,0.00003630,-0.00001405,-0.0
 0006758,0.00007150,0.00004925,0.00003471,-0.00005135,-0.00004544,0.000
 03566,0.00000508,0.00001190,-0.00005949,0.00005499,0.00000658,-0.00012
 132,-0.00013330,0.00010604,-0.00033254,-0.00003051,-0.00012143,-0.0004
 9858,-0.00040322,0.00105516,-0.01781238,-0.00788991,-0.00839499,0.0165
 7791,0.00744214,0.00948623,0.09704432,0.04231362,0.09095151,-0.0002748
 5,-0.00120769,-0.00184904,-0.01525955,-0.02300238,0.00297774,-0.128803
 71,-0.12460036,0.01944970,0.00899440,0.01340556,-0.00112408,-0.0004463
 8,0.00216623,0.00139475,0.00022757,0.00072503,-0.00024056,0.00008838,-
 0.00019194,-0.00010696,-0.00371670,0.00259717,0.00222785,-0.00005334,-
 0.00115273,-0.00006385,-0.00032071,0.00030360,-0.00005236,0.00000572,-
 0.00007109,0.00000486,-0.00002477,-0.00011385,-0.00001865,-0.00001178,
 -0.00001750,-0.00000004,0.00001154,0.00009425,-0.00002180,-0.00007053,
 -0.00057076,0.00012777,0.00027824,0.00041244,-0.00000756,-0.00051219,0
 .00038951,0.00005180,0.00046356,0.00015064,-0.00005810,0.00012947,0.00
 049507,0.00081903,0.13877138,0.00259449,0.00032510,-0.00132871,0.00387
 703,0.00253072,-0.00139153,-0.12493068,-0.23431671,0.01885517,-0.01651
 081,-0.01758125,0.00329049,0.00353838,-0.00349760,-0.00137627,0.000687
 34,0.00054222,-0.00053610,-0.00023566,-0.00006229,0.00016782,0.0009110
 6,0.00018979,-0.00026105,0.00010970,0.00023771,0.00022432,0.00005282,0
 .00002707,0.00002889,-0.00003758,-0.00001496,-0.00003315,-0.00000074,0
 .00002698,-0.00000632,-0.00002976,0.00000846,-0.00000582,-0.00002687,-
 0.00000396,-0.00001517,-0.00002021,-0.00013169,-0.00000129,0.00004425,
 0.00008760,0.00002104,-0.00000521,0.00013353,0.00024249,0.00032034,-0.
 00000651,0.00004802,0.00028005,0.00062831,-0.00002366,0.12990246,0.250
 65965,0.00127076,0.00226495,-0.00281331,-0.00269092,0.00351427,0.00301
 116,0.02310185,0.01404754,-0.03772704,-0.00323549,0.00046519,0.0033269
 0,-0.00003892,-0.00174190,0.00585454,0.00345745,-0.00180942,-0.0012220
 1,-0.00047917,-0.00015631,-0.00043574,0.00288290,0.00221365,0.00460166
 ,-0.00006940,0.00067825,0.00047688,0.00027716,-0.00022859,-0.00017212,
 -0.00017821,0.00004867,0.00001433,0.00000637,0.00011562,-0.00003057,-0
 .00000679,0.00000488,-0.00000199,-0.00001438,-0.00000967,-0.00001984,-
 0.00006504,-0.00002636,0.00004170,-0.00002133,-0.00000840,-0.00001579,
 -0.00020955,0.00048532,-0.00008501,0.00001893,-0.00043721,-0.00016288,
 -0.00035679,-0.00044345,-0.00023053,-0.02234618,-0.01885804,0.02792830
 ,-0.00058102,-0.00007691,0.00008869,0.00159315,0.00188185,0.00167767,-
 0.00749744,-0.00304851,0.00282431,-0.30382118,0.02043937,0.07754897,-0
 .00979099,0.00461807,0.00280562,0.00153208,-0.00191933,0.00194595,-0.0
 0101044,-0.00032358,0.00037141,0.00034701,0.00010909,-0.00026235,0.000
 03787,-0.00001932,-0.00024381,0.00003209,-0.00005557,0.00000199,-0.000
 15451,0.00003287,-0.00007378,-0.00002157,-0.00001586,0.00001022,0.0000
 0518,-0.00000176,-0.00000982,-0.00001825,0.00002469,0.00002085,0.00005
 489,0.00003381,-0.00000848,-0.00004828,-0.00005537,-0.00001756,-0.0000
 5123,0.00008579,0.00005391,-0.00004274,0.00020584,0.00004460,0.0000233
 8,-0.00001586,-0.00002504,0.00036016,0.00012507,-0.00126323,0.31847854
 ,0.00111658,0.00029518,-0.00021273,0.00112880,-0.00420510,-0.00061862,
 0.02544298,0.00313475,-0.00674795,0.02050826,-0.05506571,-0.00421131,-
 0.02363353,0.00582302,0.00614312,-0.00064068,-0.00254577,0.00172642,-0
 .00197222,-0.00084394,0.00070833,-0.00029666,-0.00088725,0.00005090,0.
 00003738,0.00016504,-0.00007436,0.00009140,-0.00016211,-0.00001739,-0.
 00017190,0.00012646,-0.00006142,-0.00002803,0.00003554,0.00001065,0.00
 000103,-0.00002599,-0.00000070,0.00002106,0.00003030,0.00000126,-0.000
 10933,-0.00012665,0.00001488,0.00007493,0.00007528,-0.00000112,0.00001
 107,-0.00010383,-0.00000803,0.00006869,-0.00031236,-0.00010950,-0.0001
 3365,0.00001760,0.00001778,-0.00026923,0.00089877,0.00015200,-0.021930
 52,0.05282902,0.00001448,0.00048930,0.00011826,0.00051801,-0.00154238,
 0.00580889,0.00220798,-0.00092620,0.00241796,0.07595315,-0.00393090,-0
 .05487045,0.00706210,-0.00018656,0.00104342,0.00073773,0.00214775,0.00
 581784,0.00060655,0.00023469,0.00017073,-0.00036779,0.00058215,-0.0005
 0939,-0.00006323,-0.00008464,-0.00073145,0.00001651,0.00007343,0.00006
 394,0.00001960,-0.00009256,-0.00005506,0.00000055,-0.00002622,0.000013
 70,0.00002085,0.00001127,-0.00001404,-0.00001265,0.00001475,0.00004648
 ,0.00001060,-0.00005327,0.00004280,0.00003400,-0.00004548,-0.00005263,
 -0.00007595,-0.00000772,0.00006047,-0.00003120,0.00005167,-0.00004670,
 -0.00002987,-0.00006434,-0.00005465,-0.00092250,0.00038055,-0.00328522
 ,-0.08440151,0.00395917,0.04724188,0.00012390,0.00000690,-0.00001815,-
 0.00014390,-0.00083303,-0.00033605,-0.00110581,-0.00244060,0.00219321,
 0.01061207,-0.01563144,0.00088309,-0.09401581,0.10376687,-0.00220669,-
 0.00875384,0.02695608,-0.00260413,0.00226813,-0.00029512,-0.00167548,-
 0.00410855,-0.00179669,0.00228478,-0.00010861,0.00115372,-0.00008076,-
 0.00016844,0.00064604,0.00021372,0.00052926,-0.00051862,-0.00004089,0.
 00011639,-0.00012718,-0.00002840,0.00000098,0.00007972,0.00000114,-0.0
 0005359,0.00008849,-0.00000246,-0.00028389,-0.00027932,-0.00010121,0.0
 0002702,0.00002217,0.00001869,-0.00003418,-0.00001077,-0.00003500,0.00
 003245,-0.00000738,-0.00001617,-0.00003908,0.00003571,0.00004718,0.000
 23702,-0.00071772,-0.00021764,0.00037496,0.00044176,-0.00118479,0.0953
 4876,0.00011948,0.00011095,-0.00017166,-0.00012538,0.00042402,-0.00016
 008,-0.00351846,-0.00152849,0.00273869,0.01140893,-0.01461798,0.000354
 43,0.10622983,-0.27886548,0.02391409,-0.00284055,-0.00180758,0.0022683
 6,-0.00095402,0.00094776,-0.00074883,0.00011122,0.00062191,0.00048007,
 -0.00007672,-0.00004831,-0.00001710,0.00002613,-0.00015275,-0.00003335
 ,-0.00012251,0.00010929,0.00000569,-0.00002228,0.00001915,0.00000276,0
 .00001498,-0.00003184,0.00000073,0.00003442,0.00000314,0.00000163,-0.0
 0000335,0.00009318,-0.00002213,-0.00000224,-0.00001603,0.00001569,-0.0
 0004377,0.00001889,0.00000085,0.00006104,-0.00000639,0.00000703,-0.000
 05766,0.00003450,0.00007266,0.00050072,-0.00070020,-0.00022888,-0.0001
 5879,0.00081959,-0.00103285,-0.11066373,0.29457619,0.00014318,0.000273
 55,0.00010489,0.00232188,0.00027728,-0.00197930,0.00206940,0.00238943,
 0.00479602,-0.00595719,0.00420996,0.00274541,0.00059143,0.02751293,-0.
 03500481,-0.00123971,-0.00275571,0.00496067,-0.00121366,-0.00202668,-0
 .00368134,0.00196634,-0.00150242,0.00368395,-0.00000758,-0.00052639,0.
 00054225,-0.00009326,0.00008327,0.00002597,0.00000185,-0.00000372,-0.0
 0023355,0.00001387,-0.00000658,-0.00001620,0.00000228,0.00000624,0.000
 00584,0.00000951,-0.00009662,-0.00003459,0.00021139,0.00022510,-0.0000
 9787,-0.00009035,-0.00007365,0.00006504,-0.00010415,-0.00004681,-0.000
 08336,0.00000964,0.00002588,0.00002150,-0.00026687,-0.00002802,0.00003
 973,-0.00025390,0.00052377,0.00083827,-0.00124800,-0.00090774,-0.00315
 860,0.00311805,-0.02748357,0.02609432,0.00027349,0.00008482,-0.0001284
 4,-0.00176233,-0.00006194,-0.00040566,0.00073263,0.00096537,-0.0004195
 2,-0.00087928,-0.00022592,0.00060160,0.00235144,0.00215398,-0.00157290
 ,-0.01610547,-0.02586002,0.00896756,-0.00261466,0.01596446,-0.01058961
 ,0.00632441,0.00223441,-0.00080857,-0.00071573,-0.00528979,-0.00122010
 ,-0.02031212,0.02185186,0.00504403,-0.37377268,0.06517164,-0.13370969,
 0.00734295,-0.00114420,-0.00287512,-0.00153506,0.00446435,0.00053117,-
 0.00235065,-0.00324660,-0.00016739,0.00195452,-0.00053730,-0.00020781,
 -0.00077727,-0.00145740,0.00038315,0.00013272,0.00016436,-0.00001116,0
 .00006348,0.00007035,0.00016292,-0.00013204,0.00009031,0.00000149,-0.0
 0000021,0.00007891,0.00014078,0.00021142,0.00024099,-0.00010759,-0.000
 78879,0.00006975,-0.00000899,0.40251345,0.00013506,0.00004785,-0.00004
 171,-0.00019450,-0.00010566,0.00038376,0.00000089,0.00020991,-0.000108
 25,0.00002278,-0.00004040,0.00016351,0.00004715,-0.00021247,-0.0002162
 6,-0.00779953,-0.00358546,-0.00120472,0.00134982,-0.00282831,0.0001753
 0,-0.00029683,-0.00109623,0.00041447,-0.00076363,0.00079081,-0.0004901
 5,0.03858907,-0.01019717,0.01176496,0.04220191,-0.04641039,0.00272476,
 0.00077410,-0.00432795,-0.00062545,0.00064978,0.00109889,-0.00082052,-
 0.00038707,-0.00032320,0.00004327,0.00134008,-0.00039749,-0.00029041,-
 0.00010541,0.00081500,-0.00028434,-0.00001869,0.00002828,0.00000147,-0
 .00001775,-0.00001238,-0.00001398,0.00001243,0.00006487,0.00001747,0.0
 0004394,0.00001692,-0.00003859,0.00006408,0.00002456,0.00004654,0.0001
 3158,-0.00000711,-0.00007099,-0.07610020,0.06656380,0.00013080,0.00001
 364,-0.00001904,-0.00100680,0.00002354,-0.00036221,0.00049747,0.000198
 72,-0.00005669,0.00006353,-0.00008272,-0.00034409,0.00177667,0.0021866
 1,-0.00119493,-0.00535183,-0.01320842,0.00961836,-0.00376689,0.0085792
 9,-0.01292394,0.00228042,0.00168545,-0.00095535,-0.00059085,-0.0018946
 0,-0.00037018,0.01268652,0.00412822,0.00197623,-0.14609844,0.01606404,
 -0.06003764,0.00246658,-0.00530958,0.00095117,0.00155140,0.00014108,0.
 00078892,-0.00025279,0.00011668,0.00009507,-0.00030616,-0.00013187,-0.
 00055467,-0.00022356,-0.00068370,0.00020669,0.00003346,0.00008868,-0.0
 0001526,0.00002855,0.00002746,0.00006569,-0.00004434,0.00004154,0.0000
 1478,0.00000221,0.00004620,0.00009408,0.00015167,0.00018747,-0.0000752
 6,-0.00022453,0.00003690,0.00035882,0.13635760,-0.01175394,0.06323055,
 0.00000884,0.00003241,0.00000312,-0.00033888,0.00026274,-0.00002379,-0
 .00005077,-0.00012274,0.00002587,-0.00000483,-0.00003467,0.00000028,0.
 00003751,0.00009255,-0.00003558,-0.00018254,-0.00057334,0.00017153,0.0
 0046037,0.00040194,0.00013614,-0.00016467,-0.00126286,-0.00021164,-0.0
 0430187,0.00188692,0.00096282,-0.01139092,-0.02694464,-0.00219451,0.00
 185124,-0.00045260,-0.00040462,-0.11375983,-0.11535141,-0.00342343,0.0
 1057953,0.01447517,0.00051673,-0.00076557,0.00274719,0.00054465,-0.000
 95750,0.00114001,-0.00013674,0.00026443,-0.00004570,-0.00002795,-0.000
 00630,-0.00001058,0.00000202,0.00000417,0.00000087,-0.00000672,-0.0000
 0095,-0.00000888,-0.00000178,-0.00004172,0.00000252,0.00003124,-0.0000
 0407,0.00000489,-0.00000359,-0.00002710,0.00000518,-0.00000168,-0.0002
 0512,0.00028934,-0.00038944,0.11785959,-0.00000654,-0.00000005,-0.0000
 0386,-0.00000632,0.00001337,0.00001195,0.00001190,0.00001150,-0.000013
 09,-0.00002890,0.00000094,0.00001185,0.00000081,0.00000283,-0.00001091
 ,-0.00005603,-0.00008221,0.00005911,0.00009403,0.00007976,-0.00001112,
 0.00030998,0.00014401,0.00005685,0.00006470,0.00022552,-0.00017389,0.0
 0350357,0.00077971,-0.00081363,0.00161083,0.00063501,0.00020010,-0.118
 58568,-0.26343268,-0.01282353,-0.01394788,-0.01551338,-0.00090793,0.00
 374378,-0.00245260,-0.00091440,0.00072584,0.00050060,-0.00013625,-0.00
 018396,0.00003840,0.00008273,0.00001200,0.00000250,-0.00000417,0.00000
 594,-0.00000070,0.00000713,-0.00000853,-0.00000263,-0.00000375,-0.0000
 0079,-0.00000151,-0.00000227,-0.00000158,0.00000125,0.00000228,-0.0000
 0369,0.00000225,0.00000194,0.00022176,0.00006174,-0.00002970,0.1232592
 2,0.27877909,-0.00000523,-0.00003443,0.00001479,0.00004644,-0.00004250
 ,-0.00009660,0.00000578,0.00003249,-0.00001353,0.00000098,0.00000287,-
 0.00000154,-0.00000533,0.00001364,-0.00001238,-0.00011652,-0.00015882,
 0.00006663,0.00002555,0.00007019,-0.00012431,-0.00004153,0.00016356,0.
 00026135,0.00030521,0.00107615,0.00395624,-0.00288176,-0.00017667,0.00
 408501,0.00117719,0.00060774,-0.00367399,-0.00238376,-0.01547613,-0.03
 075875,-0.00189594,0.00007923,0.00168442,0.00013518,-0.00077411,0.0061
 1075,0.00185024,-0.00044223,-0.00089955,-0.00025599,-0.00006041,-0.000
 31813,0.00000116,0.00001590,-0.00000565,0.00000791,-0.00000653,0.00002
 545,-0.00001312,0.00000654,0.00000004,0.00000942,0.00000098,0.00000648
 ,0.00000295,0.00000197,0.00000016,-0.00000568,0.00000067,0.00000399,-0
 .00030264,0.00018430,-0.00030253,0.00491234,0.01477928,0.02309620,-0.0
 0001813,-0.00002072,-0.00000965,-0.00001095,-0.00001134,-0.00001130,0.
 00000475,-0.00001696,0.00001031,-0.00001028,0.00000232,-0.00000344,-0.
 00000502,0.00001527,0.00000773,0.00003721,0.00004859,-0.00000746,-0.00
 013188,-0.00006625,-0.00008692,0.00006505,-0.00000612,-0.00006728,0.00
 027428,0.00006870,-0.00006818,0.00149384,0.00196787,0.00047780,-0.0010
 3280,0.00042196,-0.00009372,-0.00974970,-0.00320999,0.00080675,-0.3245
 2105,0.00317278,0.01945209,-0.01027351,0.00352230,0.00078518,0.0014115
 1,-0.00232551,0.00060704,-0.00105639,-0.00042091,0.00011671,0.00001842
 ,0.00002346,-0.00001434,0.00001487,0.00000281,0.00003106,-0.00003096,0
 .00000503,-0.00000944,-0.00000515,-0.00000428,0.00000334,-0.00000625,0
 .00000002,0.00000037,-0.00000089,0.00000255,0.00000424,0.00014662,0.00
 008150,0.00027581,0.00073040,-0.00004326,-0.00036183,0.34195578,-0.000
 00603,-0.00001557,-0.00001112,0.00005737,-0.00005830,-0.00000005,-0.00
 000517,0.00002003,-0.00000211,0.00000998,-0.00000860,0.00000013,0.0000
 0114,0.00002300,-0.00001011,-0.00007176,-0.00009413,0.00002079,0.00010
 390,0.00008476,0.00006947,-0.00004612,0.00015211,0.00001819,0.00010588
 ,-0.00078229,0.00005597,0.00116564,-0.00349482,-0.00075200,0.00135946,
 -0.00037208,0.00025229,0.02559329,0.00464189,-0.00163457,0.00303274,-0
 .05409125,-0.00043516,-0.02532529,0.00483007,0.00131979,-0.00104639,-0
 .00327802,0.00039088,-0.00186964,-0.00082005,0.00027373,0.00001996,0.0
 0003024,-0.00001299,0.00000532,0.00000204,0.00002791,-0.00002841,0.000
 01599,-0.00000710,0.00000534,0.00000071,-0.00000020,0.00000052,0.00000
 185,0.00000054,-0.00000373,0.00000018,-0.00000128,0.00008453,-0.000208
 78,-0.00039135,-0.00046747,0.00086656,0.00031719,-0.00331112,0.0515762
 5,-0.00006429,-0.00011246,-0.00001031,0.00010956,0.00004500,0.00004582
 ,-0.00001656,-0.00000633,0.00006451,0.00001257,-0.00003251,-0.00002018
 ,0.00002431,0.00002954,0.00000601,-0.00000253,-0.00002958,0.00015925,-
 0.00007342,0.00002775,-0.00019142,-0.00003885,0.00004582,-0.00068391,-
 0.00003064,0.00017728,-0.00088358,-0.00020241,-0.00121964,0.00723472,-
 0.00009397,0.00018941,-0.00018354,0.00222174,-0.00103714,0.00365430,0.
 01894943,-0.00006336,-0.03642512,0.00091246,0.00057704,0.00338224,0.00
 018332,0.00049904,0.00638237,-0.00005992,0.00004510,-0.00007569,-0.000
 04897,0.00001672,-0.00004449,0.00000756,0.00000388,0.00000820,-0.00001
 267,-0.00000266,-0.00001470,0.00000022,0.00000509,0.00000562,-0.000000
 51,-0.00000051,0.00000073,-0.00000200,-0.00000096,0.00000154,0.0001502
 8,-0.00000132,-0.00011028,-0.00027567,0.00050864,-0.00399119,-0.021444
 39,0.00073549,0.02514005,-0.00002257,-0.00000158,0.00005271,0.00003261
 ,0.00018609,0.00001971,0.00001379,-0.00006800,-0.00001236,-0.00000772,
 0.00000157,0.00000147,0.00000351,0.00013162,-0.00003691,-0.00042963,-0
 .00028038,0.00005951,0.00008837,0.00006528,0.00002614,-0.00005221,0.00
 130336,-0.00013054,-0.00436057,-0.00189863,0.00064517,-0.00082069,-0.0
 0093062,-0.00016515,0.00036889,-0.00002411,-0.00002628,-0.00133730,-0.
 00280636,0.00039522,0.01128898,-0.01505092,0.00041214,-0.10479420,0.10
 871548,-0.00251572,-0.00938094,0.02759173,-0.00185604,0.00249244,0.000
 01081,-0.00049000,-0.00006926,-0.00006017,0.00001026,-0.00001808,0.000
 03181,-0.00007271,0.00005889,-0.00003126,0.00000166,-0.00002584,-0.000
 00490,0.00000226,-0.00000275,-0.00000408,-0.00000177,-0.00003848,0.000
 00523,0.00002227,-0.00009573,-0.00004989,-0.00004700,0.00040657,-0.000
 69118,-0.00021101,0.00070024,0.00063605,-0.00020465,0.10600166,0.00001
 482,-0.00001513,-0.00001676,0.00002819,-0.00002721,0.00000874,0.000000
 08,0.00000386,0.00000490,0.00002025,-0.00000319,-0.00000622,0.00000276
 ,0.00001249,0.00000129,-0.00001760,0.00001938,-0.00001465,0.00003224,0
 .00000428,0.00002944,-0.00020952,0.00008941,-0.00004639,-0.00017786,0.
 00063715,0.00006094,-0.00064771,0.00025180,0.00010506,0.00017749,0.000
 09863,0.00003974,-0.00407415,-0.00217272,0.00070790,0.01321765,-0.0151
 9285,0.00065930,0.11166613,-0.27417425,0.01187396,-0.00317581,-0.00080
 436,0.00075118,-0.00084592,0.00130900,-0.00031286,-0.00001154,0.000008
 71,0.00000266,-0.00000811,0.00000220,0.00000938,-0.00000947,0.00001066
 ,0.00000636,0.00000637,0.00000313,-0.00000106,0.00000189,0.00000051,-0
 .00000098,-0.00000002,0.00000117,0.00000083,0.00001153,0.00003036,-0.0
 0007967,0.00067396,-0.00065931,-0.00018087,0.00010130,0.00097823,-0.00
 039934,-0.11677694,0.28958804,-0.00005741,-0.00005743,0.00009596,-0.00
 000109,0.00002997,0.00004526,-0.00002387,-0.00001385,-0.00004861,0.000
 00185,-0.00001800,0.00001315,0.00001701,-0.00007336,-0.00006740,0.0000
 6889,0.00018618,-0.00025469,-0.00015979,-0.00009060,0.00003414,0.00007
 024,-0.00016535,0.00078648,0.00050512,-0.00146537,0.00412839,0.0020645
 8,0.00061640,-0.00150522,-0.00027728,0.00012147,0.00017288,-0.00049689
 ,0.00102129,0.00540072,-0.00191746,-0.00119959,0.00109678,-0.00047607,
 0.01474387,-0.02774304,-0.00304966,0.00066188,0.00368934,0.00001663,-0
 .00105016,-0.00456742,-0.00002903,-0.00000511,-0.00003211,-0.00002673,
 0.00001544,-0.00003398,-0.00000089,0.00000314,-0.00001843,0.00000024,0
 .00000228,0.00000211,0.00000526,-0.00000255,0.00000617,0.00002017,-0.0
 0000085,0.00000139,0.00019461,0.00004081,-0.00007831,-0.00016961,0.000
 12663,0.00088664,-0.00040045,-0.00022430,-0.00345095,0.00412162,-0.013
 20287,0.02144074\\0.00000408,0.00000289,-0.00000400,-0.00000069,0.0000
 0035,0.00000060,-0.00000132,0.00000095,-0.00000226,0.00000010,0.,-0.00
 000007,0.00000033,0.00000028,-0.00000004,0.00000126,0.00000122,-0.0000
 0305,0.00000556,0.00000097,0.00000756,-0.00000080,-0.00000069,0.000007
 62,0.00000188,0.00000014,-0.00000567,0.00000165,-0.00000375,0.00000123
 ,-0.00000586,0.00000241,-0.00000253,-0.00000094,0.00000019,0.00000056,
 0.00000010,-0.00000165,0.00000011,0.00000073,-0.00000003,0.00000008,-0
 .00000153,-0.00000056,-0.00000145,-0.00000683,-0.00000134,0.00000415,0
 .00000306,0.00000017,-0.00000059,0.00000018,0.00000061,-0.00000215,-0.
 00000042,-0.00000067,0.00000078,-0.00000034,0.00000041,-0.00000064,-0.
 00000002,0.00000034,-0.00000049,0.00000036,0.00000039,0.00000020,-0.00
 000066,-0.00000117,-0.00000146,0.00000042,-0.00000043,0.00000096,0.,-0
 .00000062,0.00000076,-0.00000029,-0.00000038,-0.00000018\\\@
 The archive entry for this job was punched.


 IT IS WELL TO REMEMBER THAT MAN IS A PART OF NATURE AND THAT HIS WORKS,
 WHATEVER THEY MAY BE, ARE NO MORE "UNNATURAL" THAN 
 THE FLIGHT OF AN EAGLE OR THE PASSAGE OF A TORNADO.

                                    -- CHARLES MCCARRY IN "THE GREAT SOUTHWEST"
 Job cpu time:       0 days  0 hours 22 minutes 35.0 seconds.
 Elapsed time:       0 days  0 hours  2 minutes 52.9 seconds.
 File lengths (MBytes):  RWF=    233 Int=      0 D2E=      0 Chk=      8 Scr=      1
 Normal termination of Gaussian 16 at Tue Dec  2 16:12:53 2025.
