      -----------------------------------------------------------      
     |                   =====================                   |     
     |                           x T B                           |     
     |                   =====================                   |     
     |                         S. Grimme                         |     
     |          Mulliken Center for Theoretical Chemistry        |     
     |                    University of Bonn                     |     
      -----------------------------------------------------------      

   * xtb version 6.6.1 (8d0f1dd) compiled by 'stahn@M-Bot' on 2023-08-01

   xtb is free software: you can redistribute it and/or modify it under
   the terms of the GNU Lesser General Public License as published by
   the Free Software Foundation, either version 3 of the License, or
   (at your option) any later version.
   
   xtb is distributed in the hope that it will be useful,
   but WITHOUT ANY WARRANTY; without even the implied warranty of
   MERCHANTABILITY or FITNESS FOR A PARTICULAR PURPOSE.  See the
   GNU Lesser General Public License for more details.
   
   Cite this work as:
   * C. Bannwarth, E. Caldeweyher, S. Ehlert, A. Hansen, P. Pracht,
     J. Seibert, S. Spicher, S. Grimme, WIREs Comput. Mol. Sci., 2020, 11,
     e01493. DOI: 10.1002/wcms.1493
   
   for GFN2-xTB:
   * C. Bannwarth, S. Ehlert and S. Grimme., J. Chem. Theory Comput., 2019,
     15, 1652-1671. DOI: 10.1021/acs.jctc.8b01176
   for GFN1-xTB:
   * S. Grimme, C. Bannwarth, P. Shushkov, J. Chem. Theory Comput., 2017,
     13, 1989-2009. DOI: 10.1021/acs.jctc.7b00118
   for GFN0-xTB:
   * P. Pracht, E. Caldeweyher, S. Ehlert, S. Grimme, ChemRxiv, 2019, preprint.
     DOI: 10.26434/chemrxiv.8326202.v1
   for GFN-FF:
   * S. Spicher and S. Grimme, Angew. Chem. Int. Ed., 2020, 59, 15665-15673.
     DOI: 10.1002/anie.202004239
   
   for ALPB and GBSA implicit solvation:
   * S. Ehlert, M. Stahn, S. Spicher, S. Grimme, J. Chem. Theory Comput.,
     2021, 17, 4250-4261. DOI: 10.1021/acs.jctc.1c00471
   
   for DFT-D4:
   * E. Caldeweyher, C. Bannwarth and S. Grimme, J. Chem. Phys., 2017,
     147, 034112. DOI: 10.1063/1.4993215
   * E. Caldeweyher, S. Ehlert, A. Hansen, H. Neugebauer, S. Spicher,
     C. Bannwarth and S. Grimme, J. Chem. Phys., 2019, 150, 154122.
     DOI: 10.1063/1.5090222
   * E. Caldeweyher, J.-M. Mewes, S. Ehlert and S. Grimme, Phys. Chem. Chem. Phys.
     2020, 22, 8499-8512. DOI: 10.1039/D0CP00502A
   
   for sTDA-xTB:
   * S. Grimme and C. Bannwarth, J. Chem. Phys., 2016, 145, 054103.
     DOI: 10.1063/1.4959605
   
   in the mass-spec context:
   * V. Asgeirsson, C. Bauer and S. Grimme, Chem. Sci., 2017, 8, 4879.
     DOI: 10.1039/c7sc00601b
   * J. Koopman and S. Grimme, ACS Omega 2019, 4, 12, 15120-15133.
     DOI: 10.1021/acsomega.9b02011
   
   for metadynamics refer to:
   * S. Grimme, J. Chem. Theory Comput., 2019, 155, 2847-2862
     DOI: 10.1021/acs.jctc.9b00143
   
   for SPH calculations refer to:
   * S. Spicher and S. Grimme, J. Chem. Theory Comput., 2021, 17, 1701-1714
     DOI: 10.1021/acs.jctc.0c01306
   
   with help from (in alphabetical order)
   P. Atkinson, C. Bannwarth, F. Bohle, G. Brandenburg, E. Caldeweyher
   M. Checinski, S. Dohm, S. Ehlert, S. Ehrlich, I. Gerasimov, C. Hölzer
   A. Katbashev, J. Koopman, C. Lavigne, S. Lehtola, F. März, M. Müller,
   F. Musil, H. Neugebauer, J. Pisarek, C. Plett, P. Pracht, F. Pultar,
   J. Seibert, P. Shushkov, S. Spicher, M. Stahn, M. Steiner, T. Strunk,
   J. Stückrath, T. Rose, and J. Unsleber
   
 * started run on 2026/07/23 at 12:55:26.411     

           -------------------------------------------------
          |                Calculation Setup                |
           -------------------------------------------------

          program call               : /path/to/xtb /path/to/atropisomers_workflow/example/reactant_censo/confs/2.xyz --opt --etemp 298.15 --chrg 0 --uhf 0 -P 4
          hostname                   : node
          coordinate file            : /path/to/atropisomers_workflow/example/reactant_censo/confs/2.xyz
          omp threads                :                     4

   ID    Z sym.   atoms
    1    6 C      1-6, 8-10, 12-15
    2    9 F      7, 16
    3    8 O      11
    4    1 H      17-26

           -------------------------------------------------
          |                 G F N 2 - x T B                 |
           -------------------------------------------------

        Reference                      10.1021/acs.jctc.8b01176
      * Hamiltonian:
        H0-scaling (s, p, d)           1.850000    2.230000    2.230000
        zeta-weighting                 0.500000
      * Dispersion:
        s8                             2.700000
        a1                             0.520000
        a2                             5.000000
        s9                             5.000000
      * Repulsion:
        kExp                           1.500000    1.000000
        rExp                           1.000000
      * Coulomb:
        alpha                          2.000000
        third order                    shell-resolved
        anisotropic                    true
        a3                             3.000000
        a5                             4.000000
        cn-shift                       1.200000
        cn-exp                         4.000000
        max-rad                        5.000000


          ...................................................
          :                      SETUP                      :
          :.................................................:
          :  # basis functions                  74          :
          :  # atomic orbitals                  74          :
          :  # shells                           42          :
          :  # electrons                        82          :
          :  max. iterations                   250          :
          :  Hamiltonian                  GFN2-xTB          :
          :  restarted?                      false          :
          :  GBSA solvation                  false          :
          :  PC potential                    false          :
          :  electronic temp.          298.1500000     K    :
          :  accuracy                    1.0000000          :
          :  -> integral cutoff          0.2500000E+02      :
          :  -> integral neglect         0.1000000E-07      :
          :  -> SCF convergence          0.1000000E-05 Eh   :
          :  -> wf. convergence          0.1000000E-03 e    :
          :  Broyden damping             0.4000000          :
          ...................................................

 iter      E             dE          RMSdq      gap      omega  full diag
   1    -47.0447770 -0.470448E+02  0.459E+00    4.48       0.0  T
   2    -47.0840078 -0.392308E-01  0.282E+00    4.43       1.0  T
   3    -47.0757633  0.824446E-02  0.145E+00    4.40       1.0  T
   4    -47.0966810 -0.209177E-01  0.245E-01    4.45       1.0  T
   5    -47.0969576 -0.276622E-03  0.866E-02    4.48       1.0  T
   6    -47.0970529 -0.952149E-04  0.437E-02    4.48       1.0  T
   7    -47.0970661 -0.132342E-04  0.177E-02    4.48       1.1  T
   8    -47.0970690 -0.292026E-05  0.796E-03    4.48       2.5  T
   9    -47.0970697 -0.727458E-06  0.170E-03    4.48      11.5  T
  10    -47.0970698 -0.127653E-07  0.729E-04    4.48      26.9  T
  11    -47.0970698 -0.317865E-08  0.359E-04    4.48      54.7  T

   *** convergence criteria satisfied after 11 iterations ***

         #    Occupation            Energy/Eh            Energy/eV
      -------------------------------------------------------------
         1        2.0000           -0.8176276             -22.2488
       ...           ...                  ...                  ...
        35        2.0000           -0.4515751             -12.2880
        36        2.0000           -0.4442212             -12.0879
        37        2.0000           -0.4310717             -11.7301
        38        2.0000           -0.4132629             -11.2455
        39        2.0000           -0.4112979             -11.1920
        40        2.0000           -0.4071857             -11.0801
        41        2.0000           -0.4030785             -10.9683 (HOMO)
        42                         -0.2384815              -6.4894 (LUMO)
        43                         -0.2378366              -6.4719
        44                         -0.2369981              -6.4490
        45                         -0.2351754              -6.3994
        46                         -0.1102392              -2.9998
       ...                                ...                  ...
        74                          0.6826492              18.5758
      -------------------------------------------------------------
                  HL-Gap            0.1645971 Eh            4.4789 eV
             Fermi-level           -0.3207800 Eh           -8.7289 eV

 SCC (total)                   0 d,  0 h,  0 min,  0.039 sec
 SCC setup                      ...        0 min,  0.000 sec (  0.540%)
 Dispersion                     ...        0 min,  0.000 sec (  0.718%)
 classical contributions        ...        0 min,  0.000 sec (  0.060%)
 integral evaluation            ...        0 min,  0.002 sec (  4.639%)
 iterations                     ...        0 min,  0.032 sec ( 81.646%)
 molecular gradient             ...        0 min,  0.005 sec ( 11.719%)
 printout                       ...        0 min,  0.000 sec (  0.586%)

         :::::::::::::::::::::::::::::::::::::::::::::::::::::
         ::                     SUMMARY                     ::
         :::::::::::::::::::::::::::::::::::::::::::::::::::::
         :: total energy             -46.449267068105 Eh    ::
         :: gradient norm              0.083101806148 Eh/a0 ::
         :: HOMO-LUMO gap              4.478914218454 eV    ::
         ::.................................................::
         :: SCC energy               -47.097069753612 Eh    ::
         :: -> isotropic ES            0.048649397546 Eh    ::
         :: -> anisotropic ES          0.002349168340 Eh    ::
         :: -> anisotropic XC          0.008646478526 Eh    ::
         :: -> dispersion             -0.027604873803 Eh    ::
         :: repulsion energy           0.647547847298 Eh    ::
         :: add. restraining           0.000000000000 Eh    ::
         :: total charge              -0.000000000000 e     ::
         :::::::::::::::::::::::::::::::::::::::::::::::::::::

      ----------------------------------------------------------- 
     |                   =====================                   |
     |                        A N C O P T                        |
     |                   =====================                   |
     |               Approximate Normal Coordinate               |
     |                Rational Function Optimizer                |
      ----------------------------------------------------------- 

          ...................................................
          :                      SETUP                      :
          :.................................................:
          :   optimization level            normal          :
          :   max. optcycles                   200          :
          :   ANC micro-cycles                  20          :
          :   degrees of freedom                72          :
          :.................................................:
          :   RF solver                   davidson          :
          :   write xtbopt.log                true          :
          :   linear?                        false          :
          :   energy convergence         0.5000000E-05 Eh   :
          :   grad. convergence          0.1000000E-02 Eh/α :
          :   maxmium RF displ.          1.0000000          :
          :   Hlow (freq-cutoff)         0.1000000E-01      :
          :   Hmax (freq-cutoff)         5.0000000          :
          :   S6 in model hess.         20.0000000          :
          ...................................................

generating ANC from model Hessian ...
Using Lindh-Hessian (1995)
 Shifting diagonal of input Hessian by   8.647376372489340E-003
 Lowest  eigenvalues of input Hessian
    0.000000    0.000000    0.000000    0.000000    0.000000    0.000000
    0.010000    0.010487    0.010895    0.013793    0.015095    0.016514
    0.020842    0.021507    0.025012    0.028614    0.029767    0.031557
 Highest eigenvalues
    1.904952    1.918441    2.024691    2.074754    2.143403    2.163661
 

........................................................................
.............................. CYCLE    1 ..............................
........................................................................

 iter      E             dE          RMSdq      gap      omega  full diag
   1    -47.0970698 -0.470971E+02  0.116E-04    4.48       0.0  T
   2    -47.0970698 -0.619167E-10  0.702E-05    4.48     279.4  T
   3    -47.0970698 -0.229221E-10  0.454E-05    4.48     432.4  T
     SCC iter.                  ...        0 min,  0.004 sec
     gradient                   ...        0 min,  0.004 sec
 * total energy  :   -46.4492671 Eh     change       -0.1371774E-08 Eh
   gradient norm :     0.0831021 Eh/α   predicted     0.0000000E+00 (-100.00%)
   displ. norm   :     0.2828536 α      lambda       -0.1495921E-01
   maximum displ.:     0.1122882 α      in ANC's #17, #15, #23, ...

........................................................................
.............................. CYCLE    2 ..............................
........................................................................

 iter      E             dE          RMSdq      gap      omega  full diag
   1    -47.1109702 -0.471110E+02  0.262E-01    4.40       0.0  T
   2    -47.1111093 -0.139073E-03  0.170E-01    4.43       1.0  T
   3    -47.1110270  0.823277E-04  0.886E-02    4.43       1.0  T
   4    -47.1111819 -0.154971E-03  0.187E-02    4.44       1.0  T
   5    -47.1111874 -0.543841E-05  0.584E-03    4.44       3.4  T
   6    -47.1111879 -0.474167E-06  0.248E-03    4.43       7.9  T
   7    -47.1111879 -0.326110E-07  0.104E-03    4.43      18.9  T
   8    -47.1111879 -0.315148E-08  0.401E-04    4.43      48.9  T
   9    -47.1111879 -0.175759E-08  0.132E-04    4.43     148.3  T
     SCC iter.                  ...        0 min,  0.012 sec
     gradient                   ...        0 min,  0.004 sec
 * total energy  :   -46.4594976 Eh     change       -0.1023050E-01 Eh
   gradient norm :     0.0337252 Eh/α   predicted    -0.8078619E-02 ( -21.03%)
   displ. norm   :     0.2573905 α      lambda       -0.4774132E-02
   maximum displ.:     0.0946984 α      in ANC's #15, #14, #23, ...

........................................................................
.............................. CYCLE    3 ..............................
........................................................................

 iter      E             dE          RMSdq      gap      omega  full diag
   1    -47.1148316 -0.471148E+02  0.168E-01    4.35       0.0  T
   2    -47.1149403 -0.108675E-03  0.109E-01    4.37       1.0  T
   3    -47.1149564 -0.161190E-04  0.630E-02    4.37       1.0  T
   4    -47.1149982 -0.417319E-04  0.173E-02    4.37       1.1  T
   5    -47.1150011 -0.293908E-05  0.525E-03    4.37       3.7  T
   6    -47.1150015 -0.446928E-06  0.214E-03    4.37       9.2  T
   7    -47.1150016 -0.187120E-07  0.967E-04    4.37      20.3  T
   8    -47.1150016 -0.272265E-08  0.371E-04    4.37      52.9  T
     SCC iter.                  ...        0 min,  0.011 sec
     gradient                   ...        0 min,  0.004 sec
 * total energy  :   -46.4625471 Eh     change       -0.3049509E-02 Eh
   gradient norm :     0.0178483 Eh/α   predicted    -0.2546010E-02 ( -16.51%)
   displ. norm   :     0.2150626 α      lambda       -0.1393932E-02
   maximum displ.:     0.0835667 α      in ANC's #5, #14, #8, ...

........................................................................
.............................. CYCLE    4 ..............................
........................................................................

 iter      E             dE          RMSdq      gap      omega  full diag
   1    -47.1134057 -0.471134E+02  0.108E-01    4.29       0.0  T
   2    -47.1134475 -0.417689E-04  0.638E-02    4.30       1.0  T
   3    -47.1134498 -0.232748E-05  0.415E-02    4.30       1.0  T
   4    -47.1134690 -0.191573E-04  0.101E-02    4.30       1.9  T
   5    -47.1134696 -0.656425E-06  0.364E-03    4.30       5.4  T
   6    -47.1134699 -0.244914E-06  0.154E-03    4.30      12.7  T
   7    -47.1134699 -0.116592E-07  0.644E-04    4.30      30.4  T
   8    -47.1134699 -0.833793E-09  0.218E-04    4.30      90.1  T
     SCC iter.                  ...        0 min,  0.011 sec
     gradient                   ...        0 min,  0.004 sec
 * total energy  :   -46.4635287 Eh     change       -0.9816393E-03 Eh
   gradient norm :     0.0255317 Eh/α   predicted    -0.7292042E-03 ( -25.72%)
   displ. norm   :     0.2408782 α      lambda       -0.1418568E-02
   maximum displ.:     0.1260246 α      in ANC's #5, #8, #2, ...

........................................................................
.............................. CYCLE    5 ..............................
........................................................................

 iter      E             dE          RMSdq      gap      omega  full diag
   1    -47.1136964 -0.471137E+02  0.103E-01    4.24       0.0  T
   2    -47.1137227 -0.262403E-04  0.604E-02    4.24       1.0  T
   3    -47.1137191  0.359737E-05  0.396E-02    4.24       1.0  T
   4    -47.1137369 -0.177832E-04  0.693E-03    4.24       2.8  T
   5    -47.1137373 -0.430838E-06  0.322E-03    4.24       6.1  T
   6    -47.1137375 -0.196400E-06  0.130E-03    4.24      15.0  T
   7    -47.1137375 -0.748525E-08  0.486E-04    4.24      40.4  T
   8    -47.1137375 -0.799979E-09  0.167E-04    4.24     117.1  T
     SCC iter.                  ...        0 min,  0.011 sec
     gradient                   ...        0 min,  0.004 sec
 * total energy  :   -46.4645688 Eh     change       -0.1040051E-02 Eh
   gradient norm :     0.0215560 Eh/α   predicted    -0.7504535E-03 ( -27.84%)
   displ. norm   :     0.2579934 α      lambda       -0.1371418E-02
   maximum displ.:     0.1461091 α      in ANC's #5, #2, #1, ...

........................................................................
.............................. CYCLE    6 ..............................
........................................................................

 iter      E             dE          RMSdq      gap      omega  full diag
   1    -47.1152452 -0.471152E+02  0.102E-01    4.19       0.0  T
   2    -47.1152594 -0.141890E-04  0.597E-02    4.19       1.0  T
   3    -47.1152487  0.106884E-04  0.374E-02    4.19       1.0  T
   4    -47.1152681 -0.194404E-04  0.473E-03    4.19       4.1  T
   5    -47.1152683 -0.180862E-06  0.268E-03    4.19       7.3  T
   6    -47.1152685 -0.124110E-06  0.122E-03    4.19      16.1  T
   7    -47.1152685 -0.700122E-08  0.335E-04    4.19      58.6  T
   8    -47.1152685 -0.701412E-09  0.121E-04    4.19     162.7  T
     SCC iter.                  ...        0 min,  0.011 sec
     gradient                   ...        0 min,  0.004 sec
 * total energy  :   -46.4656286 Eh     change       -0.1059871E-02 Eh
   gradient norm :     0.0171995 Eh/α   predicted    -0.7313893E-03 ( -30.99%)
   displ. norm   :     0.2749579 α      lambda       -0.1488780E-02
   maximum displ.:     0.1536846 α      in ANC's #5, #2, #1, ...

........................................................................
.............................. CYCLE    7 ..............................
........................................................................

 iter      E             dE          RMSdq      gap      omega  full diag
   1    -47.1195039 -0.471195E+02  0.110E-01    4.15       0.0  T
   2    -47.1195140 -0.101311E-04  0.653E-02    4.15       1.0  T
   3    -47.1195007  0.133257E-04  0.350E-02    4.15       1.0  T
   4    -47.1195208 -0.200807E-04  0.433E-03    4.15       4.5  T
   5    -47.1195208 -0.662578E-07  0.269E-03    4.15       7.3  T
   6    -47.1195209 -0.684317E-07  0.111E-03    4.15      17.7  T
   7    -47.1195209 -0.106275E-07  0.358E-04    4.15      54.7  T
   8    -47.1195209 -0.212995E-08  0.146E-04    4.15     134.7  T
     SCC iter.                  ...        0 min,  0.011 sec
     gradient                   ...        0 min,  0.004 sec
 * total energy  :   -46.4666194 Eh     change       -0.9907845E-03 Eh
   gradient norm :     0.0092398 Eh/α   predicted    -0.8007214E-03 ( -19.18%)
   displ. norm   :     0.5155433 α      lambda       -0.1725394E-02
   maximum displ.:     0.2915157 α      in ANC's #5, #10, #7, ...

........................................................................
.............................. CYCLE    8 ..............................
........................................................................

 iter      E             dE          RMSdq      gap      omega  full diag
   1    -47.1071399 -0.471071E+02  0.232E-01    4.02       0.0  T
   2    -47.1072341 -0.942236E-04  0.130E-01    4.05       1.0  T
   3    -47.1071796  0.545210E-04  0.791E-02    4.04       1.0  T
   4    -47.1072803 -0.100713E-03  0.171E-02    4.04       1.1  T
   5    -47.1072816 -0.131419E-05  0.841E-03    4.04       2.3  T
   6    -47.1072823 -0.700300E-06  0.469E-03    4.04       4.2  T
   7    -47.1072824 -0.153828E-06  0.123E-03    4.04      15.9  T
   8    -47.1072825 -0.130403E-07  0.552E-04    4.04      35.5  T
   9    -47.1072825 -0.308589E-08  0.214E-04    4.04      91.8  T
     SCC iter.                  ...        0 min,  0.012 sec
     gradient                   ...        0 min,  0.004 sec
 * total energy  :   -46.4628207 Eh     change        0.3798751E-02 Eh
   gradient norm :     0.0704891 Eh/α   predicted    -0.1092043E-02 (-128.75%)
   displ. norm   :     0.2863053 α      lambda       -0.9247843E-02
   maximum displ.:     0.1350722 α      in ANC's #5, #10, #14, ...

........................................................................
.............................. CYCLE    9 ..............................
........................................................................

 iter      E             dE          RMSdq      gap      omega  full diag
   1    -47.1200481 -0.471200E+02  0.166E-01    4.13       0.0  T
   2    -47.1200917 -0.436280E-04  0.940E-02    4.11       1.0  T
   3    -47.1200622  0.294893E-04  0.524E-02    4.12       1.0  T
   4    -47.1201149 -0.526513E-04  0.142E-02    4.12       1.4  T
   5    -47.1201155 -0.603111E-06  0.690E-03    4.12       2.8  T
   6    -47.1201158 -0.317642E-06  0.365E-03    4.12       5.4  T
   7    -47.1201160 -0.133744E-06  0.920E-04    4.12      21.3  T
   8    -47.1201160 -0.539535E-08  0.427E-04    4.12      46.0  T
     SCC iter.                  ...        0 min,  0.011 sec
     gradient                   ...        0 min,  0.004 sec
 * total energy  :   -46.4671402 Eh     change       -0.4319522E-02 Eh
   gradient norm :     0.0052821 Eh/α   predicted    -0.5002982E-02 (  15.82%)
   displ. norm   :     0.0472152 α      lambda       -0.1351199E-03
   maximum displ.:     0.0150114 α      in ANC's #7, #6, #3, ...

........................................................................
.............................. CYCLE   10 ..............................
........................................................................

 iter      E             dE          RMSdq      gap      omega  full diag
   1    -47.1210444 -0.471210E+02  0.256E-02    4.11       0.0  T
   2    -47.1210453 -0.931237E-06  0.156E-02    4.11       1.3  T
   3    -47.1210446  0.754580E-06  0.809E-03    4.11       2.4  T
   4    -47.1210457 -0.117592E-05  0.151E-03    4.11      13.0  T
   5    -47.1210458 -0.332232E-07  0.675E-04    4.11      29.1  T
   6    -47.1210458 -0.490806E-08  0.342E-04    4.11      57.3  T
     SCC iter.                  ...        0 min,  0.008 sec
     gradient                   ...        0 min,  0.004 sec
 * total energy  :   -46.4672497 Eh     change       -0.1095492E-03 Eh
   gradient norm :     0.0030033 Eh/α   predicted    -0.6770927E-04 ( -38.19%)
   displ. norm   :     0.1570832 α      lambda       -0.2480111E-03
   maximum displ.:     0.0806790 α      in ANC's #6, #5, #3, ...

........................................................................
.............................. CYCLE   11 ..............................
........................................................................

 iter      E             dE          RMSdq      gap      omega  full diag
   1    -47.1201429 -0.471201E+02  0.650E-02    4.09       0.0  T
   2    -47.1201471 -0.421703E-05  0.395E-02    4.10       1.0  T
   3    -47.1201416  0.551942E-05  0.202E-02    4.09       1.0  T
   4    -47.1201495 -0.792888E-05  0.298E-03    4.10       6.6  T
   5    -47.1201496 -0.975902E-07  0.158E-03    4.10      12.4  T
   6    -47.1201497 -0.313512E-07  0.749E-04    4.10      26.2  T
   7    -47.1201497 -0.125895E-08  0.232E-04    4.10      84.4  T
     SCC iter.                  ...        0 min,  0.009 sec
     gradient                   ...        0 min,  0.004 sec
 * total energy  :   -46.4673902 Eh     change       -0.1404430E-03 Eh
   gradient norm :     0.0053834 Eh/α   predicted    -0.1270798E-03 (  -9.52%)
   displ. norm   :     0.0685881 α      lambda       -0.6453310E-04
   maximum displ.:     0.0339492 α      in ANC's #6, #2, #5, ...

........................................................................
.............................. CYCLE   12 ..............................
........................................................................

 iter      E             dE          RMSdq      gap      omega  full diag
   1    -47.1204189 -0.471204E+02  0.238E-02    4.09       0.0  T
   2    -47.1204192 -0.243355E-06  0.143E-02    4.09       1.4  T
   3    -47.1204186  0.555521E-06  0.534E-03    4.09       3.7  T
   4    -47.1204193 -0.709702E-06  0.682E-04    4.09      28.8  T
   5    -47.1204193 -0.727752E-09  0.381E-04    4.09      51.5  T
     SCC iter.                  ...        0 min,  0.007 sec
     gradient                   ...        0 min,  0.004 sec
 * total energy  :   -46.4674425 Eh     change       -0.5235378E-04 Eh
   gradient norm :     0.0031760 Eh/α   predicted    -0.3242099E-04 ( -38.07%)
   displ. norm   :     0.1812515 α      lambda       -0.1171134E-03
   maximum displ.:     0.0916267 α      in ANC's #6, #2, #1, ...

........................................................................
.............................. CYCLE   13 ..............................
........................................................................

 iter      E             dE          RMSdq      gap      omega  full diag
   1    -47.1202057 -0.471202E+02  0.583E-02    4.08       0.0  T
   2    -47.1202065 -0.808638E-06  0.347E-02    4.08       1.0  T
   3    -47.1202045  0.204599E-05  0.914E-03    4.08       2.1  T
   4    -47.1202070 -0.252842E-05  0.140E-03    4.08      14.0  T
   5    -47.1202070 -0.249059E-08  0.735E-04    4.08      26.7  T
   6    -47.1202070 -0.271314E-08  0.252E-04    4.08      77.9  T
     SCC iter.                  ...        0 min,  0.008 sec
     gradient                   ...        0 min,  0.004 sec
 * total energy  :   -46.4675257 Eh     change       -0.8317302E-04 Eh
   gradient norm :     0.0024144 Eh/α   predicted    -0.6048735E-04 ( -27.28%)
   displ. norm   :     0.1826279 α      lambda       -0.7397770E-04
   maximum displ.:     0.1149439 α      in ANC's #2, #1, #6, ...

........................................................................
.............................. CYCLE   14 ..............................
........................................................................

 iter      E             dE          RMSdq      gap      omega  full diag
   1    -47.1204240 -0.471204E+02  0.584E-02    4.07       0.0  T
   2    -47.1204245 -0.541492E-06  0.345E-02    4.07       1.0  T
   3    -47.1204233  0.116861E-05  0.707E-03    4.07       2.8  T
   4    -47.1204248 -0.146238E-05  0.119E-03    4.07      16.5  T
   5    -47.1204248 -0.208475E-08  0.656E-04    4.07      29.9  T
   6    -47.1204248 -0.244943E-08  0.237E-04    4.07      82.9  T
     SCC iter.                  ...        0 min,  0.008 sec
     gradient                   ...        0 min,  0.004 sec
 * total energy  :   -46.4675783 Eh     change       -0.5257637E-04 Eh
   gradient norm :     0.0028244 Eh/α   predicted    -0.3822906E-04 ( -27.29%)
   displ. norm   :     0.1684362 α      lambda       -0.4707790E-04
   maximum displ.:     0.1084647 α      in ANC's #2, #1, #6, ...

........................................................................
.............................. CYCLE   15 ..............................
........................................................................

 iter      E             dE          RMSdq      gap      omega  full diag
   1    -47.1203269 -0.471203E+02  0.533E-02    4.06       0.0  T
   2    -47.1203272 -0.308219E-06  0.315E-02    4.06       1.0  T
   3    -47.1203268  0.443022E-06  0.484E-03    4.06       4.1  T
   4    -47.1203274 -0.594833E-06  0.973E-04    4.06      20.1  T
   5    -47.1203274 -0.219217E-08  0.519E-04    4.06      37.8  T
     SCC iter.                  ...        0 min,  0.007 sec
     gradient                   ...        0 min,  0.004 sec
 * total energy  :   -46.4676132 Eh     change       -0.3488282E-04 Eh
   gradient norm :     0.0029993 Eh/α   predicted    -0.2420750E-04 ( -30.60%)
   displ. norm   :     0.1472603 α      lambda       -0.4317974E-04
   maximum displ.:     0.1045935 α      in ANC's #2, #1, #3, ...

........................................................................
.............................. CYCLE   16 ..............................
........................................................................

 iter      E             dE          RMSdq      gap      omega  full diag
   1    -47.1211402 -0.471211E+02  0.468E-02    4.06       0.0  T
   2    -47.1211404 -0.250516E-06  0.275E-02    4.06       1.0  T
   3    -47.1211401  0.351987E-06  0.418E-03    4.06       4.7  T
   4    -47.1211405 -0.462289E-06  0.797E-04    4.06      24.6  T
   5    -47.1211405 -0.247606E-08  0.434E-04    4.06      45.2  T
     SCC iter.                  ...        0 min,  0.007 sec
     gradient                   ...        0 min,  0.004 sec
 * total energy  :   -46.4676428 Eh     change       -0.2966069E-04 Eh
   gradient norm :     0.0029751 Eh/α   predicted    -0.2205870E-04 ( -25.63%)
   displ. norm   :     0.1545473 α      lambda       -0.3719328E-04
   maximum displ.:     0.0928619 α      in ANC's #2, #1, #3, ...

........................................................................
.............................. CYCLE   17 ..............................
........................................................................

 iter      E             dE          RMSdq      gap      omega  full diag
   1    -47.1203833 -0.471204E+02  0.486E-02    4.04       0.0  T
   2    -47.1203836 -0.356183E-06  0.286E-02    4.05       1.0  T
   3    -47.1203829  0.750042E-06  0.542E-03    4.04       3.6  T
   4    -47.1203838 -0.917025E-06  0.103E-03    4.05      19.0  T
   5    -47.1203838 -0.831371E-08  0.591E-04    4.05      33.2  T
   6    -47.1203838 -0.719709E-10  0.290E-04    4.05      67.6  T
     SCC iter.                  ...        0 min,  0.008 sec
     gradient                   ...        0 min,  0.004 sec
 * total energy  :   -46.4676644 Eh     change       -0.2153128E-04 Eh
   gradient norm :     0.0018829 Eh/α   predicted    -0.1904943E-04 ( -11.53%)
   displ. norm   :     0.1064645 α      lambda       -0.2529904E-04
   maximum displ.:     0.0765830 α      in ANC's #1, #3, #2, ...

........................................................................
.............................. CYCLE   18 ..............................
........................................................................

 iter      E             dE          RMSdq      gap      omega  full diag
   1    -47.1213618 -0.471214E+02  0.320E-02    4.04       0.0  T
   2    -47.1213624 -0.602093E-06  0.188E-02    4.04       1.0  T
   3    -47.1213610  0.144245E-05  0.874E-03    4.04       2.2  T
   4    -47.1213628 -0.189101E-05  0.850E-04    4.04      23.1  T
   5    -47.1213628 -0.154007E-08  0.506E-04    4.04      38.8  T
   6    -47.1213628 -0.178709E-08  0.203E-04    4.04      96.6  T
     SCC iter.                  ...        0 min,  0.008 sec
     gradient                   ...        0 min,  0.004 sec
 * total energy  :   -46.4676815 Eh     change       -0.1709341E-04 Eh
   gradient norm :     0.0031325 Eh/α   predicted    -0.1271382E-04 ( -25.62%)
   displ. norm   :     0.0394351 α      lambda       -0.1900492E-04
   maximum displ.:     0.0291672 α      in ANC's #1, #3, #4, ...

........................................................................
.............................. CYCLE   19 ..............................
........................................................................

 iter      E             dE          RMSdq      gap      omega  full diag
   1    -47.1211183 -0.471211E+02  0.132E-02    4.04       0.0  T
   2    -47.1211184 -0.158087E-06  0.772E-03    4.04       2.5  T
   3    -47.1211182  0.193381E-06  0.381E-03    4.04       5.1  T
   4    -47.1211185 -0.288517E-06  0.379E-04    4.04      51.7  T
   5    -47.1211185 -0.842569E-09  0.208E-04    4.04      94.4  T
     SCC iter.                  ...        0 min,  0.007 sec
     gradient                   ...        0 min,  0.004 sec
 * total energy  :   -46.4676957 Eh     change       -0.1421232E-04 Eh
   gradient norm :     0.0019278 Eh/α   predicted    -0.9521280E-05 ( -33.01%)
   displ. norm   :     0.1606161 α      lambda       -0.3773635E-04
   maximum displ.:     0.1016107 α      in ANC's #1, #3, #2, ...

........................................................................
.............................. CYCLE   20 ..............................
........................................................................

 iter      E             dE          RMSdq      gap      omega  full diag
   1    -47.1193935 -0.471194E+02  0.497E-02    4.03       0.0  T
   2    -47.1193953 -0.179946E-05  0.292E-02    4.03       1.0  T
   3    -47.1193922  0.316562E-05  0.134E-02    4.03       1.5  T
   4    -47.1193965 -0.428851E-05  0.107E-03    4.03      18.3  T
   5    -47.1193965 -0.933620E-08  0.584E-04    4.03      33.6  T
   6    -47.1193965 -0.245915E-08  0.296E-04    4.03      66.2  T
     SCC iter.                  ...        0 min,  0.008 sec
     gradient                   ...        0 min,  0.004 sec
 * total energy  :   -46.4677337 Eh     change       -0.3805865E-04 Eh
   gradient norm :     0.0039059 Eh/α   predicted    -0.1908766E-04 ( -49.85%)
   displ. norm   :     0.1333925 α      lambda       -0.3782782E-04
   maximum displ.:     0.0858197 α      in ANC's #1, #3, #2, ...
 * RMSD in coord.:     0.4026794 α      energy gain  -0.1846667E-01 Eh

generating ANC from model Hessian ...
Using Lindh-Hessian (1995)
 Shifting diagonal of input Hessian by   8.689143294605888E-003
 Lowest  eigenvalues of input Hessian
    0.000000    0.000000    0.000000    0.000000    0.000000    0.000000
    0.010000    0.010404    0.010801    0.013768    0.015208    0.017667
    0.020752    0.021829    0.025160    0.029738    0.030583    0.033595
 Highest eigenvalues
    1.886185    1.908752    2.021891    2.068425    2.117859    2.122589
 

........................................................................
.............................. CYCLE   21 ..............................
........................................................................

 iter      E             dE          RMSdq      gap      omega  full diag
   1    -47.1191530 -0.471192E+02  0.395E-02    4.02       0.0  T
   2    -47.1191538 -0.760256E-06  0.232E-02    4.02       1.0  T
   3    -47.1191519  0.190279E-05  0.955E-03    4.02       2.1  T
   4    -47.1191543 -0.241547E-05  0.820E-04    4.02      23.9  T
   5    -47.1191543 -0.337918E-08  0.470E-04    4.02      41.7  T
   6    -47.1191543 -0.199266E-08  0.205E-04    4.02      95.6  T
     SCC iter.                  ...        0 min,  0.008 sec
     gradient                   ...        0 min,  0.004 sec
 * total energy  :   -46.4677680 Eh     change       -0.3422120E-04 Eh
   gradient norm :     0.0043387 Eh/α   predicted     0.0000000E+00 (-100.00%)
   displ. norm   :     0.0282285 α      lambda       -0.2462517E-04
   maximum displ.:     0.0176233 α      in ANC's #1, #3, #2, ...

........................................................................
.............................. CYCLE   22 ..............................
........................................................................

 iter      E             dE          RMSdq      gap      omega  full diag
   1    -47.1206297 -0.471206E+02  0.111E-02    4.02       0.0  T
   2    -47.1206297 -0.526868E-07  0.656E-03    4.02       3.0  T
   3    -47.1206297  0.701438E-07  0.179E-03    4.02      11.0  T
   4    -47.1206297 -0.880226E-07  0.432E-04    4.02      45.4  T
   5    -47.1206297 -0.258173E-08  0.228E-04    4.02      86.0  T
     SCC iter.                  ...        0 min,  0.007 sec
     gradient                   ...        0 min,  0.004 sec
 * total energy  :   -46.4677903 Eh     change       -0.2232613E-04 Eh
   gradient norm :     0.0018270 Eh/α   predicted    -0.1461572E-04 ( -34.54%)
   displ. norm   :     0.0905513 α      lambda       -0.2709029E-04
   maximum displ.:     0.0595064 α      in ANC's #3, #1, #2, ...

........................................................................
.............................. CYCLE   23 ..............................
........................................................................

 iter      E             dE          RMSdq      gap      omega  full diag
   1    -47.1223332 -0.471223E+02  0.296E-02    4.02       0.0  T
   2    -47.1223334 -0.190579E-06  0.174E-02    4.02       1.1  T
   3    -47.1223329  0.476940E-06  0.457E-03    4.02       4.3  T
   4    -47.1223335 -0.586179E-06  0.852E-04    4.02      23.0  T
   5    -47.1223335 -0.532432E-08  0.499E-04    4.02      39.3  T
     SCC iter.                  ...        0 min,  0.007 sec
     gradient                   ...        0 min,  0.004 sec
 * total energy  :   -46.4678124 Eh     change       -0.2215743E-04 Eh
   gradient norm :     0.0027843 Eh/α   predicted    -0.1359484E-04 ( -38.64%)
   displ. norm   :     0.0391114 α      lambda       -0.1151184E-04
   maximum displ.:     0.0262189 α      in ANC's #1, #3, #2, ...

........................................................................
.............................. CYCLE   24 ..............................
........................................................................

 iter      E             dE          RMSdq      gap      omega  full diag
   1    -47.1220149 -0.471220E+02  0.120E-02    4.01       0.0  T
   2    -47.1220149 -0.479904E-07  0.709E-03    4.01       2.8  T
   3    -47.1220148  0.126257E-06  0.234E-03    4.01       8.4  T
   4    -47.1220150 -0.154912E-06  0.250E-04    4.01      78.5  T
   5    -47.1220150 -0.338602E-09  0.142E-04    4.01     138.1  T
     SCC iter.                  ...        0 min,  0.007 sec
     gradient                   ...        0 min,  0.004 sec
 * total energy  :   -46.4678236 Eh     change       -0.1118678E-04 Eh
   gradient norm :     0.0024216 Eh/α   predicted    -0.5870205E-05 ( -47.53%)
   displ. norm   :     0.0910163 α      lambda       -0.2931807E-04
   maximum displ.:     0.0608632 α      in ANC's #1, #3, #2, ...

........................................................................
.............................. CYCLE   25 ..............................
........................................................................

 iter      E             dE          RMSdq      gap      omega  full diag
   1    -47.1210105 -0.471210E+02  0.284E-02    4.01       0.0  T
   2    -47.1210109 -0.367862E-06  0.167E-02    4.01       1.2  T
   3    -47.1210101  0.847743E-06  0.619E-03    4.01       3.2  T
   4    -47.1210111 -0.105980E-05  0.594E-04    4.01      33.0  T
   5    -47.1210111 -0.237781E-08  0.321E-04    4.01      61.0  T
   6    -47.1210111 -0.653685E-09  0.154E-04    4.01     127.2  T
     SCC iter.                  ...        0 min,  0.008 sec
     gradient                   ...        0 min,  0.004 sec
 * total energy  :   -46.4678490 Eh     change       -0.2534366E-04 Eh
   gradient norm :     0.0010097 Eh/α   predicted    -0.1478243E-04 ( -41.67%)
   displ. norm   :     0.2193464 α      lambda       -0.3526779E-04
   maximum displ.:     0.1482410 α      in ANC's #1, #3, #2, ...

........................................................................
.............................. CYCLE   26 ..............................
........................................................................

 iter      E             dE          RMSdq      gap      omega  full diag
   1    -47.1191863 -0.471192E+02  0.679E-02    3.99       0.0  T
   2    -47.1191882 -0.191236E-05  0.400E-02    3.99       1.0  T
   3    -47.1191834  0.483988E-05  0.146E-02    3.99       1.3  T
   4    -47.1191894 -0.600579E-05  0.133E-03    3.99      14.7  T
   5    -47.1191894 -0.109442E-07  0.735E-04    3.99      26.7  T
   6    -47.1191894 -0.333913E-08  0.340E-04    3.99      57.6  T
     SCC iter.                  ...        0 min,  0.008 sec
     gradient                   ...        0 min,  0.004 sec
 * total energy  :   -46.4678877 Eh     change       -0.3871484E-04 Eh
   gradient norm :     0.0029442 Eh/α   predicted    -0.1801192E-04 ( -53.48%)
   displ. norm   :     0.1024778 α      lambda       -0.2096168E-04
   maximum displ.:     0.0713199 α      in ANC's #1, #3, #2, ...

........................................................................
.............................. CYCLE   27 ..............................
........................................................................

 iter      E             dE          RMSdq      gap      omega  full diag
   1    -47.1191856 -0.471192E+02  0.316E-02    3.98       0.0  T
   2    -47.1191859 -0.326435E-06  0.185E-02    3.98       1.1  T
   3    -47.1191849  0.100169E-05  0.655E-03    3.98       3.0  T
   4    -47.1191861 -0.122543E-05  0.564E-04    3.98      34.8  T
   5    -47.1191861 -0.138564E-08  0.328E-04    3.98      59.8  T
   6    -47.1191861 -0.863487E-09  0.129E-04    3.98     152.1  T
     SCC iter.                  ...        0 min,  0.008 sec
     gradient                   ...        0 min,  0.004 sec
 * total energy  :   -46.4679072 Eh     change       -0.1952935E-04 Eh
   gradient norm :     0.0030295 Eh/α   predicted    -0.1059129E-04 ( -45.77%)
   displ. norm   :     0.1580338 α      lambda       -0.3846122E-04
   maximum displ.:     0.1106431 α      in ANC's #1, #3, #4, ...

........................................................................
.............................. CYCLE   28 ..............................
........................................................................

 iter      E             dE          RMSdq      gap      omega  full diag
   1    -47.1198182 -0.471198E+02  0.490E-02    3.97       0.0  T
   2    -47.1198189 -0.724534E-06  0.286E-02    3.97       1.0  T
   3    -47.1198166  0.234585E-05  0.101E-02    3.97       1.9  T
   4    -47.1198194 -0.286360E-05  0.836E-04    3.97      23.5  T
   5    -47.1198194 -0.254181E-08  0.500E-04    3.97      39.3  T
   6    -47.1198194 -0.227007E-08  0.174E-04    3.97     112.8  T
     SCC iter.                  ...        0 min,  0.008 sec
     gradient                   ...        0 min,  0.004 sec
 * total energy  :   -46.4679413 Eh     change       -0.3412644E-04 Eh
   gradient norm :     0.0021295 Eh/α   predicted    -0.1971171E-04 ( -42.24%)
   displ. norm   :     0.2458131 α      lambda       -0.5197176E-04
   maximum displ.:     0.1735196 α      in ANC's #1, #3, #4, ...

........................................................................
.............................. CYCLE   29 ..............................
........................................................................

 iter      E             dE          RMSdq      gap      omega  full diag
   1    -47.1204616 -0.471205E+02  0.763E-02    3.95       0.0  T
   2    -47.1204633 -0.176050E-05  0.446E-02    3.95       1.0  T
   3    -47.1204577  0.564568E-05  0.157E-02    3.95       1.2  T
   4    -47.1204646 -0.690018E-05  0.131E-03    3.95      15.0  T
   5    -47.1204646 -0.747553E-08  0.793E-04    3.95      24.7  T
   6    -47.1204646 -0.578706E-08  0.267E-04    3.95      73.4  T
     SCC iter.                  ...        0 min,  0.008 sec
     gradient                   ...        0 min,  0.004 sec
 * total energy  :   -46.4679826 Eh     change       -0.4125166E-04 Eh
   gradient norm :     0.0008783 Eh/α   predicted    -0.2755705E-04 ( -33.20%)
   displ. norm   :     0.3324034 α      lambda       -0.3297133E-04
   maximum displ.:     0.2372635 α      in ANC's #1, #3, #4, ...

........................................................................
.............................. CYCLE   30 ..............................
........................................................................

 iter      E             dE          RMSdq      gap      omega  full diag
   1    -47.1207502 -0.471208E+02  0.104E-01    3.92       0.0  T
   2    -47.1207536 -0.338646E-05  0.606E-02    3.92       1.0  T
   3    -47.1207433  0.102314E-04  0.216E-02    3.92       1.0  T
   4    -47.1207559 -0.125658E-04  0.182E-03    3.92      10.8  T
   5    -47.1207559 -0.198828E-07  0.110E-03    3.92      17.9  T
   6    -47.1207559 -0.108642E-07  0.377E-04    3.92      52.0  T
   7    -47.1207559 -0.846043E-09  0.183E-04    3.92     107.3  T
     SCC iter.                  ...        0 min,  0.009 sec
     gradient                   ...        0 min,  0.004 sec
 * total energy  :   -46.4680117 Eh     change       -0.2909996E-04 Eh
   gradient norm :     0.0014825 Eh/α   predicted    -0.1729617E-04 ( -40.56%)
   displ. norm   :     0.0663268 α      lambda       -0.1037178E-04
   maximum displ.:     0.0439144 α      in ANC's #1, #2, #3, ...

........................................................................
.............................. CYCLE   31 ..............................
........................................................................

 iter      E             dE          RMSdq      gap      omega  full diag
   1    -47.1216707 -0.471217E+02  0.221E-02    3.92       0.0  T
   2    -47.1216709 -0.214144E-06  0.129E-02    3.92       1.5  T
   3    -47.1216705  0.436714E-06  0.530E-03    3.92       3.7  T
   4    -47.1216711 -0.565519E-06  0.403E-04    3.92      48.6  T
   5    -47.1216711 -0.134160E-08  0.239E-04    3.92      82.1  T
     SCC iter.                  ...        0 min,  0.007 sec
     gradient                   ...        0 min,  0.004 sec
 * total energy  :   -46.4680236 Eh     change       -0.1186663E-04 Eh
   gradient norm :     0.0010901 Eh/α   predicted    -0.5221892E-05 ( -56.00%)
   displ. norm   :     0.1025069 α      lambda       -0.1168887E-04
   maximum displ.:     0.0710751 α      in ANC's #1, #2, #3, ...

........................................................................
.............................. CYCLE   32 ..............................
........................................................................

 iter      E             dE          RMSdq      gap      omega  full diag
   1    -47.1215820 -0.471216E+02  0.318E-02    3.91       0.0  T
   2    -47.1215823 -0.297330E-06  0.186E-02    3.91       1.1  T
   3    -47.1215816  0.706574E-06  0.593E-03    3.91       3.3  T
   4    -47.1215824 -0.870356E-06  0.571E-04    3.91      34.4  T
   5    -47.1215824 -0.268361E-08  0.326E-04    3.91      60.2  T
     SCC iter.                  ...        0 min,  0.007 sec
     gradient                   ...        0 min,  0.004 sec
 * total energy  :   -46.4680382 Eh     change       -0.1466076E-04 Eh
   gradient norm :     0.0008694 Eh/α   predicted    -0.5872035E-05 ( -59.95%)
   displ. norm   :     0.1125575 α      lambda       -0.1499655E-04
   maximum displ.:     0.0738336 α      in ANC's #2, #1, #6, ...

........................................................................
.............................. CYCLE   33 ..............................
........................................................................

 iter      E             dE          RMSdq      gap      omega  full diag
   1    -47.1212208 -0.471212E+02  0.310E-02    3.90       0.0  T
   2    -47.1212210 -0.182486E-06  0.183E-02    3.90       1.1  T
   3    -47.1212206  0.372233E-06  0.411E-03    3.90       4.8  T
   4    -47.1212210 -0.458850E-06  0.573E-04    3.90      34.2  T
   5    -47.1212210 -0.133148E-08  0.320E-04    3.90      61.3  T
     SCC iter.                  ...        0 min,  0.007 sec
     gradient                   ...        0 min,  0.004 sec
 * total energy  :   -46.4680568 Eh     change       -0.1854065E-04 Eh
   gradient norm :     0.0008483 Eh/α   predicted    -0.7541436E-05 ( -59.32%)
   displ. norm   :     0.1726974 α      lambda       -0.1877148E-04
   maximum displ.:     0.1123771 α      in ANC's #2, #6, #1, ...

........................................................................
.............................. CYCLE   34 ..............................
........................................................................

 iter      E             dE          RMSdq      gap      omega  full diag
   1    -47.1203348 -0.471203E+02  0.459E-02    3.88       0.0  T
   2    -47.1203352 -0.340601E-06  0.271E-02    3.89       1.0  T
   3    -47.1203347  0.472567E-06  0.462E-03    3.89       4.2  T
   4    -47.1203353 -0.600539E-06  0.893E-04    3.89      22.0  T
   5    -47.1203353 -0.501080E-08  0.491E-04    3.89      39.9  T
     SCC iter.                  ...        0 min,  0.007 sec
     gradient                   ...        0 min,  0.004 sec
 * total energy  :   -46.4680753 Eh     change       -0.1854026E-04 Eh
   gradient norm :     0.0013406 Eh/α   predicted    -0.9511456E-05 ( -48.70%)
   displ. norm   :     0.0973641 α      lambda       -0.7727145E-05
   maximum displ.:     0.0596621 α      in ANC's #6, #2, #1, ...

........................................................................
.............................. CYCLE   35 ..............................
........................................................................

 iter      E             dE          RMSdq      gap      omega  full diag
   1    -47.1200566 -0.471201E+02  0.254E-02    3.88       0.0  T
   2    -47.1200567 -0.691228E-07  0.151E-02    3.88       1.3  T
   3    -47.1200566  0.936724E-07  0.210E-03    3.88       9.3  T
   4    -47.1200567 -0.126348E-06  0.487E-04    3.88      40.3  T
   5    -47.1200567 -0.676174E-09  0.252E-04    3.88      77.7  T
     SCC iter.                  ...        0 min,  0.007 sec
     gradient                   ...        0 min,  0.004 sec
 * total energy  :   -46.4680831 Eh     change       -0.7844629E-05 Eh
   gradient norm :     0.0011519 Eh/α   predicted    -0.3883412E-05 ( -50.50%)
   displ. norm   :     0.0594727 α      lambda       -0.5529896E-05
   maximum displ.:     0.0414425 α      in ANC's #6, #1, #2, ...

........................................................................
.............................. CYCLE   36 ..............................
........................................................................

 iter      E             dE          RMSdq      gap      omega  full diag
   1    -47.1204343 -0.471204E+02  0.160E-02    3.88       0.0  T
   2    -47.1204343 -0.476434E-07  0.949E-03    3.88       2.1  T
   3    -47.1204342  0.638313E-07  0.199E-03    3.88       9.8  T
   4    -47.1204343 -0.814371E-07  0.356E-04    3.88      55.0  T
   5    -47.1204343 -0.565429E-09  0.184E-04    3.88     106.7  T
     SCC iter.                  ...        0 min,  0.007 sec
     gradient                   ...        0 min,  0.004 sec
 * total energy  :   -46.4680885 Eh     change       -0.5315860E-05 Eh
   gradient norm :     0.0004884 Eh/α   predicted    -0.2770245E-05 ( -47.89%)
   displ. norm   :     0.0283073 α      lambda       -0.2082893E-05
   maximum displ.:     0.0232098 α      in ANC's #6, #1, #5, ...

........................................................................
.............................. CYCLE   37 ..............................
........................................................................

 iter      E             dE          RMSdq      gap      omega  full diag
   1    -47.1208317 -0.471208E+02  0.781E-03    3.88       0.0  T
   2    -47.1208317 -0.178335E-07  0.463E-03    3.88       4.2  T
   3    -47.1208317  0.336156E-07  0.148E-03    3.88      13.3  T
   4    -47.1208317 -0.418131E-07  0.161E-04    3.88     121.5  T
   5    -47.1208317 -0.125205E-09  0.837E-05    3.88     234.2  T
     SCC iter.                  ...        0 min,  0.007 sec
     gradient                   ...        0 min,  0.004 sec
 * total energy  :   -46.4680905 Eh     change       -0.2002603E-05 Eh
   gradient norm :     0.0002862 Eh/α   predicted    -0.1046704E-05 ( -47.73%)
   displ. norm   :     0.0175302 α      lambda       -0.9842133E-06
   maximum displ.:     0.0133517 α      in ANC's #6, #2, #1, ...

   *** GEOMETRY OPTIMIZATION CONVERGED AFTER 37 ITERATIONS ***

------------------------------------------------------------------------
 total energy gain   :        -0.0188234 Eh      -11.8119 kcal/mol
 total RMSD          :         0.6056746 a0        0.3205 Å
 total power (kW/mol):        -1.3356977 (step)  -87.7165 (real)
------------------------------------------------------------------------

 ANCopt (total)                0 d,  0 h,  0 min,  0.563 sec
 optimizer setup                ...        0 min,  0.000 sec (  0.035%)
 model hessian                  ...        0 min,  0.015 sec (  2.653%)
 ANC generation                 ...        0 min,  0.002 sec (  0.309%)
 coordinate transformation      ...        0 min,  0.000 sec (  0.080%)
 single point calculation       ...        0 min,  0.534 sec ( 94.861%)
 optimization log               ...        0 min,  0.005 sec (  0.971%)
 hessian update                 ...        0 min,  0.000 sec (  0.088%)
 rational function              ...        0 min,  0.004 sec (  0.668%)

================
 final structure:
================
26
 xtb: 6.6.1 (8d0f1dd)
C           -1.34223885949661        1.92644203733912        0.03991320913997
C           -1.62007911385559        0.45730027836654       -0.02295824872595
C           -2.92301448555684       -0.01463239747035       -0.11442972703760
C           -3.19801941770603       -1.36934711694298       -0.17301621030282
C           -2.16585218308371       -2.28968232727386       -0.14709885037825
C           -0.87075927837727       -1.81877569714624       -0.05673294051304
F            0.14448698696537       -2.71467276603540       -0.03551378718747
C           -0.56700729195125       -0.46234219200591        0.01018182225263
C            0.84599400664764       -0.02729287687229        0.12308247246752
C            1.74451455321324       -0.19130009659622       -0.93754603032154
O            1.36338098086403       -0.71813718849340       -2.12453066303000
C            3.06720326033188        0.22057316845490       -0.80062213267253
C            3.50712240477516        0.78043523966045        0.38134828132592
C            2.63849556261701        0.94486921941486        1.44754121893831
C            1.32824230737169        0.53942228241636        1.29653445971556
F            0.47678971907023        0.69449275870396        2.33547125582796
H           -0.48282742719003        2.18767250001626       -0.57541331214939
H           -2.20636414111522        2.49460435228794       -0.29412054141764
H           -1.11899632556385        2.21793716731161        1.06564883196261
H           -3.73622953759971        0.69539352370019       -0.13804599225648
H           -4.21897900414477       -1.71186766028545       -0.23976126858550
H           -2.34518069618836       -3.35177027017808       -0.18964245503004
H            0.45236611217862       -1.03662193927840       -2.07168004626576
H            3.73095981997483        0.08382388929444       -1.63862856825274
H            4.53594565222971        1.08990631143385        0.47738907254783
H            2.96004539558944        1.37356880017800        2.38263014994854
 
 Bond Distances (Angstroems)
 ---------------------------
C1-C2=1.4965         C1-H17=1.0888        C1-H18=1.0868        C1-H19=1.0895        C2-C1=1.4965         C2-C3=1.3888         
C2-C8=1.3985         C3-C2=1.3888         C3-C4=1.3836         C3-H20=1.0798        C4-C3=1.3836         C4-C5=1.3831         
C4-H21=1.0790        C5-C4=1.3831         C5-C6=1.3810         C5-H22=1.0780        C6-C5=1.3810         C6-F7=1.3542         
C6-C8=1.3916         F7-C6=1.3542         C8-C2=1.3985         C8-C6=1.3916         C8-C9=1.4828         C9-C8=1.4828         
C9-C10=1.3997        C9-C15=1.3895        C10-C9=1.3997        C10-O11=1.3534       C10-C12=1.3921       O11-C10=1.3534       
O11-H23=0.9665       C12-C10=1.3921       C12-C13=1.3799       C12-H24=1.0777       C13-C12=1.3799       C13-C14=1.3850       
C13-H25=1.0786       C14-C13=1.3850       C14-C15=1.3798       C14-H26=1.0778       C15-C9=1.3895        C15-C14=1.3798       
C15-F16=1.3522       F16-C15=1.3522       H17-C1=1.0888        H18-C1=1.0868        H19-C1=1.0895        H20-C3=1.0798        
H21-C4=1.0790        H22-C5=1.0780        H23-O11=0.9665       H24-C12=1.0777       H25-C13=1.0786       H26-C14=1.0778       
 C  H  Rav=1.0818 sigma=0.0047  Rmin=1.0777  Rmax=1.0895     9
 C  C  Rav=1.4023 sigma=0.0363  Rmin=1.3798  Rmax=1.4965    14
 O  H  Rav=0.9665 sigma=0.0000  Rmin=0.9665  Rmax=0.9665     1
 O  C  Rav=1.3534 sigma=0.0000  Rmin=1.3534  Rmax=1.3534     1
 F  C  Rav=1.3532 sigma=0.0010  Rmin=1.3522  Rmax=1.3542     2
 
 selected bond angles (degree)
 --------------------
H17-C1-C2=111.00               H18-C1-C2=110.65               H18-C1-H17=109.18              H19-C1-C2=109.89               
H19-C1-H17=107.83              H19-C1-H18=108.21              C3-C2-C1=120.70                C8-C2-C1=120.32                
C8-C2-C3=118.98                C4-C3-C2=121.47                H20-C3-C2=118.98               H20-C3-C4=119.55               
C5-C4-C3=120.16                H21-C4-C3=120.10               H21-C4-C5=119.74               C6-C5-C4=118.30                
H22-C5-C4=122.05               H22-C5-C6=119.64               F7-C6-C5=118.59                C8-C6-C5=122.70                
C8-C6-F7=118.71                C6-C8-C2=118.39                C9-C8-C2=121.77                C9-C8-C6=119.84                
C10-C9-C8=121.31               C15-C9-C8=120.98               C15-C9-C10=117.71              O11-C10-C9=121.97              
C12-C10-C9=120.05              C12-C10-O11=117.97             
 
 selected dihedral angles (degree)
 ---------------------------------
C3-C2-C1-H17=221.43           C3-C2-C1-H18=342.81           C3-C2-C1-H19=102.24           C8-C2-C1-H17= 41.45           
C8-C2-C1-H18=162.83           C8-C2-C1-H19=282.26           C4-C3-C2-C1=180.02            C4-C3-C2-C8=  0.00            
H20-C3-C2-C1=359.90           H20-C3-C2-C8=179.88           C5-C4-C3-C2=359.71            C5-C4-C3-H20=179.84           
H21-C4-C3-C2=179.75           H21-C4-C3-H20=359.87          C6-C5-C4-C3=  0.25            C6-C5-C4-H21=180.21           
H22-C5-C4-C3=179.91           H22-C5-C4-H21=359.87          F7-C6-C5-C4=180.22            F7-C6-C5-H22=  0.55           
C8-C6-C5-C4=  0.07            C8-C6-C5-H22=180.40           C6-C8-C2-C1=180.28            C6-C8-C2-C3=  0.30            
C9-C8-C2-C1=  0.71            C9-C8-C2-C3=180.73            C2-C8-C6-C5=359.65            C2-C8-C6-F7=179.50            
C9-C8-C6-C5=179.24            C9-C8-C6-F7=359.08            C10-C9-C8-C2=248.27           C10-C9-C8-C6= 68.71           
C15-C9-C8-C2= 69.29           C15-C9-C8-C6=249.72           O11-C10-C9-C8=  1.83          O11-C10-C9-C15=180.84         
C12-C10-C9-C8=180.32          C12-C10-C9-C15=359.34         
           -------------------------------------------------
          |                Final Singlepoint                |
           -------------------------------------------------

          ...................................................
          :                      SETUP                      :
          :.................................................:
          :  # basis functions                  74          :
          :  # atomic orbitals                  74          :
          :  # shells                           42          :
          :  # electrons                        82          :
          :  max. iterations                   250          :
          :  Hamiltonian                  GFN2-xTB          :
          :  restarted?                      false          :
          :  GBSA solvation                  false          :
          :  PC potential                    false          :
          :  electronic temp.          298.1500000     K    :
          :  accuracy                    1.0000000          :
          :  -> integral cutoff          0.2500000E+02      :
          :  -> integral neglect         0.1000000E-07      :
          :  -> SCF convergence          0.1000000E-05 Eh   :
          :  -> wf. convergence          0.1000000E-03 e    :
          :  Broyden damping             0.4000000          :
          ...................................................

 iter      E             dE          RMSdq      gap      omega  full diag
   1    -47.1208317 -0.471208E+02  0.315E-05    3.88       0.0  T
   2    -47.1208317 -0.159162E-11  0.186E-05    3.88    1056.2  T
   3    -47.1208317  0.866862E-12  0.106E-05    3.88    1853.3  T

   *** convergence criteria satisfied after 3 iterations ***

         #    Occupation            Energy/Eh            Energy/eV
      -------------------------------------------------------------
         1        2.0000           -0.8198773             -22.3100
       ...           ...                  ...                  ...
        35        2.0000           -0.4553249             -12.3900
        36        2.0000           -0.4514534             -12.2847
        37        2.0000           -0.4338523             -11.8057
        38        2.0000           -0.4207087             -11.4481
        39        2.0000           -0.4118745             -11.2077
        40        2.0000           -0.4069792             -11.0745
        41        2.0000           -0.3946586             -10.7392 (HOMO)
        42                         -0.2520740              -6.8593 (LUMO)
        43                         -0.2391573              -6.5078
        44                         -0.2304293              -6.2703
        45                         -0.2272337              -6.1833
        46                         -0.1165307              -3.1710
       ...                                ...                  ...
        74                          0.6648750              18.0922
      -------------------------------------------------------------
                  HL-Gap            0.1425846 Eh            3.8799 eV
             Fermi-level           -0.3233663 Eh           -8.7992 eV

 SCC (total)                   0 d,  0 h,  0 min,  0.011 sec
 SCC setup                      ...        0 min,  0.000 sec (  1.127%)
 Dispersion                     ...        0 min,  0.000 sec (  1.165%)
 classical contributions        ...        0 min,  0.000 sec (  0.197%)
 integral evaluation            ...        0 min,  0.002 sec ( 14.744%)
 iterations                     ...        0 min,  0.004 sec ( 39.981%)
 molecular gradient             ...        0 min,  0.004 sec ( 41.034%)
 printout                       ...        0 min,  0.000 sec (  1.503%)

         :::::::::::::::::::::::::::::::::::::::::::::::::::::
         ::                     SUMMARY                     ::
         :::::::::::::::::::::::::::::::::::::::::::::::::::::
         :: total energy             -46.468090462357 Eh    ::
         :: gradient norm              0.000285670562 Eh/a0 ::
         :: HOMO-LUMO gap              3.879925796898 eV    ::
         ::.................................................::
         :: SCC energy               -47.120831695242 Eh    ::
         :: -> isotropic ES            0.044517060569 Eh    ::
         :: -> anisotropic ES          0.002557921531 Eh    ::
         :: -> anisotropic XC          0.007855721658 Eh    ::
         :: -> dispersion             -0.027514657005 Eh    ::
         :: repulsion energy           0.652506454238 Eh    ::
         :: add. restraining           0.000000000000 Eh    ::
         :: total charge              -0.000000000000 e     ::
         :::::::::::::::::::::::::::::::::::::::::::::::::::::

           -------------------------------------------------
          |                Property Printout                |
           -------------------------------------------------

    * Orbital Energies and Occupations

         #    Occupation            Energy/Eh            Energy/eV
      -------------------------------------------------------------
         1        2.0000           -0.8198773             -22.3100
       ...           ...                  ...                  ...
        29        2.0000           -0.4910370             -13.3618
        30        2.0000           -0.4758953             -12.9498
        31        2.0000           -0.4719362             -12.8420
        32        2.0000           -0.4684610             -12.7475
        33        2.0000           -0.4656023             -12.6697
        34        2.0000           -0.4584363             -12.4747
        35        2.0000           -0.4553249             -12.3900
        36        2.0000           -0.4514534             -12.2847
        37        2.0000           -0.4338523             -11.8057
        38        2.0000           -0.4207087             -11.4481
        39        2.0000           -0.4118745             -11.2077
        40        2.0000           -0.4069792             -11.0745
        41        2.0000           -0.3946586             -10.7392 (HOMO)
        42                         -0.2520740              -6.8593 (LUMO)
        43                         -0.2391573              -6.5078
        44                         -0.2304293              -6.2703
        45                         -0.2272337              -6.1833
        46                         -0.1165307              -3.1710
        47                         -0.1011342              -2.7520
        48                          0.0347669               0.9461
        49                          0.0415643               1.1310
        50                          0.0701724               1.9095
        51                          0.0855187               2.3271
        52                          0.1141548               3.1063
       ...                                ...                  ...
        74                          0.6648750              18.0922
      -------------------------------------------------------------
                  HL-Gap            0.1425846 Eh            3.8799 eV
             Fermi-level           -0.3233663 Eh           -8.7992 eV

     #   Z          covCN         q      C6AA      α(0)
     1   6 C        3.758    -0.110    22.660     6.787
     2   6 C        2.971     0.020    27.547     8.609
     3   6 C        2.923    -0.045    29.120     8.849
     4   6 C        2.923    -0.031    28.776     8.797
     5   6 C        2.916    -0.056    29.379     8.888
     6   6 C        2.790     0.156    24.615     8.127
     7   9 F        0.787    -0.232    11.568     4.018
     8   6 C        2.977    -0.010    28.265     8.721
     9   6 C        2.972    -0.035    28.870     8.813
    10   6 C        2.852     0.149    24.762     8.156
    11   8 O        1.660    -0.378    20.433     6.102
    12   6 C        2.917    -0.060    29.499     8.906
    13   6 C        2.924    -0.030    28.759     8.794
    14   6 C        2.916    -0.063    29.559     8.915
    15   6 C        2.791     0.165    24.432     8.097
    16   9 F        0.787    -0.228    11.532     4.011
    17   1 H        0.925     0.048     2.345     2.395
    18   1 H        0.925     0.047     2.363     2.404
    19   1 H        0.925     0.068     2.112     2.273
    20   1 H        0.926     0.045     2.388     2.417
    21   1 H        0.926     0.046     2.376     2.410
    22   1 H        0.926     0.057     2.232     2.336
    23   1 H        0.805     0.307     0.699     1.313
    24   1 H        0.926     0.062     2.173     2.305
    25   1 H        0.926     0.051     2.311     2.377
    26   1 H        0.926     0.059     2.211     2.325

 Mol. C6AA /au·bohr⁶  :       8725.181593
 Mol. C8AA /au·bohr⁸  :     214215.938366
 Mol. α(0) /au        :        147.146870


Wiberg/Mayer (AO) data.
largest (>0.10) Wiberg bond orders for each atom

 ---------------------------------------------------------------------------
     #   Z sym  total        # sym  WBO       # sym  WBO       # sym  WBO
 ---------------------------------------------------------------------------
     1   6 C    3.995 --     2 C    1.031    18 H    0.983    17 H    0.975
                            19 H    0.961
     2   6 C    3.988 --     3 C    1.414     8 C    1.366     1 C    1.031
                             5 C    0.105
     3   6 C    3.990 --     4 C    1.442     2 C    1.414    20 H    0.968
     4   6 C    3.990 --     3 C    1.442     5 C    1.434    21 H    0.970
                             8 C    0.104
     5   6 C    3.988 --     4 C    1.434     6 C    1.400    22 H    0.967
                             2 C    0.105
     6   6 C    3.883 --     5 C    1.400     8 C    1.362     7 F    0.952
     7   9 F    1.082 --     6 C    0.952
     8   6 C    3.987 --     2 C    1.366     6 C    1.362     9 C    1.014
                             4 C    0.104
     9   6 C    3.982 --    15 C    1.364    10 C    1.333     8 C    1.014
    10   6 C    3.943 --    12 C    1.360     9 C    1.333    11 O    1.093
    11   8 O    2.143 --    10 C    1.093    23 H    0.876
    12   6 C    3.986 --    13 C    1.460    10 C    1.360    24 H    0.966
    13   6 C    3.989 --    12 C    1.460    14 C    1.421    25 H    0.970
    14   6 C    3.987 --    13 C    1.421    15 C    1.404    26 H    0.966
    15   6 C    3.884 --    14 C    1.404     9 C    1.364    16 F    0.955
    16   9 F    1.086 --    15 C    0.955
    17   1 H    0.998 --     1 C    0.975
    18   1 H    0.997 --     1 C    0.983
    19   1 H    0.995 --     1 C    0.961
    20   1 H    0.997 --     3 C    0.968
    21   1 H    0.997 --     4 C    0.970
    22   1 H    0.996 --     5 C    0.967
    23   1 H    0.905 --    11 O    0.876
    24   1 H    0.995 --    12 C    0.966
    25   1 H    0.997 --    13 C    0.970
    26   1 H    0.996 --    14 C    0.966
 ---------------------------------------------------------------------------

Topologies differ in total number of bonds
Writing topology from bond orders to xtbtopo.mol

molecular dipole:
                 x           y           z       tot (Debye)
 q only:       -0.469       0.664      -0.514
   full:       -0.679       0.597      -0.425       2.540
molecular quadrupole (traceless):
                xx          xy          yy          xz          yz          zz
 q only:        9.304       4.441      -2.881       3.356       0.302      -6.423
  q+dip:       11.611       6.917      -2.417       5.202       1.164      -9.195
   full:        9.523       5.898      -1.995       5.128       0.165      -7.528

           -------------------------------------------------
          |                Geometry Summary                 |
           -------------------------------------------------

      molecular mass/u    :      220.2151854
   center of mass at/Å    :        0.1657833      -0.2790960       0.0955364
  moments of inertia/u·Å² :        0.5674346E+03   0.1118292E+04   0.1319068E+04
rotational constants/cm⁻¹ :        0.2970850E-01   0.1507444E-01   0.1277996E-01

 * 23 selected distances

     #   Z          #   Z                                           value/Å
     2   6 C        3   6 C                                       1.3887867
     3   6 C        4   6 C                                       1.3835868
     4   6 C        5   6 C                                       1.3831335
     5   6 C        6   6 C                                       1.3810087
     2   6 C        8   6 C                                       1.3984996
     6   6 C        8   6 C                                       1.3916375
     9   6 C       10   6 C                                       1.3997038 (max)
    10   6 C       11   8 O                                       1.3534227
    10   6 C       12   6 C                                       1.3920824
    12   6 C       13   6 C                                       1.3798655
    13   6 C       14   6 C                                       1.3850339
     9   6 C       15   6 C                                       1.3895033
    14   6 C       15   6 C                                       1.3798385
     1   6 C       17   1 H                                       1.0887866
     1   6 C       18   1 H                                       1.0867841
     1   6 C       19   1 H                                       1.0894680
     3   6 C       20   1 H                                       1.0798210
     4   6 C       21   1 H                                       1.0789504
     5   6 C       22   1 H                                       1.0779609
    11   8 O       23   1 H                                       0.9665268 (min)
    12   6 C       24   1 H                                       1.0777421
    13   6 C       25   1 H                                       1.0786444
    14   6 C       26   1 H                                       1.0777612

 * 4 distinct bonds (by element types)

   Z      Z             #   av. dist./Å        max./Å        min./Å
   1 H    6 C           9     1.0817687     1.0894680     1.0777421
   6 C    6 C          12     1.3877233     1.3997038     1.3798385
   1 H    8 O           1     0.9665268     0.9665268     0.9665268
   6 C    8 O           1     1.3534227     1.3534227     1.3534227


optimized geometry written to: xtbopt.xyz


           -------------------------------------------------
          | TOTAL ENERGY              -46.468090462357 Eh   |
          | GRADIENT NORM               0.000285670562 Eh/α |
          | HOMO-LUMO GAP               3.879925796898 eV   |
           -------------------------------------------------

------------------------------------------------------------------------
 * finished run on 2026/07/23 at 12:55:27.053     
------------------------------------------------------------------------
 total:
 * wall-time:     0 d,  0 h,  0 min,  0.642 sec
 *  cpu-time:     0 d,  0 h,  0 min,  2.497 sec
 * ratio c/w:     3.893 speedup
 SCF:
 * wall-time:     0 d,  0 h,  0 min,  0.039 sec
 *  cpu-time:     0 d,  0 h,  0 min,  0.140 sec
 * ratio c/w:     3.594 speedup
 ANC optimizer:
 * wall-time:     0 d,  0 h,  0 min,  0.577 sec
 *  cpu-time:     0 d,  0 h,  0 min,  2.297 sec
 * ratio c/w:     3.979 speedup

