26
 energy: -46.468090462357 gnorm: 0.000285670562 xtb: 6.6.1 (8d0f1dd)
C           -1.34223885949661        1.92644203733912        0.03991320913997
C           -1.62007911385559        0.45730027836654       -0.02295824872595
C           -2.92301448555684       -0.01463239747035       -0.11442972703760
C           -3.19801941770603       -1.36934711694298       -0.17301621030282
C           -2.16585218308371       -2.28968232727386       -0.14709885037825
C           -0.87075927837727       -1.81877569714624       -0.05673294051304
F            0.14448698696537       -2.71467276603540       -0.03551378718747
C           -0.56700729195125       -0.46234219200591        0.01018182225263
C            0.84599400664764       -0.02729287687229        0.12308247246752
C            1.74451455321324       -0.19130009659622       -0.93754603032154
O            1.36338098086403       -0.71813718849340       -2.12453066303000
C            3.06720326033188        0.22057316845490       -0.80062213267253
C            3.50712240477516        0.78043523966045        0.38134828132592
C            2.63849556261701        0.94486921941486        1.44754121893831
C            1.32824230737169        0.53942228241636        1.29653445971556
F            0.47678971907023        0.69449275870396        2.33547125582796
H           -0.48282742719003        2.18767250001626       -0.57541331214939
H           -2.20636414111522        2.49460435228794       -0.29412054141764
H           -1.11899632556385        2.21793716731161        1.06564883196261
H           -3.73622953759971        0.69539352370019       -0.13804599225648
H           -4.21897900414477       -1.71186766028545       -0.23976126858550
H           -2.34518069618836       -3.35177027017808       -0.18964245503004
H            0.45236611217862       -1.03662193927840       -2.07168004626576
H            3.73095981997483        0.08382388929444       -1.63862856825274
H            4.53594565222971        1.08990631143385        0.47738907254783
H            2.96004539558944        1.37356880017800        2.38263014994854
