      -----------------------------------------------------------      
     |                   =====================                   |     
     |                           x T B                           |     
     |                   =====================                   |     
     |                         S. Grimme                         |     
     |          Mulliken Center for Theoretical Chemistry        |     
     |                    University of Bonn                     |     
      -----------------------------------------------------------      

   * xtb version 6.6.1 (8d0f1dd) compiled by 'stahn@M-Bot' on 2023-08-01

   xtb is free software: you can redistribute it and/or modify it under
   the terms of the GNU Lesser General Public License as published by
   the Free Software Foundation, either version 3 of the License, or
   (at your option) any later version.
   
   xtb is distributed in the hope that it will be useful,
   but WITHOUT ANY WARRANTY; without even the implied warranty of
   MERCHANTABILITY or FITNESS FOR A PARTICULAR PURPOSE.  See the
   GNU Lesser General Public License for more details.
   
   Cite this work as:
   * C. Bannwarth, E. Caldeweyher, S. Ehlert, A. Hansen, P. Pracht,
     J. Seibert, S. Spicher, S. Grimme, WIREs Comput. Mol. Sci., 2020, 11,
     e01493. DOI: 10.1002/wcms.1493
   
   for GFN2-xTB:
   * C. Bannwarth, S. Ehlert and S. Grimme., J. Chem. Theory Comput., 2019,
     15, 1652-1671. DOI: 10.1021/acs.jctc.8b01176
   for GFN1-xTB:
   * S. Grimme, C. Bannwarth, P. Shushkov, J. Chem. Theory Comput., 2017,
     13, 1989-2009. DOI: 10.1021/acs.jctc.7b00118
   for GFN0-xTB:
   * P. Pracht, E. Caldeweyher, S. Ehlert, S. Grimme, ChemRxiv, 2019, preprint.
     DOI: 10.26434/chemrxiv.8326202.v1
   for GFN-FF:
   * S. Spicher and S. Grimme, Angew. Chem. Int. Ed., 2020, 59, 15665-15673.
     DOI: 10.1002/anie.202004239
   
   for ALPB and GBSA implicit solvation:
   * S. Ehlert, M. Stahn, S. Spicher, S. Grimme, J. Chem. Theory Comput.,
     2021, 17, 4250-4261. DOI: 10.1021/acs.jctc.1c00471
   
   for DFT-D4:
   * E. Caldeweyher, C. Bannwarth and S. Grimme, J. Chem. Phys., 2017,
     147, 034112. DOI: 10.1063/1.4993215
   * E. Caldeweyher, S. Ehlert, A. Hansen, H. Neugebauer, S. Spicher,
     C. Bannwarth and S. Grimme, J. Chem. Phys., 2019, 150, 154122.
     DOI: 10.1063/1.5090222
   * E. Caldeweyher, J.-M. Mewes, S. Ehlert and S. Grimme, Phys. Chem. Chem. Phys.
     2020, 22, 8499-8512. DOI: 10.1039/D0CP00502A
   
   for sTDA-xTB:
   * S. Grimme and C. Bannwarth, J. Chem. Phys., 2016, 145, 054103.
     DOI: 10.1063/1.4959605
   
   in the mass-spec context:
   * V. Asgeirsson, C. Bauer and S. Grimme, Chem. Sci., 2017, 8, 4879.
     DOI: 10.1039/c7sc00601b
   * J. Koopman and S. Grimme, ACS Omega 2019, 4, 12, 15120-15133.
     DOI: 10.1021/acsomega.9b02011
   
   for metadynamics refer to:
   * S. Grimme, J. Chem. Theory Comput., 2019, 155, 2847-2862
     DOI: 10.1021/acs.jctc.9b00143
   
   for SPH calculations refer to:
   * S. Spicher and S. Grimme, J. Chem. Theory Comput., 2021, 17, 1701-1714
     DOI: 10.1021/acs.jctc.0c01306
   
   with help from (in alphabetical order)
   P. Atkinson, C. Bannwarth, F. Bohle, G. Brandenburg, E. Caldeweyher
   M. Checinski, S. Dohm, S. Ehlert, S. Ehrlich, I. Gerasimov, C. Hölzer
   A. Katbashev, J. Koopman, C. Lavigne, S. Lehtola, F. März, M. Müller,
   F. Musil, H. Neugebauer, J. Pisarek, C. Plett, P. Pracht, F. Pultar,
   J. Seibert, P. Shushkov, S. Spicher, M. Stahn, M. Steiner, T. Strunk,
   J. Stückrath, T. Rose, and J. Unsleber
   
 * started run on 2026/07/23 at 12:55:29.351     

           -------------------------------------------------
          |                Calculation Setup                |
           -------------------------------------------------

          program call               : /path/to/xtb /path/to/atropisomers_workflow/example/reactant_censo/confs/7.xyz --opt --etemp 298.15 --chrg 0 --uhf 0 -P 4
          hostname                   : node
          coordinate file            : /path/to/atropisomers_workflow/example/reactant_censo/confs/7.xyz
          omp threads                :                     4

   ID    Z sym.   atoms
    1    6 C      1-6, 8-10, 12-15
    2    9 F      7, 16
    3    8 O      11
    4    1 H      17-26

           -------------------------------------------------
          |                 G F N 2 - x T B                 |
           -------------------------------------------------

        Reference                      10.1021/acs.jctc.8b01176
      * Hamiltonian:
        H0-scaling (s, p, d)           1.850000    2.230000    2.230000
        zeta-weighting                 0.500000
      * Dispersion:
        s8                             2.700000
        a1                             0.520000
        a2                             5.000000
        s9                             5.000000
      * Repulsion:
        kExp                           1.500000    1.000000
        rExp                           1.000000
      * Coulomb:
        alpha                          2.000000
        third order                    shell-resolved
        anisotropic                    true
        a3                             3.000000
        a5                             4.000000
        cn-shift                       1.200000
        cn-exp                         4.000000
        max-rad                        5.000000


          ...................................................
          :                      SETUP                      :
          :.................................................:
          :  # basis functions                  74          :
          :  # atomic orbitals                  74          :
          :  # shells                           42          :
          :  # electrons                        82          :
          :  max. iterations                   250          :
          :  Hamiltonian                  GFN2-xTB          :
          :  restarted?                      false          :
          :  GBSA solvation                  false          :
          :  PC potential                    false          :
          :  electronic temp.          298.1500000     K    :
          :  accuracy                    1.0000000          :
          :  -> integral cutoff          0.2500000E+02      :
          :  -> integral neglect         0.1000000E-07      :
          :  -> SCF convergence          0.1000000E-05 Eh   :
          :  -> wf. convergence          0.1000000E-03 e    :
          :  Broyden damping             0.4000000          :
          ...................................................

 iter      E             dE          RMSdq      gap      omega  full diag
   1    -47.0494110 -0.470494E+02  0.427E+00    4.45       0.0  T
   2    -47.0885447 -0.391337E-01  0.255E+00    4.40       1.0  T
   3    -47.0827571  0.578756E-02  0.136E+00    4.29       1.0  T
   4    -47.1004600 -0.177029E-01  0.251E-01    4.29       1.0  T
   5    -47.1008036 -0.343541E-03  0.103E-01    4.26       1.0  T
   6    -47.1010230 -0.219406E-03  0.459E-02    4.27       1.0  T
   7    -47.1010385 -0.155057E-04  0.187E-02    4.27       1.0  T
   8    -47.1010419 -0.344152E-05  0.769E-03    4.27       2.6  T
   9    -47.1010423 -0.439960E-06  0.195E-03    4.27      10.1  T
  10    -47.1010424 -0.160178E-07  0.809E-04    4.27      24.2  T
  11    -47.1010424 -0.424519E-08  0.416E-04    4.27      47.1  T

   *** convergence criteria satisfied after 11 iterations ***

         #    Occupation            Energy/Eh            Energy/eV
      -------------------------------------------------------------
         1        2.0000           -0.8127160             -22.1151
       ...           ...                  ...                  ...
        35        2.0000           -0.4505556             -12.2602
        36        2.0000           -0.4417612             -12.0209
        37        2.0000           -0.4272736             -11.6267
        38        2.0000           -0.4130308             -11.2391
        39        2.0000           -0.4088488             -11.1253
        40        2.0000           -0.4051079             -11.0235
        41        2.0000           -0.3991633             -10.8618 (HOMO)
        42                         -0.2421561              -6.5894 (LUMO)
        43                         -0.2380410              -6.4774
        44                         -0.2320764              -6.3151
        45                         -0.2239791              -6.0948
        46                         -0.1113298              -3.0294
       ...                                ...                  ...
        74                          0.6870063              18.6944
      -------------------------------------------------------------
                  HL-Gap            0.1570072 Eh            4.2724 eV
             Fermi-level           -0.3206597 Eh           -8.7256 eV

 SCC (total)                   0 d,  0 h,  0 min,  0.039 sec
 SCC setup                      ...        0 min,  0.000 sec (  0.502%)
 Dispersion                     ...        0 min,  0.000 sec (  0.638%)
 classical contributions        ...        0 min,  0.000 sec (  0.052%)
 integral evaluation            ...        0 min,  0.002 sec (  4.273%)
 iterations                     ...        0 min,  0.032 sec ( 82.457%)
 molecular gradient             ...        0 min,  0.004 sec ( 11.494%)
 printout                       ...        0 min,  0.000 sec (  0.530%)

         :::::::::::::::::::::::::::::::::::::::::::::::::::::
         ::                     SUMMARY                     ::
         :::::::::::::::::::::::::::::::::::::::::::::::::::::
         :: total energy             -46.447200999365 Eh    ::
         :: gradient norm              0.094761965299 Eh/a0 ::
         :: HOMO-LUMO gap              4.272382774463 eV    ::
         ::.................................................::
         :: SCC energy               -47.101042366333 Eh    ::
         :: -> isotropic ES            0.048670794356 Eh    ::
         :: -> anisotropic ES          0.002879057624 Eh    ::
         :: -> anisotropic XC          0.008205016385 Eh    ::
         :: -> dispersion             -0.027644099678 Eh    ::
         :: repulsion energy           0.653589614627 Eh    ::
         :: add. restraining           0.000000000000 Eh    ::
         :: total charge               0.000000000000 e     ::
         :::::::::::::::::::::::::::::::::::::::::::::::::::::

      ----------------------------------------------------------- 
     |                   =====================                   |
     |                        A N C O P T                        |
     |                   =====================                   |
     |               Approximate Normal Coordinate               |
     |                Rational Function Optimizer                |
      ----------------------------------------------------------- 

          ...................................................
          :                      SETUP                      :
          :.................................................:
          :   optimization level            normal          :
          :   max. optcycles                   200          :
          :   ANC micro-cycles                  20          :
          :   degrees of freedom                72          :
          :.................................................:
          :   RF solver                   davidson          :
          :   write xtbopt.log                true          :
          :   linear?                        false          :
          :   energy convergence         0.5000000E-05 Eh   :
          :   grad. convergence          0.1000000E-02 Eh/α :
          :   maxmium RF displ.          1.0000000          :
          :   Hlow (freq-cutoff)         0.1000000E-01      :
          :   Hmax (freq-cutoff)         5.0000000          :
          :   S6 in model hess.         20.0000000          :
          ...................................................

generating ANC from model Hessian ...
Using Lindh-Hessian (1995)
 Shifting diagonal of input Hessian by   8.654647507956735E-003
 Lowest  eigenvalues of input Hessian
    0.000000    0.000000    0.000000    0.000000    0.000000    0.000000
    0.010000    0.010483    0.010766    0.013905    0.015114    0.017140
    0.020172    0.021758    0.024521    0.028295    0.030688    0.030926
 Highest eigenvalues
    1.929754    1.931828    2.060299    2.115830    2.125763    2.172516
 

........................................................................
.............................. CYCLE    1 ..............................
........................................................................

 iter      E             dE          RMSdq      gap      omega  full diag
   1    -47.1010424 -0.471010E+02  0.125E-04    4.27       0.0  T
   2    -47.1010424 -0.611280E-10  0.746E-05    4.27     262.9  T
   3    -47.1010424 -0.176641E-10  0.503E-05    4.27     390.2  T
     SCC iter.                  ...        0 min,  0.004 sec
     gradient                   ...        0 min,  0.004 sec
 * total energy  :   -46.4472010 Eh     change       -0.1975700E-08 Eh
   gradient norm :     0.0947630 Eh/α   predicted     0.0000000E+00 (-100.00%)
   displ. norm   :     0.3003666 α      lambda       -0.1612389E-01
   maximum displ.:     0.1066670 α      in ANC's #40, #17, #14, ...

........................................................................
.............................. CYCLE    2 ..............................
........................................................................

 iter      E             dE          RMSdq      gap      omega  full diag
   1    -47.1108048 -0.471108E+02  0.310E-01    4.25       0.0  T
   2    -47.1109426 -0.137820E-03  0.193E-01    4.31       1.0  T
   3    -47.1108717  0.709619E-04  0.907E-02    4.29       1.0  T
   4    -47.1109836 -0.111912E-03  0.144E-02    4.30       1.4  T
   5    -47.1109861 -0.256275E-05  0.537E-03    4.30       3.7  T
   6    -47.1109865 -0.380744E-06  0.300E-03    4.30       6.5  T
   7    -47.1109866 -0.972342E-07  0.989E-04    4.30      19.8  T
   8    -47.1109866 -0.798801E-08  0.438E-04    4.30      44.8  T
     SCC iter.                  ...        0 min,  0.010 sec
     gradient                   ...        0 min,  0.004 sec
 * total energy  :   -46.4585434 Eh     change       -0.1134239E-01 Eh
   gradient norm :     0.0414672 Eh/α   predicted    -0.8789791E-02 ( -22.50%)
   displ. norm   :     0.2652946 α      lambda       -0.5384283E-02
   maximum displ.:     0.1091166 α      in ANC's #14, #7, #2, ...

........................................................................
.............................. CYCLE    3 ..............................
........................................................................

 iter      E             dE          RMSdq      gap      omega  full diag
   1    -47.1154867 -0.471155E+02  0.227E-01    4.29       0.0  T
   2    -47.1155888 -0.102096E-03  0.139E-01    4.33       1.0  T
   3    -47.1155692  0.195914E-04  0.736E-02    4.32       1.0  T
   4    -47.1156199 -0.506352E-04  0.109E-02    4.32       1.8  T
   5    -47.1156210 -0.109630E-05  0.360E-03    4.32       5.5  T
   6    -47.1156210 -0.909798E-07  0.201E-03    4.32       9.8  T
   7    -47.1156211 -0.364297E-07  0.738E-04    4.32      26.6  T
   8    -47.1156211 -0.371126E-08  0.366E-04    4.32      53.6  T
     SCC iter.                  ...        0 min,  0.010 sec
     gradient                   ...        0 min,  0.004 sec
 * total energy  :   -46.4618132 Eh     change       -0.3269823E-02 Eh
   gradient norm :     0.0098269 Eh/α   predicted    -0.2882304E-02 ( -11.85%)
   displ. norm   :     0.2894454 α      lambda       -0.1771313E-02
   maximum displ.:     0.1340956 α      in ANC's #7, #14, #10, ...

........................................................................
.............................. CYCLE    4 ..............................
........................................................................

 iter      E             dE          RMSdq      gap      omega  full diag
   1    -47.1125615 -0.471126E+02  0.148E-01    4.31       0.0  T
   2    -47.1126338 -0.722446E-04  0.846E-02    4.33       1.0  T
   3    -47.1126323  0.143188E-05  0.495E-02    4.33       1.0  T
   4    -47.1126553 -0.229150E-04  0.118E-02    4.33       1.7  T
   5    -47.1126563 -0.100478E-05  0.445E-03    4.33       4.4  T
   6    -47.1126565 -0.289514E-06  0.226E-03    4.33       8.7  T
   7    -47.1126566 -0.451047E-07  0.970E-04    4.33      20.2  T
   8    -47.1126566 -0.315737E-08  0.353E-04    4.33      55.5  T
     SCC iter.                  ...        0 min,  0.010 sec
     gradient                   ...        0 min,  0.004 sec
 * total energy  :   -46.4629028 Eh     change       -0.1089608E-02 Eh
   gradient norm :     0.0284070 Eh/α   predicted    -0.9598636E-03 ( -11.91%)
   displ. norm   :     0.2509115 α      lambda       -0.1201724E-02
   maximum displ.:     0.1750143 α      in ANC's #2, #3, #7, ...

........................................................................
.............................. CYCLE    5 ..............................
........................................................................

 iter      E             dE          RMSdq      gap      omega  full diag
   1    -47.1137573 -0.471138E+02  0.960E-02    4.32       0.0  T
   2    -47.1137683 -0.109453E-04  0.574E-02    4.33       1.0  T
   3    -47.1137596  0.870398E-05  0.294E-02    4.32       1.0  T
   4    -47.1137738 -0.142625E-04  0.329E-03    4.33       6.0  T
   5    -47.1137739 -0.897124E-07  0.171E-03    4.33      11.5  T
   6    -47.1137740 -0.345264E-07  0.858E-04    4.33      22.9  T
   7    -47.1137740 -0.387734E-08  0.373E-04    4.33      52.5  T
     SCC iter.                  ...        0 min,  0.009 sec
     gradient                   ...        0 min,  0.004 sec
 * total energy  :   -46.4638752 Eh     change       -0.9723618E-03 Eh
   gradient norm :     0.0234048 Eh/α   predicted    -0.6388391E-03 ( -34.30%)
   displ. norm   :     0.3723688 α      lambda       -0.1678237E-02
   maximum displ.:     0.2750540 α      in ANC's #2, #3, #6, ...

........................................................................
.............................. CYCLE    6 ..............................
........................................................................

 iter      E             dE          RMSdq      gap      omega  full diag
   1    -47.1174082 -0.471174E+02  0.145E-01    4.31       0.0  T
   2    -47.1174185 -0.102957E-04  0.865E-02    4.31       1.0  T
   3    -47.1173946  0.238668E-04  0.332E-02    4.31       1.0  T
   4    -47.1174249 -0.303148E-04  0.426E-03    4.31       4.6  T
   5    -47.1174250 -0.662881E-07  0.261E-03    4.31       7.5  T
   6    -47.1174251 -0.623643E-07  0.102E-03    4.31      19.2  T
   7    -47.1174251 -0.553244E-08  0.468E-04    4.31      41.9  T
   8    -47.1174251 -0.429128E-08  0.114E-04    4.31     172.6  T
     SCC iter.                  ...        0 min,  0.010 sec
     gradient                   ...        0 min,  0.004 sec
 * total energy  :   -46.4650528 Eh     change       -0.1177596E-02 Eh
   gradient norm :     0.0100233 Eh/α   predicted    -0.9554759E-03 ( -18.86%)
   displ. norm   :     0.5050158 α      lambda       -0.1383840E-02
   maximum displ.:     0.3197306 α      in ANC's #2, #3, #7, ...

........................................................................
.............................. CYCLE    7 ..............................
........................................................................

 iter      E             dE          RMSdq      gap      omega  full diag
   1    -47.1118825 -0.471119E+02  0.199E-01    4.26       0.0  T
   2    -47.1119254 -0.428733E-04  0.117E-01    4.28       1.0  T
   3    -47.1118845  0.408499E-04  0.498E-02    4.27       1.0  T
   4    -47.1119403 -0.557769E-04  0.997E-03    4.28       2.0  T
   5    -47.1119412 -0.942572E-06  0.488E-03    4.28       4.0  T
   6    -47.1119416 -0.355463E-06  0.250E-03    4.27       7.9  T
   7    -47.1119416 -0.263333E-07  0.935E-04    4.27      21.0  T
   8    -47.1119416 -0.784073E-08  0.291E-04    4.27      67.5  T
     SCC iter.                  ...        0 min,  0.010 sec
     gradient                   ...        0 min,  0.004 sec
 * total energy  :   -46.4649311 Eh     change        0.1217150E-03 Eh
   gradient norm :     0.0383540 Eh/α   predicted    -0.8683959E-03 (-813.47%)
   displ. norm   :     0.1271745 α      lambda       -0.2106561E-02
   maximum displ.:     0.0670104 α      in ANC's #7, #10, #14, ...

........................................................................
.............................. CYCLE    8 ..............................
........................................................................

 iter      E             dE          RMSdq      gap      omega  full diag
   1    -47.1194830 -0.471195E+02  0.843E-02    4.29       0.0  T
   2    -47.1194956 -0.126275E-04  0.483E-02    4.29       1.0  T
   3    -47.1194889  0.676523E-05  0.229E-02    4.29       1.0  T
   4    -47.1195003 -0.113748E-04  0.724E-03    4.29       2.7  T
   5    -47.1195006 -0.372889E-06  0.338E-03    4.29       5.8  T
   6    -47.1195007 -0.111691E-06  0.184E-03    4.29      10.7  T
   7    -47.1195008 -0.180010E-07  0.561E-04    4.29      35.0  T
   8    -47.1195008 -0.167658E-08  0.200E-04    4.29      98.2  T
     SCC iter.                  ...        0 min,  0.010 sec
     gradient                   ...        0 min,  0.004 sec
 * total energy  :   -46.4659076 Eh     change       -0.9765530E-03 Eh
   gradient norm :     0.0056047 Eh/α   predicted    -0.1070317E-02 (   9.60%)
   displ. norm   :     0.1596379 α      lambda       -0.2121851E-03
   maximum displ.:     0.0984230 α      in ANC's #2, #3, #5, ...

........................................................................
.............................. CYCLE    9 ..............................
........................................................................

 iter      E             dE          RMSdq      gap      omega  full diag
   1    -47.1195530 -0.471196E+02  0.581E-02    4.27       0.0  T
   2    -47.1195542 -0.123921E-05  0.345E-02    4.28       1.0  T
   3    -47.1195526  0.162741E-05  0.972E-03    4.27       2.0  T
   4    -47.1195547 -0.207384E-05  0.167E-03    4.28      11.7  T
   5    -47.1195547 -0.152719E-07  0.832E-04    4.28      23.6  T
   6    -47.1195547 -0.269686E-08  0.420E-04    4.28      46.7  T
     SCC iter.                  ...        0 min,  0.008 sec
     gradient                   ...        0 min,  0.004 sec
 * total energy  :   -46.4660804 Eh     change       -0.1727997E-03 Eh
   gradient norm :     0.0041516 Eh/α   predicted    -0.1088005E-03 ( -37.04%)
   displ. norm   :     0.2561446 α      lambda       -0.2457398E-03
   maximum displ.:     0.1287485 α      in ANC's #2, #3, #5, ...

........................................................................
.............................. CYCLE   10 ..............................
........................................................................

 iter      E             dE          RMSdq      gap      omega  full diag
   1    -47.1193069 -0.471193E+02  0.929E-02    4.26       0.0  T
   2    -47.1193092 -0.228952E-05  0.552E-02    4.26       1.0  T
   3    -47.1193064  0.284512E-05  0.132E-02    4.26       1.5  T
   4    -47.1193101 -0.370970E-05  0.263E-03    4.26       7.4  T
   5    -47.1193101 -0.288855E-07  0.133E-03    4.26      14.8  T
   6    -47.1193101 -0.556678E-08  0.664E-04    4.26      29.5  T
   7    -47.1193101 -0.409208E-08  0.178E-04    4.26     110.4  T
     SCC iter.                  ...        0 min,  0.009 sec
     gradient                   ...        0 min,  0.004 sec
 * total energy  :   -46.4662154 Eh     change       -0.1350306E-03 Eh
   gradient norm :     0.0050582 Eh/α   predicted    -0.1309433E-03 (  -3.03%)
   displ. norm   :     0.0695417 α      lambda       -0.5243720E-04
   maximum displ.:     0.0407834 α      in ANC's #1, #3, #5, ...

........................................................................
.............................. CYCLE   11 ..............................
........................................................................

 iter      E             dE          RMSdq      gap      omega  full diag
   1    -47.1202704 -0.471203E+02  0.244E-02    4.26       0.0  T
   2    -47.1202706 -0.189318E-06  0.145E-02    4.26       1.4  T
   3    -47.1202702  0.362154E-06  0.394E-03    4.26       5.0  T
   4    -47.1202707 -0.445425E-06  0.771E-04    4.26      25.4  T
   5    -47.1202707 -0.316248E-08  0.414E-04    4.26      47.4  T
     SCC iter.                  ...        0 min,  0.007 sec
     gradient                   ...        0 min,  0.004 sec
 * total energy  :   -46.4662548 Eh     change       -0.3933922E-04 Eh
   gradient norm :     0.0022565 Eh/α   predicted    -0.2635579E-04 ( -33.00%)
   displ. norm   :     0.1251980 α      lambda       -0.5959177E-04
   maximum displ.:     0.0732529 α      in ANC's #1, #3, #5, ...

........................................................................
.............................. CYCLE   12 ..............................
........................................................................

 iter      E             dE          RMSdq      gap      omega  full diag
   1    -47.1210409 -0.471210E+02  0.413E-02    4.25       0.0  T
   2    -47.1210413 -0.325798E-06  0.244E-02    4.25       1.0  T
   3    -47.1210408  0.433023E-06  0.460E-03    4.25       4.3  T
   4    -47.1210414 -0.557357E-06  0.102E-03    4.25      19.3  T
   5    -47.1210414 -0.472645E-08  0.511E-04    4.25      38.4  T
   6    -47.1210414 -0.211453E-08  0.249E-04    4.25      78.7  T
     SCC iter.                  ...        0 min,  0.008 sec
     gradient                   ...        0 min,  0.004 sec
 * total energy  :   -46.4663007 Eh     change       -0.4588499E-04 Eh
   gradient norm :     0.0028220 Eh/α   predicted    -0.3026531E-04 ( -34.04%)
   displ. norm   :     0.1854480 α      lambda       -0.7203568E-04
   maximum displ.:     0.1109947 α      in ANC's #1, #3, #2, ...

........................................................................
.............................. CYCLE   13 ..............................
........................................................................

 iter      E             dE          RMSdq      gap      omega  full diag
   1    -47.1212891 -0.471213E+02  0.581E-02    4.24       0.0  T
   2    -47.1212894 -0.391313E-06  0.343E-02    4.24       1.0  T
   3    -47.1212890  0.418626E-06  0.460E-03    4.24       4.3  T
   4    -47.1212896 -0.575066E-06  0.118E-03    4.24      16.6  T
   5    -47.1212896 -0.583594E-08  0.586E-04    4.24      33.5  T
   6    -47.1212896 -0.189142E-08  0.247E-04    4.24      79.5  T
     SCC iter.                  ...        0 min,  0.008 sec
     gradient                   ...        0 min,  0.004 sec
 * total energy  :   -46.4663584 Eh     change       -0.5773768E-04 Eh
   gradient norm :     0.0047895 Eh/α   predicted    -0.3726029E-04 ( -35.47%)
   displ. norm   :     0.2858456 α      lambda       -0.1017407E-03
   maximum displ.:     0.1771515 α      in ANC's #1, #2, #3, ...

........................................................................
.............................. CYCLE   14 ..............................
........................................................................

 iter      E             dE          RMSdq      gap      omega  full diag
   1    -47.1206571 -0.471207E+02  0.890E-02    4.22       0.0  T
   2    -47.1206576 -0.507447E-06  0.525E-02    4.22       1.0  T
   3    -47.1206574  0.243217E-06  0.444E-03    4.22       4.4  T
   4    -47.1206579 -0.480137E-06  0.155E-03    4.22      12.6  T
   5    -47.1206579 -0.690710E-08  0.715E-04    4.22      27.4  T
   6    -47.1206579 -0.193646E-08  0.217E-04    4.22      90.3  T
     SCC iter.                  ...        0 min,  0.008 sec
     gradient                   ...        0 min,  0.004 sec
 * total energy  :   -46.4664389 Eh     change       -0.8052171E-04 Eh
   gradient norm :     0.0063034 Eh/α   predicted    -0.5502881E-04 ( -31.66%)
   displ. norm   :     0.3263392 α      lambda       -0.1253285E-03
   maximum displ.:     0.2108087 α      in ANC's #1, #2, #3, ...

........................................................................
.............................. CYCLE   15 ..............................
........................................................................

 iter      E             dE          RMSdq      gap      omega  full diag
   1    -47.1200205 -0.471200E+02  0.102E-01    4.19       0.0  T
   2    -47.1200210 -0.510164E-06  0.599E-02    4.19       1.0  T
   3    -47.1200208  0.214439E-06  0.424E-03    4.19       4.6  T
   4    -47.1200213 -0.479307E-06  0.157E-03    4.19      12.5  T
   5    -47.1200213 -0.431327E-08  0.548E-04    4.19      35.8  T
   6    -47.1200213 -0.236403E-08  0.204E-04    4.19      96.4  T
     SCC iter.                  ...        0 min,  0.008 sec
     gradient                   ...        0 min,  0.004 sec
 * total energy  :   -46.4665372 Eh     change       -0.9825188E-04 Eh
   gradient norm :     0.0066192 Eh/α   predicted    -0.6934005E-04 ( -29.43%)
   displ. norm   :     0.3608523 α      lambda       -0.1478112E-03
   maximum displ.:     0.2381527 α      in ANC's #1, #2, #3, ...

........................................................................
.............................. CYCLE   16 ..............................
........................................................................

 iter      E             dE          RMSdq      gap      omega  full diag
   1    -47.1190084 -0.471190E+02  0.113E-01    4.15       0.0  T
   2    -47.1190093 -0.964797E-06  0.667E-02    4.15       1.0  T
   3    -47.1190081  0.127360E-05  0.735E-03    4.15       2.7  T
   4    -47.1190098 -0.170932E-05  0.168E-03    4.15      11.7  T
   5    -47.1190098 -0.786502E-08  0.817E-04    4.15      24.0  T
   6    -47.1190098 -0.165108E-08  0.368E-04    4.15      53.3  T
     SCC iter.                  ...        0 min,  0.008 sec
     gradient                   ...        0 min,  0.004 sec
 * total energy  :   -46.4666470 Eh     change       -0.1097675E-03 Eh
   gradient norm :     0.0058937 Eh/α   predicted    -0.8353204E-04 ( -23.90%)
   displ. norm   :     0.2732185 α      lambda       -0.1760112E-03
   maximum displ.:     0.1824669 α      in ANC's #1, #2, #3, ...

........................................................................
.............................. CYCLE   17 ..............................
........................................................................

 iter      E             dE          RMSdq      gap      omega  full diag
   1    -47.1218045 -0.471218E+02  0.915E-02    4.13       0.0  T
   2    -47.1218083 -0.379170E-05  0.534E-02    4.13       1.0  T
   3    -47.1218046  0.376124E-05  0.136E-02    4.13       1.4  T
   4    -47.1218092 -0.464704E-05  0.252E-03    4.13       7.8  T
   5    -47.1218093 -0.104369E-06  0.108E-03    4.13      18.1  T
   6    -47.1218093 -0.127370E-08  0.515E-04    4.13      38.1  T
   7    -47.1218093 -0.264478E-08  0.195E-04    4.13     100.3  T
     SCC iter.                  ...        0 min,  0.009 sec
     gradient                   ...        0 min,  0.004 sec
 * total energy  :   -46.4666954 Eh     change       -0.4841418E-04 Eh
   gradient norm :     0.0062737 Eh/α   predicted    -0.9457646E-04 (  95.35%)
   displ. norm   :     0.3483301 α      lambda       -0.2124420E-03
   maximum displ.:     0.2425683 α      in ANC's #1, #3, #6, ...

........................................................................
.............................. CYCLE   18 ..............................
........................................................................

 iter      E             dE          RMSdq      gap      omega  full diag
   1    -47.1176064 -0.471176E+02  0.117E-01    4.08       0.0  T
   2    -47.1176114 -0.504589E-05  0.683E-02    4.09       1.0  T
   3    -47.1176069  0.452789E-05  0.150E-02    4.08       1.3  T
   4    -47.1176125 -0.564914E-05  0.310E-03    4.09       6.3  T
   5    -47.1176127 -0.147323E-06  0.141E-03    4.09      13.9  T
   6    -47.1176127 -0.308126E-08  0.650E-04    4.08      30.2  T
   7    -47.1176127 -0.445654E-08  0.231E-04    4.09      85.1  T
     SCC iter.                  ...        0 min,  0.009 sec
     gradient                   ...        0 min,  0.004 sec
 * total energy  :   -46.4667646 Eh     change       -0.6924249E-04 Eh
   gradient norm :     0.0065149 Eh/α   predicted    -0.1191165E-03 (  72.03%)
   displ. norm   :     0.1811246 α      lambda       -0.9596859E-04
   maximum displ.:     0.1139781 α      in ANC's #2, #1, #3, ...

........................................................................
.............................. CYCLE   19 ..............................
........................................................................

 iter      E             dE          RMSdq      gap      omega  full diag
   1    -47.1207977 -0.471208E+02  0.587E-02    4.11       0.0  T
   2    -47.1207984 -0.673079E-06  0.346E-02    4.11       1.0  T
   3    -47.1207977  0.620266E-06  0.591E-03    4.11       3.3  T
   4    -47.1207985 -0.792723E-06  0.129E-03    4.11      15.2  T
   5    -47.1207985 -0.157691E-07  0.639E-04    4.11      30.7  T
   6    -47.1207985  0.665615E-09  0.305E-04    4.11      64.2  T
     SCC iter.                  ...        0 min,  0.008 sec
     gradient                   ...        0 min,  0.004 sec
 * total energy  :   -46.4668165 Eh     change       -0.5192473E-04 Eh
   gradient norm :     0.0030535 Eh/α   predicted    -0.4956414E-04 (  -4.55%)
   displ. norm   :     0.0891769 α      lambda       -0.4468047E-04
   maximum displ.:     0.0721305 α      in ANC's #1, #3, #4, ...

........................................................................
.............................. CYCLE   20 ..............................
........................................................................

 iter      E             dE          RMSdq      gap      omega  full diag
   1    -47.1211128 -0.471211E+02  0.302E-02    4.10       0.0  T
   2    -47.1211130 -0.158409E-06  0.177E-02    4.10       1.1  T
   3    -47.1211127  0.320252E-06  0.364E-03    4.10       5.4  T
   4    -47.1211130 -0.382071E-06  0.614E-04    4.10      31.9  T
   5    -47.1211130 -0.443098E-08  0.326E-04    4.10      60.2  T
     SCC iter.                  ...        0 min,  0.006 sec
     gradient                   ...        0 min,  0.004 sec
 * total energy  :   -46.4668537 Eh     change       -0.3718205E-04 Eh
   gradient norm :     0.0026125 Eh/α   predicted    -0.2252415E-04 ( -39.42%)
   displ. norm   :     0.3016442 α      lambda       -0.1101692E-03
   maximum displ.:     0.2364708 α      in ANC's #1, #3, #6, ...
 * RMSD in coord.:     0.6025700 α      energy gain  -0.1965272E-01 Eh

generating ANC from model Hessian ...
Using Lindh-Hessian (1995)
 Shifting diagonal of input Hessian by   8.713212229490994E-003
 Lowest  eigenvalues of input Hessian
    0.000000    0.000000    0.000000    0.000000    0.000000    0.000000
    0.010000    0.010560    0.010872    0.013961    0.015714    0.017810
    0.021339    0.022290    0.025182    0.029974    0.031378    0.033263
 Highest eigenvalues
    1.891007    1.913126    2.028956    2.073916    2.116232    2.135953
 

........................................................................
.............................. CYCLE   21 ..............................
........................................................................

 iter      E             dE          RMSdq      gap      omega  full diag
   1    -47.1211507 -0.471212E+02  0.961E-02    4.07       0.0  T
   2    -47.1211523 -0.160178E-05  0.564E-02    4.07       1.0  T
   3    -47.1211475  0.480378E-05  0.137E-02    4.07       1.4  T
   4    -47.1211532 -0.569557E-05  0.155E-03    4.07      12.7  T
   5    -47.1211532 -0.113972E-07  0.868E-04    4.07      22.6  T
   6    -47.1211532 -0.725650E-08  0.368E-04    4.07      53.2  T
     SCC iter.                  ...        0 min,  0.008 sec
     gradient                   ...        0 min,  0.004 sec
 * total energy  :   -46.4669316 Eh     change       -0.7783742E-04 Eh
   gradient norm :     0.0042661 Eh/α   predicted     0.0000000E+00 (-100.00%)
   displ. norm   :     0.0465438 α      lambda       -0.5472091E-04
   maximum displ.:     0.0359099 α      in ANC's #2, #1, #15, ...

........................................................................
.............................. CYCLE   22 ..............................
........................................................................

 iter      E             dE          RMSdq      gap      omega  full diag
   1    -47.1212697 -0.471213E+02  0.173E-02    4.07       0.0  T
   2    -47.1212698 -0.175944E-06  0.104E-02    4.07       1.9  T
   3    -47.1212696  0.242641E-06  0.397E-03    4.07       4.9  T
   4    -47.1212699 -0.332481E-06  0.721E-04    4.07      27.2  T
   5    -47.1212699 -0.127039E-08  0.370E-04    4.07      53.0  T
     SCC iter.                  ...        0 min,  0.006 sec
     gradient                   ...        0 min,  0.004 sec
 * total energy  :   -46.4669791 Eh     change       -0.4751338E-04 Eh
   gradient norm :     0.0019585 Eh/α   predicted    -0.2907803E-04 ( -38.80%)
   displ. norm   :     0.1574206 α      lambda       -0.7797468E-04
   maximum displ.:     0.1244084 α      in ANC's #2, #1, #6, ...

........................................................................
.............................. CYCLE   23 ..............................
........................................................................

 iter      E             dE          RMSdq      gap      omega  full diag
   1    -47.1209550 -0.471210E+02  0.567E-02    4.07       0.0  T
   2    -47.1209562 -0.116379E-05  0.339E-02    4.07       1.0  T
   3    -47.1209547  0.145905E-05  0.916E-03    4.07       2.1  T
   4    -47.1209567 -0.198634E-05  0.203E-03    4.07       9.7  T
   5    -47.1209567 -0.122738E-07  0.989E-04    4.07      19.8  T
   6    -47.1209567 -0.784166E-08  0.396E-04    4.07      49.5  T
     SCC iter.                  ...        0 min,  0.008 sec
     gradient                   ...        0 min,  0.004 sec
 * total energy  :   -46.4670304 Eh     change       -0.5129944E-04 Eh
   gradient norm :     0.0048075 Eh/α   predicted    -0.3941758E-04 ( -23.16%)
   displ. norm   :     0.0253312 α      lambda       -0.2202799E-04
   maximum displ.:     0.0197747 α      in ANC's #2, #1, #6, ...

........................................................................
.............................. CYCLE   24 ..............................
........................................................................

 iter      E             dE          RMSdq      gap      omega  full diag
   1    -47.1211413 -0.471211E+02  0.909E-03    4.06       0.0  T
   2    -47.1211413 -0.308569E-07  0.539E-03    4.06       3.6  T
   3    -47.1211413  0.966387E-07  0.190E-03    4.06      10.3  T
   4    -47.1211414 -0.117903E-06  0.296E-04    4.06      66.3  T
   5    -47.1211414 -0.506617E-09  0.176E-04    4.06     111.1  T
     SCC iter.                  ...        0 min,  0.006 sec
     gradient                   ...        0 min,  0.004 sec
 * total energy  :   -46.4670495 Eh     change       -0.1911327E-04 Eh
   gradient norm :     0.0029359 Eh/α   predicted    -0.1106459E-04 ( -42.11%)
   displ. norm   :     0.0825883 α      lambda       -0.4317454E-04
   maximum displ.:     0.0611130 α      in ANC's #2, #1, #6, ...

........................................................................
.............................. CYCLE   25 ..............................
........................................................................

 iter      E             dE          RMSdq      gap      omega  full diag
   1    -47.1213915 -0.471214E+02  0.277E-02    4.06       0.0  T
   2    -47.1213917 -0.241666E-06  0.164E-02    4.06       1.2  T
   3    -47.1213909  0.832068E-06  0.553E-03    4.06       3.5  T
   4    -47.1213919 -0.998195E-06  0.725E-04    4.06      27.0  T
   5    -47.1213919 -0.330695E-08  0.430E-04    4.06      45.6  T
     SCC iter.                  ...        0 min,  0.006 sec
     gradient                   ...        0 min,  0.004 sec
 * total energy  :   -46.4670790 Eh     change       -0.2949321E-04 Eh
   gradient norm :     0.0012266 Eh/α   predicted    -0.2173629E-04 ( -26.30%)
   displ. norm   :     0.1131715 α      lambda       -0.1751869E-04
   maximum displ.:     0.0822581 α      in ANC's #2, #1, #6, ...

........................................................................
.............................. CYCLE   26 ..............................
........................................................................

 iter      E             dE          RMSdq      gap      omega  full diag
   1    -47.1213455 -0.471213E+02  0.356E-02    4.05       0.0  T
   2    -47.1213457 -0.229057E-06  0.210E-02    4.05       1.0  T
   3    -47.1213448  0.873946E-06  0.552E-03    4.05       3.6  T
   4    -47.1213459 -0.102922E-05  0.656E-04    4.05      29.9  T
   5    -47.1213459 -0.126186E-08  0.390E-04    4.05      50.2  T
   6    -47.1213459 -0.155080E-08  0.159E-04    4.05     123.4  T
     SCC iter.                  ...        0 min,  0.008 sec
     gradient                   ...        0 min,  0.004 sec
 * total energy  :   -46.4670985 Eh     change       -0.1950148E-04 Eh
   gradient norm :     0.0025454 Eh/α   predicted    -0.8810011E-05 ( -54.82%)
   displ. norm   :     0.0638097 α      lambda       -0.1379595E-04
   maximum displ.:     0.0444966 α      in ANC's #2, #1, #6, ...

........................................................................
.............................. CYCLE   27 ..............................
........................................................................

 iter      E             dE          RMSdq      gap      omega  full diag
   1    -47.1213047 -0.471213E+02  0.199E-02    4.05       0.0  T
   2    -47.1213048 -0.478080E-07  0.117E-02    4.05       1.7  T
   3    -47.1213046  0.143838E-06  0.233E-03    4.05       8.4  T
   4    -47.1213048 -0.173482E-06  0.348E-04    4.05      56.3  T
   5    -47.1213048  0.235190E-11  0.178E-04    4.05     110.1  T
     SCC iter.                  ...        0 min,  0.006 sec
     gradient                   ...        0 min,  0.004 sec
 * total energy  :   -46.4671104 Eh     change       -0.1191793E-04 Eh
   gradient norm :     0.0016464 Eh/α   predicted    -0.6930922E-05 ( -41.84%)
   displ. norm   :     0.1516191 α      lambda       -0.1716980E-04
   maximum displ.:     0.1025541 α      in ANC's #2, #1, #6, ...

........................................................................
.............................. CYCLE   28 ..............................
........................................................................

 iter      E             dE          RMSdq      gap      omega  full diag
   1    -47.1211304 -0.471211E+02  0.481E-02    4.03       0.0  T
   2    -47.1211306 -0.281242E-06  0.284E-02    4.03       1.0  T
   3    -47.1211298  0.811799E-06  0.567E-03    4.03       3.5  T
   4    -47.1211308 -0.980712E-06  0.817E-04    4.03      24.0  T
   5    -47.1211308 -0.445922E-09  0.416E-04    4.03      47.2  T
     SCC iter.                  ...        0 min,  0.006 sec
     gradient                   ...        0 min,  0.004 sec
 * total energy  :   -46.4671256 Eh     change       -0.1525283E-04 Eh
   gradient norm :     0.0008417 Eh/α   predicted    -0.8673375E-05 ( -43.14%)
   displ. norm   :     0.0566615 α      lambda       -0.3571437E-05
   maximum displ.:     0.0355712 α      in ANC's #1, #2, #3, ...

........................................................................
.............................. CYCLE   29 ..............................
........................................................................

 iter      E             dE          RMSdq      gap      omega  full diag
   1    -47.1212832 -0.471213E+02  0.194E-02    4.03       0.0  T
   2    -47.1212832 -0.449213E-07  0.114E-02    4.03       1.7  T
   3    -47.1212831  0.138681E-06  0.243E-03    4.03       8.1  T
   4    -47.1212832 -0.165258E-06  0.310E-04    4.03      63.3  T
   5    -47.1212832 -0.255717E-09  0.179E-04    4.03     109.3  T
     SCC iter.                  ...        0 min,  0.006 sec
     gradient                   ...        0 min,  0.004 sec
 * total energy  :   -46.4671297 Eh     change       -0.4071263E-05 Eh
   gradient norm :     0.0004535 Eh/α   predicted    -0.1789353E-05 ( -56.05%)
   displ. norm   :     0.0435600 α      lambda       -0.2580342E-05
   maximum displ.:     0.0279261 α      in ANC's #1, #3, #2, ...

   *** GEOMETRY OPTIMIZATION CONVERGED AFTER 29 ITERATIONS ***

------------------------------------------------------------------------
 total energy gain   :        -0.0199287 Eh      -12.5055 kcal/mol
 total RMSD          :         0.6995404 a0        0.3702 Å
 total power (kW/mol):        -1.8042358 (step) -121.0767 (real)
------------------------------------------------------------------------

 ANCopt (total)                0 d,  0 h,  0 min,  0.432 sec
 optimizer setup                ...        0 min,  0.000 sec (  0.040%)
 model hessian                  ...        0 min,  0.014 sec (  3.318%)
 ANC generation                 ...        0 min,  0.002 sec (  0.385%)
 coordinate transformation      ...        0 min,  0.000 sec (  0.062%)
 single point calculation       ...        0 min,  0.407 sec ( 94.173%)
 optimization log               ...        0 min,  0.004 sec (  1.009%)
 hessian update                 ...        0 min,  0.000 sec (  0.069%)
 rational function              ...        0 min,  0.003 sec (  0.611%)

================
 final structure:
================
26
 xtb: 6.6.1 (8d0f1dd)
C           -1.19205395775966       -1.51842880055607       -1.43225801824821
C           -1.61411624603332       -0.37968856008239       -0.55611678700299
C           -2.95767760978209       -0.06659224807692       -0.39709225489841
C           -3.36188047365436        0.97914511640631        0.41304777029768
C           -2.42313613923296        1.73805885227283        1.08839934864241
C           -1.08807852794230        1.42473284134568        0.92977171222391
F           -0.16606929678727        2.17143888013204        1.57747375864833
C           -0.65797250676115        0.38341591993657        0.11643308153535
C            0.79157485079825        0.11148190503560        0.00204313355663
C            1.50521171489542       -0.36870563000057        1.10692774046828
O            0.80840026118154       -0.63292351220363        2.23932123875607
C            2.87493029522390       -0.58329281717915        1.01269807079203
C            3.54664908563301       -0.32307836578187       -0.16796092496373
C            2.86214997555094        0.15010704570324       -1.27223444497664
C            1.49990859494493        0.35938224486959       -1.16410840950946
F            0.83335127871119        0.83389779994796       -2.23904406181255
H           -0.41093510188720       -2.10549118510618       -0.95217320606664
H           -2.03671157171685       -2.16529952885002       -1.65458158260834
H           -0.79579068739533       -1.13902605405731       -2.37371980349116
H           -3.69900743932872       -0.65594037843537       -0.91645046744003
H           -4.41180838112544        1.20438637792870        0.52203854804821
H           -2.70677749292754        2.55880020009410        1.72752053011746
H            1.41161997413842       -0.89832448290095        2.94396923123915
H            3.41441228032771       -0.95292088695153        1.87414898709842
H            4.61090377459122       -0.49014101341389       -0.22616365782434
H            3.36290234633763        0.36500727992318       -2.20189253258153
 
 Bond Distances (Angstroems)
 ---------------------------
C1-C2=1.4975         C1-H17=1.0887        C1-H18=1.0869        C1-H19=1.0896        C2-C1=1.4975         C2-C3=1.3887         
C2-C8=1.3960         C3-C2=1.3887         C3-C4=1.3832         C3-H20=1.0801        C4-C3=1.3832         C4-C5=1.3832         
C4-H21=1.0793        C5-C4=1.3832         C5-C6=1.3805         C5-H22=1.0782        C6-C5=1.3805         C6-F7=1.3517         
C6-C8=1.3896         F7-C6=1.3517         C8-C2=1.3960         C8-C6=1.3896         C8-C9=1.4793         C9-C8=1.4793         
C9-C10=1.4002        C9-C15=1.3868        C10-C9=1.4002        C10-O11=1.3556       C10-C12=1.3896       O11-C10=1.3556       
O11-H23=0.9648       C12-C10=1.3896       C12-C13=1.3831       C12-H24=1.0816       C13-C12=1.3831       C13-C14=1.3827       
C13-H25=1.0789       C14-C13=1.3827       C14-C15=1.3825       C14-H26=1.0776       C15-C9=1.3868        C15-C14=1.3825       
C15-F16=1.3509       F16-C15=1.3509       H17-C1=1.0887        H18-C1=1.0869        H19-C1=1.0896        H20-C3=1.0801        
H21-C4=1.0793        H22-C5=1.0782        H23-O11=0.9648       H24-C12=1.0816       H25-C13=1.0789       H26-C14=1.0776       
 C  H  Rav=1.0823 sigma=0.0045  Rmin=1.0776  Rmax=1.0896     9
 C  C  Rav=1.4016 sigma=0.0360  Rmin=1.3805  Rmax=1.4975    14
 O  H  Rav=0.9648 sigma=0.0000  Rmin=0.9648  Rmax=0.9648     1
 O  C  Rav=1.3556 sigma=0.0000  Rmin=1.3556  Rmax=1.3556     1
 F  C  Rav=1.3513 sigma=0.0004  Rmin=1.3509  Rmax=1.3517     2
 
 selected bond angles (degree)
 --------------------
H17-C1-C2=110.75               H18-C1-C2=110.68               H18-C1-H17=109.08              H19-C1-C2=110.07               
H19-C1-H17=107.93              H19-C1-H18=108.25              C3-C2-C1=120.74                C8-C2-C1=120.30                
C8-C2-C3=118.96                C4-C3-C2=121.35                H20-C3-C2=119.08               H20-C3-C4=119.58               
C5-C4-C3=120.16                H21-C4-C3=120.08               H21-C4-C5=119.76               C6-C5-C4=118.41                
H22-C5-C4=121.91               H22-C5-C6=119.69               F7-C6-C5=118.63                C8-C6-C5=122.46                
C8-C6-F7=118.90                C6-C8-C2=118.66                C9-C8-C2=122.24                C9-C8-C6=119.10                
C10-C9-C8=120.10               C15-C9-C8=122.19               C15-C9-C10=117.68              O11-C10-C9=117.65              
C12-C10-C9=120.12              C12-C10-O11=122.22             
 
 selected dihedral angles (degree)
 ---------------------------------
C3-C2-C1-H17=223.38           C3-C2-C1-H18=344.49           C3-C2-C1-H19=104.11           C8-C2-C1-H17= 43.28           
C8-C2-C1-H18=164.39           C8-C2-C1-H19=284.01           C4-C3-C2-C1=179.75            C4-C3-C2-C8=359.85            
H20-C3-C2-C1=359.91           H20-C3-C2-C8=180.01           C5-C4-C3-C2=359.88            C5-C4-C3-H20=179.72           
H21-C4-C3-C2=180.01           H21-C4-C3-H20=359.85          C6-C5-C4-C3=  0.07            C6-C5-C4-H21=179.94           
H22-C5-C4-C3=180.04           H22-C5-C4-H21=359.91          F7-C6-C5-C4=179.37            F7-C6-C5-H22=359.40           
C8-C6-C5-C4=  0.25            C8-C6-C5-H22=180.28           C6-C8-C2-C1=180.56            C6-C8-C2-C3=  0.46            
C9-C8-C2-C1=359.93            C9-C8-C2-C3=179.83            C2-C8-C6-C5=359.48            C2-C8-C6-F7=180.36            
C9-C8-C6-C5=180.09            C9-C8-C6-F7=  0.97            C10-C9-C8-C2=247.99           C10-C9-C8-C6= 67.36           
C15-C9-C8-C2= 70.27           C15-C9-C8-C6=249.64           O11-C10-C9-C8=  3.30          O11-C10-C9-C15=181.12         
C12-C10-C9-C8=182.08          C12-C10-C9-C15=359.91         
           -------------------------------------------------
          |                Final Singlepoint                |
           -------------------------------------------------

          ...................................................
          :                      SETUP                      :
          :.................................................:
          :  # basis functions                  74          :
          :  # atomic orbitals                  74          :
          :  # shells                           42          :
          :  # electrons                        82          :
          :  max. iterations                   250          :
          :  Hamiltonian                  GFN2-xTB          :
          :  restarted?                      false          :
          :  GBSA solvation                  false          :
          :  PC potential                    false          :
          :  electronic temp.          298.1500000     K    :
          :  accuracy                    1.0000000          :
          :  -> integral cutoff          0.2500000E+02      :
          :  -> integral neglect         0.1000000E-07      :
          :  -> SCF convergence          0.1000000E-05 Eh   :
          :  -> wf. convergence          0.1000000E-03 e    :
          :  Broyden damping             0.4000000          :
          ...................................................

 iter      E             dE          RMSdq      gap      omega  full diag
   1    -47.1212832 -0.471213E+02  0.818E-05    4.03       0.0  T
   2    -47.1212832 -0.307097E-10  0.548E-05    4.03     357.8  T
   3    -47.1212832 -0.428741E-10  0.338E-05    4.03     580.3  T

   *** convergence criteria satisfied after 3 iterations ***

         #    Occupation            Energy/Eh            Energy/eV
      -------------------------------------------------------------
         1        2.0000           -0.8145758             -22.1657
       ...           ...                  ...                  ...
        35        2.0000           -0.4505000             -12.2587
        36        2.0000           -0.4431416             -12.0585
        37        2.0000           -0.4253876             -11.5754
        38        2.0000           -0.4126582             -11.2290
        39        2.0000           -0.4018288             -10.9343
        40        2.0000           -0.3982619             -10.8373
        41        2.0000           -0.3932787             -10.7017 (HOMO)
        42                         -0.2453233              -6.6756 (LUMO)
        43                         -0.2292551              -6.2383
        44                         -0.2247020              -6.1145
        45                         -0.2213368              -6.0229
        46                         -0.1089905              -2.9658
       ...                                ...                  ...
        74                          0.6742370              18.3469
      -------------------------------------------------------------
                  HL-Gap            0.1479554 Eh            4.0261 eV
             Fermi-level           -0.3193010 Eh           -8.6886 eV

 SCC (total)                   0 d,  0 h,  0 min,  0.010 sec
 SCC setup                      ...        0 min,  0.000 sec (  1.037%)
 Dispersion                     ...        0 min,  0.000 sec (  0.902%)
 classical contributions        ...        0 min,  0.000 sec (  0.175%)
 integral evaluation            ...        0 min,  0.002 sec ( 15.115%)
 iterations                     ...        0 min,  0.004 sec ( 39.060%)
 molecular gradient             ...        0 min,  0.004 sec ( 42.071%)
 printout                       ...        0 min,  0.000 sec (  1.460%)

         :::::::::::::::::::::::::::::::::::::::::::::::::::::
         ::                     SUMMARY                     ::
         :::::::::::::::::::::::::::::::::::::::::::::::::::::
         :: total energy             -46.467129716128 Eh    ::
         :: gradient norm              0.000453167071 Eh/a0 ::
         :: HOMO-LUMO gap              4.026071065098 eV    ::
         ::.................................................::
         :: SCC energy               -47.121283237464 Eh    ::
         :: -> isotropic ES            0.045286572141 Eh    ::
         :: -> anisotropic ES          0.002423600393 Eh    ::
         :: -> anisotropic XC          0.007538350809 Eh    ::
         :: -> dispersion             -0.027408882245 Eh    ::
         :: repulsion energy           0.653918862793 Eh    ::
         :: add. restraining           0.000000000000 Eh    ::
         :: total charge               0.000000000000 e     ::
         :::::::::::::::::::::::::::::::::::::::::::::::::::::

           -------------------------------------------------
          |                Property Printout                |
           -------------------------------------------------

    * Orbital Energies and Occupations

         #    Occupation            Energy/Eh            Energy/eV
      -------------------------------------------------------------
         1        2.0000           -0.8145758             -22.1657
       ...           ...                  ...                  ...
        29        2.0000           -0.4791758             -13.0390
        30        2.0000           -0.4741475             -12.9022
        31        2.0000           -0.4663115             -12.6890
        32        2.0000           -0.4638709             -12.6226
        33        2.0000           -0.4583554             -12.4725
        34        2.0000           -0.4565691             -12.4239
        35        2.0000           -0.4505000             -12.2587
        36        2.0000           -0.4431416             -12.0585
        37        2.0000           -0.4253876             -11.5754
        38        2.0000           -0.4126582             -11.2290
        39        2.0000           -0.4018288             -10.9343
        40        2.0000           -0.3982619             -10.8373
        41        2.0000           -0.3932787             -10.7017 (HOMO)
        42                         -0.2453233              -6.6756 (LUMO)
        43                         -0.2292551              -6.2383
        44                         -0.2247020              -6.1145
        45                         -0.2213368              -6.0229
        46                         -0.1089905              -2.9658
        47                         -0.0943442              -2.5672
        48                          0.0341451               0.9291
        49                          0.0544229               1.4809
        50                          0.0767899               2.0896
        51                          0.0988461               2.6897
        52                          0.1225101               3.3337
       ...                                ...                  ...
        74                          0.6742370              18.3469
      -------------------------------------------------------------
                  HL-Gap            0.1479554 Eh            4.0261 eV
             Fermi-level           -0.3193010 Eh           -8.6886 eV

     #   Z          covCN         q      C6AA      α(0)
     1   6 C        3.758    -0.109    22.636     6.783
     2   6 C        2.971     0.022    27.510     8.603
     3   6 C        2.924    -0.045    29.123     8.850
     4   6 C        2.923    -0.032    28.787     8.799
     5   6 C        2.917    -0.054    29.338     8.882
     6   6 C        2.791     0.169    24.353     8.084
     7   9 F        0.787    -0.229    11.536     4.012
     8   6 C        2.979     0.004    27.939     8.670
     9   6 C        2.974    -0.013    28.340     8.732
    10   6 C        2.853     0.149    24.765     8.156
    11   8 O        1.660    -0.377    20.408     6.098
    12   6 C        2.916    -0.077    29.922     8.970
    13   6 C        2.924    -0.031    28.773     8.797
    14   6 C        2.916    -0.062    29.547     8.914
    15   6 C        2.790     0.165    24.431     8.097
    16   9 F        0.787    -0.224    11.490     4.004
    17   1 H        0.925     0.046     2.371     2.408
    18   1 H        0.925     0.045     2.379     2.412
    19   1 H        0.925     0.063     2.163     2.300
    20   1 H        0.926     0.042     2.425     2.435
    21   1 H        0.926     0.043     2.412     2.429
    22   1 H        0.926     0.055     2.256     2.349
    23   1 H        0.805     0.305     0.705     1.319
    24   1 H        0.925     0.038     2.474     2.460
    25   1 H        0.926     0.048     2.345     2.395
    26   1 H        0.926     0.059     2.205     2.322

 Mol. C6AA /au·bohr⁶  :       8741.114056
 Mol. C8AA /au·bohr⁸  :     214347.622589
 Mol. α(0) /au        :        147.279897


Wiberg/Mayer (AO) data.
largest (>0.10) Wiberg bond orders for each atom

 ---------------------------------------------------------------------------
     #   Z sym  total        # sym  WBO       # sym  WBO       # sym  WBO
 ---------------------------------------------------------------------------
     1   6 C    3.996 --     2 C    1.029    18 H    0.984    17 H    0.976
                            19 H    0.964
     2   6 C    3.987 --     3 C    1.412     8 C    1.372     1 C    1.029
                             5 C    0.105
     3   6 C    3.990 --     4 C    1.443     2 C    1.412    20 H    0.968
     4   6 C    3.990 --     3 C    1.443     5 C    1.434    21 H    0.970
                             8 C    0.106
     5   6 C    3.988 --     4 C    1.434     6 C    1.402    22 H    0.967
                             2 C    0.105
     6   6 C    3.885 --     5 C    1.402     8 C    1.364     7 F    0.956
     7   9 F    1.086 --     6 C    0.956
     8   6 C    3.988 --     2 C    1.372     6 C    1.364     9 C    1.016
                             4 C    0.106
     9   6 C    3.986 --    15 C    1.377    10 C    1.323     8 C    1.016
                            13 C    0.103
    10   6 C    3.942 --    12 C    1.374     9 C    1.323    11 O    1.088
    11   8 O    2.140 --    10 C    1.088    23 H    0.885
    12   6 C    3.985 --    13 C    1.443    10 C    1.374    24 H    0.965
    13   6 C    3.989 --    12 C    1.443    14 C    1.435    25 H    0.970
                             9 C    0.103
    14   6 C    3.987 --    13 C    1.435    15 C    1.392    26 H    0.967
    15   6 C    3.886 --    14 C    1.392     9 C    1.377    16 F    0.958
    16   9 F    1.090 --    15 C    0.958
    17   1 H    0.998 --     1 C    0.976
    18   1 H    0.998 --     1 C    0.984
    19   1 H    0.996 --     1 C    0.964
    20   1 H    0.997 --     3 C    0.968
    21   1 H    0.998 --     4 C    0.970
    22   1 H    0.996 --     5 C    0.967
    23   1 H    0.906 --    11 O    0.885
    24   1 H    0.998 --    12 C    0.965
    25   1 H    0.997 --    13 C    0.970
    26   1 H    0.996 --    14 C    0.967
 ---------------------------------------------------------------------------

Topologies differ in total number of bonds
Writing topology from bond orders to xtbtopo.mol

molecular dipole:
                 x           y           z       tot (Debye)
 q only:        0.198      -1.007       0.309
   full:        0.413      -1.069       0.456       3.136
molecular quadrupole (traceless):
                xx          xy          yy          xz          yz          zz
 q only:        9.100      -3.319      -5.972       3.589      -1.211      -3.128
  q+dip:       12.580      -5.251      -8.721       4.268      -0.806      -3.860
   full:       10.186      -4.459      -6.864       4.624      -1.630      -3.322

           -------------------------------------------------
          |                Geometry Summary                 |
           -------------------------------------------------

      molecular mass/u    :      220.2151854
   center of mass at/Å    :        0.0988298       0.2976915       0.0823872
  moments of inertia/u·Å² :        0.5677794E+03   0.1114986E+04   0.1315789E+04
rotational constants/cm⁻¹ :        0.2969046E-01   0.1511914E-01   0.1281181E-01

 * 23 selected distances

     #   Z          #   Z                                           value/Å
     2   6 C        3   6 C                                       1.3886956
     3   6 C        4   6 C                                       1.3832114
     4   6 C        5   6 C                                       1.3832177
     5   6 C        6   6 C                                       1.3804764
     2   6 C        8   6 C                                       1.3960168
     6   6 C        8   6 C                                       1.3895511
     9   6 C       10   6 C                                       1.4002243 (max)
    10   6 C       11   8 O                                       1.3556079
    10   6 C       12   6 C                                       1.3896245
    12   6 C       13   6 C                                       1.3830668
    13   6 C       14   6 C                                       1.3827016
     9   6 C       15   6 C                                       1.3867592
    14   6 C       15   6 C                                       1.3824577
     1   6 C       17   1 H                                       1.0887013
     1   6 C       18   1 H                                       1.0868837
     1   6 C       19   1 H                                       1.0896428
     3   6 C       20   1 H                                       1.0801085
     4   6 C       21   1 H                                       1.0793338
     5   6 C       22   1 H                                       1.0782137
    11   8 O       23   1 H                                       0.9648008 (min)
    12   6 C       24   1 H                                       1.0815561
    13   6 C       25   1 H                                       1.0788585
    14   6 C       26   1 H                                       1.0775896

 * 4 distinct bonds (by element types)

   Z      Z             #   av. dist./Å        max./Å        min./Å
   1 H    6 C           9     1.0823209     1.0896428     1.0775896
   6 C    6 C          12     1.3871669     1.4002243     1.3804764
   1 H    8 O           1     0.9648008     0.9648008     0.9648008
   6 C    8 O           1     1.3556079     1.3556079     1.3556079


optimized geometry written to: xtbopt.xyz


           -------------------------------------------------
          | TOTAL ENERGY              -46.467129716128 Eh   |
          | GRADIENT NORM               0.000453167071 Eh/α |
          | HOMO-LUMO GAP               4.026071065098 eV   |
           -------------------------------------------------

------------------------------------------------------------------------
 * finished run on 2026/07/23 at 12:55:29.853     
------------------------------------------------------------------------
 total:
 * wall-time:     0 d,  0 h,  0 min,  0.501 sec
 *  cpu-time:     0 d,  0 h,  0 min,  1.964 sec
 * ratio c/w:     3.923 speedup
 SCF:
 * wall-time:     0 d,  0 h,  0 min,  0.039 sec
 *  cpu-time:     0 d,  0 h,  0 min,  0.141 sec
 * ratio c/w:     3.602 speedup
 ANC optimizer:
 * wall-time:     0 d,  0 h,  0 min,  0.446 sec
 *  cpu-time:     0 d,  0 h,  0 min,  1.775 sec
 * ratio c/w:     3.978 speedup

