26
 energy: -46.467129716128 gnorm: 0.000453167071 xtb: 6.6.1 (8d0f1dd)
C           -1.19205395775966       -1.51842880055607       -1.43225801824821
C           -1.61411624603332       -0.37968856008239       -0.55611678700299
C           -2.95767760978209       -0.06659224807692       -0.39709225489841
C           -3.36188047365436        0.97914511640631        0.41304777029768
C           -2.42313613923296        1.73805885227283        1.08839934864241
C           -1.08807852794230        1.42473284134568        0.92977171222391
F           -0.16606929678727        2.17143888013204        1.57747375864833
C           -0.65797250676115        0.38341591993657        0.11643308153535
C            0.79157485079825        0.11148190503560        0.00204313355663
C            1.50521171489542       -0.36870563000057        1.10692774046828
O            0.80840026118154       -0.63292351220363        2.23932123875607
C            2.87493029522390       -0.58329281717915        1.01269807079203
C            3.54664908563301       -0.32307836578187       -0.16796092496373
C            2.86214997555094        0.15010704570324       -1.27223444497664
C            1.49990859494493        0.35938224486959       -1.16410840950946
F            0.83335127871119        0.83389779994796       -2.23904406181255
H           -0.41093510188720       -2.10549118510618       -0.95217320606664
H           -2.03671157171685       -2.16529952885002       -1.65458158260834
H           -0.79579068739533       -1.13902605405731       -2.37371980349116
H           -3.69900743932872       -0.65594037843537       -0.91645046744003
H           -4.41180838112544        1.20438637792870        0.52203854804821
H           -2.70677749292754        2.55880020009410        1.72752053011746
H            1.41161997413842       -0.89832448290095        2.94396923123915
H            3.41441228032771       -0.95292088695153        1.87414898709842
H            4.61090377459122       -0.49014101341389       -0.22616365782434
H            3.36290234633763        0.36500727992318       -2.20189253258153
