  26
        -46.46809542
 C         -0.7359902562        2.0979801838       -1.4765998425
 C         -1.4660977183        1.0301892152       -0.7241554291
 C         -2.8542263737        1.0170117687       -0.6814217755
 C         -3.5460820352        0.0383736987        0.0098019706
 C         -2.8582655193       -0.9616319088        0.6733425040
 C         -1.4779734810       -0.9473801917        0.6294649501
 F         -0.7990325432       -1.9262580093        1.2734605186
 C         -0.7576350310        0.0296444858       -0.0511126415
 C          0.7247791708       -0.0012639213       -0.0398209429
 C          1.4383409555       -1.0051770697       -0.7048272002
 O          0.8173046577       -1.9759808669       -1.4142569178
 C          2.8302357883       -1.0069761496       -0.6754655364
 C          3.5172602864       -0.0312426830        0.0174301907
 C          2.8324281568        0.9662819011        0.6915925301
 C          1.4532580893        0.9614601472        0.6483638743
 F          0.7797095207        1.9311234995        1.3075687876
 H         -1.3966826150        2.5850548988       -2.1891374669
 H         -0.3669183997        2.8535076872       -0.7835434170
 H          0.1211058642        1.6860189828       -2.0069498991
 H         -3.4009826322        1.7908084912       -1.1993891214
 H         -4.6247346280        0.0521072921        0.0325996737
 H         -3.3662701716       -1.7383509436        1.2216752781
 H         -0.1399991955       -1.9165695731       -1.2951477510
 H          3.3481254953       -1.7910007396       -1.2032236442
 H          4.5956409116       -0.0467123995        0.0370215531
 H          3.3458434884        1.7347583600        1.2458434000
