  26
  -46.4680954200000       0.103101454487706      !mtd2
 C         -0.7359902562        2.0979801838       -1.4765998425
 C         -1.4660977183        1.0301892152       -0.7241554291
 C         -2.8542263737        1.0170117687       -0.6814217755
 C         -3.5460820352        0.0383736987        0.0098019706
 C         -2.8582655193       -0.9616319088        0.6733425040
 C         -1.4779734810       -0.9473801917        0.6294649501
 F         -0.7990325432       -1.9262580093        1.2734605186
 C         -0.7576350310        0.0296444858       -0.0511126415
 C          0.7247791708       -0.0012639213       -0.0398209429
 C          1.4383409555       -1.0051770697       -0.7048272002
 O          0.8173046577       -1.9759808669       -1.4142569178
 C          2.8302357883       -1.0069761496       -0.6754655364
 C          3.5172602864       -0.0312426830        0.0174301907
 C          2.8324281568        0.9662819011        0.6915925301
 C          1.4532580893        0.9614601472        0.6483638743
 F          0.7797095207        1.9311234995        1.3075687876
 H         -1.3966826150        2.5850548988       -2.1891374669
 H         -0.3669183997        2.8535076872       -0.7835434170
 H          0.1211058642        1.6860189828       -2.0069498991
 H         -3.4009826322        1.7908084912       -1.1993891214
 H         -4.6247346280        0.0521072921        0.0325996737
 H         -3.3662701716       -1.7383509436        1.2216752781
 H         -0.1399991955       -1.9165695731       -1.2951477510
 H          3.3481254953       -1.7910007396       -1.2032236442
 H          4.5956409116       -0.0467123995        0.0370215531
 H          3.3458434884        1.7347583600        1.2458434000
  26
  -46.4680952700000       0.103085090572559      !mtd3
 C         -0.7381532431        2.1018286220       -1.4731979086
 C         -1.4668796440        1.0316187102       -0.7226500253
 C         -2.8549433408        1.0176201691       -0.6792970797
 C         -3.5461560246        0.0376379330        0.0106805778
 C         -2.8575973378       -0.9631031326        0.6722207044
 C         -1.4773893985       -0.9480893704        0.6275683037
 F         -0.7977347469       -1.9273922548        1.2702797408
 C         -0.7576240920        0.0301401201       -0.0518691252
 C          0.7247422168       -0.0009276562       -0.0407396607
 C          1.4383216677       -1.0064186815       -0.7032856744
 O          0.8177622166       -1.9779552955       -1.4121642859
 C          2.8301587923       -1.0093398223       -0.6722865443
 C          3.5172210358       -0.0328933682        0.0194770538
 C          2.8324368962        0.9664369807        0.6910058955
 C          1.4533565570        0.9624820392        0.6464153306
 F          0.7800973376        1.9340504473        1.3030682164
 H         -0.3776434606        2.8606132158       -0.7791851492
 H          0.1238998692        1.6935057415       -1.9980236223
 H         -1.3976239661        2.5837836095       -2.1902567978
 H         -3.4022300973        1.7916970154       -1.1961208295
 H         -4.6248232738        0.0499605602        0.0327788379
 H         -3.3649429396       -1.7410308174        1.2195034355
 H         -0.1395977611       -1.9188532926       -1.2934590420
 H          3.3478762592       -1.7951330298       -1.1977271070
 H          4.5955210478       -0.0497342852        0.0409064299
 H          3.3459005579        1.7356640660        1.2441325241
  26
  -46.4680946100000       0.103013120194782      !mtd6
 C         -0.7353116867        2.0945938706       -1.4809952664
 C         -1.4658097757        1.0288182027       -0.7259040517
 C         -2.8538656482        1.0168680227       -0.6818651783
 C         -3.5458900248        0.0398525459        0.0115863656
 C         -2.8582731529       -0.9596393709        0.6760219945
 C         -1.4780240700       -0.9463368143        0.6311068570
 F         -0.7991161627       -1.9246837698        1.2758899684
 C         -0.7576033654        0.0289755640       -0.0517279131
 C          0.7248257996       -0.0017923943       -0.0405200715
 C          1.4390616151       -1.0040683434       -0.7071409197
 O          0.8185817476       -1.9738165050       -1.4186439869
 C          2.8309162837       -1.0054150954       -0.6770017689
 C          3.5170781608       -0.0308246609        0.0183763701
 C          2.8315072733        0.9651253243        0.6942183328
 C          1.4523987301        0.9599715294        0.6499670786
 F          0.7779239608        1.9286915904        1.3096265992
 H          0.1241292084        1.6816896240       -2.0067945817
 H         -1.3947821291        2.5767093299       -2.1979095898
 H         -0.3703221075        2.8541110420       -0.7900918769
 H         -3.4004138212        1.7901993829       -1.2006204629
 H         -4.6244748730        0.0544755758        0.0353907759
 H         -3.3663412218       -1.7350313916        1.2262042894
 H         -0.1386588344       -1.9157369078       -1.2984836141
 H          3.3495084698       -1.7881833111       -1.2061149220
 H          4.5954342643       -0.0459953712        0.0386957148
 H          3.3443537649        1.7327919277        1.2501413302
  26
  -46.4675875200000       6.023516623456197E-002 !mtd3
 C         -0.7244012996        1.6148839231       -1.9971953269
 C         -1.4666384445        0.7875070938       -0.9923384146
 C         -2.8544637405        0.7794517948       -0.9535035488
 C         -3.5419444041        0.0356396916       -0.0100914734
 C         -2.8517545878       -0.7215460134        0.9189857577
 C         -1.4706468825       -0.7149211784        0.8782736786
 F         -0.7892243679       -1.4662700791        1.7681493731
 C         -0.7580006798        0.0218008563       -0.0605954588
 C          0.7256738988       -0.0016402315       -0.0486490995
 C          1.4425015334       -0.7554623904       -0.9824666168
 O          0.8107428204       -1.4865068077       -1.9353221276
 C          2.8327824849       -0.7672099058       -0.9512760097
 C          3.5134173205       -0.0408869256        0.0059555262
 C          2.8246015281        0.7087991816        0.9443903079
 C          1.4444331542        0.7125522643        0.9004968558
 F          0.7629234332        1.4559068469        1.7979722743
 H         -1.4153443012        2.2052914413       -2.5927518495
 H         -0.0329883011        2.2881657040       -1.4920189408
 H         -0.1384220337        0.9875781253       -2.6684486477
 H         -3.4039099546        1.3713138563       -1.6701917658
 H         -4.6207521054        0.0473260369        0.0041921550
 H         -3.3598616458       -1.3076425458        1.6675232461
 H         -0.1460836362       -1.4334941186       -1.8057364714
 H          3.3560400890       -1.3585164393       -1.6849274994
 H          4.5918134000       -0.0591964434        0.0241308893
 H          3.3352861100        1.2816322394        1.7008971666
  26
  -46.4675867300000       6.018483224802680E-002 !mtd1
 C         -0.7239460282        1.6047290779       -2.0056578847
 C         -1.4661322380        0.7833351919       -0.9957347057
 C         -2.8540668257        0.7717912252       -0.9605028701
 C         -3.5421917984        0.0306643931       -0.0155295245
 C         -2.8523787722       -0.7189637102        0.9200562351
 C         -1.4712492766       -0.7088434932        0.8831136249
 F         -0.7904030067       -1.4537068086        1.7788305490
 C         -0.7578679411        0.0236107947       -0.0587026630
 C          0.7256552401       -0.0006105458       -0.0467155474
 C          1.4407343837       -0.7492029431       -0.9863300944
 O          0.8068533091       -1.4749089260       -1.9417341311
 C          2.8310417100       -0.7612282097       -0.9580530689
 C          3.5135954184       -0.0407097402        0.0022461491
 C          2.8266360290        0.7027134512        0.9469367091
 C          1.4463119378        0.7069394223        0.9059519891
 F          0.7671793533        1.4454086652        1.8091566210
 H          0.0104202920        2.2383006732       -1.5105395265
 H         -0.1869541827        0.9695601045       -2.7099557884
 H         -1.4099457681        2.2343163007       -2.5656081703
 H         -3.4028482255        1.3591237867       -1.6814628049
 H         -4.6210765521        0.0398371798       -0.0039208936
 H         -3.3611356793       -1.3018456492        1.6705491249
 H         -0.1494547282       -1.4276455094       -1.8055002710
 H          3.3528816188       -1.3481561533       -1.6962617288
 H          4.5920117938       -0.0592427762        0.0181103910
 H          3.3386808505        1.2708724666        1.7060437402
  26
  -46.4675841100000       6.001820267128937E-002 !mtd4
 C         -0.7231199356        1.5895382046       -2.0179703379
 C         -1.4652293463        0.7758878428       -1.0016509269
 C         -2.8531698117        0.7674948620       -0.9651703961
 C         -3.5419822430        0.0351965862       -0.0139176702
 C         -2.8529376833       -0.7093170245        0.9262577252
 C         -1.4718297598       -0.7025194757        0.8880389850
 F         -0.7921100994       -1.4429762175        1.7881099545
 C         -0.7576431706        0.0217556294       -0.0594513532
 C          0.7257709471       -0.0025312215       -0.0469972442
 C          1.4421706658       -0.7428213897       -0.9921308726
 O          0.8096218716       -1.4643014137       -1.9516174707
 C          2.8324820374       -0.7514566174       -0.9647550174
 C          3.5136915267       -0.0366918834        0.0007726520
 C          2.8254443838        0.6972411327        0.9519932924
 C          1.4451254837        0.6987120687        0.9115284808
 F          0.7645623252        1.4290434878        1.8201761756
 H         -0.1984398248        0.9487277513       -2.7267276448
 H         -1.4078836304        2.2252720257       -2.5728460410
 H          0.0217702758        2.2161672582       -1.5294197495
 H         -3.4013316466        1.3500080940       -1.6904119415
 H         -4.6209137939        0.0461004652       -0.0018971518
 H         -3.3620815937       -1.2862080587        1.6812758836
 H         -0.1467706901       -1.4198991208       -1.8143090290
 H          3.3555270529       -1.3309853907       -1.7078834929
 H          4.5921338232       -0.0521006239        0.0157183943
 H          3.3367724726        1.2603872533        1.7153821333
  26
  -46.4675830800000       5.995282202724086E-002 !mtd3
 C         -0.7131921043        1.7968450948       -1.8184638199
 C         -1.4636681907        0.8824122374       -0.9005212327
 C         -2.8512151055        0.8783357275       -0.8606073566
 C         -3.5419578029        0.0418429756       -0.0008252168
 C         -2.8556363313       -0.8169507661        0.8383828769
 C         -1.4744802103       -0.8126603091        0.7962947248
 F         -0.7945784381       -1.6572573151        1.6017579116
 C         -0.7590005980        0.0200388955       -0.0555652467
 C          0.7258810982       -0.0032952744       -0.0445565404
 C          1.4411392608       -0.8547243587       -0.8910356438
 O          0.8096056077       -1.6770255138       -1.7651799809
 C          2.8318937532       -0.8621267325       -0.8596657546
 C          3.5130696683       -0.0346530354        0.0108003130
 C          2.8250583557        0.8159495453        0.8598039865
 C          1.4451345935        0.8151098643        0.8151561150
 F          0.7624684538        1.6511231548        1.6279278425
 H         -0.0349915655        1.2340578959       -2.4593467387
 H         -1.3984740863        2.3626407015       -2.4438723424
 H         -0.1118202897        2.4968283508       -1.2391591806
 H         -3.3978833019        1.5462616096       -1.5093861796
 H         -4.6206335300        0.0596054341        0.0185960757
 H         -3.3661805186       -1.4779997802        1.5197408541
 H         -0.1477065910       -1.6109405499       -1.6436721850
 H          3.3547759432       -1.5295031138       -1.5251497278
 H          4.5913805979       -0.0514553842        0.0307351740
 H          3.3358834124        1.4688950590        1.5481817096
  26
  -46.4674386000000       5.145306138702458E-002 !mtd2
 C         -0.7508880591        1.5114887065       -2.1005554603
 C         -1.4699217224        0.7402707176       -1.0348240899
 C         -2.8587949171        0.7310973061       -0.9899991185
 C         -3.5421088047        0.0410945955       -0.0053234249
 C         -2.8466161233       -0.6620940066        0.9622153191
 C         -1.4666927265       -0.6575611781        0.9146445793
 F         -0.7821614857       -1.3635258047        1.8385170310
 C         -0.7558578113        0.0258696632       -0.0672799489
 C          0.7265633535       -0.0025499661       -0.0524887620
 C          1.4483318341       -0.7015828034       -1.0255412708
 O          0.8226361938       -1.3853579790       -2.0155199076
 C          2.8385669959       -0.7127253127       -0.9905267491
 C          3.5155032083       -0.0440229866        0.0101634389
 C          2.8222299214        0.6450151733        0.9908784270
 C          1.4423065434        0.6513140332        0.9425366130
 F          0.7592377804        1.3411690660        1.8794197651
 H         -1.3640674572        2.3405323513       -2.4447487500
 H          0.1943319183        1.9010782023       -1.7280719533
 H         -0.5345887577        0.8756451683       -2.9606555219
 H         -3.4100840014        1.2834674893       -1.7362636147
 H         -4.6208945741        0.0531008893        0.0136064358
 H         -3.3507217628       -1.2050243789        1.7449923357
 H         -0.1343701721       -1.3455272845       -1.8830155178
 H          3.3649880239       -1.2583267780       -1.7562570797
 H          4.5938211264       -0.0608452180        0.0305613546
 H          3.3290914216        1.1712816958        1.7828260707
  26
  -46.4671409900000       3.755252410941913E-002 !hor
 C         -0.7745826849        2.1380978964       -1.4473303417
 C         -1.4836705049        1.0416522494       -0.7141246047
 C         -2.8713717148        0.9947920715       -0.6832554837
 C         -3.5431098337       -0.0134620249       -0.0161470057
 C         -2.8346806338       -1.0053476399        0.6379192287
 C         -1.4554445636       -0.9570451432        0.6066510213
 F         -0.7599320938       -1.9154744012        1.2585308446
 C         -0.7584993921        0.0491964307       -0.0517633630
 C          0.7201236409        0.0284490694       -0.0384574017
 C          1.4148594035       -1.0016370518       -0.6848805898
 O          0.6876868054       -1.9207629682       -1.3655751523
 C          2.8030343710       -1.0434456690       -0.6376508813
 C          3.5119331116       -0.0725973211        0.0462155922
 C          2.8474808455        0.9546763574        0.6901724065
 C          1.4662883857        0.9827401170        0.6371787336
 F          0.8181350899        1.9776905891        1.2808103002
 H         -0.4204838053        2.8900160265       -0.7429391371
 H          0.0883442962        1.7497652005       -1.9848649237
 H         -1.4440882991        2.6229761579       -2.1527651925
 H         -3.4334073896        1.7623798626       -1.1946813289
 H         -4.6222869312       -0.0301631458       -0.0063991214
 H         -3.3290281463       -1.8049401109        1.1660258318
 H          1.2676324763       -2.6069559774       -1.7166104968
 H          3.3267331304       -1.8460151318       -1.1389340003
 H          4.5892526892       -0.1189977401        0.0776760835
 H          3.3759516787        1.7208158419        1.2333739773
  26
  -46.4671408200000       3.754576927617660E-002 !hor
 C         -0.7757666761        2.1372949450       -1.4499201075
 C         -1.4841853156        1.0411062835       -0.7156182120
 C         -2.8719247684        0.9941787838       -0.6835590731
 C         -3.5430367008       -0.0127923994       -0.0139512034
 C         -2.8339884685       -1.0039038508        0.6406642213
 C         -1.4547708981       -0.9562044344        0.6073619037
 F         -0.7585254860       -1.9141856299        1.2588868715
 C         -0.7584777294        0.0494094595       -0.0529029823
 C          0.7201817066        0.0285850534       -0.0398124977
 C          1.4153510948       -1.0009839995       -0.6865267691
 O          0.6888167308       -1.9197735215       -1.3686139925
 C          2.8035073475       -1.0433938758       -0.6377702029
 C          3.5116913616       -0.0738936565        0.0486501695
 C          2.8467957655        0.9530023259        0.6929403029
 C          1.4658184339        0.9821121624        0.6377320537
 F          0.8165851179        1.9765737367        1.2810685035
 H          0.0875784747        1.7489513249       -1.9872431114
 H         -1.4458425406        2.6211154065       -2.1558221663
 H         -0.4222165368        2.8901085339       -0.7457485540
 H         -3.4343771215        1.7612443639       -1.1953155155
 H         -4.6222057730       -0.0288123588       -0.0020110830
 H         -3.3279186157       -1.8023296681        1.1709410193
 H          1.2702425458       -2.6041302438       -1.7207986298
 H          3.3275712474       -1.8452504942       -1.1397697278
 H          4.5889759617       -0.1202011797        0.0815568533
 H          3.3754644156        1.7177397003        1.2378592088
  26
  -46.4671379600000       3.743231113535313E-002 !hor
 C         -0.7679440003        2.1261572758       -1.4592958688
 C         -1.4816150530        1.0375181646       -0.7187748563
 C         -2.8692737302        0.9944176831       -0.6873685933
 C         -3.5431790102       -0.0085215786       -0.0142123379
 C         -2.8370309591       -0.9991445416        0.6440401560
 C         -1.4575174130       -0.9546258755        0.6120317933
 F         -0.7639311621       -1.9123763317        1.2668595567
 C         -0.7587209051        0.0469692165       -0.0509426677
 C          0.7200328750        0.0263471897       -0.0378604969
 C          1.4164795474       -0.9982513287       -0.6904838758
 O          0.6909926472       -1.9162609270       -1.3747099330
 C          2.8050008286       -1.0361910974       -0.6455942455
 C          3.5121431401       -0.0672186577        0.0425029206
 C          2.8456834866        0.9542686397        0.6937666279
 C          1.4645080409        0.9786548793        0.6426354757
 F          0.8138672575        1.9681207170        1.2923514561
 H         -1.4435928608        2.6289366842       -2.1462519443
 H         -0.3832020217        2.8659567298       -0.7581351874
 H          0.0749288211        1.7242351519       -2.0190843608
 H         -3.4296556938        1.7608589256       -1.2022658340
 H         -4.6224017271       -0.0218418280       -0.0030171281
 H         -3.3333522422       -1.7949083051        1.1760645585
 H          1.2726163502       -2.5993697997       -1.7290212465
 H          3.3300513347       -1.8344004514       -1.1524108522
 H          4.5896891431       -0.1100206174        0.0715989328
 H          3.3729275445        1.7185901580        1.2407017856
  26
  -46.4670491600000       3.407508811935366E-002 !mtd4
 C         -0.7881320729        1.6569041149       -2.0090957073
 C         -1.4797377632        0.7953467989       -0.9959410087
 C         -2.8695151219        0.7674837753       -0.9473402071
 C         -3.5418293624        0.0148560807       -0.0029342761
 C         -2.8345608642       -0.7342176764        0.9216587888
 C         -1.4555228232       -0.7081462195        0.8712841850
 F         -0.7582381229       -1.4526183524        1.7546324762
 C         -0.7548814530        0.0400033168       -0.0712404285
 C          0.7293052914        0.0102935952       -0.0558944927
 C          1.4431466862       -0.7614706975       -0.9787389784
 O          0.8112198227       -1.4783433661       -1.9407785793
 C          2.8324596014       -0.8016980705       -0.9275800309
 C          3.5146742723       -0.0852365769        0.0359934812
 C          2.8289386760        0.6849840142        0.9598108692
 C          1.4497309852        0.7158472212        0.8981813157
 F          0.7716490276        1.4747215771        1.7846613863
 H         -0.8378978496        2.6990869322       -1.6935365013
 H          0.2594751496        1.3899434952       -2.1198795363
 H         -1.2799791284        1.5784046533       -2.9765751574
 H         -3.4276225935        1.3533290577       -1.6624618711
 H         -4.6205828235        0.0105590157        0.0171262513
 H         -3.3294374957       -1.3296954525        1.6715135789
 H         -0.1461239216       -1.3758064033       -1.8490511100
 H          3.3528881636       -1.4072592754       -1.6514891106
 H          4.5920810764       -0.1266910685        0.0695067196
 H          3.3412140877        1.2519234558        1.7195320853
  26
  -46.4670340700000       3.353529289279503E-002 !mtd2
 C         -0.7909171843        1.5981664417       -2.0608885162
 C         -1.4786810489        0.7713483042       -1.0160524289
 C         -2.8681798678        0.7654714308       -0.9514187573
 C         -3.5410210594        0.0471252772        0.0186440951
 C         -2.8344429570       -0.6929361211        0.9510275014
 C         -1.4559956784       -0.6882418442        0.8853665152
 F         -0.7606654639       -1.4241209847        1.7772254350
 C         -0.7541626635        0.0294976976       -0.0800729794
 C          0.7294697979       -0.0011622558       -0.0625397917
 C          1.4557125298       -0.7431801429       -0.9998101052
 O          0.8362975682       -1.4453168397       -1.9807404489
 C          2.8453718801       -0.7691989526       -0.9431877849
 C          3.5157163440       -0.0698683528        0.0409113234
 C          2.8176362205        0.6679914786        0.9818840031
 C          1.4387227582        0.6859248450        0.9139857415
 F          0.7489505330        1.4158034804        1.8157020326
 H         -1.2595901834        1.4505319666       -3.0322314842
 H         -0.8805012409        2.6540084714       -1.8060400531
 H          0.2662875056        1.3595149373       -2.1372991694
 H         -3.4250087412        1.3444249556       -1.6731775451
 H         -4.6193355521        0.0631674229        0.0537027467
 H         -3.3299727782       -1.2632278416        1.7198362747
 H         -0.1227053837       -1.3578825708       -1.8901562339
 H          3.3754011223       -1.3500547548       -1.6802612283
 H          4.5934194597       -0.0995217900        0.0773301413
 H          3.3201378091        1.2206262021        1.7584576874
  26
  -46.4670226100000       3.313106926368710E-002 !mtd2
 C         -0.8023198654        1.5655965086       -2.0938727150
 C         -1.4828242806        0.7523732117       -1.0332375644
 C         -2.8722909292        0.7397116424       -0.9684267216
 C         -3.5412915822        0.0401402263        0.0178881016
 C         -2.8304605227       -0.6738137443        0.9672522820
 C         -1.4523277542       -0.6648425127        0.8999158812
 F         -0.7539836164       -1.3786131790        1.8067239927
 C         -0.7538697041        0.0338623933       -0.0824224573
 C          0.7292949967        0.0025218779       -0.0656476954
 C          1.4559135877       -0.7213747437       -1.0168533276
 O          0.8385410409       -1.4012760457       -2.0147190541
 C          2.8452761597       -0.7547463617       -0.9560019127
 C          3.5157199509       -0.0815847380        0.0460313337
 C          2.8174268573        0.6382063302        1.0007824676
 C          1.4389577945        0.6641727270        0.9285441172
 F          0.7501732754        1.3779149171        1.8433717171
 H          0.2610173492        1.3510868543       -2.1531600165
 H         -1.2568621875        1.3806792568       -3.0658544712
 H         -0.9199945607        2.6256905931       -1.8693001241
 H         -3.4324078536        1.2993163730       -1.7029970326
 H         -4.6196397826        0.0512464855        0.0523269533
 H         -3.3224094924       -1.2281953843        1.7499943923
 H         -0.1202592484       -1.3091755171       -1.9288194028
 H          3.3752368846       -1.3212658975       -1.7042482610
 H          4.5930073745       -0.1175051008        0.0859866560
 H          3.3191257852        1.1705189727        1.7919625253
  26
  -46.4668589000000       2.786118253511137E-002 !mtd4
 C         -0.7782993862        2.0037161147       -1.6465553310
 C         -1.4724390997        0.9869163987       -0.7935953205
 C         -2.8621087094        0.9639421175       -0.7449564722
 C         -3.5429122013        0.0285980376        0.0110499210
 C         -2.8439469382       -0.9179202990        0.7400192114
 C         -1.4650403706       -0.8939422736        0.6907415190
 F         -0.7735758596       -1.8192533362        1.3942626081
 C         -0.7550588211        0.0398758212       -0.0602098195
 C          0.7292865513        0.0054421418       -0.0437789740
 C          1.4378706862       -0.9510547600       -0.7777048809
 O          0.8061187434       -1.8606395573       -1.5569131399
 C          2.8286814851       -0.9708737078       -0.7360847413
 C          3.5168481380       -0.0563730739        0.0354904828
 C          2.8360367743        0.8953646680        0.7763539293
 C          1.4567875895        0.9073442641        0.7223678013
 F          0.7826438078        1.8356626296        1.4360404231
 H          0.2948612225        2.0020209217       -1.4786681017
 H         -0.9624353211        1.7920140814       -2.7000934128
 H         -1.1653276112        2.9981208569       -1.4333792677
 H         -3.4138473936        1.6984227605       -1.3125805834
 H         -4.6215743877        0.0330911912        0.0357876549
 H         -3.3439318235       -1.6595696861        1.3415710038
 H         -0.1513413128       -1.7745608673       -1.4547487367
 H          3.3453906275       -1.7176952735       -1.3160390271
 H          4.5945952908       -0.0842555925        0.0641015297
 H          3.3518735643        1.6161614150        1.3891760064
  26
  -46.4668587200000       2.785587617973697E-002 !mtd2
 C         -0.7765698910        1.8037060195       -1.8665081450
 C         -1.4741282520        0.8828264355       -0.9122909482
 C         -2.8639976579        0.8640361750       -0.8621331107
 C         -3.5417309614        0.0297126064        0.0065513661
 C         -2.8401668687       -0.8151056711        0.8496589317
 C         -1.4611097297       -0.7960697152        0.7980932665
 F         -0.7670982896       -1.6261951363        1.6066731986
 C         -0.7554205159        0.0361790811       -0.0667077173
 C          0.7301040527        0.0055914596       -0.0503968428
 C          1.4424356656       -0.8476764593       -0.8983326499
 O          0.8093657993       -1.6523054906       -1.7861708486
 C          2.8326546525       -0.8756638590       -0.8507232814
 C          3.5155948139       -0.0658022161        0.0348287102
 C          2.8302753072        0.7861694655        0.8848509201
 C          1.4508468506        0.8036108206        0.8278026906
 F          0.7709122749        1.6369404229        1.6445531973
 H         -1.0946413067        2.8300272308       -1.6914159141
 H          0.3031385332        1.7502171090       -1.7540762644
 H         -1.0336087252        1.5468736916       -2.8938870696
 H         -3.4176640886        1.5218623226       -1.5155479469
 H         -4.6205286394        0.0350984970        0.0316594395
 H         -3.3397131632       -1.4757677021        1.5396258772
 H         -0.1480334349       -1.5542078997       -1.6913160098
 H          3.3534797613       -1.5444308954       -1.5163436908
 H          4.5933502281       -0.0971644859        0.0658189688
 H          3.3432494671        1.4260841045        1.5838340467
  26
  -46.4665117400000       1.929549196934215E-002 !hor
 C         -0.7522412554        1.8367202022       -1.8033877301
 C         -1.4819629344        0.9006975390       -0.8904013370
 C         -2.8689160584        0.8669962965       -0.8503125672
 C         -3.5417777870        0.0015203285       -0.0056254657
 C         -2.8362297317       -0.8552929995        0.8191811945
 C         -1.4560567149       -0.8206608462        0.7752384580
 F         -0.7579879481       -1.6566390342        1.5765337978
 C         -0.7606634462        0.0412344244       -0.0610240335
 C          0.7209310606        0.0238422308       -0.0502905266
 C          1.4276544212       -0.8551588801       -0.8774419446
 O          0.7103141817       -1.6384468331       -1.7227843986
 C          2.8150633163       -0.8998016843       -0.8222637416
 C          3.5084907209       -0.0780519890        0.0481497766
 C          2.8308593764        0.8043984286        0.8686721018
 C          1.4499080485        0.8365174405        0.8037274694
 F          0.7824239507        1.6995414317        1.5987344521
 H         -0.1063306119        1.2773168880       -2.4788946765
 H         -1.4509026870        2.4248101640       -2.3923985096
 H         -0.1235589937        2.5147667119       -1.2274071810
 H         -3.4306638002        1.5298314649       -1.4919101812
 H         -4.6209735051       -0.0080487013        0.0102268430
 H         -3.3321285456       -1.5407745378        1.4876929209
 H          1.3037310753       -2.2219252054       -2.2119091042
 H          3.3510871045       -1.5880125583       -1.4617597262
 H          4.5854645326       -0.1278349074        0.0862119522
 H          3.3488716121        1.4542579121        1.5546829344
  26
  -46.4665074400000       1.920789234275877E-002 !hor
 C         -0.7394617137        1.8155707263       -1.8151203428
 C         -1.4764472195        0.8905188939       -0.8967994971
 C         -2.8635362130        0.8624131642       -0.8610116517
 C         -3.5421133094        0.0070158775       -0.0106735076
 C         -2.8422144005       -0.8445712953        0.8241291869
 C         -1.4616732143       -0.8151163129        0.7848939120
 F         -0.7694746990       -1.6469456184        1.5952976194
 C         -0.7607864510        0.0364174405       -0.0570423415
 C          0.7207676122        0.0186817719       -0.0459782008
 C          1.4285444438       -0.8481527838       -0.8845389697
 O          0.7120807604       -1.6281266113       -1.7340222355
 C          2.8167379474       -0.8833205215       -0.8378168430
 C          3.5098788774       -0.0644912871        0.0354962647
 C          2.8307416940        0.8045349457        0.8689738130
 C          1.4492383322        0.8274745533        0.8122619990
 F          0.7806660096        1.6781477099        1.6191324628
 H         -0.1135144894        2.4989690161       -1.2423431085
 H         -0.0900472748        1.2475814292       -2.4799311883
 H         -1.4332020421        2.3981156190       -2.4156131212
 H         -3.4203926532        1.5222355849       -1.5099014432
 H         -4.6213615749        0.0020772302        0.0025128373
 H         -3.3429968086       -1.5221496415        1.4969466957
 H          1.3050319641       -2.2094730100       -2.2252009543
 H          3.3530897540       -1.5611582603       -1.4880496431
 H          4.5875126069       -0.1049897424        0.0647017534
 H          3.3478966090        1.4520582607        1.5578827479
  26
  -46.4664862000000       1.878099014291081E-002 !hor
 C         -0.7357347867        1.7891880062       -1.8392682013
 C         -1.4746840679        0.8796283744       -0.9072774316
 C         -2.8617262785        0.8595929728       -0.8668969805
 C         -3.5421862432        0.0177852462       -0.0046118306
 C         -2.8443030064       -0.8285870445        0.8372071094
 C         -1.4636931789       -0.8063142897        0.7942774426
 F         -0.7733710917       -1.6328715404        1.6116391554
 C         -0.7609415757        0.0322240236       -0.0590096920
 C          0.7206504254        0.0140262396       -0.0474260700
 C          1.4325381620       -0.8393605960       -0.8956844217
 O          0.7214658608       -1.6129018234       -1.7555781874
 C          2.8210958155       -0.8685629665       -0.8485891973
 C          3.5104511959       -0.0568315033        0.0339651603
 C          2.8269871252        0.7983922364        0.8781542838
 C          1.4454714333        0.8148173611        0.8216626043
 F          0.7725946674        1.6524267166        1.6385280898
 H         -1.4281720861        2.3784511186       -2.4342750755
 H         -0.0921232655        2.4659469278       -1.2786784002
 H         -0.1036476980        1.2076846290       -2.5089781789
 H         -3.4172220485        1.5153825229       -1.5210164359
 H         -4.6213755640        0.0195820694        0.0124823774
 H         -3.3467058511       -1.4962452544        1.5186717847
 H          1.3178718262       -2.1897599691       -2.2477614644
 H          3.3604697437       -1.5366305454       -1.5063686195
 H          4.5883287074       -0.0920889776        0.0623614145
 H          3.3405686085        1.4404482629        1.5746861443
  26
  -46.4664756800000       1.857307564280320E-002 !hor
 C         -0.7522915453        1.5746671023       -2.0431438214
 C         -1.4791631238        0.7767627300       -1.0055252588
 C         -2.8662411054        0.7603272276       -0.9564497268
 C         -3.5428298414        0.0253899067        0.0010454235
 C         -2.8402633879       -0.7143262132        0.9346282819
 C         -1.4600864395       -0.6963860220        0.8833336998
 F         -0.7674326705       -1.4286728736        1.7838994372
 C         -0.7600324414        0.0328899160       -0.0686852646
 C          0.7201422646        0.0119874778       -0.0570734253
 C          1.4424080035       -0.7297822332       -0.9975279081
 O          0.7429776280       -1.4039710893       -1.9473188484
 C          2.8301340864       -0.7623180712       -0.9428799833
 C          3.5113556920       -0.0639299021        0.0376343016
 C          2.8188969916        0.6787126015        0.9756719696
 C          1.4378555039        0.6982999705        0.9120909678
 F          0.7591116123        1.4319328120        1.8172336732
 H         -0.2838316238        0.9046022929       -2.7626865023
 H         -1.4363695611        2.2304673490       -2.5739521269
 H          0.0323854364        2.1761301606       -1.5863304737
 H         -3.4248165616        1.3362971047       -1.6795058490
 H         -4.6219685835        0.0285509926        0.0221633448
 H         -3.3386464406       -1.2972319210        1.6925281876
 H          1.3489465177       -1.9164186095       -2.4962727247
 H          3.3761870420       -1.3445462661       -1.6729641900
 H          4.5889946754       -0.1002491474        0.0691993262
 H          3.3251632619        1.2324350581        1.7491371265
  26
  -46.4664734800000       1.852988728185497E-002 !mtd5
 C         -0.7578912473        1.5453458829       -2.0697369866
 C         -1.4808470257        0.7623358694       -1.0182994495
 C         -2.8678671072        0.7444892892       -0.9679947757
 C         -3.5430142021        0.0244930829        0.0016860944
 C         -2.8387485560       -0.6982094980        0.9471953580
 C         -1.4587215462       -0.6792848507        0.8947026298
 F         -0.7650615435       -1.3968267332        1.8061460411
 C         -0.7597971677        0.0343449556       -0.0703075313
 C          0.7201484590        0.0129764008       -0.0590030638
 C          1.4435388381       -0.7135218708       -1.0106419931
 O          0.7467354701       -1.3731745935       -1.9728171453
 C          2.8312056198       -0.7483166109       -0.9541829563
 C          3.5114473931       -0.0677601927        0.0395336640
 C          2.8180167135        0.6590954694        0.9891332825
 C          1.4370186986        0.6812416418        0.9237039065
 F          0.7578283208        1.4005080874        1.8397365368
 H         -1.4426069081        2.2010195179       -2.6010859411
 H          0.0362353812        2.1444201401       -1.6263019375
 H         -0.3023045405        0.8640952759       -2.7878087180
 H         -3.4275525991        1.3075069896       -1.7004750718
 H         -4.6221130341        0.0262640685        0.0230334997
 H         -3.3356017612       -1.2691103572        1.7151308311
 H          1.3539076634       -1.8783268382       -2.5264381851
 H          3.3778635458       -1.3182677724       -1.6931876418
 H          4.5888995001       -0.1051228958        0.0722261619
 H          3.3234606313        1.1986156318        1.7731789050
  26
  -46.4664733800000       1.852792656246156E-002 !hor
 C         -0.7523371951        1.5606279652       -2.0540435674
 C         -1.4790566074        0.7721001861       -1.0092279568
 C         -2.8660466427        0.7615815742       -0.9558844561
 C         -3.5428406482        0.0338149775        0.0069437196
 C         -2.8405283137       -0.7052738049        0.9411757462
 C         -1.4604387613       -0.6926716481        0.8861871903
 F         -0.7681283297       -1.4240111980        1.7877694406
 C         -0.7601921135        0.0301815963       -0.0706403244
 C          0.7200610132        0.0090570524       -0.0588466509
 C          1.4452626517       -0.7261362470       -1.0020072302
 O          0.7503068209       -1.3979540036       -1.9567642585
 C          2.8332666530       -0.7554180709       -0.9452723518
 C          3.5115716477       -0.0601903540        0.0394245173
 C          2.8159462389        0.6757412412        0.9805523958
 C          1.4349559817        0.6921031988        0.9149873217
 F          0.7532904836        1.4200670710        1.8224799839
 H          0.0446716196        2.1530204966       -1.6053210475
 H         -0.2987831056        0.8830960998       -2.7775907182
 H         -1.4340701575        2.2241252700       -2.5802139558
 H         -3.4244831376        1.3370015885       -1.6795418831
 H         -4.6218405866        0.0424384461        0.0317871753
 H         -3.3391094953       -1.2830677402        1.7028226803
 H          1.3591028930       -1.9055946560       -2.5067833479
 H          3.3816198855       -1.3323723907       -1.6779263038
 H          4.5893216845       -0.0937995134        0.0717368576
 H          3.3192164678        1.2270570437        1.7577150751
  26
  -46.4659088700000       1.019520557197257E-002 !hor
 C         -0.8084615308        2.0371198203       -1.6254104374
 C         -1.4856452336        0.9979014747       -0.7846385911
 C         -2.8750192274        0.9492810628       -0.7429180903
 C         -3.5409667194       -0.0098373544       -0.0044405548
 C         -2.8262119906       -0.9523947035        0.7143691904
 C         -1.4483644047       -0.9027665193        0.6706607252
 F         -0.7436042961       -1.8152094286        1.3768715862
 C         -0.7561006929        0.0557380643       -0.0618326197
 C          0.7244561383        0.0287507120       -0.0440418559
 C          1.4206654083       -0.9497498738       -0.7613845677
 O          0.6952938944       -1.8162041395       -1.5110690850
 C          2.8085155985       -0.9988930499       -0.7046809563
 C          3.5124710787       -0.0869680659        0.0603192477
 C          2.8447361978        0.8891956952        0.7769321656
 C          1.4641556549        0.9256459059        0.7128640736
 F          0.8075930523        1.8741774314        1.4136635559
 H          0.2598929811        2.0740837667       -1.4334423819
 H         -0.9593095531        1.8114918019       -2.6811427019
 H         -1.2354154529        3.0184243789       -1.4278868338
 H         -3.4384355631        1.6802988172       -1.3039037976
 H         -4.6198473474       -0.0271819218        0.0142700424
 H         -3.3156572174       -1.7130379859        1.3012953795
 H          1.2796914491       -2.4657960566       -1.9199015580
 H          3.3350887488       -1.7611047420       -1.2627020509
 H          4.5893246066       -0.1385125291        0.0983664301
 H          3.3703594029        1.6088307774        1.3828412508
  26
  -46.4655339900000       6.856667151072781E-003 !hor
 C         -0.8123141339        1.6590020936       -2.0216117011
 C         -1.4887622038        0.7987024315       -0.9984737215
 C         -2.8776966049        0.7677541838       -0.9371389211
 C         -3.5410120244        0.0121018673        0.0106597247
 C         -2.8236568408       -0.7394148438        0.9250075806
 C         -1.4458039847       -0.7085598641        0.8607204891
 F         -0.7385592402       -1.4508955388        1.7418167264
 C         -0.7563777712        0.0462568395       -0.0822340359
 C          0.7246601037        0.0202920600       -0.0645214080
 C          1.4442172821       -0.7567946484       -0.9784264646
 O          0.7414992067       -1.4423910967       -1.9165142441
 C          2.8310806900       -0.8071238014       -0.9092755020
 C          3.5120449097       -0.0974324654        0.0633222227
 C          2.8213890268        0.6772285672        0.9765138966
 C          1.4417799817        0.7186058866        0.8960377088
 F          0.7639146521        1.4804052101        1.7780968678
 H         -1.2689341290        1.5119079434       -2.9982882885
 H         -0.9248463804        2.7094208075       -1.7528690824
 H          0.2480838553        1.4355220724       -2.0908592233
 H         -3.4436475403        1.3524975565       -1.6474517192
 H         -4.6198836218        0.0055167275        0.0406983273
 H         -3.3102831406       -1.3404460987        1.6763185266
 H          1.3439069839       -1.9621134432       -2.4620501602
 H          3.3753619449       -1.4142751325       -1.6199356760
 H          4.5883488191       -0.1510707650        0.1093649296
 H          3.3281340430        1.2381371616        1.7444242576
