  26
 
 C         -1.3422388595        1.9264420373        0.0399132091
 C         -1.6200791139        0.4573002784       -0.0229582487
 C         -2.9230144856       -0.0146323975       -0.1144297270
 C         -3.1980194177       -1.3693471169       -0.1730162103
 C         -2.1658521831       -2.2896823273       -0.1470988504
 C         -0.8707592784       -1.8187756971       -0.0567329405
 F          0.1444869870       -2.7146727660       -0.0355137872
 C         -0.5670072920       -0.4623421920        0.0101818223
 C          0.8459940066       -0.0272928769        0.1230824725
 C          1.7445145532       -0.1913000966       -0.9375460303
 O          1.3633809809       -0.7181371885       -2.1245306630
 C          3.0672032603        0.2205731685       -0.8006221327
 C          3.5071224048        0.7804352397        0.3813482813
 C          2.6384955626        0.9448692194        1.4475412189
 C          1.3282423074        0.5394222824        1.2965344597
 F          0.4767897191        0.6944927587        2.3354712558
 H         -0.4828274272        2.1876725000       -0.5754133121
 H         -2.2063641411        2.4946043523       -0.2941205414
 H         -1.1189963256        2.2179371673        1.0656488320
 H         -3.7362295376        0.6953935237       -0.1380459923
 H         -4.2189790041       -1.7118676603       -0.2397612686
 H         -2.3451806962       -3.3517702702       -0.1896424550
 H          0.4523661122       -1.0366219393       -2.0716800463
 H          3.7309598200        0.0838238893       -1.6386285683
 H          4.5359456522        1.0899063114        0.4773890725
 H          2.9600453956        1.3735688002        2.3826301499
