26

C     -0.902252   -1.488214    1.523560
C     -1.425676   -0.384631    0.699500
C     -2.751795   -0.029337    0.848999
C     -3.315401    0.996283    0.110872
C     -2.519863    1.675214   -0.796473
C     -1.191809    1.356924   -0.980580
F     -0.410991    2.038605   -1.885135
C     -0.681032    0.326193   -0.218840
C      0.708709   -0.039401   -0.381729
C      1.659556    0.567934    0.390663
O      1.322772    1.551092    1.352159
C      2.979039    0.204236    0.218963
C      3.384729   -0.744324   -0.696264
C      2.393104   -1.330804   -1.453447
C      1.065247   -0.986515   -1.303038
F      0.107067   -1.609923   -2.093141
H      0.190280   -1.448074    1.677123
H     -1.341124   -1.381601    2.540971
H     -1.253969   -2.492005    1.173330
H     -3.376244   -0.565063    1.563766
H     -4.360900    1.277625    0.227604
H     -2.919434    2.494895   -1.404601
H      1.820344    2.404777    1.444620
H      3.734569    0.682279    0.828010
H      4.434395   -0.992747   -0.790693
H      2.650678   -2.083417   -2.189519
