26

C      0.602364    1.877655   -1.006040
C      1.379404    0.755173   -0.418172
C      2.758477    0.753764   -0.355081
C      3.475286   -0.288269    0.190436
C      2.798207   -1.381907    0.698292
C      1.415724   -1.388870    0.639165
F      0.787466   -2.475295    1.145668
C      0.694243   -0.341256    0.090690
C     -0.768841   -0.376628    0.041915
C     -1.522768    0.129601    1.081304
O     -0.844388    0.669337    2.166222
C     -2.900976    0.087217    1.016914
C     -3.585971   -0.445971   -0.054602
C     -2.829586   -0.951201   -1.092004
C     -1.456930   -0.911714   -1.033408
F     -0.746505   -1.417800   -2.071829
H     -0.083787    1.538583   -1.806748
H      1.297224    2.601718   -1.482876
H      0.005985    2.390779   -0.239797
H      3.257762    1.632820   -0.765324
H      4.574667   -0.231212    0.212070
H      3.364470   -2.205004    1.129199
H     -0.119589    1.342834    2.119045
H     -3.504541    0.485265    1.834335
H     -4.679079   -0.472991   -0.092284
H     -3.368315   -1.376627   -1.947091
