26

C     -1.195615   -1.730868   -0.668652
C     -1.608035   -0.422817   -0.063755
C     -2.924890   -0.170162    0.256677
C     -3.315423    1.030322    0.813803
C     -2.330700    1.971455    1.038139
C     -1.011988    1.717115    0.716712
F     -0.043639    2.636229    0.934705
C     -0.623898    0.517648    0.160405
C      0.769136    0.220266   -0.190932
C      1.618206   -0.367770    0.723484
O      1.109268   -0.666641    1.982465
C      2.942283   -0.663294    0.425212
C      3.453089   -0.369097   -0.822384
C      2.600287    0.219322   -1.734712
C      1.283577    0.512826   -1.437058
F      0.471542    1.084293   -2.336762
H     -0.253992   -1.643663   -1.225077
H     -1.023331   -2.421616    0.186304
H     -2.006466   -2.155836   -1.297763
H     -3.676815   -0.944371    0.062557
H     -4.353828    1.212626    1.059536
H     -2.621997    2.915775    1.473770
H      1.630215   -1.223432    2.628012
H      3.610852   -1.127692    1.149048
H      4.477167   -0.577267   -1.109660
H      3.024994    0.446648   -2.724076
