26

C     -1.248951    1.890973   -0.138326
C     -1.586844    0.438695   -0.172555
C     -2.906668    0.095750   -0.377868
C     -3.262025   -1.235602   -0.416493
C     -2.263977   -2.172672   -0.245151
C     -0.930798   -1.836896   -0.037618
F      0.019729   -2.811610    0.126647
C     -0.592420   -0.502822   -0.001731
C      0.785979   -0.086356    0.211919
C      1.659279    0.106937   -0.828508
O      1.242630   -0.093324   -2.132989
C      2.938753    0.498805   -0.541471
C      3.381759    0.705965    0.749261
C      2.520319    0.516921    1.802546
C      1.234485    0.122196    1.498969
F      0.370427   -0.067694    2.550580
H     -1.892161    2.376433   -0.900385
H     -0.164158    2.048420   -0.383364
H     -1.486175    2.242293    0.892827
H     -3.689441    0.826874   -0.512197
H     -4.303244   -1.529990   -0.578152
H     -2.562767   -3.216902   -0.278630
H      1.850442   -0.662368   -2.722344
H      3.643131    0.656551   -1.349774
H      4.407160    1.017643    0.939826
H      2.835537    0.671777    2.844981
