26

C     -1.114573   -0.697137    1.890490
C     -1.591186   -0.246305    0.543969
C     -2.931051   -0.096509    0.247297
C     -3.336510    0.319369   -0.999102
C     -2.415595    0.590252   -1.962110
C     -1.091740    0.445768   -1.679980
F     -0.156954    0.713054   -2.633622
C     -0.654758    0.028296   -0.432609
C      0.773903   -0.107348   -0.191366
C      1.503973    0.962019    0.287604
O      0.825296    2.150385    0.524115
C      2.879718    0.840253    0.522647
C      3.509567   -0.358794    0.273106
C      2.804073   -1.429590   -0.201435
C      1.453220   -1.280765   -0.423083
F      0.775197   -2.349756   -0.891600
H     -1.899688   -0.438223    2.631614
H     -0.923457   -1.804861    1.859814
H     -0.158804   -0.197650    2.147581
H     -3.662943   -0.314634    1.021461
H     -4.395592    0.431828   -1.214990
H     -2.701633    0.918691   -2.950786
H      1.242718    3.036609    0.677238
H      3.407683    1.696939    0.895056
H      4.579485   -0.447494    0.457763
H      3.279650   -2.364397   -0.399069
