26

C      0.706132    2.045988    0.713205
C      1.412327    0.906938    0.076953
C      2.779668    0.954874   -0.086122
C      3.434876   -0.097516   -0.674333
C      2.722751   -1.194634   -1.097951
C      1.349506   -1.247723   -0.936515
F      0.649417   -2.329013   -1.354252
C      0.693797   -0.188965   -0.345216
C     -0.750318   -0.277678   -0.191042
C     -1.303196   -0.833333    0.964479
O     -0.434250   -1.289101    1.941892
C     -2.670177   -0.925840    1.128303
C     -3.534131   -0.478596    0.168920
C     -3.005191    0.071932   -0.976356
C     -1.638649    0.169705   -1.151260
F     -1.124011    0.713208   -2.282097
H      0.358584    2.781601   -0.052523
H     -0.165978    1.743955    1.299927
H      1.429989    2.588925    1.351599
H      3.297890    1.842968    0.264703
H      4.518732   -0.012965   -0.781518
H      3.260711   -2.026929   -1.565837
H     -0.697362   -1.392807    2.906218
H     -3.027323   -1.374549    2.063413
H     -4.591016   -0.579464    0.357251
H     -3.672778    0.429021   -1.741841
