26

C     -1.290893    1.926367   -0.181103
C     -1.584086    0.458637   -0.097355
C     -2.884722    0.002402   -0.212417
C     -3.189697   -1.343795   -0.139797
C     -2.179499   -2.264521    0.052055
C     -0.874122   -1.804193    0.167337
F      0.130671   -2.690157    0.355771
C     -0.560929   -0.454833    0.095421
C      0.816994   -0.031599    0.222152
C      1.599670    0.070999   -0.905133
O      1.083185   -0.226386   -2.160135
C      2.923482    0.470018   -0.849454
C      3.483822    0.776277    0.369585
C      2.717639    0.681634    1.523560
C      1.380452    0.275216    1.437986
F      0.669091    0.196044    2.585114
H     -0.300657    2.122118   -0.600534
H     -2.121194    2.370028   -0.794544
H     -1.433203    2.335378    0.838446
H     -3.686088    0.729520   -0.364349
H     -4.212785   -1.710230   -0.229700
H     -2.422148   -3.330311    0.109408
H      0.695596   -1.127001   -2.382154
H      3.523563    0.545833   -1.738523
H      4.513244    1.090247    0.445009
H      3.202613    0.932307    2.453354
