26

C     -1.031105    1.853232    0.500827
C     -1.538897    0.527246    0.115744
C     -2.900794    0.370687   -0.045231
C     -3.418486   -0.853919   -0.405180
C     -2.518591   -1.888447   -0.590616
C     -1.149358   -1.741112   -0.431356
F     -0.285444   -2.761869   -0.616453
C     -0.647962   -0.506166   -0.070201
C      0.765917   -0.223601    0.127715
C      1.568056    0.209741   -0.917577
O      1.032547    0.384303   -2.186355
C      2.907491    0.473219   -0.712252
C      3.480314    0.308914    0.549866
C      2.694386   -0.121344    1.598073
C      1.374348   -0.374342    1.367471
F      0.604215   -0.802041    2.420349
H     -1.843338    2.587241    0.681584
H     -0.375585    2.310929   -0.283665
H     -0.422712    1.833889    1.425337
H     -3.600429    1.179949    0.100206
H     -4.473090   -1.043090   -0.547243
H     -2.897021   -2.843809   -0.869159
H      1.519232    0.067332   -3.032227
H      3.540456    0.811916   -1.523269
H      4.524091    0.506268    0.743673
H      3.091760   -0.265126    2.599938
