26

C     -1.159908   -1.803893   -0.452787
C     -1.563034   -0.479146    0.052318
C     -2.883831   -0.276179    0.394600
C     -3.261529    0.961170    0.866616
C     -2.309612    1.967662    0.985640
C     -0.980417    1.757153    0.639197
F     -0.038397    2.721065    0.746772
C     -0.606666    0.505382    0.163440
C      0.761889    0.183658   -0.226502
C      1.639006   -0.319063    0.697242
O      1.233584   -0.525455    2.006745
C      2.917311   -0.611961    0.303020
C      3.363748   -0.426694   -0.972744
C      2.461382    0.082439   -1.891180
C      1.188020    0.383249   -1.534288
F      0.279681    0.882603   -2.406696
H     -1.563696   -2.590533    0.217727
H     -0.051223   -1.915269   -0.480333
H     -1.537923   -1.914163   -1.488216
H     -3.605564   -1.070585    0.294434
H     -4.264179    1.209700    1.156408
H     -2.581234    2.945685    1.353064
H      1.806543   -0.264299    2.816970
H      3.644957   -1.016815    1.021141
H      4.362466   -0.644282   -1.325220
H      2.748625    0.258570   -2.937369
