26

C     -1.062256   -1.581491   -1.155314
C     -1.555017   -0.370868   -0.435614
C     -2.907689   -0.120557   -0.365769
C     -3.380496    0.993084    0.295031
C     -2.432598    1.838612    0.879230
C     -1.081810    1.585144    0.807307
F     -0.221618    2.436194    1.389470
C     -0.619597    0.474049    0.147425
C      0.806470    0.150595    0.036927
C      1.452681   -0.625782    0.974623
O      0.753885   -1.134142    2.074387
C      2.788019   -0.886343    0.805047
C      3.521668   -0.406766   -0.264682
C      2.856941    0.368349   -1.192395
C      1.506353    0.646519   -1.043826
F      0.878675    1.417583   -1.981173
H     -0.033228   -1.819153   -0.872738
H     -1.719332   -2.418722   -0.869155
H     -1.083857   -1.427317   -2.261821
H     -3.642372   -0.772688   -0.816618
H     -4.434324    1.223518    0.371426
H     -2.815905    2.706366    1.393209
H      1.152401   -0.941190    3.005934
H      3.338471   -1.496260    1.523147
H      4.574954   -0.619565   -0.387058
H      3.359580    0.780832   -2.057003
