26

C      0.946926    2.009208    0.408506
C      1.449898    0.639808    0.195614
C      2.834173    0.474462    0.130974
C      3.406818   -0.745948   -0.062433
C      2.617563   -1.874815   -0.202537
C      1.252909   -1.701046   -0.137254
F      0.463173   -2.793397   -0.272041
C      0.658440   -0.472582    0.057961
C     -0.786138   -0.296591    0.125962
C     -1.501002   -0.042519   -1.023948
O     -0.780028    0.034470   -2.225719
C     -2.869710    0.133569   -1.026107
C     -3.585359    0.059449    0.150558
C     -2.882819   -0.194370    1.309896
C     -1.496321   -0.371886    1.305957
F     -0.825209   -0.617884    2.438514
H     -0.107578    2.151398    0.163456
H      1.165250    2.260180    1.487291
H      1.592907    2.724553   -0.168580
H      3.501005    1.339279    0.236488
H      4.491365   -0.869517   -0.112219
H      3.100651   -2.811841   -0.352314
H     -1.098867    0.690547   -2.912025
H     -3.430564    0.333114   -1.929876
H     -4.669335    0.196046    0.169110
H     -3.448147   -0.253688    2.244768
