  26
 
 C         -0.7435313755        2.1007383399       -1.4750157506
 C         -1.4701972445        1.0307823826       -0.7222365676
 C         -2.8581833313        1.0122088400       -0.6789040037
 C         -3.5460989269        0.0309090928        0.0125690599
 C         -2.8543205527       -0.9656675357        0.6768999355
 C         -1.4741690136       -0.9461443548        0.6323436943
 F         -0.7911707996       -1.9217261441        1.2769834402
 C         -0.7578151390        0.0325781490       -0.0500008628
 C          0.7246164305        0.0022089102       -0.0421596595
 C          1.4350742676       -1.0031413897       -0.7082608514
 O          0.8107086360       -1.9711378985       -1.4188260879
 C          2.8268129843       -1.0100934458       -0.6781249998
 C          3.5166983165       -0.0375872411        0.0163664406
 C          2.8351295902        0.9622686369        0.6902141967
 C          1.4559871777        0.9622648385        0.6463957168
 F          0.7854703411        1.9341527031        1.3053715725
 H          0.0998555731        1.6865996321       -2.0251463506
 H         -1.4119469493        2.6016380257       -2.1702995704
 H         -0.3555162754        2.8446553350       -0.7800538863
 H         -3.4081889645        1.7840740650       -1.1963314240
 H         -4.6247779381        0.0399405174        0.0350129161
 H         -3.3590303954       -1.7439948741        1.2259664172
 H         -0.1464195224       -1.9082516357       -1.2999781947
 H          3.3422199091       -1.7959503640       -1.2056783398
 H          4.5949556120       -0.0572959271        0.0374904723
 H          3.3514162748        1.7288131281        1.2446747778
          26
        -46.46791999
 C         -0.7519612951        2.1550045413       -1.4045571762
 C         -1.4666407687        1.0542281075       -0.6876460410
 C         -2.8555706611        1.0370921070       -0.6443408958
 C         -3.5479523811        0.0340698520        0.0101743898
 C         -2.8587741524       -0.9866422229        0.6390578353
 C         -1.4783015105       -0.9649002662        0.6005368044
 F         -0.8002988546       -1.9638861958        1.2175446932
 C         -0.7554894911        0.0339190806       -0.0474358447
 C          0.7254011137       -0.0011204650       -0.0384587494
 C          1.4353467669       -1.0281170076       -0.6741185543
 O          0.8102922556       -2.0195299757       -1.3510753854
 C          2.8278846551       -1.0354406801       -0.6434529873
 C          3.5229408568       -0.0368893217        0.0113620618
 C          2.8429020908        0.9861131137        0.6509330842
 C          1.4607841895        0.9826654821        0.6129886069
 F          0.7899059249        1.9727961320        1.2495411836
 H          0.1884928979        1.8061049415       -1.8271423454
 H         -1.3745038051        2.5593799296       -2.1990815042
 H         -0.5322413784        2.9617366936       -0.7068213758
 H         -3.3995998578        1.8312772522       -1.1327662969
 H         -4.6267573804        0.0422488016        0.0265505028
 H         -3.3652561646       -1.7852931223        1.1572958618
 H         -0.1389615986       -1.9780702482       -1.1889490367
 H          3.3411484235       -1.8408773362       -1.1431073003
 H          4.6002556995       -0.0549513213        0.0281867924
 H          3.3591345473        1.7741262300        1.1747079300
