  26
        -46.46809570
 C         -0.7367919320        2.1000824133       -1.4741391961
 C         -1.4662811995        1.0310738617       -0.7226601494
 C         -2.8543492678        1.0179909723       -0.6792029777
 C         -3.5461647039        0.0383557775        0.0106160215
 C         -2.8581890320       -0.9629652565        0.6718667499
 C         -1.4779824313       -0.9485505838        0.6275601720
 F         -0.7989009568       -1.9285073160        1.2700189473
 C         -0.7575962931        0.0295111993       -0.0514341595
 C          0.7247374573       -0.0012492796       -0.0400310047
 C          1.4387727385       -1.0061654387       -0.7030679562
 O          0.8185234040       -1.9785361621       -1.4109567897
 C          2.8306327147       -1.0075749107       -0.6733509149
 C          3.5173260946       -0.0304354045        0.0178592523
 C          2.8320923451        0.9679372406        0.6903363305
 C          1.4529429747        0.9625829048        0.6469103634
 F          0.7792438088        1.9333191193        1.3044133509
 H         -0.3705224329        2.8566061053       -0.7807279458
 H          0.1214922998        1.6893033234       -2.0032244548
 H         -1.3974125498        2.5854563043       -2.1877466922
 H         -3.4011864305        1.7926112030       -1.1957430477
 H         -4.6248903334        0.0513710234        0.0326488558
 H         -3.3658939361       -1.7409787244        1.2186646017
 H         -0.1386126934       -1.9219601211       -1.2895231934
 H          3.3488289875       -1.7927033157       -1.1992945295
 H          4.5956697700       -0.0457519172        0.0377828120
 H          3.3451245834        1.7376310284        1.2432259220
