  26
  -46.4680957000000       9.950238788027359E-002 !mtd1
 C         -0.7367919320        2.1000824133       -1.4741391961
 C         -1.4662811995        1.0310738617       -0.7226601494
 C         -2.8543492678        1.0179909723       -0.6792029777
 C         -3.5461647039        0.0383557775        0.0106160215
 C         -2.8581890320       -0.9629652565        0.6718667499
 C         -1.4779824313       -0.9485505838        0.6275601720
 F         -0.7989009568       -1.9285073160        1.2700189473
 C         -0.7575962931        0.0295111993       -0.0514341595
 C          0.7247374573       -0.0012492796       -0.0400310047
 C          1.4387727385       -1.0061654387       -0.7030679562
 O          0.8185234040       -1.9785361621       -1.4109567897
 C          2.8306327147       -1.0075749107       -0.6733509149
 C          3.5173260946       -0.0304354045        0.0178592523
 C          2.8320923451        0.9679372406        0.6903363305
 C          1.4529429747        0.9625829048        0.6469103634
 F          0.7792438088        1.9333191193        1.3044133509
 H         -0.3705224329        2.8566061053       -0.7807279458
 H          0.1214922998        1.6893033234       -2.0032244548
 H         -1.3974125498        2.5854563043       -2.1877466922
 H         -3.4011864305        1.7926112030       -1.1957430477
 H         -4.6248903334        0.0513710234        0.0326488558
 H         -3.3658939361       -1.7409787244        1.2186646017
 H         -0.1386126934       -1.9219601211       -1.2895231934
 H          3.3488289875       -1.7927033157       -1.1992945295
 H          4.5956697700       -0.0457519172        0.0377828120
 H          3.3451245834        1.7376310284        1.2432259220
  26
  -46.4680948900000       9.941713716173328E-002 !mtd4
 C         -0.7354303614        2.0990517671       -1.4743491205
 C         -1.4658603963        1.0302869795       -0.7233826945
 C         -2.8539727739        1.0160147097       -0.6826005409
 C         -3.5461666610        0.0368746657        0.0076895159
 C         -2.8586350674       -0.9628203439        0.6718761496
 C         -1.4783498670       -0.9476021396        0.6295541652
 F         -0.7993233475       -1.9265637407        1.2736715658
 C         -0.7576638057        0.0297711585       -0.0500548049
 C          0.7247503763       -0.0011891362       -0.0391377311
 C          1.4380348297       -1.0052597732       -0.7039815462
 O          0.8169654277       -1.9767804215       -1.4126929392
 C          2.8300024528       -1.0066054718       -0.6758264285
 C          3.5172619434       -0.0301407560        0.0157156390
 C          2.8325717807        0.9674127096        0.6901542470
 C          1.4534303334        0.9622350986        0.6482480810
 F          0.7802924670        1.9318804487        1.3074801296
 H          0.1254411655        1.6886016500       -1.9998808849
 H         -1.3945954493        2.5823419863       -2.1911252104
 H         -0.3725943293        2.8573927417       -0.7805664760
 H         -3.4008944838        1.7895129095       -1.2007707858
 H         -4.6248657844        0.0494014184        0.0285857373
 H         -3.3672573166       -1.7398750782        1.2192175684
 H         -0.1394707676       -1.9234437175       -1.2857126845
 H          3.3480896160       -1.7907013105       -1.2034794228
 H          4.5957525143       -0.0449741163        0.0348483522
 H          3.3461072180        1.7364957663        1.2435280304
  26
  -46.4680942900000       9.935403557497523E-002 !mtd1
 C         -0.7351164427        2.1015676836       -1.4703620073
 C         -1.4651070785        1.0307955030       -0.7219647586
 C         -2.8533356043        1.0171279613       -0.6815251327
 C         -3.5461536509        0.0371797071        0.0067877424
 C         -2.8591738072       -0.9635139626        0.6700482785
 C         -1.4788841700       -0.9487539270        0.6284792076
 F         -0.8007446792       -1.9285593989        1.2720632900
 C         -0.7574693213        0.0291953252       -0.0497469386
 C          0.7248652000       -0.0019216923       -0.0382694973
 C          1.4383413995       -1.0066677488       -0.7023156223
 O          0.8172489275       -1.9795407556       -1.4089685334
 C          2.8302537242       -1.0067798050       -0.6754169247
 C          3.5174585581       -0.0288209468        0.0142715733
 C          2.8328007207        0.9690748311        0.6879591542
 C          1.4534983618        0.9628067408        0.6469358672
 F          0.7801506410        1.9331713988        1.3052846311
 H         -1.3890607539        2.5736801560       -2.1989768026
 H         -0.3899105377        2.8678193200       -0.7764773033
 H          0.1370339805        1.6969127213       -1.9812574723
 H         -3.3992756195        1.7916479142       -1.1991442077
 H         -4.6247337592        0.0497609043        0.0265776931
 H         -3.3678571344       -1.7415011556        1.2159532763
 H         -0.1398836761       -1.9215748531       -1.2877439292
 H          3.3483159684       -1.7908133142       -1.2032041313
 H          4.5957686631       -0.0423861767        0.0305411890
 H          3.3463851423        1.7394562929        1.2393229337
  26
  -46.4676536600000       6.232840088997374E-002 !mtd2
 C         -0.7121701633        1.8639361324       -1.7460583487
 C         -1.4629909518        0.9151180496       -0.8644724228
 C         -2.8506444713        0.9072777722       -0.8284102632
 C         -3.5424934467        0.0372411131       -0.0034549558
 C         -2.8570016222       -0.8523980422        0.8036285114
 C         -1.4757005516       -0.8448765551        0.7645410640
 F         -0.7965778215       -1.7183249457        1.5401303033
 C         -0.7590352966        0.0215245561       -0.0520123179
 C          0.7258482593       -0.0020913003       -0.0414409011
 C          1.4388981852       -0.8878804762       -0.8542087663
 O          0.8063590434       -1.7423903255       -1.6954446779
 C          2.8298599266       -0.8942070360       -0.8257749706
 C          3.5133599598       -0.0333755707        0.0096937029
 C          2.8275242078        0.8508718151        0.8254949422
 C          1.4476334974        0.8501184440        0.7825494721
 F          0.7672506665        1.7178612653        1.5637574493
 H          0.0037105327        1.3306573444       -2.3703158842
 H         -1.3939469259        2.4179960314       -2.3854511135
 H         -0.1531501322        2.5739572337       -1.1378238707
 H         -3.3967468259        1.5975652397       -1.4537389062
 H         -4.6212486411        0.0521778672        0.0129356896
 H         -3.3680476311       -1.5397150731        1.4581430395
 H         -0.1507464316       -1.6722269721       -1.5755528578
 H          3.3508251286       -1.5871578105       -1.4660307949
 H          4.5917274876       -0.0499705870        0.0279518403
 H          3.3403258801        1.5296171020        1.4869944004
  26
  -46.4675928000000       5.844086900971190E-002 !mtd2
 C         -0.7081881515        1.8087455949       -1.8019137711
 C         -1.4610558007        0.8864232008       -0.8938978081
 C         -2.8487916657        0.8816918173       -0.8589775978
 C         -3.5422373427        0.0393118274       -0.0071043150
 C         -2.8583870497       -0.8244227699        0.8290899233
 C         -1.4769830312       -0.8195157986        0.7919958692
 F         -0.7997342961       -1.6684543542        1.5952579740
 C         -0.7588386562        0.0189010348       -0.0519671527
 C          0.7260462355       -0.0042948160       -0.0404448784
 C          1.4397184815       -0.8605039130       -0.8836378878
 O          0.8062204147       -1.6895084087       -1.7499728422
 C          2.8306459441       -0.8645925192       -0.8579931178
 C          3.5135388407       -0.0291958107        0.0036605502
 C          2.8270134566        0.8254141833        0.8497962101
 C          1.4468474383        0.8215554212        0.8107074508
 F          0.7657701808        1.6617929952        1.6203291038
 H         -1.3881246866        2.3395370956       -2.4624722085
 H         -0.1545219545        2.5398219291       -1.2135544743
 H          0.0133513265        1.2593128357       -2.4052403627
 H         -3.3932259664        1.5523731981       -1.5066758925
 H         -4.6210078949        0.0555010939        0.0070608312
 H         -3.3709211088       -1.4902932969        1.5043710271
 H         -0.1513827073       -1.6156055036       -1.6327087935
 H          3.3522088232       -1.5350352087       -1.5213311915
 H          4.5918829618       -0.0429541088        0.0188634724
 H          3.3396734841        1.4842135575        1.5313242652
  26
  -46.4675877200000       5.812755541640382E-002 !mtd5
 C         -0.7207483841        1.6196564613       -1.9903908799
 C         -1.4651978044        0.7916013266       -0.9876308515
 C         -2.8530716544        0.7851773806       -0.9498102336
 C         -3.5418783754        0.0373067394       -0.0106993855
 C         -2.8530880615       -0.7256313660        0.9146883251
 C         -1.4719776782       -0.7201318871        0.8751776070
 F         -0.7922986851       -1.4770472740        1.7617115169
 C         -0.7579514494        0.0206865834       -0.0593832018
 C          0.7258149955       -0.0029838754       -0.0471626268
 C          1.4427302356       -0.7598981077       -0.9783302040
 O          0.8108137007       -1.4963354218       -1.9268175527
 C          2.8330704920       -0.7682924660       -0.9493844978
 C          3.5134113056       -0.0359571876        0.0034595602
 C          2.8245533097        0.7164380080        0.9396573103
 C          1.4443393596        0.7171115663        0.8975785471
 F          0.7624155363        1.4634698557        1.7925549606
 H         -1.4075361303        2.2366545118       -2.5633066699
 H         -0.0037263770        2.2665333069       -1.4868936306
 H         -0.1632715322        0.9893910547       -2.6829901430
 H         -3.4006770401        1.3823062543       -1.6635028550
 H         -4.6207179498        0.0512850054        0.0033735178
 H         -3.3624004846       -1.3150960056        1.6597487121
 H         -0.1459485050       -1.4450243400       -1.7950630835
 H          3.3565089774       -1.3612807843       -1.6814176308
 H          4.5917997826       -0.0515770709        0.0195460517
 H          3.3351574097        1.2938307372        1.6927176728
  26
  -46.4675864500000       5.804948983000912E-002 !mtd5
 C         -0.7249673203        1.6006552252       -2.0094683924
 C         -1.4664809504        0.7803311106       -0.9982015739
 C         -2.8544491232        0.7686574925       -0.9627763651
 C         -3.5422834148        0.0307967883       -0.0150882605
 C         -2.8522758174       -0.7161230300        0.9223933943
 C         -1.4711633736       -0.7065255144        0.8847811014
 F         -0.7903687049       -1.4492966425        1.7822023013
 C         -0.7579099514        0.0232518497       -0.0591722688
 C          0.7255353814       -0.0006473295       -0.0470744852
 C          1.4413739940       -0.7467077643       -0.9882546179
 O          0.8083380020       -1.4703910413       -1.9457697579
 C          2.8316298242       -0.7585079344       -0.9595709014
 C          3.5139373916       -0.0403597072        0.0027390855
 C          2.8263271612        0.7006010743        0.9489552775
 C          1.4459650891        0.7045651461        0.9075119313
 F          0.7666221460        1.4402163977        1.8127734506
 H          0.0059595853        2.2385138906       -1.5150046337
 H         -0.1839632652        0.9656945383       -2.7105249852
 H         -1.4119695328        2.2256189349       -2.5727472498
 H         -3.4035872236        1.3535051813       -1.6855109786
 H         -4.6214126146        0.0391563971       -0.0039335809
 H         -3.3604651889       -1.2972050093        1.6748232778
 H         -0.1482411111       -1.4224926336       -1.8108684996
 H          3.3534836242       -1.3429307734       -1.6996403054
 H          4.5923220527       -0.0581913468        0.0184957585
 H          3.3375018929        1.2669743432        1.7099907994
  26
  -46.4675831100000       5.784468355381234E-002 !mtd2
 C         -0.7235276777        1.6436638103       -1.9712178532
 C         -1.4668231792        0.8041939630       -0.9773980701
 C         -2.8546538055        0.7980207333       -0.9362402488
 C         -3.5418985032        0.0381053252       -0.0058760962
 C         -2.8518481894       -0.7392553826        0.9069027489
 C         -1.4709783821       -0.7331299582        0.8643941055
 F         -0.7882704077       -1.5021615696        1.7387016272
 C         -0.7583705775        0.0213145562       -0.0603064476
 C          0.7254330182       -0.0013216851       -0.0481953169
 C          1.4427177326       -0.7721124405       -0.9676097103
 O          0.8113844904       -1.5175798352       -1.9094189326
 C          2.8331507634       -0.7846966867       -0.9344532641
 C          3.5133582342       -0.0416427050        0.0098678891
 C          2.8241278174        0.7277669527        0.9323207457
 C          1.4441777863        0.7315407191        0.8865764155
 F          0.7617549503        1.4929501055        1.7687777614
 H         -0.1410864085        1.0224446168       -2.6513908686
 H         -1.4134965339        2.2444936091       -2.5575145892
 H         -0.0290200407        2.3073491882       -1.4577998194
 H         -3.4039954213        1.4048994932       -1.6404386632
 H         -4.6206801883        0.0528401214        0.0116143000
 H         -3.3598842292       -1.3392161280        1.6443751104
 H         -0.1454949309       -1.4614768082       -1.7807779610
 H          3.3558407020       -1.3897893088       -1.6570469311
 H          4.5916919255       -0.0614592562        0.0301917001
 H          3.3340408768        1.3149502465        1.6781901144
  26
  -46.4674659700000       5.110102752585721E-002 !mtd5
 C         -0.7517899481        1.5298050544       -2.0862431685
 C         -1.4719036511        0.7502263938       -1.0275209935
 C         -2.8604857887        0.7422019503       -0.9792707278
 C         -3.5418607113        0.0410331360       -0.0008134772
 C         -2.8446426662       -0.6740277686        0.9567100811
 C         -1.4647654790       -0.6684025952        0.9067865371
 F         -0.7783903015       -1.3821008455        1.8228626386
 C         -0.7561329722        0.0259896887       -0.0688537513
 C          0.7265923870       -0.0015704950       -0.0545913316
 C          1.4489179121       -0.7117035606       -1.0188160471
 O          0.8238132725       -1.4017170948       -2.0049301745
 C          2.8390705646       -0.7268140810       -0.9788715564
 C          3.5146564854       -0.0490360934        0.0166505819
 C          2.8207608862        0.6548616824        0.9864028451
 C          1.4410714307        0.6630230393        0.9342966870
 F          0.7563753659        1.3651491009        1.8611594283
 H          0.1760399305        1.9443196327       -1.6982859482
 H         -0.5019783080        0.8920838311       -2.9348652130
 H         -1.3765095896        2.3412718574       -2.4497730474
 H         -3.4132793038        1.3038203141       -1.7174593276
 H         -4.6204666437        0.0542061074        0.0210004833
 H         -3.3473457841       -1.2265090465        1.7339205602
 H         -0.1334751667       -1.3522675110       -1.8782046887
 H          3.3662875768       -1.2827558029       -1.7368311071
 H          4.5927946401       -0.0694748229        0.0406394271
 H          3.3269620310        1.1896509598        1.7730708192
  26
  -46.4671400700000       3.619564856812157E-002 !hor
 C         -0.7776178771        2.1382235558       -1.4492295666
 C         -1.4853567661        1.0412387045       -0.7153957036
 C         -2.8730075422        0.9909018306       -0.6860515943
 C         -3.5430686721       -0.0178207127       -0.0179338837
 C         -2.8329523663       -1.0070053271        0.6385788110
 C         -1.4538272518       -0.9558788775        0.6078311685
 F         -0.7565444854       -1.9117674182        1.2615083910
 C         -0.7585514878        0.0509375889       -0.0516120254
 C          0.7201935143        0.0305818835       -0.0388686165
 C          1.4134259421       -0.9997183600       -0.6864032242
 O          0.6849523140       -1.9167509140       -1.3691578313
 C          2.8014916975       -1.0445841810       -0.6376808433
 C          3.5115153508       -0.0762604845        0.0487656522
 C          2.8485153507        0.9518433177        0.6929068331
 C          1.4674728086        0.9829208691        0.6384257136
 F          0.8203585291        1.9786161339        1.2819730644
 H         -0.4121308181        2.8842181196       -0.7441070102
 H          0.0776160110        1.7475158151       -1.9977043818
 H         -1.4516050467        2.6306081747       -2.1454933473
 H         -3.4363860343        1.7562671072       -1.1994626795
 H         -4.6222231102       -0.0368539071       -0.0089893648
 H         -3.3257467778       -1.8064403885        1.1682286161
 H          1.2643254843       -2.6035254395       -1.7196021799
 H          3.3241480036       -1.8478894688       -1.1390595963
 H          4.5887509339       -0.1248941216        0.0818787364
 H          3.3787025461        1.7162526331        1.2372573447
  26
  -46.4671400200000       3.619373351646821E-002 !hor
 C         -0.7723813459        2.1295681023       -1.4577988376
 C         -1.4830636910        1.0377839431       -0.7191378171
 C         -2.8707908868        0.9925951471       -0.6870351606
 C         -3.5429625161       -0.0112340065       -0.0136730125
 C         -2.8350708281       -1.0009594447        0.6442806193
 C         -1.4557646219       -0.9547101041        0.6110001247
 F         -0.7603330070       -1.9113064935        1.2656453741
 C         -0.7585697071        0.0480016237       -0.0523052978
 C          0.7202359329        0.0276718606       -0.0388897348
 C          1.4159838912       -0.9983319525       -0.6901771588
 O          0.6900494853       -1.9152379961       -1.3754223210
 C          2.8043083016       -1.0386660932       -0.6429251969
 C          3.5117059540       -0.0706737772        0.0464166443
 C          2.8459484253        0.9526034370        0.6955940515
 C          1.4648538495        0.9796603940        0.6417867048
 F          0.8145989963        1.9710213732        1.2887988520
 H         -1.4427621128        2.6143968401       -2.1628759613
 H         -0.4134281875        2.8824039108       -0.7562421819
 H          0.0877012195        1.7359248114       -1.9968407942
 H         -3.4324585740        1.7579928090       -1.2021301333
 H         -4.6221710886       -0.0262958414       -0.0021837993
 H         -3.3299118313       -1.7972068719        1.1769716624
 H          1.2715240300       -2.5985281380       -1.7296163044
 H          3.3291502067       -1.8377959304       -1.1485201408
 H          4.5891049424       -0.1157667483        0.0780017533
 H          3.3738808636        1.7160941979        1.2430281818
  26
  -46.4671393700000       3.616884706171216E-002 !hor
 C         -0.7749146997        2.1292545575       -1.4604373880
 C         -1.4844161399        1.0379085830       -0.7198595613
 C         -2.8720976996        0.9921304582       -0.6858051876
 C         -3.5429222729       -0.0116826770       -0.0111822561
 C         -2.8337269343       -1.0009294365        0.6460450702
 C         -1.4545067464       -0.9540542574        0.6109905375
 F         -0.7577999724       -1.9103503645        1.2647648609
 C         -0.7586158939        0.0486989476       -0.0536638392
 C          0.7201991819        0.0286195699       -0.0405423578
 C          1.4160267493       -0.9978308007       -0.6912087581
 O          0.6901240959       -1.9132504570       -1.3786084851
 C          2.8041408754       -1.0401363614       -0.6408103120
 C          3.5114403868       -0.0736057824        0.0508763668
 C          2.8457056877        0.9506252191        0.6984256563
 C          1.4647206115        0.9796955773        0.6415117535
 F          0.8146294227        1.9718593633        1.2873498912
 H          0.0805719962        1.7337783689       -2.0054483109
 H         -1.4479481028        2.6174790208       -2.1607563653
 H         -0.4092070614        2.8797515078       -0.7598810748
 H         -3.4347870499        1.7576809095       -1.1996776479
 H         -4.6220958191       -0.0270531600        0.0020594099
 H         -3.3275210497       -1.7976443072        1.1791639401
 H          1.2716370848       -2.5954027850       -1.7349986366
 H          3.3290119926       -1.8399272807       -1.1454092531
 H          4.5886420263       -0.1209724408        0.0856785950
 H          3.3733343162        1.7131634309        1.2475015690
  26
  -46.4670781200000       3.389893967498292E-002 !mtd3
 C         -0.7912665385        1.5904641218       -2.0663097725
 C         -1.4784760839        0.7694902614       -1.0163516107
 C         -2.8685740306        0.7474365118       -0.9652418640
 C         -3.5418834192        0.0237481374        0.0003120776
 C         -2.8352398775       -0.7018989157        0.9441612817
 C         -1.4564140587       -0.6813994776        0.8917258740
 F         -0.7613593204       -1.4047945959        1.7936764458
 C         -0.7539989884        0.0380182410       -0.0722131346
 C          0.7295489672        0.0068519977       -0.0557186070
 C          1.4474040762       -0.7325211768       -1.0022062542
 O          0.8191954419       -1.4240102059       -1.9844864841
 C          2.8368230150       -0.7684359202       -0.9511307113
 C          3.5158824752       -0.0786729163        0.0338584383
 C          2.8263996432        0.6586075799        0.9815467287
 C          1.4470330424        0.6843002159        0.9212724873
 F          0.7664535511        1.4130446453        1.8306423941
 H          0.2904670747        1.5179128337       -1.9899203053
 H         -1.0962191603        1.2679966662       -3.0614545898
 H         -1.0732490810        2.6369784969       -1.9571469513
 H         -3.4245022138        1.3154113551       -1.6962199189
 H         -4.6206724984        0.0237514362        0.0220768954
 H         -3.3311852205       -1.2750921175        1.7105374887
 H         -0.1381534229       -1.3224303202       -1.8935897906
 H          3.3607209516       -1.3480233693       -1.6933924124
 H          4.5934003089       -0.1148641591        0.0660063776
 H          3.3358849035        1.2050873757        1.7579053216
  26
  -46.4670372000000       3.246239696336081E-002 !mtd3
 C         -0.7927157537        1.6263646289       -2.0380953556
 C         -1.4800221977        0.7839054055       -1.0057285063
 C         -2.8698697237        0.7655165083       -0.9487795396
 C         -3.5415073635        0.0291162572        0.0085152619
 C         -2.8334847834       -0.7151147982        0.9366132033
 C         -1.4547691122       -0.6981933700        0.8782039427
 F         -0.7575075613       -1.4374923747        1.7656935840
 C         -0.7543682819        0.0359973325       -0.0758486358
 C          0.7296080466        0.0059373919       -0.0595301235
 C          1.4494200701       -0.7510625513       -0.9898809495
 O          0.8236766996       -1.4590176359       -1.9623981255
 C          2.8388832927       -0.7872186288       -0.9338088349
 C          3.5152225423       -0.0808183060        0.0411354944
 C          2.8235118148        0.6752887217        0.9723540479
 C          1.4444905661        0.7015176886        0.9065550522
 F          0.7606109619        1.4468047026        1.8002125428
 H         -0.9228140593        2.6803151305       -1.7933431729
 H          0.2731821073        1.4200548230       -2.0848765915
 H         -1.2306685938        1.4577256339       -3.0204688705
 H         -3.4277146793        1.3477926937       -1.6670696023
 H         -4.6201409968        0.0335735992        0.0363061808
 H         -3.3280364883       -1.2990013165        1.6958603776
 H         -0.1345821522       -1.3530444021       -1.8782520452
 H          3.3641086486       -1.3817132307       -1.6633154817
 H          4.5925735424       -0.1183198308        0.0775562737
 H          3.3308081983        1.2349886324        1.7408137323
  26
  -46.4670507800000       3.293225882926610E-002 !mtd5
 C         -0.7901509847        1.6468034700       -2.0190045836
 C         -1.4804806160        0.7915643078       -0.9994639773
 C         -2.8701080397        0.7687362506       -0.9456602903
 C         -3.5414969525        0.0220527994        0.0039821147
 C         -2.8334065771       -0.7272740320        0.9277769312
 C         -1.4545623521       -0.7056695966        0.8726516049
 F         -0.7574519739       -1.4500574823        1.7559990103
 C         -0.7546970104        0.0378902825       -0.0740600797
 C          0.7295123219        0.0086208741       -0.0585534404
 C          1.4465143302       -0.7587087290       -0.9825117993
 O          0.8175527051       -1.4735125065       -1.9481724391
 C          2.8359225561       -0.7970167115       -0.9280586452
 C          3.5148448176       -0.0836373952        0.0399728113
 C          2.8257877660        0.6824439845        0.9650743852
 C          1.4468083544        0.7117201521        0.8999909602
 F          0.7653038565        1.4665114248        1.7874223347
 H         -1.2802941296        1.5578560267       -2.9867236367
 H         -0.8447736129        2.6916207470       -1.7130266798
 H          0.2586135850        1.3829154787       -2.1261324187
 H         -3.4284971348        1.3546922365       -1.6605094119
 H         -4.6201753460        0.0225881764        0.0291171410
 H         -3.3277781375       -1.3187510319        1.6814547427
 H         -0.1403606598       -1.3727616899       -1.8582450271
 H          3.3593314352       -1.3986663403       -1.6531738719
 H          4.5920528251       -0.1238341677        0.0758372653
 H          3.3352478927        1.2472384251        1.7283169148
  26
  -46.4668175700000       2.573034590713612E-002 !mtd2
 C         -0.7697958678        1.8851107236       -1.7770435644
 C         -1.4712732121        0.9288507833       -0.8616096563
 C         -2.8609599375        0.9126608603       -0.8116754087
 C         -3.5418378436        0.0343326705        0.0100616851
 C         -2.8437712171       -0.8589279573        0.8045223340
 C         -1.4647490787       -0.8416673181        0.7535506238
 F         -0.7740084191       -1.7161718696        1.5178620059
 C         -0.7557060295        0.0348199991       -0.0633375349
 C          0.7296662186        0.0035243234       -0.0467735306
 C          1.4417494448       -0.8932918543       -0.8484043070
 O          0.8101986514       -1.7471364978       -1.6898765748
 C          2.8323596535       -0.9128637500       -0.8054203895
 C          3.5161114412       -0.0543069977        0.0319685452
 C          2.8310232740        0.8391531447        0.8384748088
 C          1.4515029927        0.8494221260        0.7846776930
 F          0.7721772262        1.7227979292        1.5592075160
 H         -1.1729341187        2.8882252701       -1.6517672691
 H          0.2993289412        1.9101229469       -1.5837813640
 H         -0.9254470698        1.5901278755       -2.8150978366
 H         -3.4119235276        1.6068930017       -1.4283693886
 H         -4.6204266818        0.0432654724        0.0359778282
 H         -3.3453811846       -1.5549453172        1.4579284607
 H         -0.1471993491       -1.6584168560       -1.5887270595
 H          3.3526242123       -1.6143477370       -1.4366102051
 H          4.5940144739       -0.0799610934        0.0594994919
 H          3.3436324818        1.5165760012        1.5014178043
  26
  -46.4668168900000       2.571183771761935E-002 !mtd4
 C         -0.7687889931        1.8726438132       -1.7898987572
 C         -1.4705682207        0.9227523886       -0.8681391636
 C         -2.8602785199        0.9083620162       -0.8173783708
 C         -3.5418744896        0.0367252765        0.0108559023
 C         -2.8441931020       -0.8520601151        0.8106338743
 C         -1.4650921000       -0.8363845867        0.7592884385
 F         -0.7749507793       -1.7071401262        1.5286168632
 C         -0.7554999418        0.0339135629       -0.0636439757
 C          0.7299340714        0.0024930770       -0.0468315122
 C          1.4429093601       -0.8880634055       -0.8547636362
 O          0.8111763955       -1.7364943401       -1.7017424903
 C          2.8334910738       -0.9063262971       -0.8123922811
 C          3.5161386093       -0.0525112572        0.0309452470
 C          2.8302785353        0.8342692835        0.8440191797
 C          1.4506731485        0.8436351260        0.7905220064
 F          0.7702728858        1.7107547804        1.5710683856
 H          0.3024666547        1.8853396300       -1.6082133543
 H         -0.9396084844        1.5813195466       -2.8264470343
 H         -1.1593695966        2.8796264526       -1.6583553479
 H         -3.4111271397        1.5990649285       -1.4383627228
 H         -4.6204835604        0.0471569545        0.0371963912
 H         -3.3465829257       -1.5428506716        1.4681965923
 H         -0.1457446713       -1.6543247624       -1.5939272958
 H          3.3545661304       -1.6025395340       -1.4489391638
 H          4.5941819323       -0.0771201818        0.0579383707
 H          3.3426464656        1.5074989571        1.5114292584
  26
  -46.4664752400000       1.791107487890308E-002 !hor
 C         -0.7587073096        1.5554417623       -2.0619373932
 C         -1.4815731105        0.7672702616       -1.0143519696
 C         -2.8686471930        0.7477845867       -0.9642391609
 C         -3.5430348309        0.0218514957        0.0014469274
 C         -2.8381465622       -0.7053635770        0.9430488791
 C         -1.4581663822       -0.6844564162        0.8908758619
 F         -0.7635931335       -1.4056098343        1.7989179520
 C         -0.7599841304        0.0352167017       -0.0699813089
 C          0.7200169882        0.0142363692       -0.0586890151
 C          1.4426856027       -0.7179393136       -1.0063856471
 O          0.7452541453       -1.3804805979       -1.9659231585
 C          2.8303642822       -0.7546580921       -0.9489722381
 C          3.5113554881       -0.0699581779        0.0412123429
 C          2.8186220123        0.6634995660        0.9861669274
 C          1.4377361410        0.6873842032        0.9199180712
 F          0.7591111217        1.4129390023        1.8314863576
 H         -0.3045513164        0.8781375999       -2.7838092238
 H         -1.4424903089        2.2150365699       -2.5889636756
 H          0.0361621797        2.1508957537       -1.6162532508
 H         -3.4289216324        1.3142581383       -1.6935632137
 H         -4.6221585422        0.0222317033        0.0225720700
 H         -3.3345973702       -1.2811273070        1.7075115305
 H          1.3522571191       -1.8857005646       -2.5206395330
 H          3.3761229337       -1.3294293709       -1.6849504245
 H          4.5888293591       -0.1096233311        0.0747906208
 H          3.3246419528        1.2069290759        1.7670348188
  26
  -46.4664738800000       1.788531678460935E-002 !hor
 C         -0.7601528399        1.5603421557       -2.0593362097
 C         -1.4823283203        0.7680827106       -1.0144251815
 C         -2.8693280250        0.7458430178       -0.9652044700
 C         -3.5429890770        0.0183399474       -0.0000454008
 C         -2.8373083443       -0.7074852669        0.9420036252
 C         -1.4573370881       -0.6844100525        0.8902299040
 F         -0.7619253045       -1.4044457565        1.7984273789
 C         -0.7598833728        0.0365283021       -0.0703733762
 C          0.7201995123        0.0158706654       -0.0587611307
 C          1.4418735044       -0.7184738803       -1.0058378299
 O          0.7431266502       -1.3814302787       -1.9639218528
 C          2.8293027397       -0.7570493527       -0.9487719088
 C          3.5109017398       -0.0726480898        0.0416808261
 C          2.8193851564        0.6624000640        0.9859597524
 C          1.4383047290        0.6885522467        0.9194911967
 F          0.7607580257        1.4155446606        1.8306939978
 H         -1.4482872455        2.2065531784       -2.5976331489
 H          0.0203125603        2.1710340947       -1.6080149119
 H         -0.2869206986        0.8863654829       -2.7723388283
 H         -3.4303172529        1.3112412074       -1.6947543135
 H         -4.6221457361        0.0164082525        0.0205361486
 H         -3.3330725363       -1.2839029729        1.7065389447
 H          1.3494125488       -1.8864269942       -2.5195697582
 H          3.3752322896       -1.3333941288       -1.6834142426
 H          4.5883669816       -0.1143973133        0.0757660578
 H          3.3264161038        1.2047806816        1.7669325300
  26
  -46.4664714600000       1.783957409633922E-002 !hor
 C         -0.7631462871        1.5374426689       -2.0788202261
 C         -1.4829496105        0.7590450473       -1.0219549222
 C         -2.8700239033        0.7413595909       -0.9685169756
 C         -3.5432713915        0.0256601146        0.0055206110
 C         -2.8370150069       -0.6937008397        0.9521696631
 C         -1.4572108917       -0.6749768596        0.8966003302
 F         -0.7617334522       -1.3895278945        1.8091241920
 C         -0.7599883561        0.0351064410       -0.0724318407
 C          0.7198614012        0.0134784685       -0.0612243196
 C          1.4450846841       -0.7094032570       -1.0140051626
 O          0.7510191504       -1.3643523334       -1.9812622682
 C          2.8327501382       -0.7460302921       -0.9538359198
 C          3.5116696084       -0.0710240206        0.0442787864
 C          2.8164882852        0.6529283919        0.9947438791
 C          1.4358309819        0.6769785966        0.9255922358
 F          0.7557335415        1.3937063233        1.8429852949
 H          0.0383725395        2.1307890170       -1.6422230059
 H         -0.3182765561        0.8530887840       -2.7998714217
 H         -1.4473676027        2.1976333120       -2.6047796029
 H         -3.4311991524        1.3019426157       -1.7017046828
 H         -4.6223706081        0.0280256512        0.0294445560
 H         -3.3323469715       -1.2616515451        1.7232469550
 H          1.3595347867       -1.8677652346       -2.5353091814
 H          3.3799669238       -1.3142992543       -1.6939958264
 H          4.5890469347       -0.1112773682        0.0799307931
 H          3.3199588937        1.1887180588        1.7824751420
  26
  -46.4664512000000       1.746118165323575E-002 !mtd3
 C         -0.7416401524        1.6736312731       -1.9520596044
 C         -1.4763169052        0.8241787325       -0.9618913916
 C         -2.8633867436        0.8027117377       -0.9212970569
 C         -3.5425477710        0.0161017159       -0.0073522540
 C         -2.8428646080       -0.7709556680        0.8886982259
 C         -1.4623597150       -0.7476214645        0.8455255432
 F         -0.7709539106       -1.5220030334        1.7116547411
 C         -0.7604947033        0.0337852609       -0.0616933558
 C          0.7205510000        0.0149109603       -0.0502749264
 C          1.4352636094       -0.7788549922       -0.9525969109
 O          0.7269473835       -1.4982980417       -1.8614951433
 C          2.8235005750       -0.8113484558       -0.9043412424
 C          3.5107423950       -0.0605939701        0.0323889453
 C          2.8249835549        0.7348496053        0.9313185955
 C          1.4435036563        0.7538964356        0.8741349611
 F          0.7694541844        1.5361279459        1.7422671170
 H          0.0002728794        2.2929759424       -1.4496053023
 H         -0.2177626148        1.0408182595       -2.6678130532
 H         -1.4291296171        2.3171969620       -2.4946669696
 H         -3.4199440899        1.4144879505       -1.6158710361
 H         -4.6218025526        0.0156377695        0.0082959983
 H         -3.3438071739       -1.3946468646        1.6116769459
 H          1.3259584310       -2.0427026919       -2.3864595531
 H          3.3646082220       -1.4339364273       -1.6039566844
 H          4.5885286734       -0.0974061458        0.0600670729
 H          3.3371654005        1.3290806554        1.6701272723
  26
  -46.4658970800000       9.714438658830439E-003 !hor
 C         -0.8102006201        2.0293789149       -1.6364242917
 C         -1.4867088131        0.9937977313       -0.7907145517
 C         -2.8760146212        0.9453903925       -0.7465725061
 C         -3.5406941653       -0.0096983098       -0.0016780828
 C         -2.8248907448       -0.9483529529        0.7210894741
 C         -1.4470234953       -0.8991538408        0.6747756692
 F         -0.7411020732       -1.8072279898        1.3848973081
 C         -0.7560603690        0.0554058922       -0.0640392785
 C          0.7245828715        0.0294475723       -0.0458774303
 C          1.4218263270       -0.9456744347       -0.7676366929
 O          0.6970350675       -1.8080473110       -1.5222691743
 C          2.8092134488       -0.9957527072       -0.7089470527
 C          3.5118360784       -0.0887097916        0.0638389482
 C          2.8435347952        0.8836457604        0.7845590554
 C          1.4628549264        0.9217454491        0.7171813678
 F          0.8050116267        1.8674644426        1.4210371097
 H         -0.9656369776        1.8022720934       -2.6911542671
 H         -1.2338289219        3.0122100788       -1.4392236261
 H          0.2589215342        2.0637336470       -1.4482329078
 H         -3.4407066215        1.6730655704       -1.3109554435
 H         -4.6199463207       -0.0275086005        0.0178532916
 H         -3.3137706999       -1.7055873444        1.3129147044
 H          1.2832983449       -2.4492852386       -1.9424991812
 H          3.3379419070       -1.7543724394       -1.2697276033
 H          4.5886149643       -0.1418720155        0.1045560804
 H          3.3681901260        1.5991307823        1.3961825626
  26
  -46.4657749700000       8.536893033485505E-003 !hor
 C         -0.7874803913        1.9053087788       -1.7650565590
 C         -1.4791961366        0.9342640526       -0.8574156102
 C         -2.8685717744        0.8947321423       -0.8193428968
 C         -3.5411688222       -0.0010393167       -0.0102393410
 C         -2.8335971800       -0.8860582316        0.7844591784
 C         -1.4549878641       -0.8455623618        0.7434342140
 F         -0.7560287910       -1.7064067870        1.5169701685
 C         -0.7571497852        0.0482936555       -0.0602967615
 C          0.7245305420        0.0221875847       -0.0427476176
 C          1.4265827250       -0.8875378043       -0.8394072790
 O          0.7059747048       -1.7014558876       -1.6512064001
 C          2.8150807969       -0.9273539373       -0.7912862103
 C          3.5130461309       -0.0735635079        0.0432241116
 C          2.8387646878        0.8334390755        0.8399723051
 C          1.4575610626        0.8611396977        0.7832928188
 F          0.7938410351        1.7462171707        1.5557594613
 H          0.2729072886        1.9761328448       -1.5379026048
 H         -0.8952351359        1.5821332346       -2.8006594344
 H         -1.2348096402        2.8931810481       -1.6732178446
 H         -3.4268171907        1.5819342920       -1.4379668984
 H         -4.6202201055       -0.0129736539        0.0046597584
 H         -3.3290183814       -1.5961421049        1.4270536937
 H          1.2969149850       -2.3033217065       -2.1197317189
 H          3.3470014997       -1.6360581359       -1.4113997197
 H          4.5905260039       -0.1165536950        0.0723602380
 H          3.3596998959        1.5073311917        1.5000075800
  26
  -46.4656129600000       7.191925813179087E-003 !hor
 C         -0.7943460830        1.7456718548       -1.9327047500
 C         -1.4811996185        0.8449774707       -0.9517428850
 C         -2.8706645770        0.8123363428       -0.9037088585
 C         -3.5411981507        0.0063992186       -0.0037059491
 C         -2.8313065337       -0.7936984600        0.8747625565
 C         -1.4528373876       -0.7598401689        0.8241663065
 F         -0.7517870195       -1.5449416498        1.6727415393
 C         -0.7568034933        0.0446969355       -0.0708068708
 C          0.7249673849        0.0191760844       -0.0520636524
 C          1.4359508964       -0.8037710311       -0.9317598825
 O          0.7237719260       -1.5368655517       -1.8247016205
 C          2.8239681426       -0.8454252351       -0.8771197541
 C          3.5130558632       -0.0805278690        0.0468903864
 C          2.8301699005        0.7389775173        0.9261444627
 C          1.4490286266        0.7706091736        0.8610063573
 F          0.7777697167        1.5743778596        1.7107145859
 H         -0.9943064488        2.7874815595       -1.6836295329
 H          0.2808495804        1.5902184739       -1.9284124198
 H         -1.1721126027        1.5629208990       -2.9371846737
 H         -3.4303715684        1.4348935115       -1.5863075381
 H         -4.6202798927       -0.0012168341        0.0174815665
 H         -3.3246916429       -1.4341724198        1.5881370070
 H          1.3202723934       -2.0831456173       -2.3505493193
 H          3.3628042463       -1.4867838653       -1.5613978423
 H          4.5904107027       -0.1255228852        0.0806203787
 H          3.3440057380        1.3429930335        1.6557018663
