  26
 
 C         -1.3422388612        1.9264420367        0.0399132289
 C         -1.6200791140        0.4573002783       -0.0229582410
 C         -2.9230144847       -0.0146323968       -0.1144297373
 C         -3.1980194171       -1.3693471151       -0.1730162341
 C         -2.1658521833       -2.2896823254       -0.1470988647
 C         -0.8707592795       -1.8187756961       -0.0567329360
 F          0.1444869849       -2.7146727659       -0.0355137749
 C         -0.5670072924       -0.4623421919        0.0101818345
 C          0.8459940067       -0.0272928779        0.1230824832
 C          1.7445145496       -0.1913001089       -0.9375460210
 O          1.3633809739       -0.7181372134       -2.1245306465
 C          3.0672032568        0.2205731593       -0.8006221339
 C          3.5071224063        0.7804352443        0.3813482710
 C          2.6384955684        0.9448692349        1.4475412100
 C          1.3282423131        0.5394222936        1.2965344621
 F          0.4767897321        0.6944927760        2.3354712627
 H         -0.4828274383        2.1876725069       -0.5754133016
 H         -2.2063641480        2.4946043534       -0.2941205046
 H         -1.1189963142        2.2179371573        1.0656488509
 H         -3.7362295366        0.6953935243       -0.1380460068
 H         -4.2189790025       -1.7118676572       -0.2397613132
 H         -2.3451806957       -3.3517702680       -0.1896424807
 H          0.4523661059       -1.0366219652       -2.0716800246
 H          3.7309598118        0.0838238705       -1.6386285707
 H          4.5359456533        1.0899063205        0.4773890535
 H          2.9600454047        1.3735688259        2.3826301347
