26
 energy: -46.468090462352 gnorm: 0.000285670727 xtb: 6.6.1 (8d0f1dd)
C           -1.34223886116266        1.92644203670611        0.03991322894408
C           -1.62007911404837        0.45730027829664       -0.02295824100919
C           -2.92301448470655       -0.01463239681968       -0.11442973730315
C           -3.19801941706172       -1.36934711507612       -0.17301623412355
C           -2.16585218333459       -2.28968232544787       -0.14709886469697
C           -0.87075927952151       -1.81877569612720       -0.05673293600235
F            0.14448698486259       -2.71467276594894       -0.03551377488865
C           -0.56700729238844       -0.46234219190965        0.01018183448490
C            0.84599400671879       -0.02729287788944        0.12308248315935
C            1.74451454958726       -0.19130010890243       -0.93754602097500
O            1.36338097393098       -0.71813721338533       -2.12453064652281
C            3.06720325681763        0.22057315928242       -0.80062213387252
C            3.50712240634354        0.78043524430848        0.38134827104827
C            2.63849556839697        0.94486923490815        1.44754120999802
C            1.32824231305868        0.53942229358748        1.29653446208375
F            0.47678973206746        0.69449277604548        2.33547126271418
H           -0.48282743834582        2.18767250692729       -0.57541330156930
H           -2.20636414801350        2.49460435335430       -0.29412050458111
H           -1.11899631416627        2.21793715733855        1.06564885094525
H           -3.73622953655451        0.69539352430804       -0.13804600675850
H           -4.21897900247675       -1.71186765722156       -0.23976131324231
H           -2.34518069573923       -3.35177026802516       -0.18964248067886
H            0.45236610586197       -1.03662196523547       -2.07168002464881
H            3.73095981183377        0.08382387048220       -1.63862857071718
H            4.53594565329859        1.08990632054917        0.47738905349488
H            2.96004540474131        1.37356882589443        2.38263013471768
