%mem=12000MB
%nprocshared=8
# opt=(TS,recalcFC=15,noeigentest) freq bp86 def2svp empiricaldispersion=GD3BJ

example

0 1
C 1.373842 2.644424 0.315851
C 1.649168 1.191168 -0.043359
C 3.005154 0.969172 -0.378005
C 3.599637 -0.294693 -0.447493
C 2.830181 -1.380319 -0.029237
C 1.487855 -1.158151 0.272854
F 0.889528 -2.25302 0.871439
C 0.746345 0.050826 0.083681
C -0.764583 0.019416 0.034011
C -1.552352 -1.190826 -0.193607
O -1.079706 -2.402385 -0.566741
C -2.968213 -1.183379 -0.138739
C -3.698989 -0.010829 0.014094
C -2.99805 1.198702 0.069035
C -1.603312 1.181754 0.030024
F -1.062404 2.414203 -0.075346
H 0.921281 3.232138 -0.504892
H 0.71444 2.736479 1.195481
H 2.342609 3.11735 0.569989
H 3.634107 1.859545 -0.534388
H 4.656931 -0.415617 -0.725598
H 3.238974 -2.39079 0.114302
H -0.204649 -2.58247 -0.167269
H -3.456364 -2.160103 -0.264279
H -4.798548 -0.029911 0.052026
H -3.495353 2.178216 0.099054

