 Entering Gaussian System, Link 0=/path/to/g16
 Initial command:
 /path/to/g16 "path/to/scratch/gaussian_tmp/Gau-296445.inp" -scrdir="path/to/scratch/gaussian_tmp/"
 Entering Link 1 = /path/to/g16 PID=    296446.
  
 Copyright (c) 1988-2021, Gaussian, Inc.  All Rights Reserved.
  
 This is part of the Gaussian(R) 16 program.  It is based on
 the Gaussian(R) 09 system (copyright 2009, Gaussian, Inc.),
 the Gaussian(R) 03 system (copyright 2003, Gaussian, Inc.),
 the Gaussian(R) 98 system (copyright 1998, Gaussian, Inc.),
 the Gaussian(R) 94 system (copyright 1995, Gaussian, Inc.),
 the Gaussian 92(TM) system (copyright 1992, Gaussian, Inc.),
 the Gaussian 90(TM) system (copyright 1990, Gaussian, Inc.),
 the Gaussian 88(TM) system (copyright 1988, Gaussian, Inc.),
 the Gaussian 86(TM) system (copyright 1986, Carnegie Mellon
 University), and the Gaussian 82(TM) system (copyright 1983,
 Carnegie Mellon University). Gaussian is a federally registered
 trademark of Gaussian, Inc.
  
 This software contains proprietary and confidential information,
 including trade secrets, belonging to Gaussian, Inc.
  
 This software is provided under written license and may be
 used, copied, transmitted, or stored only in accord with that
 written license.
  
 The following legend is applicable only to US Government
 contracts under FAR:
  
                    RESTRICTED RIGHTS LEGEND
  
 Use, reproduction and disclosure by the US Government is
 subject to restrictions as set forth in subparagraphs (a)
 and (c) of the Commercial Computer Software - Restricted
 Rights clause in FAR 52.227-19.
  
 Gaussian, Inc.
 340 Quinnipiac St., Bldg. 40, Wallingford CT 06492
  
  
 ---------------------------------------------------------------
 Warning -- This program may not be used in any manner that
 competes with the business of Gaussian, Inc. or will provide
 assistance to any competitor of Gaussian, Inc.  The licensee
 of this program is prohibited from giving any competitor of
 Gaussian, Inc. access to this program.  By using this program,
 the user acknowledges that Gaussian, Inc. is engaged in the
 business of creating and licensing software in the field of
 computational chemistry and represents and warrants to the
 licensee that it is not a competitor of Gaussian, Inc. and that
 it will not use this program in any manner prohibited above.
 ---------------------------------------------------------------
  

 Cite this work as:
 Gaussian 16, Revision C.02,
 M. J. Frisch, G. W. Trucks, H. B. Schlegel, G. E. Scuseria, 
 M. A. Robb, J. R. Cheeseman, G. Scalmani, V. Barone, 
 G. A. Petersson, H. Nakatsuji, X. Li, M. Caricato, A. V. Marenich, 
 J. Bloino, B. G. Janesko, R. Gomperts, B. Mennucci, H. P. Hratchian, 
 J. V. Ortiz, A. F. Izmaylov, J. L. Sonnenberg, D. Williams-Young, 
 F. Ding, F. Lipparini, F. Egidi, J. Goings, B. Peng, A. Petrone, 
 T. Henderson, D. Ranasinghe, V. G. Zakrzewski, J. Gao, N. Rega, 
 G. Zheng, W. Liang, M. Hada, M. Ehara, K. Toyota, R. Fukuda, 
 J. Hasegawa, M. Ishida, T. Nakajima, Y. Honda, O. Kitao, H. Nakai, 
 T. Vreven, K. Throssell, J. A. Montgomery, Jr., J. E. Peralta, 
 F. Ogliaro, M. J. Bearpark, J. J. Heyd, E. N. Brothers, K. N. Kudin, 
 V. N. Staroverov, T. A. Keith, R. Kobayashi, J. Normand, 
 K. Raghavachari, A. P. Rendell, J. C. Burant, S. S. Iyengar, 
 J. Tomasi, M. Cossi, J. M. Millam, M. Klene, C. Adamo, R. Cammi, 
 J. W. Ochterski, R. L. Martin, K. Morokuma, O. Farkas, 
 J. B. Foresman, and D. J. Fox, Gaussian, Inc., Wallingford CT, 2019.
 
 ******************************************
 Gaussian 16:  ES64L-G16RevC.02  7-Dec-2021
                23-Jul-2026 
 ******************************************
 %mem=8000MB
 %nprocshared=8
 Will use up to    8 processors via shared memory.
 -----------------------------------------------
 # bp86 empiricaldispersion=GD3BJ def2svp nosymm
 -----------------------------------------------
 1/38=1,172=1/1;
 2/12=2,15=1,17=6,18=5,40=1/2;
 3/5=43,7=101,11=2,25=1,30=1,74=404,124=41/1,2,3;
 4//1;
 5/5=2,38=5/2;
 6/7=2,8=2,9=2,10=2,28=1/1;
 99/5=1,9=1/99;
 -------
 example
 -------
 Symbolic Z-matrix:
 Charge =  0 Multiplicity = 1
 C                    -1.25239   2.63743  -0.55871 
 C                    -1.57297   1.23902  -0.05978 
 C                    -2.91658   1.11352   0.29271 
 C                    -3.55645  -0.09553   0.46109 
 C                    -2.86096  -1.22684   0.08771 
 C                    -1.51752  -1.11679  -0.20515 
 F                    -0.99797  -2.26441  -0.73949 
 C                    -0.74993   0.06592  -0.0677 
 C                     0.74895   0.00729   0.02834 
 C                     1.50196  -1.19892   0.18106 
 O                     1.0656   -2.42056   0.58321 
 C                     2.88715  -1.19535  -0.00922 
 C                     3.60175  -0.03773  -0.1981 
 C                     2.92941   1.16506  -0.08452 
 C                     1.55823   1.16301   0.05931 
 F                     1.03867   2.38535   0.32209 
 H                    -0.99007   3.31793   0.24647 
 H                    -0.45747   2.62992  -1.29703 
 H                    -2.14972   3.02099  -1.0407 
 H                    -3.49078   2.02226   0.39875 
 H                    -4.58893  -0.14821   0.766 
 H                    -3.33311  -2.19127  -0.01021 
 H                     0.13091  -2.43177   0.80973 
 H                     3.37644  -2.15474   0.04349 
 H                     4.66757  -0.06375  -0.35639 
 H                     3.4452    2.11158  -0.0806 
 
                          Input orientation:                          
 ---------------------------------------------------------------------
 Center     Atomic      Atomic             Coordinates (Angstroms)
 Number     Number       Type             X           Y           Z
 ---------------------------------------------------------------------
      1          6           0       -1.252389    2.637428   -0.558707
      2          6           0       -1.572972    1.239021   -0.059784
      3          6           0       -2.916580    1.113519    0.292713
      4          6           0       -3.556446   -0.095533    0.461090
      5          6           0       -2.860963   -1.226840    0.087706
      6          6           0       -1.517522   -1.116793   -0.205153
      7          9           0       -0.997970   -2.264407   -0.739491
      8          6           0       -0.749932    0.065918   -0.067698
      9          6           0        0.748954    0.007287    0.028337
     10          6           0        1.501957   -1.198923    0.181055
     11          8           0        1.065600   -2.420562    0.583211
     12          6           0        2.887155   -1.195347   -0.009221
     13          6           0        3.601747   -0.037728   -0.198100
     14          6           0        2.929406    1.165060   -0.084519
     15          6           0        1.558226    1.163007    0.059309
     16          9           0        1.038675    2.385347    0.322090
     17          1           0       -0.990073    3.317927    0.246467
     18          1           0       -0.457472    2.629916   -1.297026
     19          1           0       -2.149719    3.020994   -1.040697
     20          1           0       -3.490784    2.022258    0.398747
     21          1           0       -4.588934   -0.148209    0.765999
     22          1           0       -3.333113   -2.191272   -0.010212
     23          1           0        0.130906   -2.431767    0.809732
     24          1           0        3.376442   -2.154744    0.043493
     25          1           0        4.667574   -0.063745   -0.356389
     26          1           0        3.445202    2.111582   -0.080595
 ---------------------------------------------------------------------
                    Distance matrix (angstroms):
                    1          2          3          4          5
     1  C    0.000000
     2  C    1.518960   0.000000
     3  C    2.411793   1.394736   0.000000
     4  C    3.717223   2.446735   1.378255   0.000000
     5  C    4.235319   2.785883   2.349979   1.379481   0.000000
     6  C    3.780142   2.360946   2.679464   2.375724   1.379388
     7  F    4.911761   3.614780   4.019564   3.562472   2.287257
     8  C    2.665749   1.433049   2.433460   2.860455   2.480287
     9  C    3.356731   2.629882   3.837941   4.328316   3.815508
    10  C    4.780299   3.931509   4.988319   5.184914   4.364008
    11  O    5.679816   4.557198   5.332155   5.175324   4.133811
    12  C    5.668150   5.081480   6.253429   6.553684   5.749022
    13  C    5.554199   5.331692   6.637383   7.188713   6.577408
    14  C    4.458713   4.503053   5.858371   6.629710   6.267314
    15  C    3.233484   3.134384   4.481162   5.282539   5.024083
    16  F    2.467452   2.877602   4.154811   5.223909   5.320715
    17  H    1.086367   2.180691   2.927965   4.275985   4.917351
    18  H    1.084926   2.170184   3.297566   4.485832   4.750665
    19  H    1.088411   2.114297   2.450411   3.734566   4.452331
    20  H    2.511089   2.121724   1.080166   2.119726   3.324163
    21  H    4.543914   3.420870   2.147726   1.077856   2.146953
    22  H    5.286454   3.855834   3.344683   2.159658   1.078258
    23  H    5.429813   4.139317   4.703567   4.379053   3.305216
    24  H    6.689816   6.002084   7.095477   7.244286   6.306203
    25  H    6.510241   6.381974   7.702382   8.264611   7.630786
    26  H    4.751049   5.093513   6.450408   7.361241   7.137304
                    6          7          8          9         10
     6  C    0.000000
     7  F    1.368382   0.000000
     8  C    1.416648   2.437876   0.000000
     9  C    2.540667   2.966799   1.503104   0.000000
    10  C    3.045185   2.869198   2.594746   1.430132   0.000000
    11  O    2.998974   2.456063   3.146811   2.510498   1.358138
    12  C    4.409732   4.095166   3.850015   2.453495   1.398210
    13  C    5.231763   5.138930   4.354866   2.862119   2.429249
    14  C    4.999657   5.254951   3.840042   2.471344   2.774266
    15  C    3.837662   4.349642   2.558775   1.411229   2.365734
    16  F    4.367735   5.186048   2.954794   2.413587   3.616838
    17  H    4.488753   5.668741   3.275963   3.745949   5.159111
    18  H    4.043974   4.955540   2.858473   3.176513   4.547977
    19  H    4.268382   5.417814   3.411540   4.315967   5.712715
    20  H    3.756608   5.087750   3.399575   4.708790   5.945659
    21  H    3.363757   4.431682   3.934315   5.390860   6.208470
    22  H    2.118697   2.447465   3.430893   4.636639   4.939559
    23  H    2.340184   1.924179   2.790016   2.634682   1.948056
    24  H    5.008997   4.445287   4.687288   3.402690   2.108605
    25  H    6.275922   6.089998   5.426743   3.938101   3.405673
    26  H    5.921702   6.270981   4.667340   3.421941   3.847611
                   11         12         13         14         15
    11  O    0.000000
    12  C    2.273806   0.000000
    13  C    3.566566   1.373462   0.000000
    14  C    4.095891   2.361986   1.382621   0.000000
    15  C    3.655013   2.707874   2.384114   1.378704   0.000000
    16  F    4.813074   4.043268   3.565281   2.286765   1.353922
    17  H    6.104871   5.955494   5.704636   4.484049   3.342534
    18  H    5.600212   5.241909   4.980082   3.884188   2.838046
    19  H    6.525786   6.649178   6.568494   5.491473   4.290802
    20  H    6.366578   7.155245   7.409708   6.495165   5.132839
    21  H    6.096782   7.588766   8.247966   7.679419   6.325051
    22  H    4.444479   6.299492   7.263975   7.105605   5.931375
    23  H    0.961816   3.129909   4.335192   4.644185   3.939896
    24  H    2.387875   1.078250   2.142636   3.352213   3.783336
    25  H    4.405866   2.137976   1.077831   2.145951   3.368349
    26  H    5.161733   3.354444   2.158205   1.077945   2.116613
                   16         17         18         19         20
    16  F    0.000000
    17  H    2.234108   0.000000
    18  H    2.218063   1.771833   0.000000
    19  H    3.525208   1.757766   1.755661   0.000000
    20  H    4.544635   2.820550   3.527871   2.206338   0.000000
    21  H    6.187563   5.023526   5.389159   4.388367   2.460027
    22  H    6.337854   5.992244   5.759258   5.443347   4.236265
    23  H    4.926097   5.884968   5.514096   6.193379   5.755336
    24  H    5.114216   7.004126   6.276055   7.648672   8.045642
    25  H    4.430271   6.618770   5.865724   7.513946   8.454612
    26  H    2.455296   4.608026   4.120587   5.749084   6.953104
                   21         22         23         24         25
    21  H    0.000000
    22  H    2.520653   0.000000
    23  H    5.243418   3.567853   0.000000
    24  H    8.245933   6.709869   3.346247   0.000000
    25  H    9.324689   8.285964   5.248688   2.489820   0.000000
    26  H    8.388726   8.029014   5.693792   4.268685   2.510440
                   26
    26  H    0.000000
 Symmetry turned off by external request.
 Stoichiometry    C13H10F2O
 Framework group  C1[X(C13H10F2O)]
 Deg. of freedom    72
 Full point group                 C1      NOp   1
 Rotational constants (GHZ):           0.8440854           0.4853009           0.3203346
 Standard basis: def2SVP (5D, 7F)
   274 basis functions,   470 primitive gaussians,   290 cartesian basis functions
    57 alpha electrons       57 beta electrons
       nuclear repulsion energy      1079.8833876709 Hartrees.
 NAtoms=   26 NActive=   26 NUniq=   26 SFac= 1.00D+00 NAtFMM=   60 NAOKFM=F Big=F
 Integral buffers will be    131072 words long.
 Raffenetti 2 integral format.
 Two-electron integral symmetry is turned off.
 Nuclear repulsion after empirical dispersion term =     1079.8312135113 Hartrees.
 One-electron integrals computed using PRISM.
   1 Symmetry operations used in ECPInt.
 ECPInt:  NShTT=    8001 NPrTT=   29641 LenC2=    7616 LenP2D=   20411.
 LDataN:  DoStor=T MaxTD1= 4 Len=   56
 NBasis=   274 RedAO= T EigKep=  2.67D-04  NBF=   274
 NBsUse=   274 1.00D-06 EigRej= -1.00D+00 NBFU=   274
 ExpMin= 1.22D-01 ExpMax= 2.89D+03 ExpMxC= 4.35D+02 IAcc=3 IRadAn=         5 AccDes= 0.00D+00
 Harris functional with IExCor=  404 and IRadAn=       5 diagonalized for initial guess.
 HarFok:  IExCor=  404 AccDes= 0.00D+00 IRadAn=         5 IDoV= 1 UseB2=F ITyADJ=14
 ICtDFT=  3500011 ScaDFX=  1.000000  1.000000  1.000000  1.000000
 FoFCou: FMM=F IPFlag=           0 FMFlag=      100000 FMFlg1=           0
         NFxFlg=           0 DoJE=T BraDBF=F KetDBF=T FulRan=T
         wScrn=  0.000000 ICntrl=       500 IOpCl=  0 I1Cent=   200000004 NGrid=           0
         NMat0=    1 NMatS0=      1 NMatT0=    0 NMatD0=    1 NMtDS0=    0 NMtDT0=    0
 Symmetry not used in FoFCou.
 Requested convergence on RMS density matrix=1.00D-08 within 128 cycles.
 Requested convergence on MAX density matrix=1.00D-06.
 Requested convergence on             energy=1.00D-06.
 No special actions if energy rises.
 Integral accuracy reduced to 1.0D-05 until final iterations.
 Initial convergence to 1.0D-05 achieved.  Increase integral accuracy.
 SCF Done:  E(RB-P86) =  -775.740172072     A.U. after   17 cycles
            NFock= 17  Conv=0.50D-08     -V/T= 2.0094

 **********************************************************************

            Population analysis using the SCF Density.

 **********************************************************************

 Alpha  occ. eigenvalues --  -24.31096 -24.30265 -18.81464 -10.00131  -9.99884
 Alpha  occ. eigenvalues --   -9.98780  -9.95366  -9.94594  -9.93957  -9.92236
 Alpha  occ. eigenvalues --   -9.92137  -9.92028  -9.91423  -9.91093  -9.91033
 Alpha  occ. eigenvalues --   -9.90784  -1.11583  -1.11155  -0.97152  -0.80010
 Alpha  occ. eigenvalues --   -0.78269  -0.71809  -0.70294  -0.67480  -0.66627
 Alpha  occ. eigenvalues --   -0.62620  -0.59059  -0.56266  -0.55419  -0.53562
 Alpha  occ. eigenvalues --   -0.51512  -0.48600  -0.47923  -0.45894  -0.44133
 Alpha  occ. eigenvalues --   -0.43145  -0.42957  -0.42172  -0.41875  -0.40421
 Alpha  occ. eigenvalues --   -0.38516  -0.38080  -0.37721  -0.37068  -0.35690
 Alpha  occ. eigenvalues --   -0.34258  -0.33929  -0.33300  -0.32770  -0.31618
 Alpha  occ. eigenvalues --   -0.30969  -0.30036  -0.29268  -0.26789  -0.22064
 Alpha  occ. eigenvalues --   -0.20930  -0.19764
 Alpha virt. eigenvalues --   -0.08644  -0.04325  -0.02892  -0.02196   0.03358
 Alpha virt. eigenvalues --    0.03680   0.05262   0.06424   0.07006   0.08766
 Alpha virt. eigenvalues --    0.09721   0.10423   0.11182   0.11846   0.12872
 Alpha virt. eigenvalues --    0.13378   0.14121   0.15889   0.18291   0.19715
 Alpha virt. eigenvalues --    0.20294   0.21297   0.24998   0.25583   0.25889
 Alpha virt. eigenvalues --    0.27017   0.28379   0.29733   0.30277   0.31095
 Alpha virt. eigenvalues --    0.33243   0.35423   0.36534   0.37105   0.37688
 Alpha virt. eigenvalues --    0.39698   0.40586   0.40919   0.41972   0.42417
 Alpha virt. eigenvalues --    0.43003   0.43325   0.44691   0.44743   0.46100
 Alpha virt. eigenvalues --    0.46541   0.48827   0.50098   0.50468   0.51789
 Alpha virt. eigenvalues --    0.52038   0.53358   0.53909   0.54572   0.56067
 Alpha virt. eigenvalues --    0.56585   0.57936   0.59604   0.60367   0.60801
 Alpha virt. eigenvalues --    0.61747   0.62257   0.62528   0.62899   0.64375
 Alpha virt. eigenvalues --    0.64754   0.66162   0.66275   0.66911   0.67243
 Alpha virt. eigenvalues --    0.68947   0.70056   0.71129   0.73004   0.73344
 Alpha virt. eigenvalues --    0.73410   0.75012   0.75527   0.77774   0.79200
 Alpha virt. eigenvalues --    0.79996   0.81844   0.83894   0.89586   0.91746
 Alpha virt. eigenvalues --    0.93525   0.94866   0.97592   0.99203   0.99985
 Alpha virt. eigenvalues --    1.01500   1.05033   1.08628   1.10422   1.10998
 Alpha virt. eigenvalues --    1.12405   1.15429   1.15977   1.17497   1.19533
 Alpha virt. eigenvalues --    1.21200   1.22881   1.23378   1.24309   1.24882
 Alpha virt. eigenvalues --    1.29018   1.30321   1.33614   1.35066   1.36492
 Alpha virt. eigenvalues --    1.38231   1.40827   1.44158   1.44757   1.46155
 Alpha virt. eigenvalues --    1.49951   1.53767   1.54898   1.56465   1.59281
 Alpha virt. eigenvalues --    1.60047   1.60899   1.61614   1.63427   1.64250
 Alpha virt. eigenvalues --    1.64789   1.66223   1.66478   1.67162   1.68147
 Alpha virt. eigenvalues --    1.69223   1.69767   1.72500   1.72967   1.73949
 Alpha virt. eigenvalues --    1.74068   1.75727   1.76885   1.78411   1.79196
 Alpha virt. eigenvalues --    1.80551   1.81362   1.83703   1.85995   1.86703
 Alpha virt. eigenvalues --    1.88882   1.89886   1.91744   1.93940   1.95231
 Alpha virt. eigenvalues --    1.95928   1.97091   1.99814   2.00759   2.01298
 Alpha virt. eigenvalues --    2.02589   2.03856   2.05323   2.09072   2.10738
 Alpha virt. eigenvalues --    2.11602   2.12794   2.15435   2.19098   2.19581
 Alpha virt. eigenvalues --    2.20416   2.20545   2.21321   2.22431   2.25078
 Alpha virt. eigenvalues --    2.26086   2.28028   2.29817   2.35575   2.38920
 Alpha virt. eigenvalues --    2.39451   2.40724   2.45904   2.47589   2.49281
 Alpha virt. eigenvalues --    2.50649   2.51244   2.55681   2.58009   2.59353
 Alpha virt. eigenvalues --    2.62722   2.65414   2.67370   2.69938   2.71677
 Alpha virt. eigenvalues --    2.73013   2.78225   2.80953   2.82981   2.84764
 Alpha virt. eigenvalues --    2.87059   2.89452   2.91229   2.92536   2.95297
 Alpha virt. eigenvalues --    2.96454   2.99804   3.01991   3.02219   3.05725
 Alpha virt. eigenvalues --    3.07149   3.12631   3.17959   3.20388   3.32847
 Alpha virt. eigenvalues --    3.36034   3.40488   3.45844   3.50598   3.70347
 Alpha virt. eigenvalues --    3.73725   3.79039
          Condensed to atoms (all electrons):
               1          2          3          4          5          6
     1  C    4.522760   0.437977  -0.078149   0.015328  -0.000137   0.010219
     2  C    0.437977   5.265860   0.332294   0.063692  -0.130180   0.028686
     3  C   -0.078149   0.332294   5.134580   0.260956   0.110343  -0.154477
     4  C    0.015328   0.063692   0.260956   5.112401   0.191084   0.103658
     5  C   -0.000137  -0.130180   0.110343   0.191084   5.279696   0.283718
     6  C    0.010219   0.028686  -0.154477   0.103658   0.283718   5.279947
     7  F   -0.000017   0.001690  -0.000028   0.006305  -0.067665   0.350187
     8  C   -0.065204   0.288251   0.048623  -0.095203  -0.012978   0.161779
     9  C   -0.021916  -0.049084   0.016702  -0.000361   0.016144  -0.062046
    10  C   -0.000560   0.012175   0.000320  -0.000251   0.000694  -0.038580
    11  O   -0.000003   0.000049   0.000003  -0.000001  -0.000742  -0.002686
    12  C    0.000000   0.000198  -0.000006   0.000003  -0.000086   0.000874
    13  C   -0.000026  -0.000145   0.000002  -0.000000   0.000003  -0.000247
    14  C    0.000019   0.000495  -0.000032   0.000002  -0.000005   0.000095
    15  C   -0.000485  -0.029366   0.000133  -0.000081  -0.000130   0.015581
    16  F    0.005948  -0.004444  -0.000188   0.000002  -0.000001   0.000267
    17  H    0.358126   0.000985   0.000632  -0.000197  -0.000029  -0.000301
    18  H    0.369466  -0.001006   0.008775  -0.001090   0.000264  -0.000947
    19  H    0.379634  -0.021369  -0.020134   0.002568  -0.000122   0.000032
    20  H   -0.020112  -0.073558   0.434579  -0.071836   0.015469  -0.000245
    21  H   -0.000486   0.017643  -0.074092   0.442645  -0.078631   0.016092
    22  H    0.000025  -0.000882   0.014493  -0.073694   0.423204  -0.065198
    23  H   -0.000003   0.000328  -0.000038   0.000227  -0.003419  -0.000759
    24  H    0.000000   0.000001  -0.000000  -0.000000   0.000002   0.000028
    25  H    0.000000  -0.000001   0.000000   0.000000   0.000000   0.000001
    26  H   -0.000010   0.000039  -0.000000   0.000000  -0.000000   0.000001
               7          8          9         10         11         12
     1  C   -0.000017  -0.065204  -0.021916  -0.000560  -0.000003   0.000000
     2  C    0.001690   0.288251  -0.049084   0.012175   0.000049   0.000198
     3  C   -0.000028   0.048623   0.016702   0.000320   0.000003  -0.000006
     4  C    0.006305  -0.095203  -0.000361  -0.000251  -0.000001   0.000003
     5  C   -0.067665  -0.012978   0.016144   0.000694  -0.000742  -0.000086
     6  C    0.350187   0.161779  -0.062046  -0.038580  -0.002686   0.000874
     7  F    8.960196  -0.077893   0.004081   0.000428  -0.010003  -0.001026
     8  C   -0.077893   5.583211   0.165975  -0.062564  -0.000562   0.013498
     9  C    0.004081   0.165975   5.891452   0.099655  -0.082057   0.011276
    10  C    0.000428  -0.062564   0.099655   5.252864   0.471916   0.254264
    11  O   -0.010003  -0.000562  -0.082057   0.471916   7.512506  -0.093847
    12  C   -0.001026   0.013498   0.011276   0.254264  -0.093847   5.291168
    13  C   -0.000002   0.000103  -0.116778   0.126219   0.005266   0.199472
    14  C    0.000001   0.016589   0.018151  -0.160951   0.000269   0.137832
    15  C    0.000090  -0.058110   0.120784   0.078002   0.001062  -0.161167
    16  F   -0.000000  -0.001572  -0.075786   0.001929  -0.000001  -0.000079
    17  H    0.000000  -0.000985   0.004128   0.000043   0.000000  -0.000003
    18  H   -0.000004  -0.009374   0.004715   0.000145   0.000001  -0.000010
    19  H    0.000002   0.006650  -0.000623   0.000009  -0.000000   0.000000
    20  H    0.000005   0.017232  -0.000306   0.000002   0.000000  -0.000000
    21  H   -0.000094  -0.002065   0.000024   0.000000  -0.000000  -0.000000
    22  H    0.001360   0.020768  -0.000395   0.000071   0.000026  -0.000000
    23  H    0.015054   0.007102  -0.023038  -0.013943   0.332959   0.010630
    24  H    0.000029  -0.000355   0.023337  -0.062735   0.003280   0.422705
    25  H    0.000000   0.000003  -0.003003   0.017945  -0.000110  -0.081686
    26  H    0.000000  -0.000313   0.022927  -0.001424   0.000008   0.015772
              13         14         15         16         17         18
     1  C   -0.000026   0.000019  -0.000485   0.005948   0.358126   0.369466
     2  C   -0.000145   0.000495  -0.029366  -0.004444   0.000985  -0.001006
     3  C    0.000002  -0.000032   0.000133  -0.000188   0.000632   0.008775
     4  C   -0.000000   0.000002  -0.000081   0.000002  -0.000197  -0.001090
     5  C    0.000003  -0.000005  -0.000130  -0.000001  -0.000029   0.000264
     6  C   -0.000247   0.000095   0.015581   0.000267  -0.000301  -0.000947
     7  F   -0.000002   0.000001   0.000090  -0.000000   0.000000  -0.000004
     8  C    0.000103   0.016589  -0.058110  -0.001572  -0.000985  -0.009374
     9  C   -0.116778   0.018151   0.120784  -0.075786   0.004128   0.004715
    10  C    0.126219  -0.160951   0.078002   0.001929   0.000043   0.000145
    11  O    0.005266   0.000269   0.001062  -0.000001   0.000000   0.000001
    12  C    0.199472   0.137832  -0.161167  -0.000079  -0.000003  -0.000010
    13  C    5.181455   0.129972   0.133377   0.005960   0.000002   0.000096
    14  C    0.129972   5.334153   0.274818  -0.064269  -0.000159  -0.001374
    15  C    0.133377   0.274818   5.157265   0.366405  -0.002153   0.002055
    16  F    0.005960  -0.064269   0.366405   8.928790   0.003521  -0.001832
    17  H    0.000002  -0.000159  -0.002153   0.003521   0.628798  -0.016113
    18  H    0.000096  -0.001374   0.002055  -0.001832  -0.016113   0.647209
    19  H   -0.000002   0.000041   0.000115   0.001771  -0.023001  -0.028725
    20  H    0.000000  -0.000000   0.000030  -0.000014   0.002376   0.000757
    21  H   -0.000000   0.000000   0.000000   0.000000   0.000016   0.000013
    22  H    0.000000  -0.000000   0.000003  -0.000000  -0.000001  -0.000001
    23  H   -0.000581   0.000010  -0.000273   0.000001   0.000000   0.000001
    24  H   -0.079840   0.015835  -0.001268   0.000005  -0.000000  -0.000000
    25  H    0.454356  -0.081078   0.017398  -0.000093   0.000000  -0.000002
    26  H   -0.078688   0.426949  -0.067860   0.001498   0.000021   0.000053
              19         20         21         22         23         24
     1  C    0.379634  -0.020112  -0.000486   0.000025  -0.000003   0.000000
     2  C   -0.021369  -0.073558   0.017643  -0.000882   0.000328   0.000001
     3  C   -0.020134   0.434579  -0.074092   0.014493  -0.000038  -0.000000
     4  C    0.002568  -0.071836   0.442645  -0.073694   0.000227  -0.000000
     5  C   -0.000122   0.015469  -0.078631   0.423204  -0.003419   0.000002
     6  C    0.000032  -0.000245   0.016092  -0.065198  -0.000759   0.000028
     7  F    0.000002   0.000005  -0.000094   0.001360   0.015054   0.000029
     8  C    0.006650   0.017232  -0.002065   0.020768   0.007102  -0.000355
     9  C   -0.000623  -0.000306   0.000024  -0.000395  -0.023038   0.023337
    10  C    0.000009   0.000002   0.000000   0.000071  -0.013943  -0.062735
    11  O   -0.000000   0.000000  -0.000000   0.000026   0.332959   0.003280
    12  C    0.000000  -0.000000  -0.000000  -0.000000   0.010630   0.422705
    13  C   -0.000002   0.000000  -0.000000   0.000000  -0.000581  -0.079840
    14  C    0.000041  -0.000000   0.000000  -0.000000   0.000010   0.015835
    15  C    0.000115   0.000030   0.000000   0.000003  -0.000273  -0.001268
    16  F    0.001771  -0.000014   0.000000  -0.000000   0.000001   0.000005
    17  H   -0.023001   0.002376   0.000016  -0.000001   0.000000  -0.000000
    18  H   -0.028725   0.000757   0.000013  -0.000001   0.000001  -0.000000
    19  H    0.673049   0.004099  -0.000016  -0.000003  -0.000000  -0.000000
    20  H    0.004099   0.719705  -0.014454  -0.000463  -0.000002   0.000000
    21  H   -0.000016  -0.014454   0.712152  -0.013579  -0.000002  -0.000000
    22  H   -0.000003  -0.000463  -0.013579   0.694762   0.000124  -0.000000
    23  H   -0.000000  -0.000002  -0.000002   0.000124   0.499722  -0.000286
    24  H   -0.000000   0.000000  -0.000000  -0.000000  -0.000286   0.700454
    25  H    0.000000  -0.000000   0.000000  -0.000000   0.000017  -0.015055
    26  H   -0.000002  -0.000000  -0.000000   0.000000  -0.000003  -0.000376
              25         26
     1  C    0.000000  -0.000010
     2  C   -0.000001   0.000039
     3  C    0.000000  -0.000000
     4  C    0.000000   0.000000
     5  C    0.000000  -0.000000
     6  C    0.000001   0.000001
     7  F    0.000000   0.000000
     8  C    0.000003  -0.000313
     9  C   -0.003003   0.022927
    10  C    0.017945  -0.001424
    11  O   -0.000110   0.000008
    12  C   -0.081686   0.015772
    13  C    0.454356  -0.078688
    14  C   -0.081078   0.426949
    15  C    0.017398  -0.067860
    16  F   -0.000093   0.001498
    17  H    0.000000   0.000021
    18  H   -0.000002   0.000053
    19  H    0.000000  -0.000002
    20  H   -0.000000  -0.000000
    21  H    0.000000  -0.000000
    22  H   -0.000000   0.000000
    23  H    0.000017  -0.000003
    24  H   -0.015055  -0.000376
    25  H    0.707903  -0.014357
    26  H   -0.014357   0.702368
 Mulliken charges:
               1
     1  C    0.087606
     2  C   -0.140331
     3  C   -0.035290
     4  C    0.043844
     5  C   -0.026494
     6  C    0.074321
     7  F   -0.182695
     8  C    0.057393
     9  C    0.036041
    10  C    0.024328
    11  O   -0.137332
    12  C   -0.019781
    13  C    0.040025
    14  C   -0.047362
    15  C    0.153777
    16  F   -0.167815
    17  H    0.044293
    18  H    0.026927
    19  H    0.026029
    20  H   -0.013265
    21  H   -0.005169
    22  H   -0.000620
    23  H    0.176172
    24  H   -0.005759
    25  H   -0.002240
    26  H   -0.006603
 Sum of Mulliken charges =  -0.00000
 Mulliken charges with hydrogens summed into heavy atoms:
               1
     1  C    0.184855
     2  C   -0.140331
     3  C   -0.048555
     4  C    0.038675
     5  C   -0.027114
     6  C    0.074321
     7  F   -0.182695
     8  C    0.057393
     9  C    0.036041
    10  C    0.024328
    11  O    0.038841
    12  C   -0.025541
    13  C    0.037785
    14  C   -0.053965
    15  C    0.153777
    16  F   -0.167815
 Electronic spatial extent (au):  <R**2>=           3310.6495
 Charge=             -0.0000 electrons
 Dipole moment (field-independent basis, Debye):
    X=             -1.0721    Y=              0.6156    Z=              0.3494  Tot=              1.2847
 Quadrupole moment (field-independent basis, Debye-Ang):
   XX=            -79.6318   YY=            -89.2809   ZZ=            -93.7006
   XY=              1.4482   XZ=             -2.3873   YZ=             -2.4568
 Traceless Quadrupole moment (field-independent basis, Debye-Ang):
   XX=              7.9060   YY=             -1.7432   ZZ=             -6.1628
   XY=              1.4482   XZ=             -2.3873   YZ=             -2.4568
 Octapole moment (field-independent basis, Debye-Ang**2):
  XXX=             11.3811  YYY=             -8.3605  ZZZ=             -0.9988  XYY=             -9.6736
  XXY=             -3.2786  XXZ=              1.2888  XZZ=              0.9056  YZZ=             -5.0523
  YYZ=              2.2586  XYZ=              2.2581
 Hexadecapole moment (field-independent basis, Debye-Ang**3):
 XXXX=          -2518.0915 YYYY=          -1362.7633 ZZZZ=           -166.2994 XXXY=             55.3208
 XXXZ=            -31.4624 YYYX=             55.0962 YYYZ=             14.6160 ZZZX=             22.2759
 ZZZY=             22.3320 XXYY=           -646.8336 XXZZ=           -528.2363 YYZZ=           -255.5312
 XXYZ=             10.3230 YYXZ=             -2.8963 ZZXY=             15.7038
 N-N= 1.079831213511D+03 E-N=-3.971508795560D+03  KE= 7.685039759873D+02
 Unable to Open any file for archive entry.
 1\1\GINC-SEMLSCPN085\SP\RBP86\def2SVP\C13H10F2O1\KTVF206\23-Jul-2026\0
 \\# bp86 empiricaldispersion=GD3BJ def2svp nosymm\\example\\0,1\C,0,-1
 .2523887918,2.6374282049,-0.5587065964\C,0,-1.5729722966,1.2390209991,
 -0.0597842906\C,0,-2.9165802151,1.1135193758,0.2927131108\C,0,-3.55644
 62335,-0.0955333001,0.4610898919\C,0,-2.8609634292,-1.2268399387,0.087
 7057487\C,0,-1.5175217142,-1.1167929921,-0.2051525213\F,0,-0.997970424
 5,-2.2644065815,-0.7394914077\C,0,-0.7499324612,0.0659176294,-0.067698
 3673\C,0,0.7489544927,0.0072865361,0.0283365292\C,0,1.5019569322,-1.19
 89227278,0.1810553866\O,0,1.0655996219,-2.4205623695,0.5832108725\C,0,
 2.8871549533,-1.1953468041,-0.0092208447\C,0,3.6017468154,-0.037727801
 8,-0.1981003774\C,0,2.9294056187,1.1650600961,-0.0845193678\C,0,1.5582
 257724,1.1630065185,0.0593087536\F,0,1.0386746991,2.3853474942,0.32209
 02602\H,0,-0.9900729099,3.3179269098,0.2464672561\H,0,-0.4574719906,2.
 6299163043,-1.2970257344\H,0,-2.1497193006,3.0209936553,-1.0406965776\
 H,0,-3.490784378,2.0222578913,0.3987466449\H,0,-4.5889335745,-0.148209
 4283,0.7659992656\H,0,-3.3331128004,-2.1912715386,-0.0102124648\H,0,0.
 130905733,-2.4317674168,0.8097323338\H,0,3.3764422862,-2.1547441388,0.
 0434929305\H,0,4.6675744317,-0.0637454621,-0.3563888711\H,0,3.44520223
 56,2.1115823655,-0.0805950252\\Version=ES64L-G16RevC.02\HF=-775.740172
 1\RMSD=4.964e-09\Dipole=-0.4218144,0.2421951,0.1374554\Quadrupole=5.87
 79329,-1.2960096,-4.5819233,1.0767256,-1.774891,-1.826588\PG=C01 [X(C1
 3H10F2O1)]\\@
 The archive entry for this job was punched.


 THOSE WITH THE GOLD MAKE THE RULES.

             -- PETER'S GOLDEN RULE
 Job cpu time:       0 days  0 hours  2 minutes 55.0 seconds.
 Elapsed time:       0 days  0 hours  0 minutes 23.1 seconds.
 File lengths (MBytes):  RWF=     46 Int=      0 D2E=      0 Chk=      6 Scr=      1
 Normal termination of Gaussian 16 at Thu Jul 23 14:36:04 2026.
