%mem=8000MB
%nprocshared=8
# bp86 empiricaldispersion=GD3BJ def2svp  nosymm

example

0 1
C -1.2523887918 2.6374282049 -0.5587065964
C -1.5729722966 1.2390209991 -0.0597842906
C -2.9165802151 1.1135193758 0.2927131108
C -3.5564462335 -0.0955333001 0.4610898919
C -2.8609634292 -1.2268399387 0.0877057487
C -1.5175217142 -1.1167929921 -0.2051525213
F -0.9979704245 -2.2644065815 -0.7394914077
C -0.7499324612 0.0659176294 -0.0676983673
C 0.7489544927 0.0072865361 0.0283365292
C 1.5019569322 -1.1989227278 0.1810553866
O 1.0655996219 -2.4205623695 0.5832108725
C 2.8871549533 -1.1953468041 -0.0092208447
C 3.6017468154 -0.0377278018 -0.1981003774
C 2.9294056187 1.1650600961 -0.0845193678
C 1.5582257724 1.1630065185 0.0593087536
F 1.0386746991 2.3853474942 0.3220902602
H -0.9900729099 3.3179269098 0.2464672561
H -0.4574719906 2.6299163043 -1.2970257344
H -2.1497193006 3.0209936553 -1.0406965776
H -3.4907843780 2.0222578913 0.3987466449
H -4.5889335745 -0.1482094283 0.7659992656
H -3.3331128004 -2.1912715386 -0.0102124648
H 0.1309057330 -2.4317674168 0.8097323338
H 3.3764422862 -2.1547441388 0.0434929305
H 4.6675744317 -0.0637454621 -0.3563888711
H 3.4452022356 2.1115823655 -0.0805950252

