26
 energy: -46.467132168085 gnorm: 0.000204752125 xtb: 6.6.1 (8d0f1dd)
C           -1.06056110452431       -1.66664469366690        1.38773925614016
C           -1.55785269197139       -0.44767282520466        0.67396766399597
C           -2.88057609719409       -0.04331374737508        0.79788760280634
C           -3.35292844528070        1.08279027498756        0.14822677708842
C           -2.50436171616810        1.83535530799732       -0.64353899526652
C           -1.18941302587809        1.43268845383631       -0.76435837466736
F           -0.35984754432129        2.15727439642028       -1.54800199343935
C           -0.69385882281010        0.30199484859239       -0.12642876361596
C            0.72916101018930       -0.05964367889303       -0.30591958190627
C            1.73416645919665        0.76325287132266        0.21715064367413
O            1.35031446605827        1.84429963994364        0.93936276341893
C            3.07163810554686        0.44796070919245        0.01040334646924
C            3.42413270163215       -0.67707027312570       -0.71265613692792
C            2.44886995403659       -1.50557061844172       -1.23611970397493
C            1.12235872656727       -1.17891988069082       -1.02427992577171
F            0.17008849252857       -1.98087649615092       -1.54836842799260
H           -0.08842361607313       -1.47916686815928        1.84040159316600
H           -1.76041285484901       -1.97006595397267        2.16190184822000
H           -0.94998652930281       -2.49213413702411        0.68531953722897
H           -3.55013772213693       -0.62134764149789        1.41768577199053
H           -4.38494170815561        1.37858875673395        0.25971774239082
H           -2.84231021520880        2.71791598792387       -1.16266393899571
H            2.12373802310379        2.35958042811989        1.19785948057680
H            3.83781159919972        1.09377883254098        0.41734822648082
H            4.46628922793123       -0.90750335887406       -0.86944861131250
H            2.69704232788429       -2.38554933453401       -1.80650779977661
