      -----------------------------------------------------------      
     |                   =====================                   |     
     |                           x T B                           |     
     |                   =====================                   |     
     |                         S. Grimme                         |     
     |          Mulliken Center for Theoretical Chemistry        |     
     |                    University of Bonn                     |     
      -----------------------------------------------------------      

   * xtb version 6.6.1 (8d0f1dd) compiled by 'stahn@M-Bot' on 2023-08-01

   xtb is free software: you can redistribute it and/or modify it under
   the terms of the GNU Lesser General Public License as published by
   the Free Software Foundation, either version 3 of the License, or
   (at your option) any later version.
   
   xtb is distributed in the hope that it will be useful,
   but WITHOUT ANY WARRANTY; without even the implied warranty of
   MERCHANTABILITY or FITNESS FOR A PARTICULAR PURPOSE.  See the
   GNU Lesser General Public License for more details.
   
   Cite this work as:
   * C. Bannwarth, E. Caldeweyher, S. Ehlert, A. Hansen, P. Pracht,
     J. Seibert, S. Spicher, S. Grimme, WIREs Comput. Mol. Sci., 2020, 11,
     e01493. DOI: 10.1002/wcms.1493
   
   for GFN2-xTB:
   * C. Bannwarth, S. Ehlert and S. Grimme., J. Chem. Theory Comput., 2019,
     15, 1652-1671. DOI: 10.1021/acs.jctc.8b01176
   for GFN1-xTB:
   * S. Grimme, C. Bannwarth, P. Shushkov, J. Chem. Theory Comput., 2017,
     13, 1989-2009. DOI: 10.1021/acs.jctc.7b00118
   for GFN0-xTB:
   * P. Pracht, E. Caldeweyher, S. Ehlert, S. Grimme, ChemRxiv, 2019, preprint.
     DOI: 10.26434/chemrxiv.8326202.v1
   for GFN-FF:
   * S. Spicher and S. Grimme, Angew. Chem. Int. Ed., 2020, 59, 15665-15673.
     DOI: 10.1002/anie.202004239
   
   for ALPB and GBSA implicit solvation:
   * S. Ehlert, M. Stahn, S. Spicher, S. Grimme, J. Chem. Theory Comput.,
     2021, 17, 4250-4261. DOI: 10.1021/acs.jctc.1c00471
   
   for DFT-D4:
   * E. Caldeweyher, C. Bannwarth and S. Grimme, J. Chem. Phys., 2017,
     147, 034112. DOI: 10.1063/1.4993215
   * E. Caldeweyher, S. Ehlert, A. Hansen, H. Neugebauer, S. Spicher,
     C. Bannwarth and S. Grimme, J. Chem. Phys., 2019, 150, 154122.
     DOI: 10.1063/1.5090222
   * E. Caldeweyher, J.-M. Mewes, S. Ehlert and S. Grimme, Phys. Chem. Chem. Phys.
     2020, 22, 8499-8512. DOI: 10.1039/D0CP00502A
   
   for sTDA-xTB:
   * S. Grimme and C. Bannwarth, J. Chem. Phys., 2016, 145, 054103.
     DOI: 10.1063/1.4959605
   
   in the mass-spec context:
   * V. Asgeirsson, C. Bauer and S. Grimme, Chem. Sci., 2017, 8, 4879.
     DOI: 10.1039/c7sc00601b
   * J. Koopman and S. Grimme, ACS Omega 2019, 4, 12, 15120-15133.
     DOI: 10.1021/acsomega.9b02011
   
   for metadynamics refer to:
   * S. Grimme, J. Chem. Theory Comput., 2019, 155, 2847-2862
     DOI: 10.1021/acs.jctc.9b00143
   
   for SPH calculations refer to:
   * S. Spicher and S. Grimme, J. Chem. Theory Comput., 2021, 17, 1701-1714
     DOI: 10.1021/acs.jctc.0c01306
   
   with help from (in alphabetical order)
   P. Atkinson, C. Bannwarth, F. Bohle, G. Brandenburg, E. Caldeweyher
   M. Checinski, S. Dohm, S. Ehlert, S. Ehrlich, I. Gerasimov, C. Hölzer
   A. Katbashev, J. Koopman, C. Lavigne, S. Lehtola, F. März, M. Müller,
   F. Musil, H. Neugebauer, J. Pisarek, C. Plett, P. Pracht, F. Pultar,
   J. Seibert, P. Shushkov, S. Spicher, M. Stahn, M. Steiner, T. Strunk,
   J. Stückrath, T. Rose, and J. Unsleber
   
 * started run on 2026/07/23 at 12:55:28.250     

           -------------------------------------------------
          |                Calculation Setup                |
           -------------------------------------------------

          program call               : /path/to/xtb /path/to/atropisomers_workflow/example/reactant_censo/confs/5.xyz --opt --etemp 298.15 --chrg 0 --uhf 0 -P 4
          hostname                   : node
          coordinate file            : /path/to/atropisomers_workflow/example/reactant_censo/confs/5.xyz
          omp threads                :                     4

   ID    Z sym.   atoms
    1    6 C      1-6, 8-10, 12-15
    2    9 F      7, 16
    3    8 O      11
    4    1 H      17-26

           -------------------------------------------------
          |                 G F N 2 - x T B                 |
           -------------------------------------------------

        Reference                      10.1021/acs.jctc.8b01176
      * Hamiltonian:
        H0-scaling (s, p, d)           1.850000    2.230000    2.230000
        zeta-weighting                 0.500000
      * Dispersion:
        s8                             2.700000
        a1                             0.520000
        a2                             5.000000
        s9                             5.000000
      * Repulsion:
        kExp                           1.500000    1.000000
        rExp                           1.000000
      * Coulomb:
        alpha                          2.000000
        third order                    shell-resolved
        anisotropic                    true
        a3                             3.000000
        a5                             4.000000
        cn-shift                       1.200000
        cn-exp                         4.000000
        max-rad                        5.000000


          ...................................................
          :                      SETUP                      :
          :.................................................:
          :  # basis functions                  74          :
          :  # atomic orbitals                  74          :
          :  # shells                           42          :
          :  # electrons                        82          :
          :  max. iterations                   250          :
          :  Hamiltonian                  GFN2-xTB          :
          :  restarted?                      false          :
          :  GBSA solvation                  false          :
          :  PC potential                    false          :
          :  electronic temp.          298.1500000     K    :
          :  accuracy                    1.0000000          :
          :  -> integral cutoff          0.2500000E+02      :
          :  -> integral neglect         0.1000000E-07      :
          :  -> SCF convergence          0.1000000E-05 Eh   :
          :  -> wf. convergence          0.1000000E-03 e    :
          :  Broyden damping             0.4000000          :
          ...................................................

 iter      E             dE          RMSdq      gap      omega  full diag
   1    -47.0532804 -0.470533E+02  0.440E+00    4.52       0.0  T
   2    -47.0925716 -0.392912E-01  0.266E+00    4.41       1.0  T
   3    -47.0857967  0.677485E-02  0.141E+00    4.31       1.0  T
   4    -47.1050003 -0.192036E-01  0.255E-01    4.33       1.0  T
   5    -47.1054118 -0.411442E-03  0.112E-01    4.31       1.0  T
   6    -47.1056765 -0.264754E-03  0.458E-02    4.31       1.0  T
   7    -47.1056891 -0.125803E-04  0.180E-02    4.31       1.1  T
   8    -47.1056917 -0.264420E-05  0.803E-03    4.31       2.4  T
   9    -47.1056922 -0.479369E-06  0.213E-03    4.31       9.2  T
  10    -47.1056922 -0.219815E-07  0.888E-04    4.31      22.1  T
  11    -47.1056922 -0.518100E-08  0.446E-04    4.31      44.0  T

   *** convergence criteria satisfied after 11 iterations ***

         #    Occupation            Energy/Eh            Energy/eV
      -------------------------------------------------------------
         1        2.0000           -0.8142049             -22.1556
       ...           ...                  ...                  ...
        35        2.0000           -0.4501063             -12.2480
        36        2.0000           -0.4422768             -12.0350
        37        2.0000           -0.4245565             -11.5528
        38        2.0000           -0.4118290             -11.2064
        39        2.0000           -0.4049157             -11.0183
        40        2.0000           -0.4022867             -10.9468
        41        2.0000           -0.3982460             -10.8368 (HOMO)
        42                         -0.2397385              -6.5236 (LUMO)
        43                         -0.2303930              -6.2693
        44                         -0.2287544              -6.2247
        45                         -0.2261333              -6.1534
        46                         -0.1036977              -2.8218
       ...                                ...                  ...
        74                          0.7015974              19.0914
      -------------------------------------------------------------
                  HL-Gap            0.1585075 Eh            4.3132 eV
             Fermi-level           -0.3189923 Eh           -8.6802 eV

 SCC (total)                   0 d,  0 h,  0 min,  0.039 sec
 SCC setup                      ...        0 min,  0.000 sec (  0.540%)
 Dispersion                     ...        0 min,  0.000 sec (  0.697%)
 classical contributions        ...        0 min,  0.000 sec (  0.057%)
 integral evaluation            ...        0 min,  0.002 sec (  4.677%)
 iterations                     ...        0 min,  0.032 sec ( 81.717%)
 molecular gradient             ...        0 min,  0.005 sec ( 11.636%)
 printout                       ...        0 min,  0.000 sec (  0.602%)

         :::::::::::::::::::::::::::::::::::::::::::::::::::::
         ::                     SUMMARY                     ::
         :::::::::::::::::::::::::::::::::::::::::::::::::::::
         :: total energy             -46.443076817168 Eh    ::
         :: gradient norm              0.109303477775 Eh/a0 ::
         :: HOMO-LUMO gap              4.313208092741 eV    ::
         ::.................................................::
         :: SCC energy               -47.105692249442 Eh    ::
         :: -> isotropic ES            0.048330685502 Eh    ::
         :: -> anisotropic ES          0.002811453071 Eh    ::
         :: -> anisotropic XC          0.007786113880 Eh    ::
         :: -> dispersion             -0.027883368744 Eh    ::
         :: repulsion energy           0.662361776140 Eh    ::
         :: add. restraining           0.000000000000 Eh    ::
         :: total charge              -0.000000000000 e     ::
         :::::::::::::::::::::::::::::::::::::::::::::::::::::

      ----------------------------------------------------------- 
     |                   =====================                   |
     |                        A N C O P T                        |
     |                   =====================                   |
     |               Approximate Normal Coordinate               |
     |                Rational Function Optimizer                |
      ----------------------------------------------------------- 

          ...................................................
          :                      SETUP                      :
          :.................................................:
          :   optimization level            normal          :
          :   max. optcycles                   200          :
          :   ANC micro-cycles                  20          :
          :   degrees of freedom                72          :
          :.................................................:
          :   RF solver                   davidson          :
          :   write xtbopt.log                true          :
          :   linear?                        false          :
          :   energy convergence         0.5000000E-05 Eh   :
          :   grad. convergence          0.1000000E-02 Eh/α :
          :   maxmium RF displ.          1.0000000          :
          :   Hlow (freq-cutoff)         0.1000000E-01      :
          :   Hmax (freq-cutoff)         5.0000000          :
          :   S6 in model hess.         20.0000000          :
          ...................................................

generating ANC from model Hessian ...
Using Lindh-Hessian (1995)
 Shifting diagonal of input Hessian by   8.586296632192385E-003
 Lowest  eigenvalues of input Hessian
    0.000000    0.000000    0.000000    0.000000    0.000000    0.000000
    0.010000    0.010503    0.010726    0.013973    0.015279    0.017384
    0.020757    0.021983    0.025226    0.029566    0.030747    0.031889
 Highest eigenvalues
    1.913455    1.984341    2.055660    2.110999    2.171934    2.214254
 

........................................................................
.............................. CYCLE    1 ..............................
........................................................................

 iter      E             dE          RMSdq      gap      omega  full diag
   1    -47.1056923 -0.471057E+02  0.121E-04    4.31       0.0  T
   2    -47.1056923 -0.346176E-10  0.722E-05    4.31     271.5  T
   3    -47.1056923  0.201084E-11  0.440E-05    4.31     445.6  T
     SCC iter.                  ...        0 min,  0.004 sec
     gradient                   ...        0 min,  0.004 sec
 * total energy  :   -46.4430768 Eh     change       -0.1102009E-08 Eh
   gradient norm :     0.1093039 Eh/α   predicted     0.0000000E+00 (-100.00%)
   displ. norm   :     0.3358119 α      lambda       -0.2083125E-01
   maximum displ.:     0.1521594 α      in ANC's #17, #7, #14, ...

........................................................................
.............................. CYCLE    2 ..............................
........................................................................

 iter      E             dE          RMSdq      gap      omega  full diag
   1    -47.1136597 -0.471137E+02  0.288E-01    4.26       0.0  T
   2    -47.1138481 -0.188384E-03  0.183E-01    4.32       1.0  T
   3    -47.1137932  0.548827E-04  0.797E-02    4.31       1.0  T
   4    -47.1138771 -0.839238E-04  0.211E-02    4.31       1.0  T
   5    -47.1138848 -0.769597E-05  0.547E-03    4.31       3.6  T
   6    -47.1138851 -0.251655E-06  0.318E-03    4.31       6.2  T
   7    -47.1138852 -0.146702E-06  0.118E-03    4.31      16.6  T
   8    -47.1138852 -0.704256E-08  0.411E-04    4.31      47.7  T
   9    -47.1138852 -0.196063E-08  0.165E-04    4.31     119.2  T
     SCC iter.                  ...        0 min,  0.012 sec
     gradient                   ...        0 min,  0.004 sec
 * total energy  :   -46.4577840 Eh     change       -0.1470715E-01 Eh
   gradient norm :     0.0463134 Eh/α   predicted    -0.1159139E-01 ( -21.19%)
   displ. norm   :     0.3027337 α      lambda       -0.7367142E-02
   maximum displ.:     0.1128116 α      in ANC's #7, #14, #9, ...

........................................................................
.............................. CYCLE    3 ..............................
........................................................................

 iter      E             dE          RMSdq      gap      omega  full diag
   1    -47.1169178 -0.471169E+02  0.226E-01    4.29       0.0  T
   2    -47.1170375 -0.119704E-03  0.140E-01    4.33       1.0  T
   3    -47.1170149  0.225916E-04  0.696E-02    4.32       1.0  T
   4    -47.1170625 -0.475697E-04  0.148E-02    4.32       1.3  T
   5    -47.1170653 -0.280913E-05  0.398E-03    4.32       4.9  T
   6    -47.1170654 -0.103319E-06  0.219E-03    4.32       8.9  T
   7    -47.1170655 -0.507155E-07  0.948E-04    4.32      20.7  T
   8    -47.1170655 -0.542322E-08  0.382E-04    4.32      51.3  T
     SCC iter.                  ...        0 min,  0.011 sec
     gradient                   ...        0 min,  0.004 sec
 * total energy  :   -46.4622650 Eh     change       -0.4480996E-02 Eh
   gradient norm :     0.0136269 Eh/α   predicted    -0.4022643E-02 ( -10.23%)
   displ. norm   :     0.2723022 α      lambda       -0.1733633E-02
   maximum displ.:     0.1299399 α      in ANC's #7, #2, #14, ...

........................................................................
.............................. CYCLE    4 ..............................
........................................................................

 iter      E             dE          RMSdq      gap      omega  full diag
   1    -47.1144387 -0.471144E+02  0.116E-01    4.31       0.0  T
   2    -47.1144768 -0.381364E-04  0.668E-02    4.33       1.0  T
   3    -47.1144745  0.227767E-05  0.378E-02    4.33       1.0  T
   4    -47.1144868 -0.123125E-04  0.894E-03    4.32       2.2  T
   5    -47.1144875 -0.648363E-06  0.318E-03    4.33       6.2  T
   6    -47.1144876 -0.929499E-07  0.179E-03    4.33      11.0  T
   7    -47.1144876 -0.234197E-07  0.774E-04    4.33      25.3  T
   8    -47.1144876 -0.316299E-08  0.296E-04    4.33      66.3  T
     SCC iter.                  ...        0 min,  0.011 sec
     gradient                   ...        0 min,  0.004 sec
 * total energy  :   -46.4634307 Eh     change       -0.1165770E-02 Eh
   gradient norm :     0.0233374 Eh/α   predicted    -0.9311066E-03 ( -20.13%)
   displ. norm   :     0.3013229 α      lambda       -0.1304203E-02
   maximum displ.:     0.1946692 α      in ANC's #2, #3, #7, ...

........................................................................
.............................. CYCLE    5 ..............................
........................................................................

 iter      E             dE          RMSdq      gap      omega  full diag
   1    -47.1146569 -0.471147E+02  0.103E-01    4.32       0.0  T
   2    -47.1146658 -0.888339E-05  0.606E-02    4.33       1.0  T
   3    -47.1146576  0.813391E-05  0.282E-02    4.32       1.0  T
   4    -47.1146695 -0.118332E-04  0.340E-03    4.33       5.8  T
   5    -47.1146696 -0.102944E-06  0.158E-03    4.33      12.4  T
   6    -47.1146696 -0.202507E-07  0.801E-04    4.33      24.5  T
   7    -47.1146696 -0.237031E-08  0.311E-04    4.33      63.1  T
     SCC iter.                  ...        0 min,  0.010 sec
     gradient                   ...        0 min,  0.004 sec
 * total energy  :   -46.4643833 Eh     change       -0.9525951E-03 Eh
   gradient norm :     0.0190417 Eh/α   predicted    -0.7113115E-03 ( -25.33%)
   displ. norm   :     0.3073199 α      lambda       -0.1047989E-02
   maximum displ.:     0.2199929 α      in ANC's #2, #3, #7, ...

........................................................................
.............................. CYCLE    6 ..............................
........................................................................

 iter      E             dE          RMSdq      gap      omega  full diag
   1    -47.1166623 -0.471167E+02  0.109E-01    4.31       0.0  T
   2    -47.1166651 -0.274595E-05  0.642E-02    4.32       1.0  T
   3    -47.1166583  0.675778E-05  0.183E-02    4.31       1.1  T
   4    -47.1166667 -0.837474E-05  0.248E-03    4.32       7.9  T
   5    -47.1166667 -0.173480E-07  0.148E-03    4.32      13.2  T
   6    -47.1166667 -0.148618E-07  0.472E-04    4.32      41.6  T
   7    -47.1166667 -0.170072E-08  0.211E-04    4.32      93.2  T
     SCC iter.                  ...        0 min,  0.009 sec
     gradient                   ...        0 min,  0.004 sec
 * total energy  :   -46.4651551 Eh     change       -0.7717725E-03 Eh
   gradient norm :     0.0109928 Eh/α   predicted    -0.5734846E-03 ( -25.69%)
   displ. norm   :     0.3483914 α      lambda       -0.7680363E-03
   maximum displ.:     0.2354134 α      in ANC's #2, #3, #5, ...

........................................................................
.............................. CYCLE    7 ..............................
........................................................................

 iter      E             dE          RMSdq      gap      omega  full diag
   1    -47.1161923 -0.471162E+02  0.127E-01    4.29       0.0  T
   2    -47.1161978 -0.552574E-05  0.751E-02    4.30       1.0  T
   3    -47.1161872  0.106497E-04  0.222E-02    4.29       1.0  T
   4    -47.1162003 -0.131612E-04  0.364E-03    4.30       5.4  T
   5    -47.1162004 -0.832031E-07  0.210E-03    4.30       9.4  T
   6    -47.1162004 -0.504630E-07  0.103E-03    4.30      19.1  T
   7    -47.1162005 -0.478740E-08  0.346E-04    4.30      56.6  T
   8    -47.1162005 -0.181197E-08  0.938E-05    4.30     209.0  T
     SCC iter.                  ...        0 min,  0.011 sec
     gradient                   ...        0 min,  0.004 sec
 * total energy  :   -46.4655771 Eh     change       -0.4220310E-03 Eh
   gradient norm :     0.0164182 Eh/α   predicted    -0.4306351E-03 (   2.04%)
   displ. norm   :     0.2753404 α      lambda       -0.7828096E-03
   maximum displ.:     0.1958533 α      in ANC's #2, #3, #5, ...

........................................................................
.............................. CYCLE    8 ..............................
........................................................................

 iter      E             dE          RMSdq      gap      omega  full diag
   1    -47.1206672 -0.471207E+02  0.114E-01    4.28       0.0  T
   2    -47.1206714 -0.416990E-05  0.663E-02    4.28       1.0  T
   3    -47.1206663  0.510493E-05  0.159E-02    4.28       1.2  T
   4    -47.1206733 -0.698224E-05  0.430E-03    4.28       4.6  T
   5    -47.1206734 -0.114206E-06  0.230E-03    4.28       8.5  T
   6    -47.1206734 -0.354940E-07  0.118E-03    4.28      16.7  T
   7    -47.1206734 -0.135739E-07  0.331E-04    4.28      59.3  T
   8    -47.1206734 -0.651845E-09  0.130E-04    4.28     150.7  T
     SCC iter.                  ...        0 min,  0.011 sec
     gradient                   ...        0 min,  0.004 sec
 * total energy  :   -46.4657837 Eh     change       -0.2065601E-03 Eh
   gradient norm :     0.0152918 Eh/α   predicted    -0.4211049E-03 ( 103.87%)
   displ. norm   :     0.0756440 α      lambda       -0.3039346E-03
   maximum displ.:     0.0367922 α      in ANC's #5, #3, #2, ...

........................................................................
.............................. CYCLE    9 ..............................
........................................................................

 iter      E             dE          RMSdq      gap      omega  full diag
   1    -47.1194274 -0.471194E+02  0.374E-02    4.28       0.0  T
   2    -47.1194295 -0.207562E-05  0.218E-02    4.28       1.0  T
   3    -47.1194288  0.670619E-06  0.924E-03    4.28       2.1  T
   4    -47.1194300 -0.123077E-05  0.252E-03    4.28       7.8  T
   5    -47.1194301 -0.494964E-07  0.104E-03    4.28      18.9  T
   6    -47.1194301 -0.419059E-08  0.606E-04    4.28      32.4  T
   7    -47.1194301 -0.326602E-08  0.215E-04    4.28      91.2  T
     SCC iter.                  ...        0 min,  0.009 sec
     gradient                   ...        0 min,  0.004 sec
 * total energy  :   -46.4659592 Eh     change       -0.1754737E-03 Eh
   gradient norm :     0.0045001 Eh/α   predicted    -0.1528410E-03 ( -12.90%)
   displ. norm   :     0.0573758 α      lambda       -0.6184314E-04
   maximum displ.:     0.0314492 α      in ANC's #5, #3, #6, ...

........................................................................
.............................. CYCLE   10 ..............................
........................................................................

 iter      E             dE          RMSdq      gap      omega  full diag
   1    -47.1198750 -0.471199E+02  0.247E-02    4.28       0.0  T
   2    -47.1198753 -0.312135E-06  0.148E-02    4.28       1.3  T
   3    -47.1198749  0.436354E-06  0.545E-03    4.28       3.6  T
   4    -47.1198754 -0.556275E-06  0.859E-04    4.28      22.8  T
   5    -47.1198754 -0.657300E-08  0.407E-04    4.28      48.2  T
     SCC iter.                  ...        0 min,  0.007 sec
     gradient                   ...        0 min,  0.004 sec
 * total energy  :   -46.4660056 Eh     change       -0.4643969E-04 Eh
   gradient norm :     0.0027286 Eh/α   predicted    -0.3102448E-04 ( -33.19%)
   displ. norm   :     0.1083895 α      lambda       -0.5925123E-04
   maximum displ.:     0.0624385 α      in ANC's #3, #5, #6, ...

........................................................................
.............................. CYCLE   11 ..............................
........................................................................

 iter      E             dE          RMSdq      gap      omega  full diag
   1    -47.1201167 -0.471201E+02  0.367E-02    4.28       0.0  T
   2    -47.1201170 -0.338697E-06  0.218E-02    4.28       1.0  T
   3    -47.1201164  0.605322E-06  0.608E-03    4.28       3.2  T
   4    -47.1201171 -0.754085E-06  0.106E-03    4.28      18.5  T
   5    -47.1201172 -0.891735E-08  0.565E-04    4.28      34.7  T
   6    -47.1201172 -0.241825E-08  0.235E-04    4.28      83.5  T
     SCC iter.                  ...        0 min,  0.008 sec
     gradient                   ...        0 min,  0.004 sec
 * total energy  :   -46.4660449 Eh     change       -0.3924207E-04 Eh
   gradient norm :     0.0018210 Eh/α   predicted    -0.2997479E-04 ( -23.62%)
   displ. norm   :     0.1247369 α      lambda       -0.2771770E-04
   maximum displ.:     0.0737856 α      in ANC's #3, #1, #6, ...

........................................................................
.............................. CYCLE   12 ..............................
........................................................................

 iter      E             dE          RMSdq      gap      omega  full diag
   1    -47.1204265 -0.471204E+02  0.363E-02    4.28       0.0  T
   2    -47.1204267 -0.216616E-06  0.215E-02    4.28       1.0  T
   3    -47.1204262  0.481861E-06  0.482E-03    4.28       4.1  T
   4    -47.1204268 -0.595183E-06  0.889E-04    4.28      22.1  T
   5    -47.1204268 -0.467315E-08  0.500E-04    4.28      39.2  T
     SCC iter.                  ...        0 min,  0.007 sec
     gradient                   ...        0 min,  0.004 sec
 * total energy  :   -46.4660754 Eh     change       -0.3058673E-04 Eh
   gradient norm :     0.0030725 Eh/α   predicted    -0.1395551E-04 ( -54.37%)
   displ. norm   :     0.1176981 α      lambda       -0.4200674E-04
   maximum displ.:     0.0658184 α      in ANC's #3, #1, #6, ...

........................................................................
.............................. CYCLE   13 ..............................
........................................................................

 iter      E             dE          RMSdq      gap      omega  full diag
   1    -47.1205293 -0.471205E+02  0.319E-02    4.27       0.0  T
   2    -47.1205294 -0.111087E-06  0.189E-02    4.27       1.0  T
   3    -47.1205293  0.181864E-06  0.278E-03    4.27       7.1  T
   4    -47.1205295 -0.235346E-06  0.609E-04    4.27      32.2  T
   5    -47.1205295 -0.127708E-08  0.306E-04    4.27      64.0  T
     SCC iter.                  ...        0 min,  0.007 sec
     gradient                   ...        0 min,  0.004 sec
 * total energy  :   -46.4661147 Eh     change       -0.3922785E-04 Eh
   gradient norm :     0.0036636 Eh/α   predicted    -0.2130010E-04 ( -45.70%)
   displ. norm   :     0.4505778 α      lambda       -0.1667422E-03
   maximum displ.:     0.2436474 α      in ANC's #3, #1, #6, ...

........................................................................
.............................. CYCLE   14 ..............................
........................................................................

 iter      E             dE          RMSdq      gap      omega  full diag
   1    -47.1187692 -0.471188E+02  0.121E-01    4.24       0.0  T
   2    -47.1187714 -0.215793E-05  0.716E-02    4.24       1.0  T
   3    -47.1187698  0.161433E-05  0.902E-03    4.24       2.2  T
   4    -47.1187720 -0.221902E-05  0.253E-03    4.24       7.8  T
   5    -47.1187721 -0.695569E-07  0.130E-03    4.24      15.1  T
   6    -47.1187721 -0.102598E-08  0.418E-04    4.24      46.9  T
   7    -47.1187721 -0.228969E-08  0.119E-04    4.24     165.3  T
     SCC iter.                  ...        0 min,  0.009 sec
     gradient                   ...        0 min,  0.004 sec
 * total energy  :   -46.4662275 Eh     change       -0.1128060E-03 Eh
   gradient norm :     0.0081520 Eh/α   predicted    -0.1003006E-03 ( -11.09%)
   displ. norm   :     0.2611386 α      lambda       -0.1434199E-03
   maximum displ.:     0.1623999 α      in ANC's #1, #2, #3, ...

........................................................................
.............................. CYCLE   15 ..............................
........................................................................

 iter      E             dE          RMSdq      gap      omega  full diag
   1    -47.1193118 -0.471193E+02  0.724E-02    4.22       0.0  T
   2    -47.1193123 -0.556304E-06  0.427E-02    4.22       1.0  T
   3    -47.1193117  0.597982E-06  0.538E-03    4.22       3.6  T
   4    -47.1193126 -0.816672E-06  0.130E-03    4.22      15.0  T
   5    -47.1193126 -0.106557E-07  0.632E-04    4.22      31.0  T
   6    -47.1193126 -0.826724E-09  0.236E-04    4.22      83.0  T
     SCC iter.                  ...        0 min,  0.008 sec
     gradient                   ...        0 min,  0.004 sec
 * total energy  :   -46.4663388 Eh     change       -0.1113077E-03 Eh
   gradient norm :     0.0079628 Eh/α   predicted    -0.7660125E-04 ( -31.18%)
   displ. norm   :     0.3645652 α      lambda       -0.2084922E-03
   maximum displ.:     0.2413591 α      in ANC's #1, #3, #2, ...

........................................................................
.............................. CYCLE   16 ..............................
........................................................................

 iter      E             dE          RMSdq      gap      omega  full diag
   1    -47.1192736 -0.471193E+02  0.103E-01    4.18       0.0  T
   2    -47.1192745 -0.965323E-06  0.604E-02    4.18       1.0  T
   3    -47.1192729  0.165561E-05  0.855E-03    4.18       2.3  T
   4    -47.1192750 -0.215195E-05  0.158E-03    4.18      12.4  T
   5    -47.1192750 -0.337346E-08  0.818E-04    4.18      24.0  T
   6    -47.1192750 -0.409845E-08  0.296E-04    4.18      66.3  T
     SCC iter.                  ...        0 min,  0.008 sec
     gradient                   ...        0 min,  0.004 sec
 * total energy  :   -46.4665131 Eh     change       -0.1743531E-03 Eh
   gradient norm :     0.0065026 Eh/α   predicted    -0.1181044E-03 ( -32.26%)
   displ. norm   :     0.5304610 α      lambda       -0.2988029E-03
   maximum displ.:     0.3705125 α      in ANC's #1, #3, #2, ...

........................................................................
.............................. CYCLE   17 ..............................
........................................................................

 iter      E             dE          RMSdq      gap      omega  full diag
   1    -47.1182894 -0.471183E+02  0.150E-01    4.11       0.0  T
   2    -47.1182926 -0.326438E-05  0.884E-02    4.12       1.0  T
   3    -47.1182855  0.708769E-05  0.167E-02    4.12       1.2  T
   4    -47.1182942 -0.861996E-05  0.240E-03    4.12       8.2  T
   5    -47.1182942 -0.288386E-07  0.131E-03    4.12      15.0  T
   6    -47.1182942 -0.993616E-08  0.616E-04    4.12      31.9  T
   7    -47.1182942 -0.166789E-08  0.159E-04    4.12     123.5  T
     SCC iter.                  ...        0 min,  0.009 sec
     gradient                   ...        0 min,  0.004 sec
 * total energy  :   -46.4667442 Eh     change       -0.2310699E-03 Eh
   gradient norm :     0.0055932 Eh/α   predicted    -0.1914444E-03 ( -17.15%)
   displ. norm   :     0.3606164 α      lambda       -0.4180073E-03
   maximum displ.:     0.2846565 α      in ANC's #1, #5, #4, ...

........................................................................
.............................. CYCLE   18 ..............................
........................................................................

 iter      E             dE          RMSdq      gap      omega  full diag
   1    -47.1308347 -0.471308E+02  0.149E-01    4.09       0.0  T
   2    -47.1308714 -0.367270E-04  0.865E-02    4.10       1.0  T
   3    -47.1308558  0.156843E-04  0.369E-02    4.09       1.0  T
   4    -47.1308790 -0.232793E-04  0.822E-03    4.10       2.4  T
   5    -47.1308800 -0.995213E-06  0.276E-03    4.10       7.1  T
   6    -47.1308800 -0.565930E-08  0.133E-03    4.10      14.7  T
   7    -47.1308801 -0.151826E-07  0.410E-04    4.10      47.8  T
   8    -47.1308801 -0.171588E-08  0.132E-04    4.10     149.1  T
     SCC iter.                  ...        0 min,  0.010 sec
     gradient                   ...        0 min,  0.004 sec
 * total energy  :   -46.4659721 Eh     change        0.7720693E-03 Eh
   gradient norm :     0.0281647 Eh/α   predicted    -0.2361939E-03 (-130.59%)
   displ. norm   :     0.2046332 α      lambda       -0.1845389E-02
   maximum displ.:     0.1266533 α      in ANC's #6, #3, #5, ...

........................................................................
.............................. CYCLE   19 ..............................
........................................................................

 iter      E             dE          RMSdq      gap      omega  full diag
   1    -47.1199164 -0.471199E+02  0.103E-01    4.08       0.0  T
   2    -47.1199398 -0.234706E-04  0.578E-02    4.07       1.0  T
   3    -47.1199372  0.262604E-05  0.229E-02    4.07       1.0  T
   4    -47.1199418 -0.456868E-05  0.738E-03    4.07       2.7  T
   5    -47.1199427 -0.943575E-06  0.251E-03    4.07       7.8  T
   6    -47.1199427 -0.705587E-08  0.891E-04    4.07      22.0  T
   7    -47.1199427 -0.605849E-08  0.305E-04    4.07      64.3  T
     SCC iter.                  ...        0 min,  0.009 sec
     gradient                   ...        0 min,  0.004 sec
 * total energy  :   -46.4669141 Eh     change       -0.9420034E-03 Eh
   gradient norm :     0.0044780 Eh/α   predicted    -0.9613315E-03 (   2.05%)
   displ. norm   :     0.3566250 α      lambda       -0.8993337E-04
   maximum displ.:     0.2668596 α      in ANC's #1, #3, #6, ...

........................................................................
.............................. CYCLE   20 ..............................
........................................................................

 iter      E             dE          RMSdq      gap      omega  full diag
   1    -47.1169382 -0.471169E+02  0.103E-01    4.02       0.0  T
   2    -47.1169402 -0.196019E-05  0.607E-02    4.03       1.0  T
   3    -47.1169356  0.457652E-05  0.134E-02    4.02       1.5  T
   4    -47.1169411 -0.550086E-05  0.181E-03    4.03      10.8  T
   5    -47.1169411 -0.222524E-07  0.101E-03    4.03      19.3  T
   6    -47.1169411 -0.553666E-08  0.516E-04    4.03      38.0  T
   7    -47.1169411 -0.261483E-08  0.161E-04    4.03     121.6  T
     SCC iter.                  ...        0 min,  0.009 sec
     gradient                   ...        0 min,  0.004 sec
 * total energy  :   -46.4669459 Eh     change       -0.3178575E-04 Eh
   gradient norm :     0.0066944 Eh/α   predicted    -0.5068627E-04 (  59.46%)
   displ. norm   :     0.0586509 α      lambda       -0.1063884E-03
   maximum displ.:     0.0464187 α      in ANC's #2, #3, #6, ...
 * RMSD in coord.:     0.6779154 α      energy gain  -0.2386911E-01 Eh

generating ANC from model Hessian ...
Using Lindh-Hessian (1995)
 Shifting diagonal of input Hessian by   8.698161472237962E-003
 Lowest  eigenvalues of input Hessian
    0.000000    0.000000    0.000000    0.000000    0.000000    0.000000
    0.010000    0.010557    0.010891    0.013963    0.015744    0.017783
    0.021282    0.022268    0.025073    0.029966    0.031329    0.033369
 Highest eigenvalues
    1.889618    1.911347    2.028398    2.071419    2.113955    2.134287
 

........................................................................
.............................. CYCLE   21 ..............................
........................................................................

 iter      E             dE          RMSdq      gap      omega  full diag
   1    -47.1197058 -0.471197E+02  0.271E-02    4.03       0.0  T
   2    -47.1197067 -0.856655E-06  0.159E-02    4.03       1.2  T
   3    -47.1197062  0.471918E-06  0.775E-03    4.03       2.5  T
   4    -47.1197070 -0.789705E-06  0.109E-03    4.03      18.0  T
   5    -47.1197070 -0.804135E-08  0.486E-04    4.03      40.4  T
   6    -47.1197070  0.178595E-09  0.258E-04    4.03      76.1  T
     SCC iter.                  ...        0 min,  0.008 sec
     gradient                   ...        0 min,  0.004 sec
 * total energy  :   -46.4670125 Eh     change       -0.6653262E-04 Eh
   gradient norm :     0.0032967 Eh/α   predicted     0.0000000E+00 (-100.00%)
   displ. norm   :     0.0379839 α      lambda       -0.3895567E-04
   maximum displ.:     0.0261860 α      in ANC's #2, #1, #3, ...

........................................................................
.............................. CYCLE   22 ..............................
........................................................................

 iter      E             dE          RMSdq      gap      omega  full diag
   1    -47.1209233 -0.471209E+02  0.152E-02    4.04       0.0  T
   2    -47.1209235 -0.168824E-06  0.908E-03    4.04       2.2  T
   3    -47.1209233  0.212644E-06  0.410E-03    4.04       4.8  T
   4    -47.1209236 -0.297492E-06  0.505E-04    4.04      38.8  T
   5    -47.1209236 -0.130679E-08  0.251E-04    4.04      78.2  T
     SCC iter.                  ...        0 min,  0.007 sec
     gradient                   ...        0 min,  0.004 sec
 * total energy  :   -46.4670428 Eh     change       -0.3030696E-04 Eh
   gradient norm :     0.0014325 Eh/α   predicted    -0.1959417E-04 ( -35.35%)
   displ. norm   :     0.1207399 α      lambda       -0.4218643E-04
   maximum displ.:     0.0837073 α      in ANC's #2, #1, #3, ...

........................................................................
.............................. CYCLE   23 ..............................
........................................................................

 iter      E             dE          RMSdq      gap      omega  full diag
   1    -47.1223326 -0.471223E+02  0.394E-02    4.05       0.0  T
   2    -47.1223332 -0.689931E-06  0.234E-02    4.04       1.0  T
   3    -47.1223323  0.970887E-06  0.826E-03    4.04       2.4  T
   4    -47.1223335 -0.127665E-05  0.120E-03    4.04      16.4  T
   5    -47.1223336 -0.602989E-08  0.613E-04    4.04      32.0  T
   6    -47.1223336 -0.323669E-08  0.279E-04    4.04      70.2  T
     SCC iter.                  ...        0 min,  0.008 sec
     gradient                   ...        0 min,  0.004 sec
 * total energy  :   -46.4670784 Eh     change       -0.3563580E-04 Eh
   gradient norm :     0.0024452 Eh/α   predicted    -0.2123055E-04 ( -40.42%)
   displ. norm   :     0.0464849 α      lambda       -0.1639810E-04
   maximum displ.:     0.0314670 α      in ANC's #2, #1, #6, ...

........................................................................
.............................. CYCLE   24 ..............................
........................................................................

 iter      E             dE          RMSdq      gap      omega  full diag
   1    -47.1219572 -0.471220E+02  0.145E-02    4.04       0.0  T
   2    -47.1219573 -0.329023E-07  0.860E-03    4.04       2.3  T
   3    -47.1219571  0.113822E-06  0.202E-03    4.04       9.7  T
   4    -47.1219573 -0.135803E-06  0.296E-04    4.04      66.3  T
   5    -47.1219573 -0.185615E-09  0.176E-04    4.04     111.3  T
     SCC iter.                  ...        0 min,  0.007 sec
     gradient                   ...        0 min,  0.004 sec
 * total energy  :   -46.4670930 Eh     change       -0.1455845E-04 Eh
   gradient norm :     0.0019346 Eh/α   predicted    -0.8218806E-05 ( -43.55%)
   displ. norm   :     0.1477857 α      lambda       -0.3043597E-04
   maximum displ.:     0.0952942 α      in ANC's #2, #1, #6, ...

........................................................................
.............................. CYCLE   25 ..............................
........................................................................

 iter      E             dE          RMSdq      gap      omega  full diag
   1    -47.1206549 -0.471207E+02  0.451E-02    4.03       0.0  T
   2    -47.1206554 -0.546494E-06  0.269E-02    4.03       1.0  T
   3    -47.1206534  0.196096E-05  0.864E-03    4.03       2.3  T
   4    -47.1206558 -0.233911E-05  0.913E-04    4.03      21.5  T
   5    -47.1206558 -0.226462E-08  0.529E-04    4.03      37.0  T
   6    -47.1206558 -0.292319E-08  0.234E-04    4.03      83.7  T
     SCC iter.                  ...        0 min,  0.008 sec
     gradient                   ...        0 min,  0.004 sec
 * total energy  :   -46.4671196 Eh     change       -0.2667126E-04 Eh
   gradient norm :     0.0011739 Eh/α   predicted    -0.1536648E-04 ( -42.39%)
   displ. norm   :     0.0598843 α      lambda       -0.6181229E-05
   maximum displ.:     0.0383992 α      in ANC's #2, #1, #6, ...

........................................................................
.............................. CYCLE   26 ..............................
........................................................................

 iter      E             dE          RMSdq      gap      omega  full diag
   1    -47.1208825 -0.471209E+02  0.171E-02    4.03       0.0  T
   2    -47.1208825 -0.591071E-07  0.101E-02    4.03       1.9  T
   3    -47.1208823  0.191485E-06  0.263E-03    4.03       7.4  T
   4    -47.1208825 -0.227300E-06  0.324E-04    4.03      60.5  T
   5    -47.1208826 -0.371344E-09  0.181E-04    4.03     108.5  T
     SCC iter.                  ...        0 min,  0.007 sec
     gradient                   ...        0 min,  0.004 sec
 * total energy  :   -46.4671270 Eh     change       -0.7414112E-05 Eh
   gradient norm :     0.0008387 Eh/α   predicted    -0.3096694E-05 ( -58.23%)
   displ. norm   :     0.0723130 α      lambda       -0.6702151E-05
   maximum displ.:     0.0444728 α      in ANC's #1, #2, #6, ...

........................................................................
.............................. CYCLE   27 ..............................
........................................................................

 iter      E             dE          RMSdq      gap      omega  full diag
   1    -47.1213107 -0.471213E+02  0.210E-02    4.02       0.0  T
   2    -47.1213108 -0.747838E-07  0.124E-02    4.02       1.6  T
   3    -47.1213105  0.226114E-06  0.301E-03    4.02       6.5  T
   4    -47.1213108 -0.270687E-06  0.378E-04    4.02      51.9  T
   5    -47.1213108 -0.409223E-09  0.209E-04    4.02      93.7  T
     SCC iter.                  ...        0 min,  0.007 sec
     gradient                   ...        0 min,  0.004 sec
 * total energy  :   -46.4671338 Eh     change       -0.6761356E-05 Eh
   gradient norm :     0.0003419 Eh/α   predicted    -0.3361773E-05 ( -50.28%)
   displ. norm   :     0.0435445 α      lambda       -0.2216753E-05
   maximum displ.:     0.0274780 α      in ANC's #1, #2, #6, ...

........................................................................
.............................. CYCLE   28 ..............................
........................................................................

 iter      E             dE          RMSdq      gap      omega  full diag
   1    -47.1213308 -0.471213E+02  0.132E-02    4.02       0.0  T
   2    -47.1213308 -0.275256E-07  0.779E-03    4.02       2.5  T
   3    -47.1213307  0.736772E-07  0.183E-03    4.02      10.7  T
   4    -47.1213308 -0.889109E-07  0.225E-04    4.02      87.3  T
   5    -47.1213308 -0.164135E-09  0.124E-04    4.02     158.1  T
     SCC iter.                  ...        0 min,  0.007 sec
     gradient                   ...        0 min,  0.004 sec
 * total energy  :   -46.4671361 Eh     change       -0.2342798E-05 Eh
   gradient norm :     0.0003182 Eh/α   predicted    -0.1109534E-05 ( -52.64%)
   displ. norm   :     0.0268435 α      lambda       -0.1122462E-05
   maximum displ.:     0.0167113 α      in ANC's #1, #3, #2, ...

   *** GEOMETRY OPTIMIZATION CONVERGED AFTER 28 ITERATIONS ***

------------------------------------------------------------------------
 total energy gain   :        -0.0240593 Eh      -15.0975 kcal/mol
 total RMSD          :         0.7430669 a0        0.3932 Å
 total power (kW/mol):        -2.2559914 (step) -144.1584 (real)
------------------------------------------------------------------------

 ANCopt (total)                0 d,  0 h,  0 min,  0.438 sec
 optimizer setup                ...        0 min,  0.000 sec (  0.046%)
 model hessian                  ...        0 min,  0.014 sec (  3.302%)
 ANC generation                 ...        0 min,  0.002 sec (  0.408%)
 coordinate transformation      ...        0 min,  0.000 sec (  0.077%)
 single point calculation       ...        0 min,  0.412 sec ( 94.081%)
 optimization log               ...        0 min,  0.004 sec (  0.986%)
 hessian update                 ...        0 min,  0.000 sec (  0.084%)
 rational function              ...        0 min,  0.003 sec (  0.678%)

================
 final structure:
================
26
 xtb: 6.6.1 (8d0f1dd)
C           -1.37844013168442       -1.83962139256624       -0.70937465135418
C           -1.66693346133949       -0.52750650510574       -0.04778328322142
C           -2.95719374983058       -0.20389862155124        0.35110404527591
C           -3.23918412524911        1.00214145668684        0.96677761687296
C           -2.22754278117185        1.91613877649039        1.20023053240710
C           -0.94537706139637        1.59221994287338        0.80402342684495
F            0.04382315724183        2.48831793690713        1.01796677163581
C           -0.63912199681774        0.38984519772198        0.17824984296911
C            0.76112470781179        0.11879005575118       -0.21344248662202
C            1.74378334808984       -0.05577445003788        0.76885435788894
O            1.34837959722021       -0.03396424351780        2.06525925713004
C            3.06719137616827       -0.26725253191233        0.40170029926852
C            3.42794998951697       -0.30566010555432       -0.93288298585766
C            2.47444993761455       -0.13806520568203       -1.91988472575099
C            1.16187804760254        0.07261900383797       -1.54031358523308
F            0.23318596177332        0.25001165692866       -2.50502406547018
H           -2.19175047244283       -2.54096525035619       -0.54137062853464
H           -0.45331557799272       -2.26941109857507       -0.32919878610222
H           -1.26647619713517       -1.69889920631833       -1.78404364494458
H           -3.75327571806881       -0.91287612792065        0.17730323507714
H           -4.24960451769083        1.23241651410285        1.26839890554080
H           -2.41482107193628        2.86446538877695        1.67793090189556
H            2.11533539546040       -0.10841992448611        2.64547895352341
H            3.81641419001887       -0.39830557074593        1.17057281062868
H            4.45960629328598       -0.46681334773752       -1.20396556147428
H            2.72991386095110       -0.15953334800973       -2.96656755239332
 
 Bond Distances (Angstroems)
 ---------------------------
C1-C2=1.4975         C1-H17=1.0870        C1-H18=1.0886        C1-H19=1.0896        C2-C1=1.4975         C2-C3=1.3887         
C2-C8=1.3961         C3-C2=1.3887         C3-C4=1.3832         C3-H20=1.0801        C4-C3=1.3832         C4-C5=1.3832         
C4-H21=1.0793        C5-C4=1.3832         C5-C6=1.3805         C5-H22=1.0782        C6-C5=1.3805         C6-F7=1.3518         
C6-C8=1.3896         F7-C6=1.3518         C8-C2=1.3961         C8-C6=1.3896         C8-C9=1.4790         C9-C8=1.4790         
C9-C10=1.4004        C9-C15=1.3868        C10-C9=1.4004        C10-O11=1.3555       C10-C12=1.3896       O11-C10=1.3555       
O11-H23=0.9646       C12-C10=1.3896       C12-C13=1.3830       C12-H24=1.0815       C13-C12=1.3830       C13-C14=1.3825       
C13-H25=1.0788       C14-C13=1.3825       C14-C15=1.3825       C14-H26=1.0776       C15-C9=1.3868        C15-C14=1.3825       
C15-F16=1.3508       F16-C15=1.3508       H17-C1=1.0870        H18-C1=1.0886        H19-C1=1.0896        H20-C3=1.0801        
H21-C4=1.0793        H22-C5=1.0782        H23-O11=0.9646       H24-C12=1.0815       H25-C13=1.0788       H26-C14=1.0776       
 C  H  Rav=1.0823 sigma=0.0045  Rmin=1.0776  Rmax=1.0896     9
 C  C  Rav=1.4016 sigma=0.0360  Rmin=1.3805  Rmax=1.4975    14
 O  H  Rav=0.9646 sigma=0.0000  Rmin=0.9646  Rmax=0.9646     1
 O  C  Rav=1.3555 sigma=0.0000  Rmin=1.3555  Rmax=1.3555     1
 F  C  Rav=1.3513 sigma=0.0005  Rmin=1.3508  Rmax=1.3518     2
 
 selected bond angles (degree)
 --------------------
H17-C1-C2=110.66               H18-C1-C2=110.81               H18-C1-H17=109.09              H19-C1-C2=110.02               
H19-C1-H17=108.22              H19-C1-H18=107.94              C3-C2-C1=120.67                C8-C2-C1=120.36                
C8-C2-C3=118.97                C4-C3-C2=121.36                H20-C3-C2=119.05               H20-C3-C4=119.58               
C5-C4-C3=120.14                H21-C4-C3=120.08               H21-C4-C5=119.77               C6-C5-C4=118.41                
H22-C5-C4=121.93               H22-C5-C6=119.66               F7-C6-C5=118.60                C8-C6-C5=122.48                
C8-C6-F7=118.92                C6-C8-C2=118.63                C9-C8-C2=122.26                C9-C8-C6=119.11                
C10-C9-C8=120.09               C15-C9-C8=122.21               C15-C9-C10=117.66              O11-C10-C9=117.66              
C12-C10-C9=120.13              C12-C10-O11=122.20             
 
 selected dihedral angles (degree)
 ---------------------------------
C3-C2-C1-H17=342.89           C3-C2-C1-H18=221.73           C3-C2-C1-H19=102.44           C8-C2-C1-H17=162.84           
C8-C2-C1-H18= 41.68           C8-C2-C1-H19=282.38           C4-C3-C2-C1=179.81            C4-C3-C2-C8=359.86            
H20-C3-C2-C1=  0.00           H20-C3-C2-C8=180.03           C5-C4-C3-C2=359.89            C5-C4-C3-H20=179.72           
H21-C4-C3-C2=180.00           H21-C4-C3-H20=359.83          C6-C5-C4-C3=  0.06            C6-C5-C4-H21=179.94           
H22-C5-C4-C3=180.01           H22-C5-C4-H21=359.89          F7-C6-C5-C4=179.33            F7-C6-C5-H22=359.38           
C8-C6-C5-C4=  0.26            C8-C6-C5-H22=180.30           C6-C8-C2-C1=180.48            C6-C8-C2-C3=  0.43            
C9-C8-C2-C1=359.88            C9-C8-C2-C3=179.83            C2-C8-C6-C5=359.50            C2-C8-C6-F7=180.42            
C9-C8-C6-C5=180.08            C9-C8-C6-F7=  1.00            C10-C9-C8-C2=247.44           C10-C9-C8-C6= 66.84           
C15-C9-C8-C2= 69.68           C15-C9-C8-C6=249.07           O11-C10-C9-C8=  3.26          O11-C10-C9-C15=181.13         
C12-C10-C9-C8=182.09          C12-C10-C9-C15=359.96         
           -------------------------------------------------
          |                Final Singlepoint                |
           -------------------------------------------------

          ...................................................
          :                      SETUP                      :
          :.................................................:
          :  # basis functions                  74          :
          :  # atomic orbitals                  74          :
          :  # shells                           42          :
          :  # electrons                        82          :
          :  max. iterations                   250          :
          :  Hamiltonian                  GFN2-xTB          :
          :  restarted?                      false          :
          :  GBSA solvation                  false          :
          :  PC potential                    false          :
          :  electronic temp.          298.1500000     K    :
          :  accuracy                    1.0000000          :
          :  -> integral cutoff          0.2500000E+02      :
          :  -> integral neglect         0.1000000E-07      :
          :  -> SCF convergence          0.1000000E-05 Eh   :
          :  -> wf. convergence          0.1000000E-03 e    :
          :  Broyden damping             0.4000000          :
          ...................................................

 iter      E             dE          RMSdq      gap      omega  full diag
   1    -47.1213308 -0.471213E+02  0.619E-05    4.02       0.0  T
   2    -47.1213308 -0.161862E-10  0.406E-05    4.02     483.5  T
   3    -47.1213308 -0.175078E-10  0.256E-05    4.02     764.7  T

   *** convergence criteria satisfied after 3 iterations ***

         #    Occupation            Energy/Eh            Energy/eV
      -------------------------------------------------------------
         1        2.0000           -0.8145742             -22.1657
       ...           ...                  ...                  ...
        35        2.0000           -0.4504508             -12.2574
        36        2.0000           -0.4430746             -12.0567
        37        2.0000           -0.4253815             -11.5752
        38        2.0000           -0.4127695             -11.2320
        39        2.0000           -0.4018377             -10.9346
        40        2.0000           -0.3981729             -10.8348
        41        2.0000           -0.3931284             -10.6976 (HOMO)
        42                         -0.2455238              -6.6810 (LUMO)
        43                         -0.2292263              -6.2376
        44                         -0.2246616              -6.1134
        45                         -0.2210577              -6.0153
        46                         -0.1090579              -2.9676
       ...                                ...                  ...
        74                          0.6743220              18.3492
      -------------------------------------------------------------
                  HL-Gap            0.1476046 Eh            4.0165 eV
             Fermi-level           -0.3193261 Eh           -8.6893 eV

 SCC (total)                   0 d,  0 h,  0 min,  0.011 sec
 SCC setup                      ...        0 min,  0.000 sec (  1.094%)
 Dispersion                     ...        0 min,  0.000 sec (  1.038%)
 classical contributions        ...        0 min,  0.000 sec (  0.189%)
 integral evaluation            ...        0 min,  0.002 sec ( 14.852%)
 iterations                     ...        0 min,  0.004 sec ( 40.018%)
 molecular gradient             ...        0 min,  0.004 sec ( 40.981%)
 printout                       ...        0 min,  0.000 sec (  1.585%)

         :::::::::::::::::::::::::::::::::::::::::::::::::::::
         ::                     SUMMARY                     ::
         :::::::::::::::::::::::::::::::::::::::::::::::::::::
         :: total energy             -46.467136146540 Eh    ::
         :: gradient norm              0.000317930413 Eh/a0 ::
         :: HOMO-LUMO gap              4.016525567694 eV    ::
         ::.................................................::
         :: SCC energy               -47.121330817184 Eh    ::
         :: -> isotropic ES            0.045259995797 Eh    ::
         :: -> anisotropic ES          0.002428838048 Eh    ::
         :: -> anisotropic XC          0.007533019368 Eh    ::
         :: -> dispersion             -0.027408820093 Eh    ::
         :: repulsion energy           0.653961008091 Eh    ::
         :: add. restraining           0.000000000000 Eh    ::
         :: total charge              -0.000000000000 e     ::
         :::::::::::::::::::::::::::::::::::::::::::::::::::::

           -------------------------------------------------
          |                Property Printout                |
           -------------------------------------------------

    * Orbital Energies and Occupations

         #    Occupation            Energy/Eh            Energy/eV
      -------------------------------------------------------------
         1        2.0000           -0.8145742             -22.1657
       ...           ...                  ...                  ...
        29        2.0000           -0.4791378             -13.0380
        30        2.0000           -0.4741290             -12.9017
        31        2.0000           -0.4662729             -12.6879
        32        2.0000           -0.4638652             -12.6224
        33        2.0000           -0.4583034             -12.4711
        34        2.0000           -0.4565226             -12.4226
        35        2.0000           -0.4504508             -12.2574
        36        2.0000           -0.4430746             -12.0567
        37        2.0000           -0.4253815             -11.5752
        38        2.0000           -0.4127695             -11.2320
        39        2.0000           -0.4018377             -10.9346
        40        2.0000           -0.3981729             -10.8348
        41        2.0000           -0.3931284             -10.6976 (HOMO)
        42                         -0.2455238              -6.6810 (LUMO)
        43                         -0.2292263              -6.2376
        44                         -0.2246616              -6.1134
        45                         -0.2210577              -6.0153
        46                         -0.1090579              -2.9676
        47                         -0.0941187              -2.5611
        48                          0.0343673               0.9352
        49                          0.0544391               1.4814
        50                          0.0768949               2.0924
        51                          0.0991228               2.6973
        52                          0.1226128               3.3365
       ...                                ...                  ...
        74                          0.6743220              18.3492
      -------------------------------------------------------------
                  HL-Gap            0.1476046 Eh            4.0165 eV
             Fermi-level           -0.3193261 Eh           -8.6893 eV

     #   Z          covCN         q      C6AA      α(0)
     1   6 C        3.758    -0.109    22.635     6.783
     2   6 C        2.971     0.022    27.511     8.603
     3   6 C        2.924    -0.045    29.125     8.850
     4   6 C        2.923    -0.032    28.787     8.799
     5   6 C        2.917    -0.054    29.339     8.882
     6   6 C        2.791     0.169    24.353     8.084
     7   9 F        0.787    -0.229    11.536     4.012
     8   6 C        2.979     0.004    27.940     8.671
     9   6 C        2.974    -0.013    28.342     8.733
    10   6 C        2.854     0.149    24.765     8.156
    11   8 O        1.660    -0.377    20.404     6.098
    12   6 C        2.916    -0.077    29.923     8.970
    13   6 C        2.924    -0.031    28.773     8.797
    14   6 C        2.916    -0.062    29.549     8.914
    15   6 C        2.790     0.165    24.432     8.097
    16   9 F        0.787    -0.224    11.489     4.004
    17   1 H        0.925     0.045     2.379     2.412
    18   1 H        0.925     0.046     2.374     2.410
    19   1 H        0.925     0.063     2.160     2.298
    20   1 H        0.926     0.042     2.425     2.435
    21   1 H        0.926     0.043     2.413     2.429
    22   1 H        0.926     0.055     2.257     2.349
    23   1 H        0.805     0.305     0.705     1.319
    24   1 H        0.925     0.038     2.475     2.460
    25   1 H        0.926     0.048     2.346     2.395
    26   1 H        0.926     0.059     2.205     2.322

 Mol. C6AA /au·bohr⁶  :       8741.188119
 Mol. C8AA /au·bohr⁸  :     214349.692464
 Mol. α(0) /au        :        147.280784


Wiberg/Mayer (AO) data.
largest (>0.10) Wiberg bond orders for each atom

 ---------------------------------------------------------------------------
     #   Z sym  total        # sym  WBO       # sym  WBO       # sym  WBO
 ---------------------------------------------------------------------------
     1   6 C    3.996 --     2 C    1.029    17 H    0.984    18 H    0.976
                            19 H    0.964
     2   6 C    3.988 --     3 C    1.412     8 C    1.372     1 C    1.029
                             5 C    0.105
     3   6 C    3.990 --     4 C    1.444     2 C    1.412    20 H    0.968
     4   6 C    3.990 --     3 C    1.444     5 C    1.433    21 H    0.970
                             8 C    0.106
     5   6 C    3.988 --     4 C    1.433     6 C    1.402    22 H    0.967
                             2 C    0.105
     6   6 C    3.885 --     5 C    1.402     8 C    1.364     7 F    0.956
     7   9 F    1.086 --     6 C    0.956
     8   6 C    3.988 --     2 C    1.372     6 C    1.364     9 C    1.016
                             4 C    0.106
     9   6 C    3.986 --    15 C    1.376    10 C    1.323     8 C    1.016
                            13 C    0.103
    10   6 C    3.942 --    12 C    1.374     9 C    1.323    11 O    1.088
    11   8 O    2.141 --    10 C    1.088    23 H    0.885
    12   6 C    3.985 --    13 C    1.443    10 C    1.374    24 H    0.965
    13   6 C    3.989 --    12 C    1.443    14 C    1.435    25 H    0.970
                             9 C    0.103
    14   6 C    3.987 --    13 C    1.435    15 C    1.392    26 H    0.967
    15   6 C    3.886 --    14 C    1.392     9 C    1.376    16 F    0.959
    16   9 F    1.090 --    15 C    0.959
    17   1 H    0.998 --     1 C    0.984
    18   1 H    0.998 --     1 C    0.976
    19   1 H    0.996 --     1 C    0.964
    20   1 H    0.997 --     3 C    0.968
    21   1 H    0.998 --     4 C    0.970
    22   1 H    0.996 --     5 C    0.967
    23   1 H    0.906 --    11 O    0.885
    24   1 H    0.998 --    12 C    0.965
    25   1 H    0.997 --    13 C    0.970
    26   1 H    0.996 --    14 C    0.967
 ---------------------------------------------------------------------------

Topologies differ in total number of bonds
Writing topology from bond orders to xtbtopo.mol

molecular dipole:
                 x           y           z       tot (Debye)
 q only:        0.335      -0.893       0.478
   full:        0.582      -0.913       0.579       3.121
molecular quadrupole (traceless):
                xx          xy          yy          xz          yz          zz
 q only:       10.486      -2.101      -6.441       1.054       0.176      -4.046
  q+dip:       14.283      -3.457      -8.930       0.988       1.415      -5.353
   full:       12.139      -2.933      -7.517       1.928       0.192      -4.621

           -------------------------------------------------
          |                Geometry Summary                 |
           -------------------------------------------------

      molecular mass/u    :      220.2151854
   center of mass at/Å    :        0.0935674       0.3090308      -0.0155016
  moments of inertia/u·Å² :        0.5678860E+03   0.1112735E+04   0.1318676E+04
rotational constants/cm⁻¹ :        0.2968489E-01   0.1514973E-01   0.1278376E-01

 * 23 selected distances

     #   Z          #   Z                                           value/Å
     2   6 C        3   6 C                                       1.3887423
     3   6 C        4   6 C                                       1.3831506
     4   6 C        5   6 C                                       1.3832245
     5   6 C        6   6 C                                       1.3805263
     2   6 C        8   6 C                                       1.3960737
     6   6 C        8   6 C                                       1.3896367
     9   6 C       10   6 C                                       1.4003565 (max)
    10   6 C       11   8 O                                       1.3555389
    10   6 C       12   6 C                                       1.3895806
    12   6 C       13   6 C                                       1.3830166
    13   6 C       14   6 C                                       1.3825423
     9   6 C       15   6 C                                       1.3868390
    14   6 C       15   6 C                                       1.3825004
     1   6 C       17   1 H                                       1.0870062
     1   6 C       18   1 H                                       1.0886269
     1   6 C       19   1 H                                       1.0896111
     3   6 C       20   1 H                                       1.0800938
     4   6 C       21   1 H                                       1.0793292
     5   6 C       22   1 H                                       1.0782367
    11   8 O       23   1 H                                       0.9645828 (min)
    12   6 C       24   1 H                                       1.0815151
    13   6 C       25   1 H                                       1.0787822
    14   6 C       26   1 H                                       1.0776214

 * 4 distinct bonds (by element types)

   Z      Z             #   av. dist./Å        max./Å        min./Å
   1 H    6 C           9     1.0823136     1.0896111     1.0776214
   6 C    6 C          12     1.3871824     1.4003565     1.3805263
   1 H    8 O           1     0.9645828     0.9645828     0.9645828
   6 C    8 O           1     1.3555389     1.3555389     1.3555389


optimized geometry written to: xtbopt.xyz


           -------------------------------------------------
          | TOTAL ENERGY              -46.467136146540 Eh   |
          | GRADIENT NORM               0.000317930413 Eh/α |
          | HOMO-LUMO GAP               4.016525567694 eV   |
           -------------------------------------------------

------------------------------------------------------------------------
 * finished run on 2026/07/23 at 12:55:28.761     
------------------------------------------------------------------------
 total:
 * wall-time:     0 d,  0 h,  0 min,  0.510 sec
 *  cpu-time:     0 d,  0 h,  0 min,  1.998 sec
 * ratio c/w:     3.914 speedup
 SCF:
 * wall-time:     0 d,  0 h,  0 min,  0.039 sec
 *  cpu-time:     0 d,  0 h,  0 min,  0.140 sec
 * ratio c/w:     3.597 speedup
 ANC optimizer:
 * wall-time:     0 d,  0 h,  0 min,  0.453 sec
 *  cpu-time:     0 d,  0 h,  0 min,  1.801 sec
 * ratio c/w:     3.975 speedup

