      -----------------------------------------------------------      
     |                   =====================                   |     
     |                           x T B                           |     
     |                   =====================                   |     
     |                         S. Grimme                         |     
     |          Mulliken Center for Theoretical Chemistry        |     
     |                    University of Bonn                     |     
      -----------------------------------------------------------      

   * xtb version 6.6.1 (8d0f1dd) compiled by 'stahn@M-Bot' on 2023-08-01

   xtb is free software: you can redistribute it and/or modify it under
   the terms of the GNU Lesser General Public License as published by
   the Free Software Foundation, either version 3 of the License, or
   (at your option) any later version.
   
   xtb is distributed in the hope that it will be useful,
   but WITHOUT ANY WARRANTY; without even the implied warranty of
   MERCHANTABILITY or FITNESS FOR A PARTICULAR PURPOSE.  See the
   GNU Lesser General Public License for more details.
   
   Cite this work as:
   * C. Bannwarth, E. Caldeweyher, S. Ehlert, A. Hansen, P. Pracht,
     J. Seibert, S. Spicher, S. Grimme, WIREs Comput. Mol. Sci., 2020, 11,
     e01493. DOI: 10.1002/wcms.1493
   
   for GFN2-xTB:
   * C. Bannwarth, S. Ehlert and S. Grimme., J. Chem. Theory Comput., 2019,
     15, 1652-1671. DOI: 10.1021/acs.jctc.8b01176
   for GFN1-xTB:
   * S. Grimme, C. Bannwarth, P. Shushkov, J. Chem. Theory Comput., 2017,
     13, 1989-2009. DOI: 10.1021/acs.jctc.7b00118
   for GFN0-xTB:
   * P. Pracht, E. Caldeweyher, S. Ehlert, S. Grimme, ChemRxiv, 2019, preprint.
     DOI: 10.26434/chemrxiv.8326202.v1
   for GFN-FF:
   * S. Spicher and S. Grimme, Angew. Chem. Int. Ed., 2020, 59, 15665-15673.
     DOI: 10.1002/anie.202004239
   
   for ALPB and GBSA implicit solvation:
   * S. Ehlert, M. Stahn, S. Spicher, S. Grimme, J. Chem. Theory Comput.,
     2021, 17, 4250-4261. DOI: 10.1021/acs.jctc.1c00471
   
   for DFT-D4:
   * E. Caldeweyher, C. Bannwarth and S. Grimme, J. Chem. Phys., 2017,
     147, 034112. DOI: 10.1063/1.4993215
   * E. Caldeweyher, S. Ehlert, A. Hansen, H. Neugebauer, S. Spicher,
     C. Bannwarth and S. Grimme, J. Chem. Phys., 2019, 150, 154122.
     DOI: 10.1063/1.5090222
   * E. Caldeweyher, J.-M. Mewes, S. Ehlert and S. Grimme, Phys. Chem. Chem. Phys.
     2020, 22, 8499-8512. DOI: 10.1039/D0CP00502A
   
   for sTDA-xTB:
   * S. Grimme and C. Bannwarth, J. Chem. Phys., 2016, 145, 054103.
     DOI: 10.1063/1.4959605
   
   in the mass-spec context:
   * V. Asgeirsson, C. Bauer and S. Grimme, Chem. Sci., 2017, 8, 4879.
     DOI: 10.1039/c7sc00601b
   * J. Koopman and S. Grimme, ACS Omega 2019, 4, 12, 15120-15133.
     DOI: 10.1021/acsomega.9b02011
   
   for metadynamics refer to:
   * S. Grimme, J. Chem. Theory Comput., 2019, 155, 2847-2862
     DOI: 10.1021/acs.jctc.9b00143
   
   for SPH calculations refer to:
   * S. Spicher and S. Grimme, J. Chem. Theory Comput., 2021, 17, 1701-1714
     DOI: 10.1021/acs.jctc.0c01306
   
   with help from (in alphabetical order)
   P. Atkinson, C. Bannwarth, F. Bohle, G. Brandenburg, E. Caldeweyher
   M. Checinski, S. Dohm, S. Ehlert, S. Ehrlich, I. Gerasimov, C. Hölzer
   A. Katbashev, J. Koopman, C. Lavigne, S. Lehtola, F. März, M. Müller,
   F. Musil, H. Neugebauer, J. Pisarek, C. Plett, P. Pracht, F. Pultar,
   J. Seibert, P. Shushkov, S. Spicher, M. Stahn, M. Steiner, T. Strunk,
   J. Stückrath, T. Rose, and J. Unsleber
   
 * started run on 2025/08/28 at 10:02:04.288     

           -------------------------------------------------
          |                Calculation Setup                |
           -------------------------------------------------

          program call               : /path/to/xtb /path/to/18.xyz --opt --etemp 298.15 --chrg 0 --uhf 0 -P 4
          hostname                   : semlscpn101
          coordinate file            : /path/to/18.xyz
          omp threads                :                     4

   ID    Z sym.   atoms
    1    6 C      1-6, 8-10, 12-15
    2    9 F      7, 16
    3    8 O      11
    4    1 H      17-26

           -------------------------------------------------
          |                 G F N 2 - x T B                 |
           -------------------------------------------------

        Reference                      10.1021/acs.jctc.8b01176
      * Hamiltonian:
        H0-scaling (s, p, d)           1.850000    2.230000    2.230000
        zeta-weighting                 0.500000
      * Dispersion:
        s8                             2.700000
        a1                             0.520000
        a2                             5.000000
        s9                             5.000000
      * Repulsion:
        kExp                           1.500000    1.000000
        rExp                           1.000000
      * Coulomb:
        alpha                          2.000000
        third order                    shell-resolved
        anisotropic                    true
        a3                             3.000000
        a5                             4.000000
        cn-shift                       1.200000
        cn-exp                         4.000000
        max-rad                        5.000000


          ...................................................
          :                      SETUP                      :
          :.................................................:
          :  # basis functions                  74          :
          :  # atomic orbitals                  74          :
          :  # shells                           42          :
          :  # electrons                        82          :
          :  max. iterations                   250          :
          :  Hamiltonian                  GFN2-xTB          :
          :  restarted?                      false          :
          :  GBSA solvation                  false          :
          :  PC potential                    false          :
          :  electronic temp.          298.1500000     K    :
          :  accuracy                    1.0000000          :
          :  -> integral cutoff          0.2500000E+02      :
          :  -> integral neglect         0.1000000E-07      :
          :  -> SCF convergence          0.1000000E-05 Eh   :
          :  -> wf. convergence          0.1000000E-03 e    :
          :  Broyden damping             0.4000000          :
          ...................................................

 iter      E             dE          RMSdq      gap      omega  full diag
   1    -47.0436277 -0.470436E+02  0.462E+00    4.49       0.0  T
   2    -47.0822536 -0.386259E-01  0.281E+00    4.44       1.0  T
   3    -47.0727644  0.948920E-02  0.145E+00    4.41       1.0  T
   4    -47.0942608 -0.214964E-01  0.252E-01    4.46       1.0  T
   5    -47.0945861 -0.325290E-03  0.902E-02    4.44       1.0  T
   6    -47.0947002 -0.114131E-03  0.448E-02    4.44       1.0  T
   7    -47.0947158 -0.155534E-04  0.185E-02    4.44       1.1  T
   8    -47.0947189 -0.309780E-05  0.824E-03    4.44       2.4  T
   9    -47.0947195 -0.671655E-06  0.197E-03    4.44       9.9  T
  10    -47.0947195 -0.183746E-07  0.912E-04    4.44      21.5  T
  11    -47.0947195 -0.307934E-08  0.427E-04    4.44      46.0  T

   *** convergence criteria satisfied after 11 iterations ***

         #    Occupation            Energy/Eh            Energy/eV
      -------------------------------------------------------------
         1        2.0000           -0.8187256             -22.2787
       ...           ...                  ...                  ...
        35        2.0000           -0.4510120             -12.2727
        36        2.0000           -0.4419860             -12.0271
        37        2.0000           -0.4268154             -11.6142
        38        2.0000           -0.4181061             -11.3772
        39        2.0000           -0.4123458             -11.2205
        40        2.0000           -0.4104501             -11.1689
        41        2.0000           -0.4064148             -11.0591 (HOMO)
        42                         -0.2432919              -6.6203 (LUMO)
        43                         -0.2410297              -6.5588
        44                         -0.2377065              -6.4683
        45                         -0.2315911              -6.3019
        46                         -0.1141589              -3.1064
       ...                                ...                  ...
        74                          0.6840673              18.6144
      -------------------------------------------------------------
                  HL-Gap            0.1631230 Eh            4.4388 eV
             Fermi-level           -0.3248533 Eh           -8.8397 eV

 SCC (total)                   0 d,  0 h,  0 min,  0.099 sec
 SCC setup                      ...        0 min,  0.000 sec (  0.268%)
 Dispersion                     ...        0 min,  0.000 sec (  0.331%)
 classical contributions        ...        0 min,  0.000 sec (  0.058%)
 integral evaluation            ...        0 min,  0.005 sec (  4.729%)
 iterations                     ...        0 min,  0.078 sec ( 78.745%)
 molecular gradient             ...        0 min,  0.015 sec ( 15.523%)
 printout                       ...        0 min,  0.000 sec (  0.325%)

         :::::::::::::::::::::::::::::::::::::::::::::::::::::
         ::                     SUMMARY                     ::
         :::::::::::::::::::::::::::::::::::::::::::::::::::::
         :: total energy             -46.444402039291 Eh    ::
         :: gradient norm              0.108540240352 Eh/a0 ::
         :: HOMO-LUMO gap              4.438801460770 eV    ::
         ::.................................................::
         :: SCC energy               -47.094719546180 Eh    ::
         :: -> isotropic ES            0.050389203970 Eh    ::
         :: -> anisotropic ES          0.003136318798 Eh    ::
         :: -> anisotropic XC          0.008490628859 Eh    ::
         :: -> dispersion             -0.027624524740 Eh    ::
         :: repulsion energy           0.650059676132 Eh    ::
         :: add. restraining           0.000000000000 Eh    ::
         :: total charge               0.000000000000 e     ::
         :::::::::::::::::::::::::::::::::::::::::::::::::::::

      ----------------------------------------------------------- 
     |                   =====================                   |
     |                        A N C O P T                        |
     |                   =====================                   |
     |               Approximate Normal Coordinate               |
     |                Rational Function Optimizer                |
      ----------------------------------------------------------- 

          ...................................................
          :                      SETUP                      :
          :.................................................:
          :   optimization level            normal          :
          :   max. optcycles                   200          :
          :   ANC micro-cycles                  20          :
          :   degrees of freedom                72          :
          :.................................................:
          :   RF solver                   davidson          :
          :   write xtbopt.log                true          :
          :   linear?                        false          :
          :   energy convergence         0.5000000E-05 Eh   :
          :   grad. convergence          0.1000000E-02 Eh/α :
          :   maxmium RF displ.          1.0000000          :
          :   Hlow (freq-cutoff)         0.1000000E-01      :
          :   Hmax (freq-cutoff)         5.0000000          :
          :   S6 in model hess.         20.0000000          :
          ...................................................

generating ANC from model Hessian ...
Using Lindh-Hessian (1995)
 Shifting diagonal of input Hessian by   8.619558327568937E-003
 Lowest  eigenvalues of input Hessian
    0.000000    0.000000    0.000000    0.000000    0.000000    0.000000
    0.010000    0.010501    0.010871    0.014038    0.015551    0.017756
    0.020010    0.021548    0.025024    0.026440    0.029874    0.030753
 Highest eigenvalues
    1.907696    1.917777    2.046601    2.093993    2.136382    2.165704
 

........................................................................
.............................. CYCLE    1 ..............................
........................................................................

 iter      E             dE          RMSdq      gap      omega  full diag
   1    -47.0947195 -0.470947E+02  0.136E-04    4.44       0.0  T
   2    -47.0947195 -0.439471E-10  0.822E-05    4.44     238.6  T
   3    -47.0947195 -0.294875E-11  0.517E-05    4.44     379.2  T
     SCC iter.                  ...        0 min,  0.012 sec
     gradient                   ...        0 min,  0.015 sec
 * total energy  :   -46.4444020 Eh     change       -0.1406633E-08 Eh
   gradient norm :     0.1085428 Eh/α   predicted     0.0000000E+00 (-100.00%)
   displ. norm   :     0.2117236 α      lambda       -0.1439100E-01
   maximum displ.:     0.0812352 α      in ANC's #15, #40, #24, ...

........................................................................
.............................. CYCLE    2 ..............................
........................................................................

 iter      E             dE          RMSdq      gap      omega  full diag
   1    -47.1050302 -0.471050E+02  0.236E-01    4.41       0.0  T
   2    -47.1051031 -0.729120E-04  0.154E-01    4.43       1.0  T
   3    -47.1050362  0.668658E-04  0.741E-02    4.42       1.0  T
   4    -47.1051425 -0.106280E-03  0.123E-02    4.42       1.6  T
   5    -47.1051452 -0.268370E-05  0.497E-03    4.42       3.9  T
   6    -47.1051456 -0.383634E-06  0.222E-03    4.42       8.8  T
   7    -47.1051456 -0.241107E-07  0.961E-04    4.42      20.4  T
   8    -47.1051456 -0.947520E-08  0.330E-04    4.42      59.4  T
     SCC iter.                  ...        0 min,  0.030 sec
     gradient                   ...        0 min,  0.014 sec
 * total energy  :   -46.4543657 Eh     change       -0.9963659E-02 Eh
   gradient norm :     0.0438442 Eh/α   predicted    -0.7518496E-02 ( -24.54%)
   displ. norm   :     0.1583566 α      lambda       -0.3757224E-02
   maximum displ.:     0.0618651 α      in ANC's #5, #18, #24, ...

........................................................................
.............................. CYCLE    3 ..............................
........................................................................

 iter      E             dE          RMSdq      gap      omega  full diag
   1    -47.1113396 -0.471113E+02  0.157E-01    4.39       0.0  T
   2    -47.1113687 -0.290306E-04  0.100E-01    4.41       1.0  T
   3    -47.1113417  0.269515E-04  0.509E-02    4.40       1.0  T
   4    -47.1113867 -0.450129E-04  0.744E-03    4.40       2.6  T
   5    -47.1113876 -0.871442E-06  0.340E-03    4.40       5.8  T
   6    -47.1113878 -0.175326E-06  0.152E-03    4.40      12.9  T
   7    -47.1113878 -0.115395E-07  0.629E-04    4.40      31.2  T
   8    -47.1113878 -0.410662E-08  0.217E-04    4.40      90.2  T
     SCC iter.                  ...        0 min,  0.030 sec
     gradient                   ...        0 min,  0.015 sec
 * total energy  :   -46.4562492 Eh     change       -0.1883529E-02 Eh
   gradient norm :     0.0105208 Eh/α   predicted    -0.1925777E-02 (   2.24%)
   displ. norm   :     0.0782806 α      lambda       -0.2217695E-03
   maximum displ.:     0.0384694 α      in ANC's #5, #10, #7, ...

........................................................................
.............................. CYCLE    4 ..............................
........................................................................

 iter      E             dE          RMSdq      gap      omega  full diag
   1    -47.1100019 -0.471100E+02  0.359E-02    4.41       0.0  T
   2    -47.1100031 -0.120166E-05  0.217E-02    4.41       1.0  T
   3    -47.1100007  0.239618E-05  0.124E-02    4.41       1.6  T
   4    -47.1100041 -0.341223E-05  0.159E-03    4.41      12.3  T
   5    -47.1100041 -0.138063E-07  0.899E-04    4.41      21.8  T
   6    -47.1100041 -0.149436E-07  0.352E-04    4.41      55.8  T
     SCC iter.                  ...        0 min,  0.023 sec
     gradient                   ...        0 min,  0.014 sec
 * total energy  :   -46.4564343 Eh     change       -0.1850380E-03 Eh
   gradient norm :     0.0041208 Eh/α   predicted    -0.1115696E-03 ( -39.70%)
   displ. norm   :     0.3158368 α      lambda       -0.5972994E-03
   maximum displ.:     0.1360805 α      in ANC's #5, #7, #10, ...

........................................................................
.............................. CYCLE    5 ..............................
........................................................................

 iter      E             dE          RMSdq      gap      omega  full diag
   1    -47.1051968 -0.471052E+02  0.138E-01    4.43       0.0  T
   2    -47.1052228 -0.260515E-04  0.835E-02    4.44       1.0  T
   3    -47.1051940  0.288623E-04  0.509E-02    4.44       1.0  T
   4    -47.1052426 -0.486557E-04  0.755E-03    4.44       2.6  T
   5    -47.1052429 -0.286795E-06  0.392E-03    4.44       5.0  T
   6    -47.1052432 -0.318468E-06  0.149E-03    4.44      13.2  T
   7    -47.1052432 -0.384814E-08  0.543E-04    4.44      36.1  T
   8    -47.1052432 -0.316377E-08  0.165E-04    4.44     119.1  T
     SCC iter.                  ...        0 min,  0.029 sec
     gradient                   ...        0 min,  0.014 sec
 * total energy  :   -46.4566154 Eh     change       -0.1811246E-03 Eh
   gradient norm :     0.0280386 Eh/α   predicted    -0.3285403E-03 (  81.39%)
   displ. norm   :     0.0784067 α      lambda       -0.4262788E-03
   maximum displ.:     0.0372528 α      in ANC's #10, #7, #5, ...

........................................................................
.............................. CYCLE    6 ..............................
........................................................................

 iter      E             dE          RMSdq      gap      omega  full diag
   1    -47.1081934 -0.471082E+02  0.454E-02    4.44       0.0  T
   2    -47.1081959 -0.252766E-05  0.269E-02    4.44       1.0  T
   3    -47.1081926  0.332048E-05  0.144E-02    4.44       1.4  T
   4    -47.1081973 -0.471488E-05  0.278E-03    4.44       7.1  T
   5    -47.1081973 -0.336937E-07  0.131E-03    4.44      14.9  T
   6    -47.1081974 -0.288692E-07  0.645E-04    4.44      30.4  T
   7    -47.1081974 -0.156468E-08  0.199E-04    4.44      98.6  T
     SCC iter.                  ...        0 min,  0.026 sec
     gradient                   ...        0 min,  0.014 sec
 * total energy  :   -46.4568508 Eh     change       -0.2354153E-03 Eh
   gradient norm :     0.0125680 Eh/α   predicted    -0.2144696E-03 (  -8.90%)
   displ. norm   :     0.1296995 α      lambda       -0.3782499E-03
   maximum displ.:     0.0809575 α      in ANC's #2, #7, #1, ...

........................................................................
.............................. CYCLE    7 ..............................
........................................................................

 iter      E             dE          RMSdq      gap      omega  full diag
   1    -47.1091256 -0.471091E+02  0.490E-02    4.45       0.0  T
   2    -47.1091287 -0.318032E-05  0.297E-02    4.45       1.0  T
   3    -47.1091258  0.299603E-05  0.190E-02    4.45       1.0  T
   4    -47.1091315 -0.573006E-05  0.259E-03    4.45       7.6  T
   5    -47.1091315 -0.528575E-07  0.151E-03    4.45      13.0  T
   6    -47.1091316 -0.322649E-07  0.580E-04    4.45      33.8  T
   7    -47.1091316 -0.680181E-09  0.224E-04    4.45      87.7  T
     SCC iter.                  ...        0 min,  0.026 sec
     gradient                   ...        0 min,  0.014 sec
 * total energy  :   -46.4572361 Eh     change       -0.3853189E-03 Eh
   gradient norm :     0.0109608 Eh/α   predicted    -0.1923691E-03 ( -50.08%)
   displ. norm   :     0.1436190 α      lambda       -0.4325496E-03
   maximum displ.:     0.0789408 α      in ANC's #2, #7, #10, ...

........................................................................
.............................. CYCLE    8 ..............................
........................................................................

 iter      E             dE          RMSdq      gap      omega  full diag
   1    -47.1088749 -0.471089E+02  0.576E-02    4.46       0.0  T
   2    -47.1088808 -0.596259E-05  0.349E-02    4.47       1.0  T
   3    -47.1088780  0.284469E-05  0.224E-02    4.47       1.0  T
   4    -47.1088852 -0.718096E-05  0.347E-03    4.47       5.6  T
   5    -47.1088852 -0.790264E-07  0.183E-03    4.47      10.7  T
   6    -47.1088853 -0.678949E-07  0.668E-04    4.47      29.4  T
   7    -47.1088853 -0.948212E-09  0.274E-04    4.47      71.6  T
     SCC iter.                  ...        0 min,  0.026 sec
     gradient                   ...        0 min,  0.014 sec
 * total energy  :   -46.4576750 Eh     change       -0.4389252E-03 Eh
   gradient norm :     0.0152365 Eh/α   predicted    -0.2207483E-03 ( -49.71%)
   displ. norm   :     0.9360866 α      lambda       -0.3250261E-02
   maximum displ.:     0.4441391 α      in ANC's #2, #7, #10, ...

........................................................................
.............................. CYCLE    9 ..............................
........................................................................

 iter      E             dE          RMSdq      gap      omega  full diag
   1    -47.0865590 -0.470866E+02  0.454E-01    4.14       0.0  T
   2    -47.0872819 -0.722896E-03  0.244E-01    4.22       1.0  T
   3    -47.0872572  0.246933E-04  0.163E-01    4.21       1.0  T
   4    -47.0875791 -0.321923E-03  0.424E-02    4.22       1.0  T
   5    -47.0875864 -0.731767E-05  0.158E-02    4.21       1.2  T
   6    -47.0875912 -0.478755E-05  0.744E-03    4.21       2.6  T
   7    -47.0875915 -0.246055E-06  0.280E-03    4.21       7.0  T
   8    -47.0875915 -0.336479E-07  0.968E-04    4.21      20.3  T
   9    -47.0875915 -0.131492E-07  0.312E-04    4.21      62.8  T
     SCC iter.                  ...        0 min,  0.033 sec
     gradient                   ...        0 min,  0.014 sec
 * total energy  :   -46.4494466 Eh     change        0.8228482E-02 Eh
   gradient norm :     0.1053121 Eh/α   predicted    -0.3049159E-02 (-137.06%)
   displ. norm   :     0.4424015 α      lambda       -0.1960643E-01
   maximum displ.:     0.1986220 α      in ANC's #10, #28, #7, ...

........................................................................
.............................. CYCLE   10 ..............................
........................................................................

 iter      E             dE          RMSdq      gap      omega  full diag
   1    -47.1024615 -0.471025E+02  0.309E-01    4.43       0.0  T
   2    -47.1027288 -0.267266E-03  0.174E-01    4.39       1.0  T
   3    -47.1026704  0.583822E-04  0.109E-01    4.40       1.0  T
   4    -47.1028425 -0.172091E-03  0.291E-02    4.39       1.0  T
   5    -47.1028457 -0.319413E-05  0.124E-02    4.39       1.6  T
   6    -47.1028480 -0.233491E-05  0.624E-03    4.40       3.1  T
   7    -47.1028482 -0.193544E-06  0.224E-03    4.40       8.8  T
   8    -47.1028482 -0.302381E-07  0.838E-04    4.40      23.4  T
   9    -47.1028482 -0.969487E-08  0.248E-04    4.40      79.1  T
     SCC iter.                  ...        0 min,  0.033 sec
     gradient                   ...        0 min,  0.014 sec
 * total energy  :   -46.4579677 Eh     change       -0.8521161E-02 Eh
   gradient norm :     0.0386189 Eh/α   predicted    -0.1172200E-01 (  37.56%)
   displ. norm   :     0.5470763 α      lambda       -0.1970041E-02
   maximum displ.:     0.3695481 α      in ANC's #2, #5, #1, ...

........................................................................
.............................. CYCLE   11 ..............................
........................................................................

 iter      E             dE          RMSdq      gap      omega  full diag
   1    -47.1119663 -0.471120E+02  0.204E-01    4.46       0.0  T
   2    -47.1119917 -0.254592E-04  0.121E-01    4.45       1.0  T
   3    -47.1119443  0.474753E-04  0.582E-02    4.45       1.0  T
   4    -47.1120094 -0.651280E-04  0.517E-03    4.45       3.8  T
   5    -47.1120096 -0.183032E-06  0.282E-03    4.45       7.0  T
   6    -47.1120097 -0.993427E-07  0.128E-03    4.45      15.4  T
   7    -47.1120097 -0.727421E-08  0.552E-04    4.45      35.6  T
   8    -47.1120097 -0.529796E-08  0.153E-04    4.45     127.8  T
     SCC iter.                  ...        0 min,  0.030 sec
     gradient                   ...        0 min,  0.014 sec
 * total energy  :   -46.4581251 Eh     change       -0.1573381E-03 Eh
   gradient norm :     0.0325373 Eh/α   predicted    -0.1279827E-02 ( 713.42%)
   displ. norm   :     0.2391390 α      lambda       -0.7922760E-03
   maximum displ.:     0.1671665 α      in ANC's #2, #1, #5, ...

........................................................................
.............................. CYCLE   12 ..............................
........................................................................

 iter      E             dE          RMSdq      gap      omega  full diag
   1    -47.1087861 -0.471088E+02  0.908E-02    4.42       0.0  T
   2    -47.1087926 -0.645092E-05  0.542E-02    4.42       1.0  T
   3    -47.1087830  0.958337E-05  0.280E-02    4.42       1.0  T
   4    -47.1087971 -0.140812E-04  0.274E-03    4.43       7.2  T
   5    -47.1087971 -0.731848E-07  0.146E-03    4.42      13.4  T
   6    -47.1087972 -0.365136E-07  0.641E-04    4.42      30.6  T
   7    -47.1087972 -0.166721E-08  0.265E-04    4.42      74.1  T
     SCC iter.                  ...        0 min,  0.026 sec
     gradient                   ...        0 min,  0.014 sec
 * total energy  :   -46.4586181 Eh     change       -0.4930451E-03 Eh
   gradient norm :     0.0303083 Eh/α   predicted    -0.4187958E-03 ( -15.06%)
   displ. norm   :     0.1397582 α      lambda       -0.2028254E-03
   maximum displ.:     0.1098401 α      in ANC's #2, #1, #5, ...

........................................................................
.............................. CYCLE   13 ..............................
........................................................................

 iter      E             dE          RMSdq      gap      omega  full diag
   1    -47.1073919 -0.471074E+02  0.432E-02    4.40       0.0  T
   2    -47.1073931 -0.123765E-05  0.258E-02    4.41       1.0  T
   3    -47.1073904  0.271741E-05  0.131E-02    4.41       1.5  T
   4    -47.1073940 -0.364623E-05  0.137E-03    4.41      14.3  T
   5    -47.1073941 -0.166104E-07  0.797E-04    4.41      24.6  T
   6    -47.1073941 -0.106906E-07  0.337E-04    4.41      58.3  T
     SCC iter.                  ...        0 min,  0.022 sec
     gradient                   ...        0 min,  0.014 sec
 * total energy  :   -46.4587894 Eh     change       -0.1712534E-03 Eh
   gradient norm :     0.0302397 Eh/α   predicted    -0.1034007E-03 ( -39.62%)
   displ. norm   :     0.2529058 α      lambda       -0.4741713E-03
   maximum displ.:     0.1965044 α      in ANC's #2, #1, #6, ...

........................................................................
.............................. CYCLE   14 ..............................
........................................................................

 iter      E             dE          RMSdq      gap      omega  full diag
   1    -47.1059045 -0.471059E+02  0.775E-02    4.36       0.0  T
   2    -47.1059096 -0.514071E-05  0.465E-02    4.37       1.0  T
   3    -47.1059009  0.872367E-05  0.254E-02    4.36       1.0  T
   4    -47.1059135 -0.125828E-04  0.282E-03    4.37       7.0  T
   5    -47.1059136 -0.694594E-07  0.166E-03    4.36      11.8  T
   6    -47.1059136 -0.478945E-07  0.695E-04    4.36      28.2  T
   7    -47.1059136 -0.131823E-08  0.237E-04    4.36      82.9  T
     SCC iter.                  ...        0 min,  0.026 sec
     gradient                   ...        0 min,  0.014 sec
 * total energy  :   -46.4591975 Eh     change       -0.4081823E-03 Eh
   gradient norm :     0.0297685 Eh/α   predicted    -0.2522510E-03 ( -38.20%)
   displ. norm   :     0.4829630 α      lambda       -0.1056255E-02
   maximum displ.:     0.3767177 α      in ANC's #2, #1, #6, ...

........................................................................
.............................. CYCLE   15 ..............................
........................................................................

 iter      E             dE          RMSdq      gap      omega  full diag
   1    -47.1036535 -0.471037E+02  0.153E-01    4.26       0.0  T
   2    -47.1036793 -0.257742E-04  0.916E-02    4.27       1.0  T
   3    -47.1036492  0.300757E-04  0.517E-02    4.27       1.0  T
   4    -47.1036969 -0.476976E-04  0.611E-03    4.27       3.2  T
   5    -47.1036972 -0.330924E-06  0.351E-03    4.27       5.6  T
   6    -47.1036975 -0.234832E-06  0.143E-03    4.27      13.7  T
   7    -47.1036975 -0.502576E-08  0.528E-04    4.27      37.2  T
   8    -47.1036975 -0.214639E-08  0.171E-04    4.27     114.7  T
     SCC iter.                  ...        0 min,  0.030 sec
     gradient                   ...        0 min,  0.014 sec
 * total energy  :   -46.4600487 Eh     change       -0.8511705E-03 Eh
   gradient norm :     0.0299167 Eh/α   predicted    -0.6513162E-03 ( -23.48%)
   displ. norm   :     0.4531744 α      lambda       -0.1318417E-02
   maximum displ.:     0.3426876 α      in ANC's #2, #1, #3, ...

........................................................................
.............................. CYCLE   16 ..............................
........................................................................

 iter      E             dE          RMSdq      gap      omega  full diag
   1    -47.1046243 -0.471046E+02  0.152E-01    4.17       0.0  T
   2    -47.1046530 -0.287789E-04  0.909E-02    4.19       1.0  T
   3    -47.1046262  0.268619E-04  0.521E-02    4.18       1.0  T
   4    -47.1046718 -0.455756E-04  0.648E-03    4.19       3.0  T
   5    -47.1046721 -0.381098E-06  0.371E-03    4.19       5.3  T
   6    -47.1046724 -0.259119E-06  0.151E-03    4.19      13.0  T
   7    -47.1046724 -0.460160E-08  0.578E-04    4.19      33.9  T
   8    -47.1046724 -0.297790E-08  0.174E-04    4.19     112.8  T
     SCC iter.                  ...        0 min,  0.029 sec
     gradient                   ...        0 min,  0.014 sec
 * total energy  :   -46.4611373 Eh     change       -0.1088603E-02 Eh
   gradient norm :     0.0273322 Eh/α   predicted    -0.7945948E-03 ( -27.01%)
   displ. norm   :     0.3903208 α      lambda       -0.1982237E-02
   maximum displ.:     0.2440615 α      in ANC's #2, #1, #3, ...

........................................................................
.............................. CYCLE   17 ..............................
........................................................................

 iter      E             dE          RMSdq      gap      omega  full diag
   1    -47.1137386 -0.471137E+02  0.152E-01    4.12       0.0  T
   2    -47.1137617 -0.230474E-04  0.906E-02    4.13       1.0  T
   3    -47.1137343  0.273660E-04  0.510E-02    4.12       1.0  T
   4    -47.1137775 -0.431474E-04  0.623E-03    4.13       3.1  T
   5    -47.1137778 -0.380912E-06  0.371E-03    4.13       5.3  T
   6    -47.1137780 -0.187869E-06  0.158E-03    4.13      12.4  T
   7    -47.1137780 -0.533778E-08  0.574E-04    4.13      34.2  T
   8    -47.1137780 -0.446791E-08  0.167E-04    4.13     117.6  T
     SCC iter.                  ...        0 min,  0.030 sec
     gradient                   ...        0 min,  0.014 sec
 * total energy  :   -46.4626157 Eh     change       -0.1478428E-02 Eh
   gradient norm :     0.0152804 Eh/α   predicted    -0.1142117E-02 ( -22.75%)
   displ. norm   :     0.4831231 α      lambda       -0.1511609E-02
   maximum displ.:     0.2495138 α      in ANC's #2, #1, #3, ...

........................................................................
.............................. CYCLE   18 ..............................
........................................................................

 iter      E             dE          RMSdq      gap      omega  full diag
   1    -47.1141934 -0.471142E+02  0.179E-01    4.02       0.0  T
   2    -47.1142424 -0.489332E-04  0.104E-01    4.04       1.0  T
   3    -47.1142147  0.276943E-04  0.613E-02    4.03       1.0  T
   4    -47.1142685 -0.538648E-04  0.854E-03    4.04       2.3  T
   5    -47.1142692 -0.670495E-06  0.462E-03    4.04       4.2  T
   6    -47.1142696 -0.355027E-06  0.213E-03    4.04       9.2  T
   7    -47.1142696 -0.146384E-07  0.779E-04    4.04      25.2  T
   8    -47.1142696 -0.454011E-08  0.248E-04    4.04      79.1  T
     SCC iter.                  ...        0 min,  0.030 sec
     gradient                   ...        0 min,  0.015 sec
 * total energy  :   -46.4635225 Eh     change       -0.9067395E-03 Eh
   gradient norm :     0.0290628 Eh/α   predicted    -0.9322173E-03 (   2.81%)
   displ. norm   :     0.2849656 α      lambda       -0.1770669E-02
   maximum displ.:     0.1488861 α      in ANC's #3, #6, #1, ...

........................................................................
.............................. CYCLE   19 ..............................
........................................................................

 iter      E             dE          RMSdq      gap      omega  full diag
   1    -47.1237204 -0.471237E+02  0.119E-01    4.02       0.0  T
   2    -47.1237327 -0.123281E-04  0.702E-02    4.02       1.0  T
   3    -47.1237193  0.133882E-04  0.354E-02    4.02       1.0  T
   4    -47.1237402 -0.209060E-04  0.422E-03    4.02       4.6  T
   5    -47.1237403 -0.974496E-07  0.253E-03    4.02       7.8  T
   6    -47.1237404 -0.511233E-07  0.104E-03    4.02      18.8  T
   7    -47.1237404 -0.429986E-08  0.470E-04    4.02      41.7  T
   8    -47.1237404 -0.303045E-08  0.174E-04    4.02     112.5  T
     SCC iter.                  ...        0 min,  0.029 sec
     gradient                   ...        0 min,  0.014 sec
 * total energy  :   -46.4644383 Eh     change       -0.9158176E-03 Eh
   gradient norm :     0.0149001 Eh/α   predicted    -0.9572319E-03 (   4.52%)
   displ. norm   :     0.3949978 α      lambda       -0.9302608E-03
   maximum displ.:     0.2009167 α      in ANC's #1, #3, #2, ...

........................................................................
.............................. CYCLE   20 ..............................
........................................................................

 iter      E             dE          RMSdq      gap      omega  full diag
   1    -47.1197437 -0.471197E+02  0.125E-01    3.94       0.0  T
   2    -47.1197688 -0.251391E-04  0.724E-02    3.95       1.0  T
   3    -47.1197557  0.131604E-04  0.421E-02    3.95       1.0  T
   4    -47.1197826 -0.269045E-04  0.576E-03    3.95       3.4  T
   5    -47.1197829 -0.304015E-06  0.310E-03    3.95       6.3  T
   6    -47.1197831 -0.176813E-06  0.144E-03    3.95      13.6  T
   7    -47.1197831 -0.608471E-08  0.563E-04    3.95      34.8  T
   8    -47.1197831 -0.272651E-08  0.170E-04    3.95     115.6  T
     SCC iter.                  ...        0 min,  0.030 sec
     gradient                   ...        0 min,  0.014 sec
 * total energy  :   -46.4650196 Eh     change       -0.5813023E-03 Eh
   gradient norm :     0.0166676 Eh/α   predicted    -0.5377190E-03 (  -7.50%)
   displ. norm   :     0.2507235 α      lambda       -0.7071429E-03
   maximum displ.:     0.1461250 α      in ANC's #1, #3, #5, ...
 * RMSD in coord.:     0.7445535 α      energy gain  -0.2061757E-01 Eh

generating ANC from model Hessian ...
Using Lindh-Hessian (1995)
 Shifting diagonal of input Hessian by   8.654137053971864E-003
 Lowest  eigenvalues of input Hessian
    0.000000    0.000000    0.000000    0.000000    0.000000    0.000000
    0.010000    0.010465    0.010832    0.013721    0.015477    0.017664
    0.020236    0.021745    0.024242    0.029840    0.030809    0.033937
 Highest eigenvalues
    1.884635    1.911714    2.022190    2.065228    2.121040    2.128172
 

........................................................................
.............................. CYCLE   21 ..............................
........................................................................

 iter      E             dE          RMSdq      gap      omega  full diag
   1    -47.1183567 -0.471184E+02  0.669E-02    3.93       0.0  T
   2    -47.1183593 -0.255112E-05  0.388E-02    3.93       1.0  T
   3    -47.1183549  0.434773E-05  0.181E-02    3.93       1.1  T
   4    -47.1183608 -0.592078E-05  0.185E-03    3.93      10.6  T
   5    -47.1183609 -0.209550E-07  0.108E-03    3.93      18.1  T
   6    -47.1183609 -0.877119E-08  0.531E-04    3.93      37.0  T
   7    -47.1183609 -0.213608E-08  0.155E-04    3.93     126.3  T
     SCC iter.                  ...        0 min,  0.026 sec
     gradient                   ...        0 min,  0.014 sec
 * total energy  :   -46.4655567 Eh     change       -0.5371117E-03 Eh
   gradient norm :     0.0112727 Eh/α   predicted     0.0000000E+00 (-100.00%)
   displ. norm   :     0.1873708 α      lambda       -0.6390246E-03
   maximum displ.:     0.1508064 α      in ANC's #2, #5, #1, ...

........................................................................
.............................. CYCLE   22 ..............................
........................................................................

 iter      E             dE          RMSdq      gap      omega  full diag
   1    -47.1185026 -0.471185E+02  0.636E-02    3.93       0.0  T
   2    -47.1185042 -0.159221E-05  0.376E-02    3.93       1.0  T
   3    -47.1184997  0.454150E-05  0.147E-02    3.93       1.3  T
   4    -47.1185054 -0.567758E-05  0.160E-03    3.93      12.3  T
   5    -47.1185054 -0.112582E-07  0.967E-04    3.93      20.3  T
   6    -47.1185054 -0.400879E-08  0.272E-04    3.93      72.1  T
     SCC iter.                  ...        0 min,  0.023 sec
     gradient                   ...        0 min,  0.011 sec
 * total energy  :   -46.4661029 Eh     change       -0.5462121E-03 Eh
   gradient norm :     0.0058114 Eh/α   predicted    -0.3307329E-03 ( -39.45%)
   displ. norm   :     0.3532760 α      lambda       -0.8474425E-03
   maximum displ.:     0.2711969 α      in ANC's #2, #5, #1, ...

........................................................................
.............................. CYCLE   23 ..............................
........................................................................

 iter      E             dE          RMSdq      gap      omega  full diag
   1    -47.1174077 -0.471174E+02  0.108E-01    3.93       0.0  T
   2    -47.1174132 -0.547160E-05  0.641E-02    3.93       1.0  T
   3    -47.1173975  0.156933E-04  0.270E-02    3.93       1.0  T
   4    -47.1174173 -0.198269E-04  0.245E-03    3.93       8.0  T
   5    -47.1174174 -0.219714E-07  0.147E-03    3.93      13.4  T
   6    -47.1174174 -0.101876E-07  0.460E-04    3.93      42.6  T
   7    -47.1174174 -0.187453E-08  0.155E-04    3.93     126.7  T
     SCC iter.                  ...        0 min,  0.026 sec
     gradient                   ...        0 min,  0.014 sec
 * total energy  :   -46.4667539 Eh     change       -0.6509665E-03 Eh
   gradient norm :     0.0078338 Eh/α   predicted    -0.4766183E-03 ( -26.78%)
   displ. norm   :     0.3239238 α      lambda       -0.5088201E-03
   maximum displ.:     0.2553203 α      in ANC's #2, #1, #5, ...

........................................................................
.............................. CYCLE   24 ..............................
........................................................................

 iter      E             dE          RMSdq      gap      omega  full diag
   1    -47.1170225 -0.471170E+02  0.934E-02    3.93       0.0  T
   2    -47.1170267 -0.412741E-05  0.554E-02    3.93       1.0  T
   3    -47.1170144  0.123091E-04  0.236E-02    3.93       1.0  T
   4    -47.1170299 -0.155189E-04  0.191E-03    3.93      10.3  T
   5    -47.1170299 -0.209680E-07  0.114E-03    3.93      17.2  T
   6    -47.1170299 -0.969146E-08  0.397E-04    3.93      49.4  T
   7    -47.1170299 -0.136923E-08  0.171E-04    3.93     114.7  T
     SCC iter.                  ...        0 min,  0.026 sec
     gradient                   ...        0 min,  0.014 sec
 * total energy  :   -46.4671546 Eh     change       -0.4007187E-03 Eh
   gradient norm :     0.0091772 Eh/α   predicted    -0.2811063E-03 ( -29.85%)
   displ. norm   :     0.3201354 α      lambda       -0.4567563E-03
   maximum displ.:     0.2546930 α      in ANC's #2, #1, #3, ...

........................................................................
.............................. CYCLE   25 ..............................
........................................................................

 iter      E             dE          RMSdq      gap      omega  full diag
   1    -47.1183670 -0.471184E+02  0.915E-02    3.93       0.0  T
   2    -47.1183705 -0.355355E-05  0.544E-02    3.93       1.0  T
   3    -47.1183595  0.110324E-04  0.218E-02    3.93       1.0  T
   4    -47.1183732 -0.136743E-04  0.219E-03    3.93       9.0  T
   5    -47.1183732 -0.235030E-07  0.135E-03    3.93      14.5  T
   6    -47.1183732 -0.185133E-07  0.552E-04    3.93      35.5  T
   7    -47.1183732 -0.173596E-08  0.232E-04    3.93      84.6  T
     SCC iter.                  ...        0 min,  0.026 sec
     gradient                   ...        0 min,  0.014 sec
 * total energy  :   -46.4675042 Eh     change       -0.3496255E-03 Eh
   gradient norm :     0.0048720 Eh/α   predicted    -0.2517850E-03 ( -27.98%)
   displ. norm   :     0.3798503 α      lambda       -0.3567986E-03
   maximum displ.:     0.2963065 α      in ANC's #2, #1, #3, ...

........................................................................
.............................. CYCLE   26 ..............................
........................................................................

 iter      E             dE          RMSdq      gap      omega  full diag
   1    -47.1183576 -0.471184E+02  0.105E-01    3.93       0.0  T
   2    -47.1183635 -0.589589E-05  0.624E-02    3.93       1.0  T
   3    -47.1183477  0.157407E-04  0.272E-02    3.93       1.0  T
   4    -47.1183678 -0.200488E-04  0.235E-03    3.93       8.4  T
   5    -47.1183678 -0.514464E-07  0.135E-03    3.93      14.6  T
   6    -47.1183679 -0.196823E-07  0.532E-04    3.93      36.9  T
   7    -47.1183679 -0.181127E-08  0.240E-04    3.93      81.6  T
     SCC iter.                  ...        0 min,  0.026 sec
     gradient                   ...        0 min,  0.015 sec
 * total energy  :   -46.4677709 Eh     change       -0.2666387E-03 Eh
   gradient norm :     0.0051231 Eh/α   predicted    -0.2041402E-03 ( -23.44%)
   displ. norm   :     0.3755413 α      lambda       -0.2827181E-03
   maximum displ.:     0.2923901 α      in ANC's #2, #1, #3, ...

........................................................................
.............................. CYCLE   27 ..............................
........................................................................

 iter      E             dE          RMSdq      gap      omega  full diag
   1    -47.1194452 -0.471194E+02  0.108E-01    3.92       0.0  T
   2    -47.1194493 -0.403452E-05  0.644E-02    3.92       1.0  T
   3    -47.1194365  0.128245E-04  0.229E-02    3.92       1.0  T
   4    -47.1194519 -0.154878E-04  0.228E-03    3.92       8.6  T
   5    -47.1194520 -0.460008E-07  0.131E-03    3.92      15.0  T
   6    -47.1194520 -0.167768E-07  0.555E-04    3.92      35.3  T
   7    -47.1194520 -0.227236E-08  0.223E-04    3.92      87.9  T
     SCC iter.                  ...        0 min,  0.026 sec
     gradient                   ...        0 min,  0.013 sec
 * total energy  :   -46.4679635 Eh     change       -0.1925767E-03 Eh
   gradient norm :     0.0031269 Eh/α   predicted    -0.1612954E-03 ( -16.24%)
   displ. norm   :     0.2696612 α      lambda       -0.9549022E-04
   maximum displ.:     0.2057614 α      in ANC's #2, #1, #3, ...

........................................................................
.............................. CYCLE   28 ..............................
........................................................................

 iter      E             dE          RMSdq      gap      omega  full diag
   1    -47.1195741 -0.471196E+02  0.765E-02    3.92       0.0  T
   2    -47.1195758 -0.175323E-05  0.454E-02    3.92       1.0  T
   3    -47.1195691  0.668328E-05  0.159E-02    3.92       1.2  T
   4    -47.1195771 -0.797481E-05  0.144E-03    3.92      13.6  T
   5    -47.1195771 -0.174523E-07  0.841E-04    3.92      23.3  T
   6    -47.1195771 -0.741205E-08  0.331E-04    3.92      59.3  T
     SCC iter.                  ...        0 min,  0.023 sec
     gradient                   ...        0 min,  0.015 sec
 * total energy  :   -46.4680221 Eh     change       -0.5867993E-04 Eh
   gradient norm :     0.0022275 Eh/α   predicted    -0.5121762E-04 ( -12.72%)
   displ. norm   :     0.1081186 α      lambda       -0.3442844E-04
   maximum displ.:     0.0738167 α      in ANC's #2, #1, #3, ...

........................................................................
.............................. CYCLE   29 ..............................
........................................................................

 iter      E             dE          RMSdq      gap      omega  full diag
   1    -47.1213206 -0.471213E+02  0.339E-02    3.92       0.0  T
   2    -47.1213208 -0.121198E-06  0.200E-02    3.92       1.0  T
   3    -47.1213204  0.388955E-06  0.418E-03    3.92       4.7  T
   4    -47.1213209 -0.471187E-06  0.551E-04    3.92      35.6  T
   5    -47.1213209 -0.424720E-09  0.306E-04    3.92      64.1  T
     SCC iter.                  ...        0 min,  0.019 sec
     gradient                   ...        0 min,  0.014 sec
 * total energy  :   -46.4680396 Eh     change       -0.1746094E-04 Eh
   gradient norm :     0.0032049 Eh/α   predicted    -0.1741843E-04 (  -0.24%)
   displ. norm   :     0.0468916 α      lambda       -0.9745455E-05
   maximum displ.:     0.0324084 α      in ANC's #1, #2, #3, ...

........................................................................
.............................. CYCLE   30 ..............................
........................................................................

 iter      E             dE          RMSdq      gap      omega  full diag
   1    -47.1212636 -0.471213E+02  0.153E-02    3.92       0.0  T
   2    -47.1212637 -0.346695E-07  0.898E-03    3.92       2.2  T
   3    -47.1212635  0.119567E-06  0.220E-03    3.92       8.9  T
   4    -47.1212637 -0.142897E-06  0.253E-04    3.92      77.6  T
   5    -47.1212637 -0.137945E-09  0.132E-04    3.92     148.8  T
     SCC iter.                  ...        0 min,  0.019 sec
     gradient                   ...        0 min,  0.014 sec
 * total energy  :   -46.4680472 Eh     change       -0.7554938E-05 Eh
   gradient norm :     0.0020221 Eh/α   predicted    -0.4887104E-05 ( -35.31%)
   displ. norm   :     0.0323623 α      lambda       -0.1430201E-04
   maximum displ.:     0.0236013 α      in ANC's #1, #7, #5, ...

........................................................................
.............................. CYCLE   31 ..............................
........................................................................

 iter      E             dE          RMSdq      gap      omega  full diag
   1    -47.1213312 -0.471213E+02  0.138E-02    3.91       0.0  T
   2    -47.1213314 -0.124034E-06  0.814E-03    3.92       2.4  T
   3    -47.1213312  0.174418E-06  0.351E-03    3.92       5.6  T
   4    -47.1213314 -0.229100E-06  0.491E-04    3.92      39.9  T
   5    -47.1213314 -0.222441E-08  0.261E-04    3.92      75.1  T
     SCC iter.                  ...        0 min,  0.019 sec
     gradient                   ...        0 min,  0.014 sec
 * total energy  :   -46.4680581 Eh     change       -0.1090753E-04 Eh
   gradient norm :     0.0012492 Eh/α   predicted    -0.7158966E-05 ( -34.37%)
   displ. norm   :     0.0809498 α      lambda       -0.1604394E-04
   maximum displ.:     0.0549211 α      in ANC's #1, #2, #5, ...

........................................................................
.............................. CYCLE   32 ..............................
........................................................................

 iter      E             dE          RMSdq      gap      omega  full diag
   1    -47.1208329 -0.471208E+02  0.324E-02    3.91       0.0  T
   2    -47.1208333 -0.409730E-06  0.191E-02    3.91       1.0  T
   3    -47.1208324  0.938857E-06  0.682E-03    3.91       2.9  T
   4    -47.1208336 -0.114538E-05  0.948E-04    3.91      20.7  T
   5    -47.1208336 -0.696741E-08  0.537E-04    3.91      36.5  T
   6    -47.1208336 -0.317301E-08  0.254E-04    3.91      77.1  T
     SCC iter.                  ...        0 min,  0.023 sec
     gradient                   ...        0 min,  0.015 sec
 * total energy  :   -46.4680710 Eh     change       -0.1289318E-04 Eh
   gradient norm :     0.0023019 Eh/α   predicted    -0.8046067E-05 ( -37.59%)
   displ. norm   :     0.0218951 α      lambda       -0.7090542E-05
   maximum displ.:     0.0162568 α      in ANC's #1, #5, #2, ...

........................................................................
.............................. CYCLE   33 ..............................
........................................................................

 iter      E             dE          RMSdq      gap      omega  full diag
   1    -47.1208189 -0.471208E+02  0.804E-03    3.90       0.0  T
   2    -47.1208189 -0.379580E-07  0.480E-03    3.90       4.1  T
   3    -47.1208189  0.426562E-07  0.186E-03    3.90      10.6  T
   4    -47.1208190 -0.583931E-07  0.266E-04    3.90      73.7  T
   5    -47.1208190 -0.376389E-09  0.134E-04    3.90     146.8  T
     SCC iter.                  ...        0 min,  0.019 sec
     gradient                   ...        0 min,  0.014 sec
 * total energy  :   -46.4680768 Eh     change       -0.5859172E-05 Eh
   gradient norm :     0.0017184 Eh/α   predicted    -0.3547880E-05 ( -39.45%)
   displ. norm   :     0.0797185 α      lambda       -0.1426348E-04
   maximum displ.:     0.0560694 α      in ANC's #1, #2, #5, ...

........................................................................
.............................. CYCLE   34 ..............................
........................................................................

 iter      E             dE          RMSdq      gap      omega  full diag
   1    -47.1207626 -0.471208E+02  0.280E-02    3.89       0.0  T
   2    -47.1207634 -0.720045E-06  0.168E-02    3.89       1.2  T
   3    -47.1207628  0.524004E-06  0.813E-03    3.89       2.4  T
   4    -47.1207637 -0.867287E-06  0.108E-03    3.89      18.1  T
   5    -47.1207637 -0.566498E-08  0.527E-04    3.89      37.2  T
   6    -47.1207637 -0.156797E-08  0.233E-04    3.89      84.3  T
     SCC iter.                  ...        0 min,  0.022 sec
     gradient                   ...        0 min,  0.014 sec
 * total energy  :   -46.4680836 Eh     change       -0.6819767E-05 Eh
   gradient norm :     0.0011779 Eh/α   predicted    -0.7155689E-05 (   4.93%)
   displ. norm   :     0.0133703 α      lambda       -0.2589272E-05
   maximum displ.:     0.0100529 α      in ANC's #5, #1, #11, ...

........................................................................
.............................. CYCLE   35 ..............................
........................................................................

 iter      E             dE          RMSdq      gap      omega  full diag
   1    -47.1208165 -0.471208E+02  0.623E-03    3.89       0.0  T
   2    -47.1208165 -0.245314E-07  0.376E-03    3.89       5.2  T
   3    -47.1208165  0.292059E-07  0.172E-03    3.89      11.4  T
   4    -47.1208165 -0.413571E-07  0.212E-04    3.89      92.6  T
   5    -47.1208165 -0.429672E-09  0.111E-04    3.89     176.7  T
     SCC iter.                  ...        0 min,  0.019 sec
     gradient                   ...        0 min,  0.014 sec
 * total energy  :   -46.4680859 Eh     change       -0.2241739E-05 Eh
   gradient norm :     0.0004479 Eh/α   predicted    -0.1295749E-05 ( -42.20%)
   displ. norm   :     0.0096300 α      lambda       -0.1009703E-05
   maximum displ.:     0.0061630 α      in ANC's #5, #6, #3, ...

   *** GEOMETRY OPTIMIZATION CONVERGED AFTER 35 ITERATIONS ***

------------------------------------------------------------------------
 total energy gain   :        -0.0236838 Eh      -14.8618 kcal/mol
 total RMSD          :         0.8338375 a0        0.4412 Å
 total power (kW/mol):        -1.7766258 (step)  -37.7569 (real)
------------------------------------------------------------------------

 ANCopt (total)                0 d,  0 h,  0 min,  1.647 sec
 optimizer setup                ...        0 min,  0.000 sec (  0.026%)
 model hessian                  ...        0 min,  0.030 sec (  1.821%)
 ANC generation                 ...        0 min,  0.005 sec (  0.278%)
 coordinate transformation      ...        0 min,  0.000 sec (  0.025%)
 single point calculation       ...        0 min,  1.593 sec ( 96.740%)
 optimization log               ...        0 min,  0.006 sec (  0.337%)
 hessian update                 ...        0 min,  0.007 sec (  0.414%)
 rational function              ...        0 min,  0.004 sec (  0.245%)

================
 final structure:
================
26
 xtb: 6.6.1 (8d0f1dd)
C            0.94112329179734        2.00451083363446        0.74284681834683
C            1.50091507148512        0.70809941043091        0.24724445484914
C            2.87197104676938        0.52884478007396        0.11931123325194
C            3.40420540596773       -0.66403505816133       -0.33714863497193
C            2.56867416376200       -1.70988461461797       -0.68538220597459
C            1.20524763985062       -1.52965791710877       -0.55817069760385
F            0.38164526920870       -2.54781238961278       -0.90223822717280
C            0.64481817825422       -0.34371589598074       -0.09423599077395
C           -0.82685444873930       -0.22020467572669        0.03935292887602
C           -1.65814815808389       -0.16016012353782       -1.08486400944508
O           -1.16199679865853       -0.18441383686632       -2.34390278270560
C           -3.03626304982934       -0.04050609760837       -0.92717491245901
C           -3.59478044420792        0.00671286245346        0.33382082579850
C           -2.79295191946796       -0.06234913634774        1.46114858172998
C           -1.42803379927495       -0.17304719939949        1.29122917820507
F           -0.64000611439540       -0.24140059007373        2.38784418667219
H            0.06578045284101        2.29723605633324        0.16504307804253
H            0.63458121230628        1.90303125581645        1.78342681404033
H            1.68746980501731        2.79223101590731        0.68351139947604
H            3.53315983376271        1.34017846685139        0.38474159647822
H            4.47326918625174       -0.78117965875314       -0.42393238946314
H            2.95077526159779       -2.65207801587828       -1.04370408878953
H           -0.20802312421674       -0.33944695481806       -2.32403895531537
H           -3.64645948252067        0.00975393197012       -1.81402605022860
H           -4.66401938509637        0.09441695167874        0.44324778689205
H           -3.20609909438062       -0.03512340065906        2.45604906224409
 
 Bond Distances (Angstroems)
 ---------------------------
C1-C2=1.4966         C1-H17=1.0889        C1-H18=1.0895        C1-H19=1.0868        C2-C1=1.4966         C2-C3=1.3886         
C2-C8=1.3985         C3-C2=1.3886         C3-C4=1.3837         C3-H20=1.0798        C4-C3=1.3837         C4-C5=1.3832         
C4-H21=1.0790        C5-C4=1.3832         C5-C6=1.3812         C5-H22=1.0780        C6-C5=1.3812         C6-F7=1.3540         
C6-C8=1.3913         F7-C6=1.3540         C8-C2=1.3985         C8-C6=1.3913         C8-C9=1.4829         C9-C8=1.4829         
C9-C10=1.3995        C9-C15=1.3895        C10-C9=1.3995        C10-O11=1.3535       C10-C12=1.3923       O11-C10=1.3535       
O11-H23=0.9667       C12-C10=1.3923       C12-C13=1.3800       C12-H24=1.0777       C13-C12=1.3800       C13-C14=1.3851       
C13-H25=1.0784       C14-C13=1.3851       C14-C15=1.3799       C14-H26=1.0776       C15-C9=1.3895        C15-C14=1.3799       
C15-F16=1.3521       F16-C15=1.3521       H17-C1=1.0889        H18-C1=1.0895        H19-C1=1.0868        H20-C3=1.0798        
H21-C4=1.0790        H22-C5=1.0780        H23-O11=0.9667       H24-C12=1.0777       H25-C13=1.0784       H26-C14=1.0776       
 C  H  Rav=1.0817 sigma=0.0048  Rmin=1.0776  Rmax=1.0895     9
 C  C  Rav=1.4023 sigma=0.0363  Rmin=1.3799  Rmax=1.4966    14
 O  H  Rav=0.9667 sigma=0.0000  Rmin=0.9667  Rmax=0.9667     1
 O  C  Rav=1.3535 sigma=0.0000  Rmin=1.3535  Rmax=1.3535     1
 F  C  Rav=1.3531 sigma=0.0009  Rmin=1.3521  Rmax=1.3540     2
 
 selected bond angles (degree)
 --------------------
H17-C1-C2=110.97               H18-C1-C2=109.93               H18-C1-H17=107.80              H19-C1-C2=110.67               
H19-C1-H17=109.16              H19-C1-H18=108.23              C3-C2-C1=120.77                C8-C2-C1=120.23                
C8-C2-C3=119.00                C4-C3-C2=121.43                H20-C3-C2=119.01               H20-C3-C4=119.56               
C5-C4-C3=120.17                H21-C4-C3=120.08               H21-C4-C5=119.75               C6-C5-C4=118.32                
H22-C5-C4=122.03               H22-C5-C6=119.64               F7-C6-C5=118.62                C8-C6-C5=122.65                
C8-C6-F7=118.73                C6-C8-C2=118.42                C9-C8-C2=121.53                C9-C8-C6=120.05                
C10-C9-C8=121.38               C15-C9-C8=120.89               C15-C9-C10=117.73              O11-C10-C9=121.92              
C12-C10-C9=120.04              C12-C10-O11=118.02             
 
 selected dihedral angles (degree)
 ---------------------------------
C3-C2-C1-H17=138.02           C3-C2-C1-H18=257.17           C3-C2-C1-H19= 16.67           C8-C2-C1-H17=318.00           
C8-C2-C1-H18= 77.15           C8-C2-C1-H19=196.65           C4-C3-C2-C1=179.98            C4-C3-C2-C8=  0.00            
H20-C3-C2-C1=  0.10           H20-C3-C2-C8=180.12           C5-C4-C3-C2=  0.35            C5-C4-C3-H20=180.24           
H21-C4-C3-C2=180.28           H21-C4-C3-H20=  0.16          C6-C5-C4-C3=359.69            C6-C5-C4-H21=179.77           
H22-C5-C4-C3=180.04           H22-C5-C4-H21=  0.12          F7-C6-C5-C4=179.75            F7-C6-C5-H22=359.41           
C8-C6-C5-C4=359.92            C8-C6-C5-H22=179.57           C6-C8-C2-C1=179.63            C6-C8-C2-C3=359.61            
C9-C8-C2-C1=359.12            C9-C8-C2-C3=179.10            C2-C8-C6-C5=  0.43            C2-C8-C6-F7=180.60            
C9-C8-C6-C5=180.94            C9-C8-C6-F7=  1.11            C10-C9-C8-C2=110.53           C10-C9-C8-C6=290.01           
C15-C9-C8-C2=289.91           C15-C9-C8-C6=109.38           O11-C10-C9-C8=358.65          O11-C10-C9-C15=179.25         
C12-C10-C9-C8=180.18          C12-C10-C9-C15=  0.78         
           -------------------------------------------------
          |                Final Singlepoint                |
           -------------------------------------------------

          ...................................................
          :                      SETUP                      :
          :.................................................:
          :  # basis functions                  74          :
          :  # atomic orbitals                  74          :
          :  # shells                           42          :
          :  # electrons                        82          :
          :  max. iterations                   250          :
          :  Hamiltonian                  GFN2-xTB          :
          :  restarted?                      false          :
          :  GBSA solvation                  false          :
          :  PC potential                    false          :
          :  electronic temp.          298.1500000     K    :
          :  accuracy                    1.0000000          :
          :  -> integral cutoff          0.2500000E+02      :
          :  -> integral neglect         0.1000000E-07      :
          :  -> SCF convergence          0.1000000E-05 Eh   :
          :  -> wf. convergence          0.1000000E-03 e    :
          :  Broyden damping             0.4000000          :
          ...................................................

 iter      E             dE          RMSdq      gap      omega  full diag
   1    -47.1208165 -0.471208E+02  0.448E-05    3.89       0.0  T
   2    -47.1208165 -0.687095E-11  0.304E-05    3.89     644.5  T
   3    -47.1208165 -0.883915E-11  0.188E-05    3.89    1045.0  T

   *** convergence criteria satisfied after 3 iterations ***

         #    Occupation            Energy/Eh            Energy/eV
      -------------------------------------------------------------
         1        2.0000           -0.8197485             -22.3065
       ...           ...                  ...                  ...
        35        2.0000           -0.4553916             -12.3918
        36        2.0000           -0.4515204             -12.2865
        37        2.0000           -0.4338869             -11.8067
        38        2.0000           -0.4203672             -11.4388
        39        2.0000           -0.4119221             -11.2090
        40        2.0000           -0.4071768             -11.0798
        41        2.0000           -0.3948242             -10.7437 (HOMO)
        42                         -0.2517261              -6.8498 (LUMO)
        43                         -0.2391208              -6.5068
        44                         -0.2308222              -6.2810
        45                         -0.2274583              -6.1895
        46                         -0.1164373              -3.1684
       ...                                ...                  ...
        74                          0.6648459              18.0914
      -------------------------------------------------------------
                  HL-Gap            0.1430981 Eh            3.8939 eV
             Fermi-level           -0.3232752 Eh           -8.7968 eV

 SCC (total)                   0 d,  0 h,  0 min,  0.027 sec
 SCC setup                      ...        0 min,  0.000 sec (  0.691%)
 Dispersion                     ...        0 min,  0.000 sec (  0.736%)
 classical contributions        ...        0 min,  0.000 sec (  0.226%)
 integral evaluation            ...        0 min,  0.005 sec ( 18.126%)
 iterations                     ...        0 min,  0.007 sec ( 26.952%)
 molecular gradient             ...        0 min,  0.014 sec ( 52.310%)
 printout                       ...        0 min,  0.000 sec (  0.872%)

         :::::::::::::::::::::::::::::::::::::::::::::::::::::
         ::                     SUMMARY                     ::
         :::::::::::::::::::::::::::::::::::::::::::::::::::::
         :: total energy             -46.468085875633 Eh    ::
         :: gradient norm              0.000448691918 Eh/a0 ::
         :: HOMO-LUMO gap              3.893897027525 eV    ::
         ::.................................................::
         :: SCC energy               -47.120816527756 Eh    ::
         :: -> isotropic ES            0.044556304141 Eh    ::
         :: -> anisotropic ES          0.002542042563 Eh    ::
         :: -> anisotropic XC          0.007854706255 Eh    ::
         :: -> dispersion             -0.027524828368 Eh    ::
         :: repulsion energy           0.652494222078 Eh    ::
         :: add. restraining           0.000000000000 Eh    ::
         :: total charge               0.000000000000 e     ::
         :::::::::::::::::::::::::::::::::::::::::::::::::::::

           -------------------------------------------------
          |                Property Printout                |
           -------------------------------------------------

    * Orbital Energies and Occupations

         #    Occupation            Energy/Eh            Energy/eV
      -------------------------------------------------------------
         1        2.0000           -0.8197485             -22.3065
       ...           ...                  ...                  ...
        29        2.0000           -0.4910683             -13.3626
        30        2.0000           -0.4758843             -12.9495
        31        2.0000           -0.4720539             -12.8452
        32        2.0000           -0.4685515             -12.7499
        33        2.0000           -0.4656738             -12.6716
        34        2.0000           -0.4584911             -12.4762
        35        2.0000           -0.4553916             -12.3918
        36        2.0000           -0.4515204             -12.2865
        37        2.0000           -0.4338869             -11.8067
        38        2.0000           -0.4203672             -11.4388
        39        2.0000           -0.4119221             -11.2090
        40        2.0000           -0.4071768             -11.0798
        41        2.0000           -0.3948242             -10.7437 (HOMO)
        42                         -0.2517261              -6.8498 (LUMO)
        43                         -0.2391208              -6.5068
        44                         -0.2308222              -6.2810
        45                         -0.2274583              -6.1895
        46                         -0.1164373              -3.1684
        47                         -0.1015062              -2.7621
        48                          0.0348432               0.9481
        49                          0.0417531               1.1362
        50                          0.0701092               1.9078
        51                          0.0851147               2.3161
        52                          0.1139516               3.1008
       ...                                ...                  ...
        74                          0.6648459              18.0914
      -------------------------------------------------------------
                  HL-Gap            0.1430981 Eh            3.8939 eV
             Fermi-level           -0.3232752 Eh           -8.7968 eV

     #   Z          covCN         q      C6AA      α(0)
     1   6 C        3.758    -0.110    22.659     6.787
     2   6 C        2.971     0.020    27.551     8.610
     3   6 C        2.923    -0.045    29.119     8.849
     4   6 C        2.923    -0.031    28.775     8.797
     5   6 C        2.916    -0.055    29.377     8.888
     6   6 C        2.789     0.156    24.606     8.125
     7   9 F        0.787    -0.231    11.565     4.017
     8   6 C        2.977    -0.010    28.267     8.721
     9   6 C        2.972    -0.035    28.868     8.813
    10   6 C        2.852     0.149    24.766     8.156
    11   8 O        1.660    -0.378    20.435     6.102
    12   6 C        2.917    -0.060    29.500     8.907
    13   6 C        2.924    -0.030    28.760     8.795
    14   6 C        2.916    -0.063    29.559     8.915
    15   6 C        2.791     0.165    24.431     8.097
    16   9 F        0.787    -0.228    11.531     4.011
    17   1 H        0.925     0.048     2.346     2.395
    18   1 H        0.925     0.067     2.119     2.276
    19   1 H        0.925     0.047     2.361     2.403
    20   1 H        0.926     0.045     2.388     2.417
    21   1 H        0.926     0.046     2.375     2.410
    22   1 H        0.926     0.057     2.231     2.336
    23   1 H        0.805     0.307     0.700     1.314
    24   1 H        0.926     0.062     2.173     2.305
    25   1 H        0.926     0.051     2.310     2.377
    26   1 H        0.926     0.059     2.210     2.325

 Mol. C6AA /au·bohr⁶  :       8725.292623
 Mol. C8AA /au·bohr⁸  :     214216.969251
 Mol. α(0) /au        :        147.147921


Wiberg/Mayer (AO) data.
largest (>0.10) Wiberg bond orders for each atom

 ---------------------------------------------------------------------------
     #   Z sym  total        # sym  WBO       # sym  WBO       # sym  WBO
 ---------------------------------------------------------------------------
     1   6 C    3.995 --     2 C    1.031    19 H    0.983    17 H    0.975
                            18 H    0.962
     2   6 C    3.988 --     3 C    1.414     8 C    1.366     1 C    1.031
                             5 C    0.106
     3   6 C    3.990 --     4 C    1.442     2 C    1.414    20 H    0.968
     4   6 C    3.990 --     3 C    1.442     5 C    1.435    21 H    0.970
                             8 C    0.105
     5   6 C    3.988 --     4 C    1.435     6 C    1.399    22 H    0.967
                             2 C    0.106
     6   6 C    3.883 --     5 C    1.399     8 C    1.363     7 F    0.952
     7   9 F    1.083 --     6 C    0.952
     8   6 C    3.987 --     2 C    1.366     6 C    1.363     9 C    1.013
                             4 C    0.105
     9   6 C    3.982 --    15 C    1.364    10 C    1.333     8 C    1.013
                            13 C    0.100
    10   6 C    3.943 --    12 C    1.360     9 C    1.333    11 O    1.093
    11   8 O    2.143 --    10 C    1.093    23 H    0.877
    12   6 C    3.986 --    13 C    1.461    10 C    1.360    24 H    0.966
    13   6 C    3.989 --    12 C    1.461    14 C    1.421    25 H    0.970
                             9 C    0.100
    14   6 C    3.987 --    13 C    1.421    15 C    1.404    26 H    0.966
    15   6 C    3.885 --    14 C    1.404     9 C    1.364    16 F    0.955
    16   9 F    1.086 --    15 C    0.955
    17   1 H    0.998 --     1 C    0.975
    18   1 H    0.996 --     1 C    0.962
    19   1 H    0.997 --     1 C    0.983
    20   1 H    0.997 --     3 C    0.968
    21   1 H    0.997 --     4 C    0.970
    22   1 H    0.996 --     5 C    0.967
    23   1 H    0.906 --    11 O    0.877
    24   1 H    0.995 --    12 C    0.966
    25   1 H    0.997 --    13 C    0.970
    26   1 H    0.996 --    14 C    0.966
 ---------------------------------------------------------------------------

Topologies differ in total number of bonds
Writing topology from bond orders to xtbtopo.mol

molecular dipole:
                 x           y           z       tot (Debye)
 q only:        0.342       0.879      -0.240
   full:        0.559       0.825      -0.160       2.566
molecular quadrupole (traceless):
                xx          xy          yy          xz          yz          zz
 q only:       10.666      -0.784      -4.172      -3.497       0.515      -6.495
  q+dip:       13.897      -2.042      -5.105      -5.892       1.609      -8.792
   full:       11.515      -1.602      -3.712      -5.557       0.605      -7.802

           -------------------------------------------------
          |                Geometry Summary                 |
           -------------------------------------------------

      molecular mass/u    :      220.2151854
   center of mass at/Å    :       -0.1102080      -0.3231286      -0.0108190
  moments of inertia/u·Å² :        0.5672368E+03   0.1122854E+04   0.1314037E+04
rotational constants/cm⁻¹ :        0.2971886E-01   0.1501320E-01   0.1282889E-01

 * 23 selected distances

     #   Z          #   Z                                           value/Å
     2   6 C        3   6 C                                       1.3886303
     3   6 C        4   6 C                                       1.3836877
     4   6 C        5   6 C                                       1.3831778
     5   6 C        6   6 C                                       1.3811577
     2   6 C        8   6 C                                       1.3985087
     6   6 C        8   6 C                                       1.3913215
     9   6 C       10   6 C                                       1.3994709 (max)
    10   6 C       11   8 O                                       1.3534893
    10   6 C       12   6 C                                       1.3922586
    12   6 C       13   6 C                                       1.3799572
    13   6 C       14   6 C                                       1.3851234
     9   6 C       15   6 C                                       1.3895449
    14   6 C       15   6 C                                       1.3799016
     1   6 C       17   1 H                                       1.0889309
     1   6 C       18   1 H                                       1.0895288
     1   6 C       19   1 H                                       1.0867645
     3   6 C       20   1 H                                       1.0797622
     4   6 C       21   1 H                                       1.0789587
     5   6 C       22   1 H                                       1.0780188
    11   8 O       23   1 H                                       0.9666932 (min)
    12   6 C       24   1 H                                       1.0776692
    13   6 C       25   1 H                                       1.0783962
    14   6 C       26   1 H                                       1.0776173

 * 4 distinct bonds (by element types)

   Z      Z             #   av. dist./Å        max./Å        min./Å
   1 H    6 C           9     1.0817385     1.0895288     1.0776173
   6 C    6 C          12     1.3877283     1.3994709     1.3799016
   1 H    8 O           1     0.9666932     0.9666932     0.9666932
   6 C    8 O           1     1.3534893     1.3534893     1.3534893


optimized geometry written to: xtbopt.xyz


           -------------------------------------------------
          | TOTAL ENERGY              -46.468085875633 Eh   |
          | GRADIENT NORM               0.000448691918 Eh/α |
          | HOMO-LUMO GAP               3.893897027525 eV   |
           -------------------------------------------------

------------------------------------------------------------------------
 * finished run on 2025/08/28 at 10:02:06.106     
------------------------------------------------------------------------
 total:
 * wall-time:     0 d,  0 h,  0 min,  1.818 sec
 *  cpu-time:     0 d,  0 h,  0 min,  3.584 sec
 * ratio c/w:     1.971 speedup
 SCF:
 * wall-time:     0 d,  0 h,  0 min,  0.099 sec
 *  cpu-time:     0 d,  0 h,  0 min,  0.198 sec
 * ratio c/w:     2.003 speedup
 ANC optimizer:
 * wall-time:     0 d,  0 h,  0 min,  1.685 sec
 *  cpu-time:     0 d,  0 h,  0 min,  3.356 sec
 * ratio c/w:     1.992 speedup

