 Entering Gaussian System, Link 0=g16
 Initial command:
 /path/to/gaussian "/path/to/scratch/inp" -scrdir="/path/to/scratch/"
 Entering Link 1 = /path/to/gaussian PID=    556946.
  
 Copyright (c) 1988-2021, Gaussian, Inc.  All Rights Reserved.
  
 This is part of the Gaussian(R) 16 program.  It is based on
 the Gaussian(R) 09 system (copyright 2009, Gaussian, Inc.),
 the Gaussian(R) 03 system (copyright 2003, Gaussian, Inc.),
 the Gaussian(R) 98 system (copyright 1998, Gaussian, Inc.),
 the Gaussian(R) 94 system (copyright 1995, Gaussian, Inc.),
 the Gaussian 92(TM) system (copyright 1992, Gaussian, Inc.),
 the Gaussian 90(TM) system (copyright 1990, Gaussian, Inc.),
 the Gaussian 88(TM) system (copyright 1988, Gaussian, Inc.),
 the Gaussian 86(TM) system (copyright 1986, Carnegie Mellon
 University), and the Gaussian 82(TM) system (copyright 1983,
 Carnegie Mellon University). Gaussian is a federally registered
 trademark of Gaussian, Inc.
  
 This software contains proprietary and confidential information,
 including trade secrets, belonging to Gaussian, Inc.
  
 This software is provided under written license and may be
 used, copied, transmitted, or stored only in accord with that
 written license.
  
 The following legend is applicable only to US Government
 contracts under FAR:
  
                    RESTRICTED RIGHTS LEGEND
  
 Use, reproduction and disclosure by the US Government is
 subject to restrictions as set forth in subparagraphs (a)
 and (c) of the Commercial Computer Software - Restricted
 Rights clause in FAR 52.227-19.
  
 Gaussian, Inc.
 340 Quinnipiac St., Bldg. 40, Wallingford CT 06492
  
  
 ---------------------------------------------------------------
 Warning -- This program may not be used in any manner that
 competes with the business of Gaussian, Inc. or will provide
 assistance to any competitor of Gaussian, Inc.  The licensee
 of this program is prohibited from giving any competitor of
 Gaussian, Inc. access to this program.  By using this program,
 the user acknowledges that Gaussian, Inc. is engaged in the
 business of creating and licensing software in the field of
 computational chemistry and represents and warrants to the
 licensee that it is not a competitor of Gaussian, Inc. and that
 it will not use this program in any manner prohibited above.
 ---------------------------------------------------------------
  

 Cite this work as:
 Gaussian 16, Revision C.02,
 M. J. Frisch, G. W. Trucks, H. B. Schlegel, G. E. Scuseria, 
 M. A. Robb, J. R. Cheeseman, G. Scalmani, V. Barone, 
 G. A. Petersson, H. Nakatsuji, X. Li, M. Caricato, A. V. Marenich, 
 J. Bloino, B. G. Janesko, R. Gomperts, B. Mennucci, H. P. Hratchian, 
 J. V. Ortiz, A. F. Izmaylov, J. L. Sonnenberg, D. Williams-Young, 
 F. Ding, F. Lipparini, F. Egidi, J. Goings, B. Peng, A. Petrone, 
 T. Henderson, D. Ranasinghe, V. G. Zakrzewski, J. Gao, N. Rega, 
 G. Zheng, W. Liang, M. Hada, M. Ehara, K. Toyota, R. Fukuda, 
 J. Hasegawa, M. Ishida, T. Nakajima, Y. Honda, O. Kitao, H. Nakai, 
 T. Vreven, K. Throssell, J. A. Montgomery, Jr., J. E. Peralta, 
 F. Ogliaro, M. J. Bearpark, J. J. Heyd, E. N. Brothers, K. N. Kudin, 
 V. N. Staroverov, T. A. Keith, R. Kobayashi, J. Normand, 
 K. Raghavachari, A. P. Rendell, J. C. Burant, S. S. Iyengar, 
 J. Tomasi, M. Cossi, J. M. Millam, M. Klene, C. Adamo, R. Cammi, 
 J. W. Ochterski, R. L. Martin, K. Morokuma, O. Farkas, 
 J. B. Foresman, and D. J. Fox, Gaussian, Inc., Wallingford CT, 2019.
 
 ******************************************
 Gaussian 16:  ES64L-G16RevC.02  7-Dec-2021
                 2-Dec-2025 
 ******************************************
 %mem=12000MB
 %nprocshared=8
 Will use up to    8 processors via shared memory.
 ---------------------------------------------------------
 # opt=modredundant bp86 def2svp empiricaldispersion=GD3BJ
 ---------------------------------------------------------
 1/18=120,19=15,26=3,38=1/1,3;
 2/9=110,12=2,17=6,18=5,40=1/2;
 3/5=43,7=101,11=2,25=1,30=1,71=1,74=404,124=41/1,2,3;
 4//1;
 5/5=2,38=5/2;
 6/7=2,8=2,9=2,10=2,28=1/1;
 7//1,2,3,16;
 1/18=20,19=15,26=3/3(2);
 2/9=110/2;
 99//99;
 2/9=110/2;
 3/5=43,7=101,11=2,25=1,30=1,71=1,74=404,124=41/1,2,3;
 4/5=5,16=3,69=1/1;
 5/5=2,38=5/2;
 7//1,2,3,16;
 1/18=20,19=15,26=3/3(-5);
 2/9=110/2;
 6/7=2,8=2,9=2,10=2,19=2,28=1/1;
 99/9=1/99;
 -------
 example
 -------
 Symbolic Z-matrix:
 Charge =  0 Multiplicity = 1
 C                    -1.09834   2.52133  -1.23287 
 C                    -1.50878   1.20964  -0.57924 
 C                    -2.88488   1.16819  -0.25842 
 C                    -3.5838   -0.00968   0.02373 
 C                    -2.90212  -1.21369  -0.16738 
 C                    -1.54     -1.16111  -0.45402 
 F                    -1.02363  -2.38161  -0.85257 
 C                    -0.70417   0.00049  -0.44501 
 C                     0.79266  -0.1098   -0.31406 
 C                     1.51326  -1.32351   0.06237 
 O                     0.97272  -2.45451   0.56918 
 C                     2.92814  -1.38887   0.03047 
 C                     3.71619  -0.26963  -0.21556 
 C                     3.07674   0.96466  -0.379 
 C                     1.68246   1.01442  -0.36713 
 F                     1.19105   2.27162  -0.33858 
 H                    -0.76008   3.29326  -0.51586 
 H                    -0.30243   2.38775  -1.98495 
 H                    -1.98909   2.92197  -1.75714 
 H                    -3.43961   2.11899  -0.30361 
 H                    -4.65328   0.00614   0.28036 
 H                    -3.39668  -2.1955   -0.14976 
 H                     0.07983  -2.62062   0.20294 
 H                     3.36795  -2.36945   0.26115 
 H                     4.81396  -0.34393  -0.23145 
 H                     3.62222   1.91474  -0.46549 
 
 The following ModRedundant input section has been read:
 D       7       8       9      11 F                                           
 D       1       8       9      16 F                                           
 

 GradGradGradGradGradGradGradGradGradGradGradGradGradGradGradGradGradGrad
 Berny optimization.
 Initialization pass.
                           ----------------------------
                           !    Initial Parameters    !
                           ! (Angstroms and Degrees)  !
 --------------------------                            --------------------------
 ! Name  Definition              Value          Derivative Info.                !
 --------------------------------------------------------------------------------
 ! R1    R(1,2)                  1.5219         estimate D2E/DX2                !
 ! R2    R(1,17)                 1.1065         estimate D2E/DX2                !
 ! R3    R(1,18)                 1.1031         estimate D2E/DX2                !
 ! R4    R(1,19)                 1.1085         estimate D2E/DX2                !
 ! R5    R(2,3)                  1.4136         estimate D2E/DX2                !
 ! R6    R(2,8)                  1.4586         estimate D2E/DX2                !
 ! R7    R(3,4)                  1.3984         estimate D2E/DX2                !
 ! R8    R(3,20)                 1.1017         estimate D2E/DX2                !
 ! R9    R(4,5)                  1.3967         estimate D2E/DX2                !
 ! R10   R(4,21)                 1.0999         estimate D2E/DX2                !
 ! R11   R(5,6)                  1.3929         estimate D2E/DX2                !
 ! R12   R(5,22)                 1.0995         estimate D2E/DX2                !
 ! R13   R(6,7)                  1.3839         estimate D2E/DX2                !
 ! R14   R(6,8)                  1.4311         estimate D2E/DX2                !
 ! R15   R(8,9)                  1.5066         estimate D2E/DX2                !
 ! R16   R(9,10)                 1.4608         estimate D2E/DX2                !
 ! R17   R(9,15)                 1.4347         estimate D2E/DX2                !
 ! R18   R(10,11)                1.3521         estimate D2E/DX2                !
 ! R19   R(10,12)                1.4167         estimate D2E/DX2                !
 ! R20   R(11,23)                0.9793         estimate D2E/DX2                !
 ! R21   R(12,13)                1.3908         estimate D2E/DX2                !
 ! R22   R(12,24)                1.0992         estimate D2E/DX2                !
 ! R23   R(13,14)                1.3997         estimate D2E/DX2                !
 ! R24   R(13,25)                1.1004         estimate D2E/DX2                !
 ! R25   R(14,15)                1.3952         estimate D2E/DX2                !
 ! R26   R(14,26)                1.099          estimate D2E/DX2                !
 ! R27   R(15,16)                1.3501         estimate D2E/DX2                !
 ! A1    A(2,1,17)             113.9161         estimate D2E/DX2                !
 ! A2    A(2,1,18)             112.5201         estimate D2E/DX2                !
 ! A3    A(2,1,19)             107.3321         estimate D2E/DX2                !
 ! A4    A(17,1,18)            107.7999         estimate D2E/DX2                !
 ! A5    A(17,1,19)            107.456          estimate D2E/DX2                !
 ! A6    A(18,1,19)            107.5225         estimate D2E/DX2                !
 ! A7    A(1,2,3)              112.6606         estimate D2E/DX2                !
 ! A8    A(1,2,8)              127.2459         estimate D2E/DX2                !
 ! A9    A(3,2,8)              119.4593         estimate D2E/DX2                !
 ! A10   A(2,3,4)              123.8512         estimate D2E/DX2                !
 ! A11   A(2,3,20)             117.0993         estimate D2E/DX2                !
 ! A12   A(4,3,20)             118.9168         estimate D2E/DX2                !
 ! A13   A(3,4,5)              117.0355         estimate D2E/DX2                !
 ! A14   A(3,4,21)             121.3942         estimate D2E/DX2                !
 ! A15   A(5,4,21)             121.2555         estimate D2E/DX2                !
 ! A16   A(4,5,6)              118.2207         estimate D2E/DX2                !
 ! A17   A(4,5,22)             123.2328         estimate D2E/DX2                !
 ! A18   A(6,5,22)             118.4808         estimate D2E/DX2                !
 ! A19   A(5,6,7)              113.0075         estimate D2E/DX2                !
 ! A20   A(5,6,8)              126.9038         estimate D2E/DX2                !
 ! A21   A(7,6,8)              119.9833         estimate D2E/DX2                !
 ! A22   A(2,8,6)              110.495          estimate D2E/DX2                !
 ! A23   A(2,8,9)              128.0786         estimate D2E/DX2                !
 ! A24   A(6,8,9)              121.4262         estimate D2E/DX2                !
 ! A25   A(8,9,10)             124.9805         estimate D2E/DX2                !
 ! A26   A(8,9,15)             123.7523         estimate D2E/DX2                !
 ! A27   A(10,9,15)            110.7703         estimate D2E/DX2                !
 ! A28   A(9,10,11)            126.4662         estimate D2E/DX2                !
 ! A29   A(9,10,12)            121.6786         estimate D2E/DX2                !
 ! A30   A(11,10,12)           111.6602         estimate D2E/DX2                !
 ! A31   A(10,11,23)           111.4827         estimate D2E/DX2                !
 ! A32   A(10,12,13)           122.191          estimate D2E/DX2                !
 ! A33   A(10,12,24)           115.8506         estimate D2E/DX2                !
 ! A34   A(13,12,24)           121.8929         estimate D2E/DX2                !
 ! A35   A(12,13,14)           118.1289         estimate D2E/DX2                !
 ! A36   A(12,13,25)           120.8972         estimate D2E/DX2                !
 ! A37   A(14,13,25)           120.9052         estimate D2E/DX2                !
 ! A38   A(13,14,15)           119.144          estimate D2E/DX2                !
 ! A39   A(13,14,26)           123.0118         estimate D2E/DX2                !
 ! A40   A(15,14,26)           117.7663         estimate D2E/DX2                !
 ! A41   A(9,15,14)            126.3094         estimate D2E/DX2                !
 ! A42   A(9,15,16)            120.2073         estimate D2E/DX2                !
 ! A43   A(14,15,16)           113.3979         estimate D2E/DX2                !
 ! D1    D(17,1,2,3)            91.0049         estimate D2E/DX2                !
 ! D2    D(17,1,2,8)           -98.2718         estimate D2E/DX2                !
 ! D3    D(18,1,2,3)          -145.9099         estimate D2E/DX2                !
 ! D4    D(18,1,2,8)            24.8135         estimate D2E/DX2                !
 ! D5    D(19,1,2,3)           -27.8214         estimate D2E/DX2                !
 ! D6    D(19,1,2,8)           142.9019         estimate D2E/DX2                !
 ! D7    D(1,2,3,4)            162.9759         estimate D2E/DX2                !
 ! D8    D(1,2,3,20)           -12.7825         estimate D2E/DX2                !
 ! D9    D(8,2,3,4)             -8.549          estimate D2E/DX2                !
 ! D10   D(8,2,3,20)           175.6925         estimate D2E/DX2                !
 ! D11   D(1,2,8,6)           -149.4988         estimate D2E/DX2                !
 ! D12   D(1,2,8,9)             30.3405         estimate D2E/DX2                !
 ! D13   D(3,2,8,6)             20.6641         estimate D2E/DX2                !
 ! D14   D(3,2,8,9)           -159.4965         estimate D2E/DX2                !
 ! D15   D(2,3,4,5)             -7.0911         estimate D2E/DX2                !
 ! D16   D(2,3,4,21)           179.2756         estimate D2E/DX2                !
 ! D17   D(20,3,4,5)           168.595          estimate D2E/DX2                !
 ! D18   D(20,3,4,21)           -5.0383         estimate D2E/DX2                !
 ! D19   D(3,4,5,6)              8.1061         estimate D2E/DX2                !
 ! D20   D(3,4,5,22)          -168.8984         estimate D2E/DX2                !
 ! D21   D(21,4,5,6)          -178.2511         estimate D2E/DX2                !
 ! D22   D(21,4,5,22)            4.7443         estimate D2E/DX2                !
 ! D23   D(4,5,6,7)           -169.3039         estimate D2E/DX2                !
 ! D24   D(4,5,6,8)              6.9249         estimate D2E/DX2                !
 ! D25   D(22,5,6,7)             7.8457         estimate D2E/DX2                !
 ! D26   D(22,5,6,8)          -175.9256         estimate D2E/DX2                !
 ! D27   D(5,6,8,2)            -20.966          estimate D2E/DX2                !
 ! D28   D(5,6,8,9)            159.1822         estimate D2E/DX2                !
 ! D29   D(7,6,8,2)            155.026          estimate D2E/DX2                !
 ! D30   D(7,6,8,9)            -24.8258         estimate D2E/DX2                !
 ! D31   D(1,8,9,16)            15.4255         Frozen                          !
 ! D32   D(2,8,9,10)           168.0559         estimate D2E/DX2                !
 ! D33   D(2,8,9,15)            -3.1017         estimate D2E/DX2                !
 ! D34   D(6,8,9,10)           -12.1205         estimate D2E/DX2                !
 ! D35   D(6,8,9,15)           176.7219         estimate D2E/DX2                !
 ! D36   D(7,8,9,11)           -29.3813         Frozen                          !
 ! D37   D(8,9,10,11)          -12.1706         estimate D2E/DX2                !
 ! D38   D(8,9,10,12)          173.3383         estimate D2E/DX2                !
 ! D39   D(15,9,10,11)         159.9729         estimate D2E/DX2                !
 ! D40   D(15,9,10,12)         -14.5181         estimate D2E/DX2                !
 ! D41   D(8,9,15,14)         -173.5212         estimate D2E/DX2                !
 ! D42   D(8,9,15,16)           10.0704         estimate D2E/DX2                !
 ! D43   D(10,9,15,14)          14.2202         estimate D2E/DX2                !
 ! D44   D(10,9,15,16)        -162.1882         estimate D2E/DX2                !
 ! D45   D(9,10,11,23)          33.6608         estimate D2E/DX2                !
 ! D46   D(12,10,11,23)       -151.3823         estimate D2E/DX2                !
 ! D47   D(9,10,12,13)           7.2277         estimate D2E/DX2                !
 ! D48   D(9,10,12,24)        -175.6651         estimate D2E/DX2                !
 ! D49   D(11,10,12,13)       -168.0072         estimate D2E/DX2                !
 ! D50   D(11,10,12,24)          9.1            estimate D2E/DX2                !
 ! D51   D(10,12,13,14)          2.7373         estimate D2E/DX2                !
 ! D52   D(10,12,13,25)        179.7501         estimate D2E/DX2                !
 ! D53   D(24,12,13,14)       -174.1963         estimate D2E/DX2                !
 ! D54   D(24,12,13,25)          2.8165         estimate D2E/DX2                !
 ! D55   D(12,13,14,15)         -3.6749         estimate D2E/DX2                !
 ! D56   D(12,13,14,26)        173.0411         estimate D2E/DX2                !
 ! D57   D(25,13,14,15)        179.3125         estimate D2E/DX2                !
 ! D58   D(25,13,14,26)         -3.9715         estimate D2E/DX2                !
 ! D59   D(13,14,15,9)          -5.6854         estimate D2E/DX2                !
 ! D60   D(13,14,15,16)        170.9329         estimate D2E/DX2                !
 ! D61   D(26,14,15,9)         177.4266         estimate D2E/DX2                !
 ! D62   D(26,14,15,16)         -5.9551         estimate D2E/DX2                !
 --------------------------------------------------------------------------------
 Trust Radius=3.00D-01 FncErr=1.00D-07 GrdErr=1.00D-06 EigMax=2.50D+02 EigMin=1.00D-04
 Number of steps in this run=    142 maximum allowed number of steps=    156.
 GradGradGradGradGradGradGradGradGradGradGradGradGradGradGradGradGradGrad

                          Input orientation:                          
 ---------------------------------------------------------------------
 Center     Atomic      Atomic             Coordinates (Angstroms)
 Number     Number       Type             X           Y           Z
 ---------------------------------------------------------------------
      1          6           0       -1.098335    2.521332   -1.232866
      2          6           0       -1.508775    1.209641   -0.579237
      3          6           0       -2.884877    1.168190   -0.258423
      4          6           0       -3.583804   -0.009677    0.023734
      5          6           0       -2.902121   -1.213695   -0.167378
      6          6           0       -1.539998   -1.161113   -0.454015
      7          9           0       -1.023626   -2.381608   -0.852571
      8          6           0       -0.704171    0.000486   -0.445013
      9          6           0        0.792658   -0.109795   -0.314059
     10          6           0        1.513264   -1.323512    0.062370
     11          8           0        0.972723   -2.454509    0.569177
     12          6           0        2.928139   -1.388868    0.030473
     13          6           0        3.716194   -0.269634   -0.215561
     14          6           0        3.076745    0.964656   -0.378998
     15          6           0        1.682458    1.014415   -0.367127
     16          9           0        1.191050    2.271620   -0.338577
     17          1           0       -0.760076    3.293256   -0.515857
     18          1           0       -0.302432    2.387746   -1.984948
     19          1           0       -1.989090    2.921974   -1.757137
     20          1           0       -3.439605    2.118995   -0.303613
     21          1           0       -4.653278    0.006144    0.280355
     22          1           0       -3.396679   -2.195503   -0.149763
     23          1           0        0.079825   -2.620620    0.202942
     24          1           0        3.367947   -2.369453    0.261147
     25          1           0        4.813963   -0.343928   -0.231451
     26          1           0        3.622224    1.914742   -0.465494
 ---------------------------------------------------------------------
                    Distance matrix (angstroms):
                    1          2          3          4          5
     1  C    0.000000
     2  C    1.521915   0.000000
     3  C    2.443822   1.413611   0.000000
     4  C    3.763324   2.481140   1.398386   0.000000
     5  C    4.282445   2.825526   2.383687   1.396737   0.000000
     6  C    3.789733   2.374264   2.696777   2.393991   1.392948
     7  F    4.918234   3.634164   4.051954   3.598399   2.315654
     8  C    2.670345   1.458581   2.480691   2.917553   2.526322
     9  C    3.367921   2.666050   3.893662   4.390620   3.858951
    10  C    4.825030   3.995152   5.065089   5.263816   4.422722
    11  O    5.682925   4.571945   5.356300   5.199678   4.134797
    12  C    5.753102   5.177857   6.357135   6.656397   5.836246
    13  C    5.657216   5.442501   6.755984   7.308544   6.685482
    14  C    4.536918   4.596423   5.966314   6.743473   6.366854
    15  C    3.279194   3.204227   4.571216   5.379131   5.101249
    16  F    2.470505   2.911146   4.223407   5.304226   5.378734
    17  H    1.106521   2.214953   3.016116   4.378809   5.002240
    18  H    1.103147   2.195272   3.337249   4.533193   4.799200
    19  H    1.108521   2.133128   2.474740   3.782749   4.523795
    20  H    2.550869   2.151975   1.101724   2.158517   3.378501
    21  H    4.610166   3.474939   2.183546   1.099945   2.180601
    22  H    5.357614   3.917095   3.404141   2.200671   1.099475
    23  H    5.467109   4.219757   4.832949   4.502368   3.317918
    24  H    6.789663   6.107256   7.202963   7.345185   6.390083
    25  H    6.645887   6.520088   7.845978   8.408290   7.765214
    26  H    4.820839   5.180469   6.553059   7.474595   7.241759
                    6          7          8          9         10
     6  C    0.000000
     7  F    1.383870   0.000000
     8  C    1.431084   2.437730   0.000000
     9  C    2.562448   2.958043   1.506588   0.000000
    10  C    3.100877   2.896980   2.632000   1.460849   0.000000
    11  O    3.005588   2.451957   3.141267   2.512014   1.352107
    12  C    4.500094   4.169142   3.917916   2.512968   1.416743
    13  C    5.336586   5.228012   4.434551   2.929559   2.457805
    14  C    5.083192   5.313642   3.902475   2.525018   2.806241
    15  C    3.889048   4.369384   2.594247   1.434715   2.383065
    16  F    4.388121   5.178949   2.959939   2.414633   3.631743
    17  H    4.522555   5.690950   3.294006   3.745993   5.178510
    18  H    4.058291   4.954708   2.869112   3.198250   4.611041
    19  H    4.309456   5.466109   3.450765   4.360300   5.796658
    20  H    3.793446   5.137484   3.462755   4.783269   6.042823
    21  H    3.405040   4.489906   4.015176   5.479506   6.312032
    22  H    2.147044   2.481926   3.486996   4.682704   4.991283
    23  H    2.277187   1.545587   2.811528   2.660764   1.938297
    24  H    5.104847   4.530610   4.764181   3.474051   2.138540
    25  H    6.410160   6.214127   5.532995   4.028962   3.455507
    26  H    6.009122   6.339746   4.731014   3.482546   3.900339
                   11         12         13         14         15
    11  O    0.000000
    12  C    2.291167   0.000000
    13  C    3.593901   1.390773   0.000000
    14  C    4.125122   2.393496   1.399671   0.000000
    15  C    3.662489   2.735978   2.409945   1.395225   0.000000
    16  F    4.817466   4.068519   3.584614   2.294697   1.350134
    17  H    6.100549   5.985290   5.728993   4.490245   3.343832
    18  H    5.621122   5.362959   5.132422   4.002886   2.905714
    19  H    6.564346   6.779237   6.716627   5.602950   4.364765
    20  H    6.414619   7.277697   7.544452   6.618232   5.240197
    21  H    6.147367   7.712742   8.388686   7.817080   6.448054
    22  H    4.435722   6.378594   7.369278   7.207244   6.012358
    23  H    0.979279   3.108030   4.350340   4.708969   4.013339
    24  H    2.416447   1.099176   2.181230   3.407472   3.832253
    25  H    4.455410   2.171828   1.100395   2.179929   3.416113
    26  H    5.213516   3.411975   2.200635   1.098951   2.140784
                   16         17         18         19         20
    16  F    0.000000
    17  H    2.209539   0.000000
    18  H    2.225873   1.785389   0.000000
    19  H    3.542395   1.785806   1.783848   0.000000
    20  H    4.633301   2.933226   3.569449   2.204881   0.000000
    21  H    6.298542   5.157139   5.452842   4.444248   2.505626
    22  H    6.406098   6.100178   5.826529   5.545586   4.317454
    23  H    5.045996   6.016314   5.478751   6.232389   5.925111
    24  H    5.161212   7.050573   6.414637   7.795545   8.173609
    25  H    4.469683   6.661824   6.059232   7.699050   8.613512
    26  H    2.460503   4.594278   4.235020   5.845486   7.066637
                   21         22         23         24         25
    21  H    0.000000
    22  H    2.571243   0.000000
    23  H    5.413700   3.520114   0.000000
    24  H    8.365637   6.779327   3.298215   0.000000
    25  H    9.487526   8.417223   5.271061   2.537000   0.000000
    26  H    8.525431   8.139951   5.793523   4.352814   2.564490
                   26
    26  H    0.000000
 Stoichiometry    C13H10F2O
 Framework group  C1[X(C13H10F2O)]
 Deg. of freedom    72
 Full point group                 C1      NOp   1
 Largest Abelian subgroup         C1      NOp   1
 Largest concise Abelian subgroup C1      NOp   1
                         Standard orientation:                         
 ---------------------------------------------------------------------
 Center     Atomic      Atomic             Coordinates (Angstroms)
 Number     Number       Type             X           Y           Z
 ---------------------------------------------------------------------
      1          6           0        1.331376    2.599987    0.499587
      2          6           0        1.627401    1.186176    0.020282
      3          6           0        2.981676    1.006640   -0.343041
      4          6           0        3.591075   -0.244030   -0.484253
      5          6           0        2.844564   -1.360830   -0.101689
      6          6           0        1.503331   -1.175926    0.225738
      7          9           0        0.930270   -2.292047    0.809665
      8          6           0        0.742835    0.028312    0.086248
      9          6           0       -0.762447    0.004488    0.028224
     10          6           0       -1.574871   -1.196759   -0.147994
     11          8           0       -1.130907   -2.420900   -0.512091
     12          6           0       -2.988017   -1.159578   -0.054213
     13          6           0       -3.691650    0.034349    0.062774
     14          6           0       -2.968782    1.232414    0.028409
     15          6           0       -1.576208    1.183974   -0.042608
     16          9           0       -1.008446    2.388645   -0.264587
     17          1           0        1.009310    3.288146   -0.304837
     18          1           0        0.564624    2.625525    1.292286
     19          1           0        2.269106    3.006217    0.929072
     20          1           0        3.596704    1.914234   -0.451710
     21          1           0        4.646271   -0.337087   -0.780532
     22          1           0        3.274926   -2.367534   -0.000796
     23          1           0       -0.234123   -2.596490   -0.160048
     24          1           0       -3.499015   -2.129856   -0.129246
     25          1           0       -4.789977    0.038679    0.130059
     26          1           0       -3.448690    2.220687    0.002008
 ---------------------------------------------------------------------
 Rotational constants (GHZ):           0.8392818           0.4703917           0.3125610
 Standard basis: def2SVP (5D, 7F)
 There are   290 symmetry adapted cartesian basis functions of A   symmetry.
 There are   274 symmetry adapted basis functions of A   symmetry.
   274 basis functions,   470 primitive gaussians,   290 cartesian basis functions
    57 alpha electrons       57 beta electrons
       nuclear repulsion energy      1069.4230457826 Hartrees.
 NAtoms=   26 NActive=   26 NUniq=   26 SFac= 1.00D+00 NAtFMM=   60 NAOKFM=F Big=F
 Integral buffers will be    131072 words long.
 Raffenetti 2 integral format.
 Two-electron integral symmetry is turned on.
 Nuclear repulsion after empirical dispersion term =     1069.3715258934 Hartrees.
 One-electron integrals computed using PRISM.
   1 Symmetry operations used in ECPInt.
 ECPInt:  NShTT=    8001 NPrTT=   29641 LenC2=    7593 LenP2D=   20282.
 LDataN:  DoStor=T MaxTD1= 4 Len=   56
 NBasis=   274 RedAO= T EigKep=  3.12D-04  NBF=   274
 NBsUse=   274 1.00D-06 EigRej= -1.00D+00 NBFU=   274
 ExpMin= 1.22D-01 ExpMax= 2.89D+03 ExpMxC= 4.35D+02 IAcc=3 IRadAn=         5 AccDes= 0.00D+00
 Harris functional with IExCor=  404 and IRadAn=       5 diagonalized for initial guess.
 HarFok:  IExCor=  404 AccDes= 0.00D+00 IRadAn=         5 IDoV= 1 UseB2=F ITyADJ=14
 ICtDFT=  3500011 ScaDFX=  1.000000  1.000000  1.000000  1.000000
 FoFCou: FMM=F IPFlag=           0 FMFlag=      100000 FMFlg1=           0
         NFxFlg=           0 DoJE=T BraDBF=F KetDBF=T FulRan=T
         wScrn=  0.000000 ICntrl=       500 IOpCl=  0 I1Cent=   200000004 NGrid=           0
         NMat0=    1 NMatS0=      1 NMatT0=    0 NMatD0=    1 NMtDS0=    0 NMtDT0=    0
 Petite list used in FoFCou.
 Requested convergence on RMS density matrix=1.00D-08 within 128 cycles.
 Requested convergence on MAX density matrix=1.00D-06.
 Requested convergence on             energy=1.00D-06.
 No special actions if energy rises.
 Integral accuracy reduced to 1.0D-05 until final iterations.
 Initial convergence to 1.0D-05 achieved.  Increase integral accuracy.
 SCF Done:  E(RB-P86) =  -775.751071361     A.U. after   16 cycles
            NFock= 16  Conv=0.52D-08     -V/T= 2.0104

 **********************************************************************

            Population analysis using the SCF Density.

 **********************************************************************

 Orbital symmetries:
       Occupied  (A) (A) (A) (A) (A) (A) (A) (A) (A) (A) (A) (A)
                 (A) (A) (A) (A) (A) (A) (A) (A) (A) (A) (A) (A)
                 (A) (A) (A) (A) (A) (A) (A) (A) (A) (A) (A) (A)
                 (A) (A) (A) (A) (A) (A) (A) (A) (A) (A) (A) (A)
                 (A) (A) (A) (A) (A) (A) (A) (A) (A)
       Virtual   (A) (A) (A) (A) (A) (A) (A) (A) (A) (A) (A) (A)
                 (A) (A) (A) (A) (A) (A) (A) (A) (A) (A) (A) (A)
                 (A) (A) (A) (A) (A) (A) (A) (A) (A) (A) (A) (A)
                 (A) (A) (A) (A) (A) (A) (A) (A) (A) (A) (A) (A)
                 (A) (A) (A) (A) (A) (A) (A) (A) (A) (A) (A) (A)
                 (A) (A) (A) (A) (A) (A) (A) (A) (A) (A) (A) (A)
                 (A) (A) (A) (A) (A) (A) (A) (A) (A) (A) (A) (A)
                 (A) (A) (A) (A) (A) (A) (A) (A) (A) (A) (A) (A)
                 (A) (A) (A) (A) (A) (A) (A) (A) (A) (A) (A) (A)
                 (A) (A) (A) (A) (A) (A) (A) (A) (A) (A) (A) (A)
                 (A) (A) (A) (A) (A) (A) (A) (A) (A) (A) (A) (A)
                 (A) (A) (A) (A) (A) (A) (A) (A) (A) (A) (A) (A)
                 (A) (A) (A) (A) (A) (A) (A) (A) (A) (A) (A) (A)
                 (A) (A) (A) (A) (A) (A) (A) (A) (A) (A) (A) (A)
                 (A) (A) (A) (A) (A) (A) (A) (A) (A) (A) (A) (A)
                 (A) (A) (A) (A) (A) (A) (A) (A) (A) (A) (A) (A)
                 (A) (A) (A) (A) (A) (A) (A) (A) (A) (A) (A) (A)
                 (A) (A) (A) (A) (A) (A) (A) (A) (A) (A) (A) (A)
                 (A)
 The electronic state is 1-A.
 Alpha  occ. eigenvalues --  -24.33308 -24.30364 -18.80058 -10.01155 -10.00337
 Alpha  occ. eigenvalues --   -9.98880  -9.96268  -9.95157  -9.94832  -9.93319
 Alpha  occ. eigenvalues --   -9.93248  -9.92720  -9.92494  -9.91727  -9.91699
 Alpha  occ. eigenvalues --   -9.91215  -1.13496  -1.11382  -0.96042  -0.79506
 Alpha  occ. eigenvalues --   -0.77255  -0.71558  -0.70161  -0.66808  -0.66210
 Alpha  occ. eigenvalues --   -0.62541  -0.58946  -0.56168  -0.55027  -0.53566
 Alpha  occ. eigenvalues --   -0.51728  -0.48597  -0.47926  -0.46165  -0.44276
 Alpha  occ. eigenvalues --   -0.43446  -0.42998  -0.42328  -0.41720  -0.40427
 Alpha  occ. eigenvalues --   -0.38757  -0.38127  -0.38007  -0.36640  -0.35947
 Alpha  occ. eigenvalues --   -0.34305  -0.33949  -0.33137  -0.32879  -0.30988
 Alpha  occ. eigenvalues --   -0.30673  -0.30251  -0.28557  -0.26715  -0.22505
 Alpha  occ. eigenvalues --   -0.20912  -0.19770
 Alpha virt. eigenvalues --   -0.09098  -0.04995  -0.03072  -0.02544   0.02514
 Alpha virt. eigenvalues --    0.03883   0.04595   0.06577   0.07610   0.08080
 Alpha virt. eigenvalues --    0.09527   0.10101   0.10971   0.11186   0.11976
 Alpha virt. eigenvalues --    0.12675   0.14013   0.15834   0.16988   0.19087
 Alpha virt. eigenvalues --    0.19850   0.21863   0.23643   0.25100   0.25721
 Alpha virt. eigenvalues --    0.26504   0.27514   0.28547   0.29494   0.30596
 Alpha virt. eigenvalues --    0.32708   0.34912   0.36016   0.36544   0.37312
 Alpha virt. eigenvalues --    0.38769   0.39712   0.40227   0.41628   0.41707
 Alpha virt. eigenvalues --    0.42373   0.42795   0.43960   0.44203   0.45765
 Alpha virt. eigenvalues --    0.46838   0.47312   0.48754   0.49910   0.51326
 Alpha virt. eigenvalues --    0.51912   0.52088   0.53235   0.53944   0.55131
 Alpha virt. eigenvalues --    0.56229   0.56844   0.58420   0.59070   0.59420
 Alpha virt. eigenvalues --    0.60457   0.61049   0.61468   0.61886   0.62625
 Alpha virt. eigenvalues --    0.63548   0.64615   0.64867   0.65537   0.66034
 Alpha virt. eigenvalues --    0.67385   0.68366   0.70119   0.71429   0.71868
 Alpha virt. eigenvalues --    0.72625   0.73881   0.75083   0.76128   0.77711
 Alpha virt. eigenvalues --    0.81161   0.82213   0.82334   0.88296   0.92072
 Alpha virt. eigenvalues --    0.93939   0.95606   0.96709   0.98093   1.01088
 Alpha virt. eigenvalues --    1.04286   1.05363   1.07542   1.09357   1.10489
 Alpha virt. eigenvalues --    1.11833   1.14122   1.16047   1.17362   1.19203
 Alpha virt. eigenvalues --    1.21040   1.22106   1.22821   1.25491   1.27198
 Alpha virt. eigenvalues --    1.28079   1.31069   1.31156   1.34717   1.35776
 Alpha virt. eigenvalues --    1.37033   1.38571   1.42532   1.44237   1.46521
 Alpha virt. eigenvalues --    1.49482   1.52355   1.54980   1.56870   1.57333
 Alpha virt. eigenvalues --    1.58792   1.59368   1.61457   1.61887   1.62591
 Alpha virt. eigenvalues --    1.63513   1.63981   1.64317   1.65339   1.66051
 Alpha virt. eigenvalues --    1.67251   1.67644   1.70647   1.71817   1.72294
 Alpha virt. eigenvalues --    1.72536   1.73549   1.74509   1.76091   1.77855
 Alpha virt. eigenvalues --    1.78107   1.81304   1.82817   1.84697   1.85929
 Alpha virt. eigenvalues --    1.86329   1.87429   1.89951   1.90592   1.92693
 Alpha virt. eigenvalues --    1.94020   1.95522   1.96877   1.97918   1.99074
 Alpha virt. eigenvalues --    2.00000   2.01811   2.04760   2.05937   2.08888
 Alpha virt. eigenvalues --    2.09223   2.09598   2.13668   2.15198   2.17466
 Alpha virt. eigenvalues --    2.17571   2.18474   2.19435   2.20228   2.23396
 Alpha virt. eigenvalues --    2.23605   2.28342   2.31208   2.33272   2.35366
 Alpha virt. eigenvalues --    2.36632   2.37803   2.43518   2.44983   2.46902
 Alpha virt. eigenvalues --    2.48354   2.48818   2.52241   2.54770   2.55142
 Alpha virt. eigenvalues --    2.59243   2.61665   2.62757   2.65379   2.67578
 Alpha virt. eigenvalues --    2.68698   2.75928   2.77540   2.81017   2.81924
 Alpha virt. eigenvalues --    2.83988   2.87169   2.88453   2.90013   2.92995
 Alpha virt. eigenvalues --    2.93754   2.98006   3.00303   3.01790   3.06806
 Alpha virt. eigenvalues --    3.10135   3.12403   3.15238   3.20134   3.29584
 Alpha virt. eigenvalues --    3.32354   3.38583   3.43601   3.48047   3.67756
 Alpha virt. eigenvalues --    3.74534   3.79042
          Condensed to atoms (all electrons):
               1          2          3          4          5          6
     1  C    4.556776   0.439616  -0.074907   0.013646   0.000025   0.008917
     2  C    0.439616   5.187557   0.364035   0.057211  -0.117433   0.039079
     3  C   -0.074907   0.364035   5.094223   0.292389   0.084604  -0.135036
     4  C    0.013646   0.057211   0.292389   5.071869   0.235442   0.090577
     5  C    0.000025  -0.117433   0.084604   0.235442   5.201152   0.316169
     6  C    0.008917   0.039079  -0.135036   0.090577   0.316169   5.211591
     7  F   -0.000015   0.001826  -0.000013   0.005137  -0.059450   0.299613
     8  C   -0.063522   0.302296   0.031558  -0.088804  -0.002842   0.212717
     9  C   -0.019301  -0.045538   0.013895  -0.000367   0.011639  -0.064980
    10  C   -0.000382   0.007700   0.000282  -0.000246   0.001459  -0.026487
    11  O   -0.000003  -0.000027   0.000000   0.000003  -0.001149   0.008470
    12  C    0.000002   0.000107  -0.000002   0.000001  -0.000049   0.001718
    13  C   -0.000023  -0.000069   0.000001  -0.000000   0.000002  -0.000296
    14  C    0.000088   0.000172  -0.000015   0.000001  -0.000002   0.000180
    15  C   -0.000903  -0.021748   0.000104  -0.000050  -0.000074   0.011152
    16  F    0.004758  -0.004950  -0.000023   0.000001  -0.000001   0.000283
    17  H    0.357160   0.000593   0.000222  -0.000245  -0.000044  -0.000231
    18  H    0.371970  -0.001901   0.007607  -0.000874   0.000220  -0.000819
    19  H    0.375714  -0.023670  -0.019089   0.002098  -0.000073  -0.000017
    20  H   -0.019193  -0.064362   0.424716  -0.066089   0.013818  -0.000538
    21  H   -0.000411   0.014350  -0.064648   0.432099  -0.070557   0.013538
    22  H    0.000018  -0.000911   0.012574  -0.064300   0.415337  -0.058220
    23  H   -0.000001   0.000445  -0.000068   0.000263  -0.002248  -0.017503
    24  H    0.000000   0.000001  -0.000000   0.000000   0.000001   0.000004
    25  H    0.000000  -0.000001   0.000000   0.000000  -0.000000   0.000001
    26  H   -0.000011   0.000028  -0.000000   0.000000  -0.000000   0.000001
               7          8          9         10         11         12
     1  C   -0.000015  -0.063522  -0.019301  -0.000382  -0.000003   0.000002
     2  C    0.001826   0.302296  -0.045538   0.007700  -0.000027   0.000107
     3  C   -0.000013   0.031558   0.013895   0.000282   0.000000  -0.000002
     4  C    0.005137  -0.088804  -0.000367  -0.000246   0.000003   0.000001
     5  C   -0.059450  -0.002842   0.011639   0.001459  -0.001149  -0.000049
     6  C    0.299613   0.212717  -0.064980  -0.026487   0.008470   0.001718
     7  F    8.989400  -0.069926   0.002428   0.001132  -0.027250  -0.000556
     8  C   -0.069926   5.456280   0.229359  -0.068558  -0.003947   0.009398
     9  C    0.002428   0.229359   5.753259   0.137612  -0.074996   0.009901
    10  C    0.001132  -0.068558   0.137612   5.184146   0.455030   0.287281
    11  O   -0.027250  -0.003947  -0.074996   0.455030   7.557150  -0.089542
    12  C   -0.000556   0.009398   0.009901   0.287281  -0.089542   5.255513
    13  C    0.000001  -0.000150  -0.103542   0.115731   0.006009   0.210450
    14  C   -0.000000   0.013466   0.001692  -0.140417   0.000084   0.109073
    15  C    0.000147  -0.056156   0.163452   0.093374   0.001518  -0.138080
    16  F   -0.000000   0.000066  -0.074187   0.001883  -0.000001   0.000031
    17  H    0.000000  -0.001404   0.004002   0.000031   0.000000  -0.000002
    18  H   -0.000004  -0.011163   0.005141   0.000183   0.000001  -0.000009
    19  H    0.000001   0.007507  -0.000609   0.000005   0.000000   0.000000
    20  H    0.000004   0.015043  -0.000224   0.000001   0.000000  -0.000000
    21  H   -0.000075  -0.001307   0.000019   0.000000  -0.000000   0.000000
    22  H    0.000814   0.017032  -0.000284   0.000053   0.000008  -0.000000
    23  H    0.051413   0.005661  -0.011600  -0.025499   0.338805   0.004602
    24  H    0.000019  -0.000194   0.019865  -0.056496   0.003640   0.415932
    25  H   -0.000000   0.000012  -0.001946   0.014423  -0.000112  -0.069356
    26  H   -0.000000  -0.000222   0.019259  -0.001376   0.000006   0.013547
              13         14         15         16         17         18
     1  C   -0.000023   0.000088  -0.000903   0.004758   0.357160   0.371970
     2  C   -0.000069   0.000172  -0.021748  -0.004950   0.000593  -0.001901
     3  C    0.000001  -0.000015   0.000104  -0.000023   0.000222   0.007607
     4  C   -0.000000   0.000001  -0.000050   0.000001  -0.000245  -0.000874
     5  C    0.000002  -0.000002  -0.000074  -0.000001  -0.000044   0.000220
     6  C   -0.000296   0.000180   0.011152   0.000283  -0.000231  -0.000819
     7  F    0.000001  -0.000000   0.000147  -0.000000   0.000000  -0.000004
     8  C   -0.000150   0.013466  -0.056156   0.000066  -0.001404  -0.011163
     9  C   -0.103542   0.001692   0.163452  -0.074187   0.004002   0.005141
    10  C    0.115731  -0.140417   0.093374   0.001883   0.000031   0.000183
    11  O    0.006009   0.000084   0.001518  -0.000001   0.000000   0.000001
    12  C    0.210450   0.109073  -0.138080   0.000031  -0.000002  -0.000009
    13  C    5.177693   0.163829   0.115525   0.005219   0.000002   0.000065
    14  C    0.163829   5.284484   0.318335  -0.061768  -0.000186  -0.001140
    15  C    0.115525   0.318335   5.055534   0.359827  -0.002154   0.000677
    16  F    0.005219  -0.061768   0.359827   8.927362   0.003490  -0.000854
    17  H    0.000002  -0.000186  -0.002154   0.003490   0.625068  -0.018170
    18  H    0.000065  -0.001140   0.000677  -0.000854  -0.018170   0.641549
    19  H   -0.000001   0.000033   0.000190   0.001697  -0.023161  -0.028667
    20  H    0.000000  -0.000000   0.000022  -0.000010   0.001915   0.000552
    21  H   -0.000000   0.000000   0.000000   0.000000   0.000013   0.000010
    22  H    0.000000  -0.000000   0.000002  -0.000000  -0.000001  -0.000001
    23  H    0.000021  -0.000160   0.000209   0.000001   0.000001   0.000002
    24  H   -0.073604   0.014433  -0.001579   0.000004  -0.000000  -0.000000
    25  H    0.436415  -0.070873   0.014053  -0.000084   0.000000  -0.000001
    26  H   -0.069719   0.416164  -0.059358   0.001782   0.000024   0.000040
              19         20         21         22         23         24
     1  C    0.375714  -0.019193  -0.000411   0.000018  -0.000001   0.000000
     2  C   -0.023670  -0.064362   0.014350  -0.000911   0.000445   0.000001
     3  C   -0.019089   0.424716  -0.064648   0.012574  -0.000068  -0.000000
     4  C    0.002098  -0.066089   0.432099  -0.064300   0.000263   0.000000
     5  C   -0.000073   0.013818  -0.070557   0.415337  -0.002248   0.000001
     6  C   -0.000017  -0.000538   0.013538  -0.058220  -0.017503   0.000004
     7  F    0.000001   0.000004  -0.000075   0.000814   0.051413   0.000019
     8  C    0.007507   0.015043  -0.001307   0.017032   0.005661  -0.000194
     9  C   -0.000609  -0.000224   0.000019  -0.000284  -0.011600   0.019865
    10  C    0.000005   0.000001   0.000000   0.000053  -0.025499  -0.056496
    11  O    0.000000   0.000000  -0.000000   0.000008   0.338805   0.003640
    12  C    0.000000  -0.000000   0.000000  -0.000000   0.004602   0.415932
    13  C   -0.000001   0.000000  -0.000000   0.000000   0.000021  -0.073604
    14  C    0.000033  -0.000000   0.000000  -0.000000  -0.000160   0.014433
    15  C    0.000190   0.000022   0.000000   0.000002   0.000209  -0.001579
    16  F    0.001697  -0.000010   0.000000  -0.000000   0.000001   0.000004
    17  H   -0.023161   0.001915   0.000013  -0.000001   0.000001  -0.000000
    18  H   -0.028667   0.000552   0.000010  -0.000001   0.000002  -0.000000
    19  H    0.672573   0.005035  -0.000018  -0.000002  -0.000001  -0.000000
    20  H    0.005035   0.700503  -0.012415  -0.000367  -0.000001   0.000000
    21  H   -0.000018  -0.012415   0.688898  -0.011747   0.000003  -0.000000
    22  H   -0.000002  -0.000367  -0.011747   0.673967   0.000149  -0.000000
    23  H   -0.000001  -0.000001   0.000003   0.000149   0.470430   0.000040
    24  H   -0.000000   0.000000  -0.000000  -0.000000   0.000040   0.686303
    25  H    0.000000  -0.000000   0.000000  -0.000000   0.000012  -0.013185
    26  H   -0.000002  -0.000000  -0.000000   0.000000  -0.000002  -0.000306
              25         26
     1  C    0.000000  -0.000011
     2  C   -0.000001   0.000028
     3  C    0.000000  -0.000000
     4  C    0.000000   0.000000
     5  C   -0.000000  -0.000000
     6  C    0.000001   0.000001
     7  F   -0.000000  -0.000000
     8  C    0.000012  -0.000222
     9  C   -0.001946   0.019259
    10  C    0.014423  -0.001376
    11  O   -0.000112   0.000006
    12  C   -0.069356   0.013547
    13  C    0.436415  -0.069719
    14  C   -0.070873   0.416164
    15  C    0.014053  -0.059358
    16  F   -0.000084   0.001782
    17  H    0.000000   0.000024
    18  H   -0.000001   0.000040
    19  H    0.000000  -0.000002
    20  H   -0.000000  -0.000000
    21  H    0.000000  -0.000000
    22  H   -0.000000   0.000000
    23  H    0.000012  -0.000002
    24  H   -0.013185  -0.000306
    25  H    0.691599  -0.012330
    26  H   -0.012330   0.685519
 Mulliken charges:
               1
     1  C    0.049981
     2  C   -0.134406
     3  C   -0.032407
     4  C    0.020238
     5  C   -0.025946
     6  C    0.090116
     7  F   -0.194647
     8  C    0.067800
     9  C    0.026050
    10  C    0.019135
    11  O   -0.173695
    12  C   -0.019958
    13  C    0.016442
    14  C   -0.047472
    15  C    0.145980
    16  F   -0.164526
    17  H    0.053077
    18  H    0.035585
    19  H    0.030456
    20  H    0.001590
    21  H    0.012248
    22  H    0.015881
    23  H    0.185028
    24  H    0.005124
    25  H    0.011371
    26  H    0.006955
 Sum of Mulliken charges =  -0.00000
 Mulliken charges with hydrogens summed into heavy atoms:
               1
     1  C    0.169100
     2  C   -0.134406
     3  C   -0.030817
     4  C    0.032486
     5  C   -0.010064
     6  C    0.090116
     7  F   -0.194647
     8  C    0.067800
     9  C    0.026050
    10  C    0.019135
    11  O    0.011332
    12  C   -0.014834
    13  C    0.027813
    14  C   -0.040516
    15  C    0.145980
    16  F   -0.164526
 Electronic spatial extent (au):  <R**2>=           3385.8725
 Charge=             -0.0000 electrons
 Dipole moment (field-independent basis, Debye):
    X=              1.4289    Y=              0.5858    Z=              0.3689  Tot=              1.5878
 Quadrupole moment (field-independent basis, Debye-Ang):
   XX=            -78.9813   YY=            -88.2950   ZZ=            -95.4249
   XY=             -2.2620   XZ=             -1.9019   YZ=              0.0098
 Traceless Quadrupole moment (field-independent basis, Debye-Ang):
   XX=              8.5858   YY=             -0.7280   ZZ=             -7.8578
   XY=             -2.2620   XZ=             -1.9019   YZ=              0.0098
 Octapole moment (field-independent basis, Debye-Ang**2):
  XXX=             -4.3057  YYY=             -5.1616  ZZZ=              4.0918  XYY=             12.0024
  XXY=             -0.9325  XXZ=             -4.7797  XZZ=              0.5989  YZZ=              0.0153
  YYZ=              3.6736  XYZ=              2.0919
 Hexadecapole moment (field-independent basis, Debye-Ang**3):
 XXXX=          -2593.4526 YYYY=          -1361.1984 ZZZZ=           -163.9897 XXXY=            -41.9554
 XXXZ=            -29.2364 YYYX=            -42.7691 YYYZ=            -20.0639 ZZZX=             15.2299
 ZZZY=            -15.2449 XXYY=           -662.6715 XXZZ=           -550.2333 YYZZ=           -264.7475
 XXYZ=             -5.1187 YYXZ=             -3.8819 ZZXY=             -7.5990
 N-N= 1.069371525893D+03 E-N=-3.949811567297D+03  KE= 7.677396204914D+02
   1 Symmetry operations used in ECPInt.
 ECPInt:  NShTT=    8001 NPrTT=   29641 LenC2=    7593 LenP2D=   20282.
 LDataN:  DoStor=T MaxTD1= 5 Len=  102
 Calling FoFJK, ICntrl=      2527 FMM=F ISym2X=0 I1Cent= 0 IOpClX= 0 NMat=1 NMatS=1 NMatT=0.
 ***** Axes restored to original set *****
 -------------------------------------------------------------------
 Center     Atomic                   Forces (Hartrees/Bohr)
 Number     Number              X              Y              Z
 -------------------------------------------------------------------
      1        6           0.000021253    0.000141845    0.000528335
      2        6          -0.000053739   -0.000044310   -0.000020799
      3        6           0.000021905    0.000016234    0.000004061
      4        6           0.000010406   -0.000025941    0.000009834
      5        6          -0.000009487    0.000007115   -0.000008736
      6        6          -0.000009255    0.000058735    0.000072997
      7        9          -0.000028873    0.000013685   -0.000618305
      8        6           0.000010194   -0.000239565   -0.000171796
      9        6          -0.000039986   -0.000150656    0.000275068
     10        6          -0.000039659   -0.000056516   -0.000008798
     11        8           0.000113672    0.000225597    0.000544852
     12        6           0.000043728    0.000050999   -0.000010324
     13        6          -0.000004590   -0.000039462    0.000018078
     14        6          -0.000050249    0.000021470   -0.000003507
     15        6           0.000044480    0.000004475   -0.000004553
     16        9          -0.000025311    0.000017925   -0.000631548
     17        1           0.000025479    0.000014298    0.000023803
     18        1           0.000012363   -0.000023686    0.000024399
     19        1           0.000011156    0.000011422   -0.000004783
     20        1           0.000002180   -0.000000354   -0.000006251
     21        1           0.000000053   -0.000000451    0.000000552
     22        1          -0.000000138   -0.000003676    0.000003451
     23        1          -0.000052778    0.000000363   -0.000015506
     24        1          -0.000005658   -0.000005782    0.000002235
     25        1           0.000000024    0.000002267   -0.000004569
     26        1           0.000002829    0.000003970    0.000001810
 -------------------------------------------------------------------
 Cartesian Forces:  Max     0.000631548 RMS     0.000146283

 GradGradGradGradGradGradGradGradGradGradGradGradGradGradGradGradGradGrad
 Berny optimization.
 FormGI is forming the generalized inverse of G from B-inverse, IUseBI=4.
 Internal  Forces:  Max     0.001068779 RMS     0.000223013
 Search for a local minimum.
 Step number   1 out of a maximum of  142
 All quantities printed in internal units (Hartrees-Bohrs-Radians)
 Mixed Optimization -- En-DIIS/RFO-DIIS
 Second derivative matrix not updated -- first step.
 ITU=  0
     Eigenvalues ---    0.00476   0.01206   0.01242   0.01357   0.01614
     Eigenvalues ---    0.01688   0.01831   0.01844   0.01966   0.02010
     Eigenvalues ---    0.02030   0.02043   0.02122   0.02132   0.02135
     Eigenvalues ---    0.02149   0.02162   0.02166   0.02325   0.06604
     Eigenvalues ---    0.07383   0.15885   0.15966   0.15967   0.15978
     Eigenvalues ---    0.15980   0.15986   0.16000   0.16000   0.16000
     Eigenvalues ---    0.16000   0.22025   0.22076   0.22361   0.22785
     Eigenvalues ---    0.23152   0.24184   0.24472   0.24676   0.24689
     Eigenvalues ---    0.24924   0.24950   0.24990   0.30098   0.31696
     Eigenvalues ---    0.32757   0.32971   0.33336   0.33492   0.33638
     Eigenvalues ---    0.33688   0.33740   0.33773   0.33798   0.35660
     Eigenvalues ---    0.35772   0.38597   0.38642   0.41449   0.41717
     Eigenvalues ---    0.44424   0.44464   0.45141   0.45306   0.46385
     Eigenvalues ---    0.46631   0.48211   0.51525   0.54534   0.54956
     Eigenvalues --- 1000.000001000.000001000.000001000.000001000.00000
     Eigenvalues --- 1000.000001000.000001000.000001000.000001000.00000
     Eigenvalues --- 1000.000001000.000001000.000001000.000001000.00000
     Eigenvalues --- 1000.000001000.000001000.000001000.000001000.00000
     Eigenvalues --- 1000.000001000.000001000.000001000.000001000.00000
     Eigenvalues --- 1000.000001000.000001000.000001000.000001000.00000
     Eigenvalues --- 1000.000001000.000001000.000001000.000001000.00000
     Eigenvalues --- 1000.000001000.000001000.000001000.000001000.00000
     Eigenvalues --- 1000.000001000.000001000.000001000.000001000.00000
     Eigenvalues --- 1000.000001000.000001000.000001000.000001000.00000
     Eigenvalues --- 1000.000001000.000001000.000001000.000001000.00000
     Eigenvalues --- 1000.000001000.000001000.000001000.000001000.00000
     Eigenvalues --- 1000.000001000.00000
 RFO step:  Lambda=-4.16115589D-06 EMin= 4.76054631D-03
 Linear search not attempted -- first point.
 Iteration  1 RMS(Cart)=  0.00387182 RMS(Int)=  0.00000254
 Iteration  2 RMS(Cart)=  0.00000502 RMS(Int)=  0.00000024
 Iteration  3 RMS(Cart)=  0.00000000 RMS(Int)=  0.00000024
 Iteration  1 RMS(Cart)=  0.00000005 RMS(Int)=  0.00000006
 Variable       Old X    -DE/DX   Delta X   Delta X   Delta X     New X
                                 (Linear)    (Quad)   (Total)
    R1        2.87600  -0.00006   0.00000   0.00000   0.00000   2.87601
    R2        2.09102   0.00003   0.00000   0.00010   0.00010   2.09112
    R3        2.08465  -0.00001   0.00000  -0.00002  -0.00002   2.08463
    R4        2.09480  -0.00000   0.00000  -0.00001  -0.00001   2.09479
    R5        2.67134  -0.00000   0.00000  -0.00011  -0.00011   2.67123
    R6        2.75632  -0.00004   0.00000  -0.00032  -0.00032   2.75600
    R7        2.64257   0.00003   0.00000   0.00002   0.00002   2.64258
    R8        2.08196  -0.00000   0.00000  -0.00000  -0.00000   2.08195
    R9        2.63945  -0.00003   0.00000   0.00001   0.00001   2.63946
   R10        2.07860   0.00000   0.00000   0.00000   0.00000   2.07860
   R11        2.63229  -0.00002   0.00000   0.00005   0.00005   2.63234
   R12        2.07771   0.00000   0.00000   0.00001   0.00001   2.07772
   R13        2.61513   0.00011   0.00000   0.00010   0.00010   2.61524
   R14        2.70436   0.00002   0.00000   0.00021   0.00021   2.70457
   R15        2.84704  -0.00001   0.00000  -0.00002  -0.00002   2.84702
   R16        2.76061   0.00003   0.00000   0.00014   0.00014   2.76074
   R17        2.71122   0.00001   0.00000  -0.00005  -0.00005   2.71117
   R18        2.55511  -0.00003   0.00000  -0.00011  -0.00011   2.55500
   R19        2.67726   0.00002   0.00000   0.00009   0.00009   2.67735
   R20        1.85057   0.00005   0.00000   0.00011   0.00011   1.85068
   R21        2.62818  -0.00003   0.00000  -0.00004  -0.00004   2.62814
   R22        2.07714   0.00000   0.00000   0.00001   0.00001   2.07715
   R23        2.64499   0.00002   0.00000   0.00002   0.00002   2.64502
   R24        2.07944  -0.00000   0.00000  -0.00000  -0.00000   2.07944
   R25        2.63659  -0.00004   0.00000  -0.00012  -0.00012   2.63647
   R26        2.07672   0.00000   0.00000   0.00001   0.00001   2.07673
   R27        2.55138   0.00003   0.00000   0.00011   0.00011   2.55149
    A1        1.98821  -0.00001   0.00000  -0.00010  -0.00010   1.98811
    A2        1.96385  -0.00005   0.00000  -0.00037  -0.00037   1.96347
    A3        1.87330   0.00004   0.00000   0.00037   0.00037   1.87367
    A4        1.88146   0.00001   0.00000  -0.00015  -0.00015   1.88131
    A5        1.87546   0.00000   0.00000   0.00013   0.00013   1.87559
    A6        1.87662   0.00001   0.00000   0.00016   0.00016   1.87678
    A7        1.96630   0.00007   0.00000   0.00078   0.00078   1.96708
    A8        2.22086  -0.00001   0.00000  -0.00083  -0.00083   2.22003
    A9        2.08496  -0.00004   0.00000   0.00031   0.00031   2.08527
   A10        2.16161   0.00002   0.00000  -0.00023  -0.00023   2.16138
   A11        2.04377  -0.00002   0.00000   0.00010   0.00010   2.04387
   A12        2.07549  -0.00000   0.00000   0.00015   0.00015   2.07564
   A13        2.04266   0.00000   0.00000   0.00000   0.00000   2.04266
   A14        2.11873  -0.00001   0.00000  -0.00001  -0.00001   2.11872
   A15        2.11631   0.00000   0.00000  -0.00001  -0.00001   2.11630
   A16        2.06334  -0.00003   0.00000   0.00014   0.00014   2.06348
   A17        2.15082   0.00001   0.00000  -0.00007  -0.00007   2.15074
   A18        2.06788   0.00002   0.00000  -0.00007  -0.00007   2.06781
   A19        1.97235  -0.00002   0.00000  -0.00046  -0.00046   1.97189
   A20        2.21489   0.00002   0.00000  -0.00023  -0.00023   2.21466
   A21        2.09410  -0.00002   0.00000   0.00059   0.00059   2.09469
   A22        1.92850   0.00003   0.00000  -0.00004  -0.00004   1.92846
   A23        2.23539  -0.00051   0.00000  -0.00173  -0.00173   2.23366
   A24        2.11929   0.00049   0.00000   0.00177   0.00177   2.12106
   A25        2.18132   0.00035   0.00000   0.00156   0.00156   2.18289
   A26        2.15988  -0.00035   0.00000  -0.00157  -0.00157   2.15832
   A27        1.93331   0.00000   0.00000   0.00005   0.00005   1.93336
   A28        2.20725   0.00003   0.00000   0.00043   0.00043   2.20768
   A29        2.12369  -0.00001   0.00000  -0.00023  -0.00023   2.12347
   A30        1.94884  -0.00004   0.00000  -0.00026  -0.00026   1.94858
   A31        1.94574  -0.00001   0.00000  -0.00006  -0.00006   1.94568
   A32        2.13263   0.00000   0.00000   0.00015   0.00015   2.13279
   A33        2.02198  -0.00001   0.00000  -0.00013  -0.00013   2.02184
   A34        2.12743   0.00000   0.00000  -0.00003  -0.00003   2.12740
   A35        2.06174   0.00000   0.00000   0.00001   0.00001   2.06175
   A36        2.11005   0.00000   0.00000   0.00002   0.00002   2.11007
   A37        2.11019  -0.00001   0.00000  -0.00002  -0.00002   2.11018
   A38        2.07945   0.00000   0.00000  -0.00010  -0.00010   2.07935
   A39        2.14696   0.00000   0.00000   0.00005   0.00005   2.14701
   A40        2.05541  -0.00000   0.00000   0.00006   0.00006   2.05547
   A41        2.20451  -0.00000   0.00000   0.00016   0.00016   2.20468
   A42        2.09801  -0.00002   0.00000  -0.00038  -0.00038   2.09763
   A43        1.97917   0.00003   0.00000   0.00024   0.00024   1.97940
    D1        1.58833  -0.00007   0.00000  -0.00109  -0.00109   1.58725
    D2       -1.71517   0.00010   0.00000   0.00087   0.00087  -1.71429
    D3       -2.54661  -0.00010   0.00000  -0.00166  -0.00166  -2.54827
    D4        0.43308   0.00007   0.00000   0.00030   0.00030   0.43337
    D5       -0.48558  -0.00009   0.00000  -0.00144  -0.00144  -0.48702
    D6        2.49411   0.00008   0.00000   0.00052   0.00052   2.49462
    D7        2.84447   0.00016   0.00000   0.00160   0.00160   2.84607
    D8       -0.22310   0.00012   0.00000   0.00132   0.00133  -0.22177
    D9       -0.14921   0.00000   0.00000  -0.00006  -0.00006  -0.14927
   D10        3.06641  -0.00003   0.00000  -0.00034  -0.00034   3.06607
   D11       -2.60925  -0.00021   0.00000  -0.00195  -0.00195  -2.61120
   D12        0.52954  -0.00020   0.00000  -0.00183  -0.00183   0.52771
   D13        0.36066  -0.00002   0.00000   0.00015   0.00015   0.36081
   D14       -2.78374  -0.00001   0.00000   0.00027   0.00027  -2.78347
   D15       -0.12376   0.00000   0.00000  -0.00017  -0.00017  -0.12393
   D16        3.12895   0.00001   0.00000   0.00001   0.00001   3.12896
   D17        2.94254   0.00004   0.00000   0.00011   0.00011   2.94265
   D18       -0.08794   0.00004   0.00000   0.00030   0.00030  -0.08764
   D19        0.14148   0.00001   0.00000   0.00028   0.00028   0.14176
   D20       -2.94783   0.00005   0.00000   0.00047   0.00047  -2.94736
   D21       -3.11107   0.00001   0.00000   0.00009   0.00009  -3.11098
   D22        0.08280   0.00004   0.00000   0.00028   0.00028   0.08309
   D23       -2.95491   0.00022   0.00000   0.00166   0.00165  -2.95326
   D24        0.12086  -0.00004   0.00000  -0.00025  -0.00025   0.12062
   D25        0.13693   0.00018   0.00000   0.00147   0.00147   0.13841
   D26       -3.07048  -0.00008   0.00000  -0.00043  -0.00043  -3.07091
   D27       -0.36593   0.00003   0.00000   0.00007   0.00007  -0.36585
   D28        2.77825   0.00002   0.00000  -0.00003  -0.00003   2.77822
   D29        2.70571  -0.00024   0.00000  -0.00199  -0.00199   2.70373
   D30       -0.43329  -0.00025   0.00000  -0.00209  -0.00209  -0.43538
   D31        0.26923  -0.00107   0.00000   0.00000   0.00000   0.26923
   D32        2.93313  -0.00084   0.00000   0.00110   0.00110   2.93423
   D33       -0.05414  -0.00085   0.00000   0.00069   0.00069  -0.05345
   D34       -0.21154  -0.00082   0.00000   0.00123   0.00123  -0.21031
   D35        3.08438  -0.00083   0.00000   0.00081   0.00081   3.08519
   D36       -0.51280  -0.00103   0.00000   0.00000  -0.00000  -0.51280
   D37       -0.21242  -0.00018   0.00000  -0.00085  -0.00085  -0.21326
   D38        3.02532   0.00004   0.00000  -0.00007  -0.00007   3.02526
   D39        2.79205  -0.00020   0.00000  -0.00062  -0.00062   2.79143
   D40       -0.25339   0.00002   0.00000   0.00016   0.00016  -0.25323
   D41       -3.02852   0.00005   0.00000   0.00032   0.00032  -3.02819
   D42        0.17576  -0.00022   0.00000  -0.00003  -0.00003   0.17573
   D43        0.24819   0.00001   0.00000  -0.00019  -0.00019   0.24800
   D44       -2.83072  -0.00026   0.00000  -0.00054  -0.00054  -2.83126
   D45        0.58749   0.00009   0.00000   0.00001   0.00001   0.58751
   D46       -2.64212  -0.00011   0.00000  -0.00070  -0.00070  -2.64282
   D47        0.12615  -0.00002   0.00000   0.00000   0.00000   0.12615
   D48       -3.06593  -0.00005   0.00000  -0.00014  -0.00014  -3.06607
   D49       -2.93228   0.00017   0.00000   0.00064   0.00064  -2.93164
   D50        0.15882   0.00014   0.00000   0.00050   0.00050   0.15933
   D51        0.04778   0.00000   0.00000  -0.00011  -0.00011   0.04766
   D52        3.13723   0.00002   0.00000   0.00005   0.00005   3.13728
   D53       -3.04030   0.00003   0.00000   0.00004   0.00004  -3.04026
   D54        0.04916   0.00005   0.00000   0.00020   0.00020   0.04935
   D55       -0.06414   0.00002   0.00000   0.00003   0.00003  -0.06410
   D56        3.02014   0.00006   0.00000   0.00014   0.00014   3.02028
   D57        3.12959   0.00001   0.00000  -0.00012  -0.00012   3.12947
   D58       -0.06932   0.00005   0.00000  -0.00002  -0.00002  -0.06933
   D59       -0.09923  -0.00003   0.00000   0.00013   0.00013  -0.09910
   D60        2.98334   0.00023   0.00000   0.00044   0.00044   2.98378
   D61        3.09668  -0.00007   0.00000   0.00003   0.00003   3.09671
   D62       -0.10394   0.00019   0.00000   0.00034   0.00034  -0.10360
         Item               Value     Threshold  Converged?
 Maximum Force            0.000440     0.000450     YES
 RMS     Force            0.000083     0.000300     YES
 Maximum Displacement     0.012416     0.001800     NO 
 RMS     Displacement     0.003873     0.001200     NO 
 Predicted change in Energy=-2.080501D-06
 GradGradGradGradGradGradGradGradGradGradGradGradGradGradGradGradGradGrad

                          Input orientation:                          
 ---------------------------------------------------------------------
 Center     Atomic      Atomic             Coordinates (Angstroms)
 Number     Number       Type             X           Y           Z
 ---------------------------------------------------------------------
      1          6           0       -1.093696    2.518955   -1.232099
      2          6           0       -1.508058    1.207861   -0.579743
      3          6           0       -2.884191    1.169017   -0.258989
      4          6           0       -3.584952   -0.007638    0.023716
      5          6           0       -2.905198   -1.212812   -0.167002
      6          6           0       -1.542924   -1.162707   -0.453501
      7          9           0       -1.029653   -2.384066   -0.853604
      8          6           0       -0.705309   -0.002256   -0.444920
      9          6           0        0.791529   -0.112036   -0.313753
     10          6           0        1.514548   -1.324626    0.061958
     11          8           0        0.976924   -2.456747    0.569201
     12          6           0        2.929595   -1.387015    0.029540
     13          6           0        3.715390   -0.266163   -0.216238
     14          6           0        3.073493    0.966951   -0.379056
     15          6           0        1.679174    1.013846   -0.366790
     16          9           0        1.184874    2.269977   -0.338185
     17          1           0       -0.754500    3.289628   -0.514104
     18          1           0       -0.296776    2.383594   -1.982774
     19          1           0       -1.982520    2.922151   -1.757677
     20          1           0       -3.437262    2.120773   -0.304419
     21          1           0       -4.654410    0.009974    0.280286
     22          1           0       -3.401452   -2.193769   -0.149352
     23          1           0        0.083936   -2.624635    0.203847
     24          1           0        3.371404   -2.366810    0.259769
     25          1           0        4.813295   -0.338315   -0.232555
     26          1           0        3.617061    1.918149   -0.465445
 ---------------------------------------------------------------------
                    Distance matrix (angstroms):
                    1          2          3          4          5
     1  C    0.000000
     2  C    1.521917   0.000000
     3  C    2.444412   1.413554   0.000000
     4  C    3.763921   2.480945   1.398394   0.000000
     5  C    4.282763   2.825246   2.383697   1.396741   0.000000
     6  C    3.789809   2.374183   2.696992   2.394118   1.392976
     7  F    4.918025   3.633980   4.051823   3.598146   2.315367
     8  C    2.669644   1.458412   2.480720   2.917532   2.526300
     9  C    3.364453   2.664766   3.892944   4.390714   3.859926
    10  C    4.821891   3.995175   5.066574   5.266956   4.427085
    11  O    5.682407   4.574337   5.360995   5.206381   4.142492
    12  C    5.747625   5.176617   6.357409   6.658981   5.840700
    13  C    5.649439   5.439604   6.753964   7.308858   6.688105
    14  C    4.527898   4.592268   5.962319   6.741435   6.367188
    15  C    3.271531   3.200224   4.567274   5.376518   5.100430
    16  F    2.460275   2.904880   4.216121   5.298089   5.374739
    17  H    1.106575   2.214930   3.016233   4.378662   5.001795
    18  H    1.103139   2.195005   3.337866   4.533883   4.799482
    19  H    1.108516   2.133408   2.476399   3.784813   4.525428
    20  H    2.551753   2.151985   1.101722   2.158615   3.378575
    21  H    4.610963   3.474783   2.183546   1.099945   2.180601
    22  H    5.357970   3.916792   3.404101   2.200635   1.099480
    23  H    5.468571   4.223326   4.838986   4.510195   3.326514
    24  H    6.784798   6.106734   7.204419   7.349306   6.396059
    25  H    6.637441   6.516955   7.843726   8.408661   7.768152
    26  H    4.810400   5.175366   6.547526   7.471073   7.240984
                    6          7          8          9         10
     6  C    0.000000
     7  F    1.383925   0.000000
     8  C    1.431195   2.438286   0.000000
     9  C    2.563807   2.961463   1.506579   0.000000
    10  C    3.104843   2.904071   2.633127   1.460921   0.000000
    11  O    3.011660   2.460896   3.143704   2.512299   1.352048
    12  C    4.504116   4.177283   3.918571   2.512916   1.416792
    13  C    5.339471   5.235187   4.434470   2.929544   2.457934
    14  C    5.084515   5.318864   3.901673   2.525043   2.806444
    15  C    3.889320   4.372704   2.593131   1.434691   2.383145
    16  F    4.386057   5.179759   2.957572   2.414396   3.631800
    17  H    4.522010   5.690499   3.292978   3.741880   5.174144
    18  H    4.058055   4.954060   2.867782   3.193463   4.605727
    19  H    4.310473   5.466374   3.450616   4.357356   5.794452
    20  H    3.793677   5.137291   3.462738   4.782070   6.043628
    21  H    3.405139   4.489544   4.015155   5.479601   6.315448
    22  H    2.147026   2.481454   3.487015   4.684199   4.996711
    23  H    2.283860   1.554399   2.814370   2.661156   1.938248
    24  H    5.109720   4.539736   4.765217   3.474002   2.138502
    25  H    6.413265   6.221804   5.532905   4.028946   3.455616
    26  H    6.009764   6.344421   4.729827   3.482571   3.900552
                   11         12         13         14         15
    11  O    0.000000
    12  C    2.290957   0.000000
    13  C    3.593712   1.390751   0.000000
    14  C    4.125106   2.393494   1.399683   0.000000
    15  C    3.662547   2.735829   2.409827   1.395162   0.000000
    16  F    4.817521   4.068521   3.584744   2.294870   1.350191
    17  H    6.098541   5.978218   5.719466   4.479575   3.335214
    18  H    5.618166   5.355031   5.122434   3.992180   2.896893
    19  H    6.565456   6.774357   6.708767   5.593449   4.357085
    20  H    6.418874   7.276879   7.540933   6.612625   5.235178
    21  H    6.154682   7.715671   8.389061   7.814796   6.445212
    22  H    4.444733   6.384748   7.373573   7.208872   6.012390
    23  H    0.979335   3.108031   4.350439   4.709216   4.013596
    24  H    2.416065   1.099182   2.181199   3.407465   3.832109
    25  H    4.455145   2.171818   1.100395   2.179930   3.416003
    26  H    5.213495   3.411998   2.200680   1.098957   2.140772
                   16         17         18         19         20
    16  F    0.000000
    17  H    2.198137   0.000000
    18  H    2.216499   1.785329   0.000000
    19  H    3.531667   1.785930   1.783941   0.000000
    20  H    4.624667   2.933838   3.570518   2.206907   0.000000
    21  H    6.291849   5.157179   5.453851   4.446691   2.505754
    22  H    6.402740   6.099758   5.826894   5.547315   4.317476
    23  H    5.046097   6.016389   5.478011   6.235756   5.930942
    24  H    5.161227   7.043952   6.407096   7.791515   8.174023
    25  H    4.469875   6.651434   6.048544   7.690237   8.609528
    26  H    2.460795   4.581906   4.223392   5.833797   7.059069
                   21         22         23         24         25
    21  H    0.000000
    22  H    2.571182   0.000000
    23  H    5.422079   3.529635   0.000000
    24  H    8.370378   6.787407   3.298036   0.000000
    25  H    9.487980   8.422096   5.271105   2.536972   0.000000
    26  H    8.521413   8.140474   5.793774   4.352834   2.564536
                   26
    26  H    0.000000
 Stoichiometry    C13H10F2O
 Framework group  C1[X(C13H10F2O)]
 Deg. of freedom    72
 Full point group                 C1      NOp   1
 Largest Abelian subgroup         C1      NOp   1
 Largest concise Abelian subgroup C1      NOp   1
                         Standard orientation:                         
 ---------------------------------------------------------------------
 Center     Atomic      Atomic             Coordinates (Angstroms)
 Number     Number       Type             X           Y           Z
 ---------------------------------------------------------------------
      1          6           0        1.324297    2.598931    0.499898
      2          6           0        1.625060    1.185899    0.021240
      3          6           0        2.979619    1.009750   -0.342457
      4          6           0        3.591547   -0.239565   -0.484792
      5          6           0        2.847458   -1.358185   -0.102816
      6          6           0        1.505823   -1.176526    0.224896
      7          9           0        0.936465   -2.293957    0.810069
      8          6           0        0.742861    0.026396    0.086384
      9          6           0       -0.762397    0.002268    0.028097
     10          6           0       -1.576498   -1.197980   -0.147783
     11          8           0       -1.134899   -2.422762   -0.512380
     12          6           0       -2.989623   -1.158546   -0.053860
     13          6           0       -3.691536    0.036392    0.062893
     14          6           0       -2.966957    1.233429    0.028295
     15          6           0       -1.574523    1.182849   -0.042751
     16          9           0       -1.004581    2.386609   -0.264431
     17          1           0        1.000800    3.285831   -0.305104
     18          1           0        0.556354    2.621981    1.291509
     19          1           0        2.260117    3.008371    0.930486
     20          1           0        3.592589    1.918781   -0.450727
     21          1           0        4.646885   -0.330214   -0.781312
     22          1           0        3.280091   -2.363971   -0.002415
     23          1           0       -0.238080   -2.599860   -0.161026
     24          1           0       -3.502041   -2.128094   -0.128738
     25          1           0       -4.789846    0.042314    0.130328
     26          1           0       -3.445412    2.222413    0.001834
 ---------------------------------------------------------------------
 Rotational constants (GHZ):           0.8392105           0.4703856           0.3125561
 Standard basis: def2SVP (5D, 7F)
 There are   290 symmetry adapted cartesian basis functions of A   symmetry.
 There are   274 symmetry adapted basis functions of A   symmetry.
   274 basis functions,   470 primitive gaussians,   290 cartesian basis functions
    57 alpha electrons       57 beta electrons
       nuclear repulsion energy      1069.4000735763 Hartrees.
 NAtoms=   26 NActive=   26 NUniq=   26 SFac= 1.00D+00 NAtFMM=   60 NAOKFM=F Big=F
 Integral buffers will be    131072 words long.
 Raffenetti 2 integral format.
 Two-electron integral symmetry is turned on.
 Nuclear repulsion after empirical dispersion term =     1069.3485483325 Hartrees.
 One-electron integrals computed using PRISM.
   1 Symmetry operations used in ECPInt.
 ECPInt:  NShTT=    8001 NPrTT=   29641 LenC2=    7593 LenP2D=   20281.
 LDataN:  DoStor=T MaxTD1= 4 Len=   56
 NBasis=   274 RedAO= T EigKep=  3.12D-04  NBF=   274
 NBsUse=   274 1.00D-06 EigRej= -1.00D+00 NBFU=   274
 Initial guess from the checkpoint file:  "/scratch/gaussian_tmp/Gau-556946.chk"
 B after Tr=     0.000000    0.000000   -0.000000
         Rot=    1.000000   -0.000106   -0.000039   -0.000198 Ang=  -0.03 deg.
 Requested convergence on RMS density matrix=1.00D-08 within 128 cycles.
 Requested convergence on MAX density matrix=1.00D-06.
 Requested convergence on             energy=1.00D-06.
 No special actions if energy rises.
 SCF Done:  E(RB-P86) =  -775.751057575     A.U. after    9 cycles
            NFock=  9  Conv=0.80D-08     -V/T= 2.0104
   1 Symmetry operations used in ECPInt.
 ECPInt:  NShTT=    8001 NPrTT=   29641 LenC2=    7593 LenP2D=   20281.
 LDataN:  DoStor=T MaxTD1= 5 Len=  102
 Calling FoFJK, ICntrl=      2527 FMM=F ISym2X=0 I1Cent= 0 IOpClX= 0 NMat=1 NMatS=1 NMatT=0.
 ***** Axes restored to original set *****
 -------------------------------------------------------------------
 Center     Atomic                   Forces (Hartrees/Bohr)
 Number     Number              X              Y              Z
 -------------------------------------------------------------------
      1        6          -0.000367522    0.000234015    0.000343431
      2        6           0.000015636    0.000101825    0.000073640
      3        6          -0.000009825    0.000041638   -0.000025422
      4        6           0.000006810    0.000003230   -0.000006453
      5        6           0.000003334    0.000051081    0.000026248
      6        6           0.000103603   -0.000178842   -0.000089653
      7        9           0.000743885    0.000082745    0.000084110
      8        6          -0.000058145   -0.000283677   -0.000128624
      9        6          -0.000016174   -0.000211770    0.000229966
     10        6           0.000069580    0.000267768   -0.000095210
     11        8          -0.000584394    0.000013769    0.000156245
     12        6          -0.000037861    0.000007525    0.000008683
     13        6           0.000009840    0.000014346   -0.000006009
     14        6           0.000004928    0.000014527   -0.000001402
     15        6           0.000068547   -0.000024152    0.000012489
     16        9           0.000690813   -0.000201244   -0.000277515
     17        1          -0.000168119   -0.000010336   -0.000083863
     18        1          -0.000151428    0.000029559   -0.000037404
     19        1          -0.000071874   -0.000030672   -0.000009879
     20        1           0.000004375    0.000000629   -0.000010365
     21        1          -0.000002152    0.000001458    0.000004014
     22        1           0.000011502   -0.000003080   -0.000000173
     23        1          -0.000270251    0.000087399   -0.000170009
     24        1           0.000002022   -0.000004189    0.000000645
     25        1          -0.000002271   -0.000000618    0.000000954
     26        1           0.000005142   -0.000002933    0.000001558
 -------------------------------------------------------------------
 Cartesian Forces:  Max     0.000743885 RMS     0.000174566

 GradGradGradGradGradGradGradGradGradGradGradGradGradGradGradGradGradGrad
 Berny optimization.
 Using GEDIIS/GDIIS optimizer.
 FormGI is forming the generalized inverse of G from B-inverse, IUseBI=4.
 Internal  Forces:  Max     0.003540099 RMS     0.000683303
 Search for a local minimum.
 Step number   2 out of a maximum of  142
 All quantities printed in internal units (Hartrees-Bohrs-Radians)
 Mixed Optimization -- En-DIIS/RFO-DIIS
 Swapping is turned off.
 Update second derivatives using D2CorX and points    1    2
 DE=  1.38D-05 DEPred=-2.08D-06 R=-6.63D+00
 Trust test=-6.63D+00 RLast= 7.37D-03 DXMaxT set to 1.50D-01
 ITU= -1  0
     Eigenvalues ---    0.00475   0.01226   0.01250   0.01356   0.01618
     Eigenvalues ---    0.01684   0.01830   0.01857   0.01966   0.02011
     Eigenvalues ---    0.02031   0.02043   0.02122   0.02132   0.02135
     Eigenvalues ---    0.02149   0.02162   0.02165   0.02321   0.06618
     Eigenvalues ---    0.07381   0.15885   0.15910   0.15966   0.15968
     Eigenvalues ---    0.15979   0.15980   0.15987   0.16000   0.16000
     Eigenvalues ---    0.16012   0.22009   0.22076   0.22335   0.22815
     Eigenvalues ---    0.23195   0.24183   0.24445   0.24668   0.24723
     Eigenvalues ---    0.24795   0.24955   0.30097   0.31691   0.32757
     Eigenvalues ---    0.32960   0.33330   0.33492   0.33638   0.33688
     Eigenvalues ---    0.33740   0.33773   0.33798   0.35511   0.35612
     Eigenvalues ---    0.38492   0.38619   0.41420   0.41708   0.44422
     Eigenvalues ---    0.44462   0.45127   0.45300   0.46383   0.46587
     Eigenvalues ---    0.48100   0.51324   0.54476   0.54860   2.16313
     Eigenvalues --- 1000.000001000.000001000.000001000.000001000.00000
     Eigenvalues --- 1000.000001000.000001000.000001000.000001000.00000
     Eigenvalues --- 1000.000001000.000001000.000001000.000001000.00000
     Eigenvalues --- 1000.000001000.000001000.000001000.000001000.00000
     Eigenvalues --- 1000.000001000.000001000.000001000.000001000.00000
     Eigenvalues --- 1000.000001000.000001000.000001000.000001000.00000
     Eigenvalues --- 1000.000001000.000001000.000001000.000001000.00000
     Eigenvalues --- 1000.000001000.000001000.000001000.000001000.00000
     Eigenvalues --- 1000.000001000.000001000.000001000.000001000.00000
     Eigenvalues --- 1000.000001000.000001000.000001000.000001000.00000
     Eigenvalues --- 1000.000001000.000001000.000001000.000001000.00000
     Eigenvalues --- 1000.000001000.000001000.000001000.000001000.00000
     Eigenvalues --- 1000.000001000.00000
 En-DIIS/RFO-DIIS/Sim-DIIS IScMMF=       -3 using points:     2    1
 RFO step:  Lambda=-2.81555520D-05.
 DidBck=T Rises=T En-DIIS coefs:    0.30726    0.69274
 Iteration  1 RMS(Cart)=  0.00346254 RMS(Int)=  0.00000192
 Iteration  2 RMS(Cart)=  0.00000374 RMS(Int)=  0.00000013
 Iteration  3 RMS(Cart)=  0.00000000 RMS(Int)=  0.00000013
 Iteration  1 RMS(Cart)=  0.00000013 RMS(Int)=  0.00000005
 Variable       Old X    -DE/DX   Delta X   Delta X   Delta X     New X
                                 (Linear)    (Quad)   (Total)
    R1        2.87601  -0.00008  -0.00000  -0.00002  -0.00002   2.87599
    R2        2.09112  -0.00011  -0.00007   0.00004  -0.00003   2.09109
    R3        2.08463  -0.00009   0.00001  -0.00004  -0.00003   2.08460
    R4        2.09479   0.00005   0.00001   0.00001   0.00002   2.09481
    R5        2.67123   0.00011   0.00008  -0.00004   0.00003   2.67126
    R6        2.75600   0.00075   0.00022  -0.00001   0.00021   2.75621
    R7        2.64258   0.00005  -0.00001   0.00003   0.00002   2.64260
    R8        2.08195  -0.00000   0.00000  -0.00000  -0.00000   2.08195
    R9        2.63946  -0.00006  -0.00000  -0.00001  -0.00002   2.63944
   R10        2.07860   0.00000  -0.00000   0.00000   0.00000   2.07860
   R11        2.63234  -0.00013  -0.00004  -0.00000  -0.00004   2.63230
   R12        2.07772  -0.00000  -0.00001   0.00001  -0.00000   2.07772
   R13        2.61524   0.00017  -0.00007   0.00012   0.00005   2.61529
   R14        2.70457  -0.00052  -0.00015  -0.00001  -0.00015   2.70441
   R15        2.84702  -0.00007   0.00001  -0.00004  -0.00003   2.84700
   R16        2.76074  -0.00083  -0.00009  -0.00017  -0.00026   2.76048
   R17        2.71117   0.00037   0.00003   0.00007   0.00010   2.71127
   R18        2.55500   0.00024   0.00008  -0.00003   0.00005   2.55505
   R19        2.67735  -0.00014  -0.00006   0.00002  -0.00004   2.67731
   R20        1.85068   0.00030  -0.00007   0.00015   0.00007   1.85075
   R21        2.62814  -0.00002   0.00003  -0.00004  -0.00001   2.62813
   R22        2.07715   0.00000  -0.00001   0.00001   0.00000   2.07716
   R23        2.64502   0.00008  -0.00002   0.00004   0.00003   2.64504
   R24        2.07944  -0.00000   0.00000  -0.00000  -0.00000   2.07944
   R25        2.63647   0.00012   0.00008  -0.00005   0.00003   2.63651
   R26        2.07673  -0.00000  -0.00001   0.00001   0.00000   2.07673
   R27        2.55149  -0.00044  -0.00007  -0.00001  -0.00008   2.55141
    A1        1.98811   0.00007   0.00007   0.00001   0.00008   1.98819
    A2        1.96347   0.00009   0.00026  -0.00017   0.00008   1.96356
    A3        1.87367  -0.00016  -0.00026   0.00010  -0.00016   1.87351
    A4        1.88131   0.00005   0.00010   0.00004   0.00014   1.88145
    A5        1.87559  -0.00003  -0.00009   0.00000  -0.00009   1.87551
    A6        1.87678  -0.00003  -0.00011   0.00003  -0.00008   1.87671
    A7        1.96708  -0.00103  -0.00054   0.00005  -0.00049   1.96659
    A8        2.22003   0.00150   0.00058  -0.00003   0.00055   2.22057
    A9        2.08527  -0.00047  -0.00022   0.00001  -0.00021   2.08506
   A10        2.16138   0.00021   0.00016  -0.00004   0.00012   2.16151
   A11        2.04387  -0.00012  -0.00007  -0.00000  -0.00007   2.04379
   A12        2.07564  -0.00009  -0.00010   0.00004  -0.00006   2.07558
   A13        2.04266   0.00004  -0.00000   0.00001   0.00001   2.04267
   A14        2.11872  -0.00002   0.00001  -0.00001  -0.00001   2.11871
   A15        2.11630  -0.00001   0.00000  -0.00001  -0.00001   2.11629
   A16        2.06348  -0.00016  -0.00010  -0.00000  -0.00010   2.06338
   A17        2.15074   0.00009   0.00005   0.00001   0.00007   2.15081
   A18        2.06781   0.00007   0.00005  -0.00001   0.00004   2.06785
   A19        1.97189   0.00072   0.00032   0.00003   0.00035   1.97224
   A20        2.21466   0.00033   0.00016  -0.00003   0.00013   2.21479
   A21        2.09469  -0.00103  -0.00041  -0.00002  -0.00042   2.09426
   A22        1.92846   0.00007   0.00003   0.00001   0.00004   1.92850
   A23        2.23366   0.00347   0.00120   0.00032   0.00152   2.23519
   A24        2.12106  -0.00354  -0.00123  -0.00034  -0.00157   2.11949
   A25        2.18289  -0.00347  -0.00108  -0.00047  -0.00155   2.18133
   A26        2.15832   0.00343   0.00109   0.00044   0.00152   2.15984
   A27        1.93336   0.00004  -0.00003   0.00004   0.00000   1.93336
   A28        2.20768  -0.00138  -0.00030  -0.00031  -0.00061   2.20707
   A29        2.12347   0.00044   0.00016   0.00004   0.00020   2.12367
   A30        1.94858   0.00095   0.00018   0.00026   0.00044   1.94902
   A31        1.94568  -0.00027   0.00004  -0.00025  -0.00020   1.94548
   A32        2.13279  -0.00022  -0.00011  -0.00002  -0.00012   2.13267
   A33        2.02184   0.00011   0.00009  -0.00003   0.00006   2.02190
   A34        2.12740   0.00011   0.00002   0.00005   0.00007   2.12747
   A35        2.06175  -0.00002  -0.00000  -0.00000  -0.00001   2.06174
   A36        2.11007   0.00001  -0.00001   0.00001   0.00000   2.11007
   A37        2.11018   0.00001   0.00001  -0.00001   0.00000   2.11018
   A38        2.07935   0.00013   0.00007   0.00001   0.00008   2.07943
   A39        2.14701  -0.00007  -0.00003  -0.00002  -0.00005   2.14696
   A40        2.05547  -0.00006  -0.00004   0.00000  -0.00004   2.05543
   A41        2.20468  -0.00035  -0.00011  -0.00003  -0.00014   2.20453
   A42        2.09763   0.00090   0.00026   0.00011   0.00037   2.09800
   A43        1.97940  -0.00055  -0.00016  -0.00008  -0.00024   1.97916
    D1        1.58725  -0.00005   0.00075  -0.00055   0.00021   1.58745
    D2       -1.71429  -0.00017  -0.00060  -0.00033  -0.00093  -1.71522
    D3       -2.54827   0.00015   0.00115  -0.00063   0.00052  -2.54775
    D4        0.43337   0.00003  -0.00021  -0.00041  -0.00061   0.43276
    D5       -0.48702   0.00006   0.00100  -0.00062   0.00038  -0.48664
    D6        2.49462  -0.00006  -0.00036  -0.00040  -0.00076   2.49386
    D7        2.84607   0.00008  -0.00111   0.00022  -0.00089   2.84518
    D8       -0.22177   0.00010  -0.00092   0.00022  -0.00069  -0.22247
    D9       -0.14927  -0.00002   0.00004   0.00003   0.00007  -0.14920
   D10        3.06607   0.00000   0.00024   0.00003   0.00026   3.06633
   D11       -2.61120   0.00008   0.00135  -0.00017   0.00118  -2.61002
   D12        0.52771   0.00019   0.00127   0.00024   0.00151   0.52922
   D13        0.36081  -0.00008  -0.00011   0.00006  -0.00004   0.36077
   D14       -2.78347   0.00003  -0.00019   0.00048   0.00029  -2.78318
   D15       -0.12393   0.00010   0.00012  -0.00014  -0.00002  -0.12396
   D16        3.12896   0.00003  -0.00001  -0.00003  -0.00004   3.12893
   D17        2.94265   0.00008  -0.00008  -0.00014  -0.00022   2.94243
   D18       -0.08764   0.00001  -0.00020  -0.00003  -0.00023  -0.08787
   D19        0.14176   0.00000  -0.00019   0.00016  -0.00003   0.14173
   D20       -2.94736  -0.00007  -0.00033   0.00010  -0.00023  -2.94759
   D21       -3.11098   0.00007  -0.00006   0.00005  -0.00001  -3.11099
   D22        0.08309  -0.00001  -0.00020  -0.00002  -0.00021   0.08288
   D23       -2.95326  -0.00020  -0.00115   0.00024  -0.00090  -2.95416
   D24        0.12062  -0.00004   0.00017  -0.00009   0.00008   0.12070
   D25        0.13841  -0.00012  -0.00102   0.00031  -0.00071   0.13769
   D26       -3.07091   0.00004   0.00030  -0.00002   0.00027  -3.07064
   D27       -0.36585   0.00002  -0.00005  -0.00003  -0.00008  -0.36593
   D28        2.77822  -0.00010   0.00002  -0.00041  -0.00039   2.77783
   D29        2.70373   0.00025   0.00138  -0.00038   0.00100   2.70473
   D30       -0.43538   0.00014   0.00145  -0.00076   0.00069  -0.43470
   D31        0.26923  -0.00057  -0.00000   0.00000  -0.00000   0.26923
   D32        2.93423  -0.00023  -0.00076  -0.00005  -0.00082   2.93341
   D33       -0.05345  -0.00031  -0.00047  -0.00010  -0.00057  -0.05402
   D34       -0.21031  -0.00010  -0.00085   0.00040  -0.00045  -0.21076
   D35        3.08519  -0.00018  -0.00056   0.00036  -0.00021   3.08499
   D36       -0.51280  -0.00033   0.00000   0.00000  -0.00000  -0.51280
   D37       -0.21326  -0.00014   0.00059  -0.00007   0.00052  -0.21275
   D38        3.02526  -0.00032   0.00005   0.00008   0.00012   3.02538
   D39        2.79143   0.00024   0.00043   0.00001   0.00044   2.79187
   D40       -0.25323   0.00007  -0.00011   0.00016   0.00005  -0.25318
   D41       -3.02819  -0.00032  -0.00022  -0.00016  -0.00038  -3.02858
   D42        0.17573  -0.00028   0.00002  -0.00005  -0.00003   0.17571
   D43        0.24800  -0.00005   0.00013  -0.00015  -0.00002   0.24798
   D44       -2.83126  -0.00002   0.00037  -0.00004   0.00033  -2.83093
   D45        0.58751  -0.00010  -0.00001  -0.00031  -0.00032   0.58719
   D46       -2.64282   0.00005   0.00049  -0.00045   0.00004  -2.64278
   D47        0.12615  -0.00011  -0.00000  -0.00008  -0.00008   0.12607
   D48       -3.06607  -0.00002   0.00009  -0.00006   0.00004  -3.06603
   D49       -2.93164  -0.00014  -0.00044   0.00008  -0.00037  -2.93200
   D50        0.15933  -0.00005  -0.00035   0.00010  -0.00025   0.15908
   D51        0.04766   0.00004   0.00008  -0.00004   0.00004   0.04770
   D52        3.13728   0.00007  -0.00003   0.00008   0.00004   3.13732
   D53       -3.04026  -0.00005  -0.00003  -0.00006  -0.00009  -3.04035
   D54        0.04935  -0.00002  -0.00014   0.00006  -0.00008   0.04927
   D55       -0.06410   0.00009  -0.00002   0.00006   0.00004  -0.06407
   D56        3.02028   0.00003  -0.00010   0.00002  -0.00008   3.02020
   D57        3.12947   0.00006   0.00009  -0.00005   0.00003   3.12950
   D58       -0.06933  -0.00000   0.00001  -0.00010  -0.00009  -0.06942
   D59       -0.09910  -0.00006  -0.00009   0.00005  -0.00004  -0.09914
   D60        2.98378  -0.00004  -0.00030  -0.00005  -0.00035   2.98343
   D61        3.09671   0.00001  -0.00002   0.00009   0.00008   3.09678
   D62       -0.10360   0.00002  -0.00023  -0.00000  -0.00024  -0.10384
         Item               Value     Threshold  Converged?
 Maximum Force            0.003563     0.000450     NO 
 RMS     Force            0.000682     0.000300     NO 
 Maximum Displacement     0.010441     0.001800     NO 
 RMS     Displacement     0.003462     0.001200     NO 
 Predicted change in Energy=-1.407946D-05
 GradGradGradGradGradGradGradGradGradGradGradGradGradGradGradGradGradGrad

                          Input orientation:                          
 ---------------------------------------------------------------------
 Center     Atomic      Atomic             Coordinates (Angstroms)
 Number     Number       Type             X           Y           Z
 ---------------------------------------------------------------------
      1          6           0       -1.097667    2.520882   -1.233006
      2          6           0       -1.508786    1.209252   -0.579701
      3          6           0       -2.884760    1.168179   -0.258465
      4          6           0       -3.583719   -0.009551    0.024274
      5          6           0       -2.902308   -1.213705   -0.166907
      6          6           0       -1.540242   -1.161450   -0.453908
      7          9           0       -1.024554   -2.382019   -0.853400
      8          6           0       -0.704291    0.000103   -0.445383
      9          6           0        0.792515   -0.109941   -0.314241
     10          6           0        1.513270   -1.323566    0.061940
     11          8           0        0.972712   -2.454551    0.568663
     12          6           0        2.928194   -1.388581    0.030282
     13          6           0        3.716048   -0.269149   -0.215344
     14          6           0        3.076356    0.965053   -0.378711
     15          6           0        1.682102    1.014486   -0.367083
     16          9           0        1.190399    2.271590   -0.338536
     17          1           0       -0.759604    3.292684   -0.515716
     18          1           0       -0.301219    2.386882   -1.984399
     19          1           0       -1.987863    2.921869   -1.757972
     20          1           0       -3.439319    2.119078   -0.303712
     21          1           0       -4.653107    0.006471    0.281244
     22          1           0       -3.397049   -2.195422   -0.149065
     23          1           0        0.079602   -2.620233    0.202497
     24          1           0        3.368124   -2.369145    0.260843
     25          1           0        4.813834   -0.343208   -0.231133
     26          1           0        3.621655    1.915274   -0.464952
 ---------------------------------------------------------------------
                    Distance matrix (angstroms):
                    1          2          3          4          5
     1  C    0.000000
     2  C    1.521906   0.000000
     3  C    2.444020   1.413571   0.000000
     4  C    3.763548   2.481050   1.398404   0.000000
     5  C    4.282574   2.825425   2.383708   1.396731   0.000000
     6  C    3.789780   2.374246   2.696868   2.394019   1.392955
     7  F    4.918118   3.634092   4.051941   3.598366   2.315640
     8  C    2.670098   1.458526   2.480682   2.917494   2.526293
     9  C    3.367217   2.665845   3.893463   4.390455   3.858979
    10  C    4.824278   3.994959   5.064990   5.263777   4.422869
    11  O    5.682202   4.571655   5.356156   5.199562   4.134796
    12  C    5.752161   5.177607   6.356951   6.656333   5.836455
    13  C    5.656126   5.442180   6.755623   7.308310   6.685594
    14  C    4.535735   4.596037   5.965788   6.743059   6.366810
    15  C    3.278135   3.203890   4.570738   5.378725   5.101149
    16  F    2.469306   2.910726   4.222659   5.303531   5.378382
    17  H    1.106557   2.214962   3.015956   4.378581   5.002039
    18  H    1.103122   2.195042   3.337480   4.533482   4.799288
    19  H    1.108525   2.133282   2.475555   3.783699   4.524453
    20  H    2.551150   2.151955   1.101722   2.158585   3.378541
    21  H    4.610463   3.474861   2.183553   1.099946   2.180588
    22  H    5.357761   3.916988   3.404148   2.200664   1.099480
    23  H    5.466049   4.218977   4.832390   4.501926   3.317614
    24  H    6.788759   6.107021   7.202840   7.345187   6.390331
    25  H    6.644743   6.519751   7.845597   8.408058   7.765354
    26  H    4.819613   5.180064   6.552421   7.474069   7.241645
                    6          7          8          9         10
     6  C    0.000000
     7  F    1.383950   0.000000
     8  C    1.431115   2.437940   0.000000
     9  C    2.562603   2.958847   1.506565   0.000000
    10  C    3.101018   2.898055   2.631930   1.460783   0.000000
    11  O    3.005445   2.452875   3.141012   2.511810   1.352072
    12  C    4.500327   4.170375   3.917863   2.512914   1.416770
    13  C    5.336824   5.229211   4.434503   2.929534   2.457827
    14  C    5.083369   5.314667   3.902418   2.525014   2.806277
    15  C    3.889181   4.370210   2.594220   1.434744   2.383076
    16  F    4.388106   5.179496   2.959886   2.414661   3.631773
    17  H    4.522447   5.690913   3.293797   3.745334   5.177781
    18  H    4.058107   4.954270   2.868406   3.196843   4.609479
    19  H    4.309807   5.466026   3.450676   4.359671   5.796010
    20  H    3.793536   5.137424   3.462731   4.782997   6.042652
    21  H    3.405057   4.489844   4.015118   5.479321   6.311996
    22  H    2.147036   2.481862   3.486987   4.682838   4.991582
    23  H    2.276578   1.546229   2.810764   2.660231   1.938170
    24  H    5.105042   4.531813   4.764101   3.473973   2.138523
    25  H    6.410415   6.215363   5.532944   4.028935   3.455533
    26  H    6.009286   6.340731   4.730970   3.482562   3.900383
                   11         12         13         14         15
    11  O    0.000000
    12  C    2.291300   0.000000
    13  C    3.593959   1.390746   0.000000
    14  C    4.125110   2.393495   1.399696   0.000000
    15  C    3.662386   2.735941   2.409913   1.395179   0.000000
    16  F    4.817344   4.068514   3.584610   2.294664   1.350147
    17  H    6.099796   5.984330   5.727856   4.489012   3.342784
    18  H    5.619653   5.361172   5.130544   4.000980   2.903918
    19  H    6.563850   6.778307   6.715422   5.601589   4.363636
    20  H    6.414448   7.277392   7.543919   6.617509   5.239570
    21  H    6.147281   7.712669   8.388403   7.816586   6.447580
    22  H    4.435887   6.379017   7.369605   7.207379   6.012389
    23  H    0.979374   3.108231   4.350394   4.708780   4.012930
    24  H    2.416619   1.099183   2.181236   3.407497   3.832222
    25  H    4.455520   2.171815   1.100394   2.179944   3.416074
    26  H    5.213505   3.411979   2.200663   1.098958   2.140762
                   16         17         18         19         20
    16  F    0.000000
    17  H    2.208289   0.000000
    18  H    2.224204   1.785392   0.000000
    19  H    3.541047   1.785868   1.783886   0.000000
    20  H    4.632361   2.933116   3.569888   2.205917   0.000000
    21  H    6.297734   5.156909   5.453295   4.445388   2.505706
    22  H    6.405839   6.099989   5.826674   5.546265   4.317478
    23  H    5.045445   6.015204   5.477110   6.231592   5.924535
    24  H    5.161217   7.049645   6.412876   7.794680   8.173381
    25  H    4.469673   6.660624   6.057317   7.697730   8.612935
    26  H    2.460477   4.592958   4.233210   5.843956   7.065755
                   21         22         23         24         25
    21  H    0.000000
    22  H    2.571221   0.000000
    23  H    5.413345   3.520109   0.000000
    24  H    8.365651   6.779807   3.298610   0.000000
    25  H    9.487242   8.417602   5.271226   2.537033   0.000000
    26  H    8.524788   8.140013   5.793310   4.352850   2.564508
                   26
    26  H    0.000000
 Stoichiometry    C13H10F2O
 Framework group  C1[X(C13H10F2O)]
 Deg. of freedom    72
 Full point group                 C1      NOp   1
 Largest Abelian subgroup         C1      NOp   1
 Largest concise Abelian subgroup C1      NOp   1
                         Standard orientation:                         
 ---------------------------------------------------------------------
 Center     Atomic      Atomic             Coordinates (Angstroms)
 Number     Number       Type             X           Y           Z
 ---------------------------------------------------------------------
      1          6           0        1.329916    2.599929    0.499974
      2          6           0        1.626982    1.186294    0.020820
      3          6           0        2.981177    1.007446   -0.342980
      4          6           0        3.590892   -0.243009   -0.484906
      5          6           0        2.844916   -1.360171   -0.102376
      6          6           0        1.503690   -1.175900    0.225468
      7          9           0        0.931618   -2.292209    0.810196
      8          6           0        0.742799    0.028194    0.086574
      9          6           0       -0.762448    0.004220    0.028322
     10          6           0       -1.574711   -1.197073   -0.147776
     11          8           0       -1.130428   -2.421049   -0.511909
     12          6           0       -2.987905   -1.159935   -0.054280
     13          6           0       -3.691634    0.033938    0.062380
     14          6           0       -2.968822    1.232068    0.028068
     15          6           0       -1.576278    1.183684   -0.042661
     16          9           0       -1.008519    2.388394   -0.264516
     17          1           0        1.007861    3.287916   -0.304653
     18          1           0        0.562552    2.624739    1.292069
     19          1           0        2.267043    3.006819    0.930163
     20          1           0        3.595826    1.915311   -0.451509
     21          1           0        4.646022   -0.335626   -0.781561
     22          1           0        3.275699   -2.366734   -0.001821
     23          1           0       -0.233368   -2.596055   -0.160015
     24          1           0       -3.498784   -2.130285   -0.129295
     25          1           0       -4.789969    0.038214    0.129530
     26          1           0       -3.448794    2.220313    0.001483
 ---------------------------------------------------------------------
 Rotational constants (GHZ):           0.8392601           0.4704126           0.3125775
 Standard basis: def2SVP (5D, 7F)
 There are   290 symmetry adapted cartesian basis functions of A   symmetry.
 There are   274 symmetry adapted basis functions of A   symmetry.
   274 basis functions,   470 primitive gaussians,   290 cartesian basis functions
    57 alpha electrons       57 beta electrons
       nuclear repulsion energy      1069.4328335088 Hartrees.
 NAtoms=   26 NActive=   26 NUniq=   26 SFac= 1.00D+00 NAtFMM=   60 NAOKFM=F Big=F
 Integral buffers will be    131072 words long.
 Raffenetti 2 integral format.
 Two-electron integral symmetry is turned on.
 Nuclear repulsion after empirical dispersion term =     1069.3813111875 Hartrees.
 One-electron integrals computed using PRISM.
   1 Symmetry operations used in ECPInt.
 ECPInt:  NShTT=    8001 NPrTT=   29641 LenC2=    7593 LenP2D=   20282.
 LDataN:  DoStor=T MaxTD1= 4 Len=   56
 NBasis=   274 RedAO= T EigKep=  3.12D-04  NBF=   274
 NBsUse=   274 1.00D-06 EigRej= -1.00D+00 NBFU=   274
 Initial guess from the checkpoint file:  "/scratch/gaussian_tmp/Gau-556946.chk"
 B after Tr=    -0.000000    0.000000   -0.000000
         Rot=    1.000000    0.000084    0.000037    0.000086 Ang=   0.01 deg.
 Requested convergence on RMS density matrix=1.00D-08 within 128 cycles.
 Requested convergence on MAX density matrix=1.00D-06.
 Requested convergence on             energy=1.00D-06.
 No special actions if energy rises.
 SCF Done:  E(RB-P86) =  -775.751071721     A.U. after    9 cycles
            NFock=  9  Conv=0.80D-08     -V/T= 2.0104
   1 Symmetry operations used in ECPInt.
 ECPInt:  NShTT=    8001 NPrTT=   29641 LenC2=    7593 LenP2D=   20282.
 LDataN:  DoStor=T MaxTD1= 5 Len=  102
 Calling FoFJK, ICntrl=      2527 FMM=F ISym2X=0 I1Cent= 0 IOpClX= 0 NMat=1 NMatS=1 NMatT=0.
 ***** Axes restored to original set *****
 -------------------------------------------------------------------
 Center     Atomic                   Forces (Hartrees/Bohr)
 Number     Number              X              Y              Z
 -------------------------------------------------------------------
      1        6          -0.000021373    0.000139411    0.000502996
      2        6          -0.000013088    0.000009576    0.000030740
      3        6           0.000003124    0.000006971   -0.000008109
      4        6          -0.000002108   -0.000002943   -0.000000975
      5        6           0.000010213    0.000001850    0.000006875
      6        6          -0.000050362    0.000041441   -0.000015043
      7        9           0.000063995    0.000049027   -0.000507041
      8        6           0.000011981   -0.000259790   -0.000135671
      9        6          -0.000039641   -0.000123690    0.000225055
     10        6          -0.000004279   -0.000005675    0.000024139
     11        8          -0.000009470    0.000191820    0.000460983
     12        6           0.000008674    0.000002861    0.000000305
     13        6          -0.000002880   -0.000017052   -0.000002192
     14        6          -0.000011590    0.000006768    0.000001040
     15        6           0.000012455    0.000000560   -0.000002161
     16        9           0.000056953   -0.000007558   -0.000582700
     17        1          -0.000006913   -0.000004003    0.000000567
     18        1          -0.000008298    0.000002046   -0.000001491
     19        1          -0.000006540   -0.000002891    0.000000558
     20        1           0.000000108   -0.000000511   -0.000003610
     21        1           0.000000127   -0.000000718    0.000001789
     22        1          -0.000000269   -0.000000619    0.000000441
     23        1           0.000009473   -0.000025381   -0.000001182
     24        1          -0.000000501   -0.000001809    0.000002348
     25        1          -0.000000270    0.000001393    0.000000734
     26        1           0.000000480   -0.000001085    0.000001606
 -------------------------------------------------------------------
 Cartesian Forces:  Max     0.000582700 RMS     0.000128631

 GradGradGradGradGradGradGradGradGradGradGradGradGradGradGradGradGradGrad
 Berny optimization.
 Using GEDIIS/GDIIS optimizer.
 FormGI is forming the generalized inverse of G from B-inverse, IUseBI=4.
 Internal  Forces:  Max     0.001003474 RMS     0.000192057
 Search for a local minimum.
 Step number   3 out of a maximum of  142
 All quantities printed in internal units (Hartrees-Bohrs-Radians)
 Mixed Optimization -- En-DIIS/RFO-DIIS
 Swapping is turned off.
 Update second derivatives using D2CorX and points    1    2    3
 DE= -1.41D-05 DEPred=-1.41D-05 R= 1.00D+00
 TightC=F SS=  1.41D+00  RLast= 4.97D-03 DXNew= 2.5227D-01 1.4909D-02
 Trust test= 1.00D+00 RLast= 4.97D-03 DXMaxT set to 1.50D-01
 ITU=  1 -1  0
     Eigenvalues ---    0.00477   0.01228   0.01260   0.01395   0.01598
     Eigenvalues ---    0.01676   0.01836   0.01876   0.01965   0.02012
     Eigenvalues ---    0.02040   0.02043   0.02121   0.02133   0.02135
     Eigenvalues ---    0.02148   0.02161   0.02166   0.02445   0.06673
     Eigenvalues ---    0.07386   0.15885   0.15899   0.15966   0.15971
     Eigenvalues ---    0.15979   0.15980   0.15990   0.16000   0.16004
     Eigenvalues ---    0.16389   0.21943   0.22086   0.22259   0.22809
     Eigenvalues ---    0.23198   0.24079   0.24511   0.24623   0.24773
     Eigenvalues ---    0.24864   0.27183   0.30085   0.31868   0.32753
     Eigenvalues ---    0.32986   0.33301   0.33492   0.33638   0.33688
     Eigenvalues ---    0.33740   0.33770   0.33799   0.35521   0.36487
     Eigenvalues ---    0.38430   0.38581   0.41385   0.41705   0.44417
     Eigenvalues ---    0.44466   0.45021   0.45308   0.46226   0.46396
     Eigenvalues ---    0.47573   0.51388   0.54421   0.54861   2.18449
     Eigenvalues --- 1000.000001000.000001000.000001000.000001000.00000
     Eigenvalues --- 1000.000001000.000001000.000001000.000001000.00000
     Eigenvalues --- 1000.000001000.000001000.000001000.000001000.00000
     Eigenvalues --- 1000.000001000.000001000.000001000.000001000.00000
     Eigenvalues --- 1000.000001000.000001000.000001000.000001000.00000
     Eigenvalues --- 1000.000001000.000001000.000001000.000001000.00000
     Eigenvalues --- 1000.000001000.000001000.000001000.000001000.00000
     Eigenvalues --- 1000.000001000.000001000.000001000.000001000.00000
     Eigenvalues --- 1000.000001000.000001000.000001000.000001000.00000
     Eigenvalues --- 1000.000001000.000001000.000001000.000001000.00000
     Eigenvalues --- 1000.000001000.000001000.000001000.000001000.00000
     Eigenvalues --- 1000.000001000.000001000.000001000.000001000.00000
     Eigenvalues --- 1000.000001000.00000
 En-DIIS/RFO-DIIS/Sim-DIIS IScMMF=       -3 using points:     3    2    1
 RFO step:  Lambda=-1.09034409D-07.
 DidBck=T Rises=F RFO-DIIS coefs:    0.77180   -0.03966    0.26786
 Iteration  1 RMS(Cart)=  0.00027777 RMS(Int)=  0.00000011
 Iteration  2 RMS(Cart)=  0.00000005 RMS(Int)=  0.00000010
 Iteration  1 RMS(Cart)=  0.00000024 RMS(Int)=  0.00000008
 Variable       Old X    -DE/DX   Delta X   Delta X   Delta X     New X
                                 (Linear)    (Quad)   (Total)
    R1        2.87599  -0.00007   0.00000  -0.00004  -0.00004   2.87595
    R2        2.09109  -0.00000  -0.00002   0.00002  -0.00000   2.09109
    R3        2.08460  -0.00001   0.00001  -0.00003  -0.00002   2.08458
    R4        2.09481   0.00000  -0.00000   0.00001   0.00001   2.09482
    R5        2.67126   0.00003   0.00002  -0.00003  -0.00001   2.67125
    R6        2.75621   0.00007   0.00004  -0.00002   0.00002   2.75623
    R7        2.64260   0.00002  -0.00001   0.00001  -0.00000   2.64260
    R8        2.08195  -0.00000   0.00000  -0.00000  -0.00000   2.08195
    R9        2.63944  -0.00003   0.00000  -0.00001  -0.00001   2.63943
   R10        2.07860   0.00000  -0.00000   0.00000   0.00000   2.07860
   R11        2.63230  -0.00004  -0.00001  -0.00001  -0.00001   2.63229
   R12        2.07772   0.00000  -0.00000   0.00000   0.00000   2.07772
   R13        2.61529   0.00009  -0.00004   0.00010   0.00006   2.61535
   R14        2.70441  -0.00004  -0.00002   0.00004   0.00002   2.70443
   R15        2.84700   0.00003   0.00001   0.00005   0.00006   2.84705
   R16        2.76048   0.00002   0.00002   0.00004   0.00007   2.76055
   R17        2.71127   0.00004  -0.00001   0.00005   0.00004   2.71132
   R18        2.55505   0.00002   0.00002  -0.00003  -0.00001   2.55503
   R19        2.67731  -0.00001  -0.00002   0.00002   0.00000   2.67731
   R20        1.85075  -0.00000  -0.00004   0.00006   0.00001   1.85076
   R21        2.62813  -0.00003   0.00001  -0.00005  -0.00003   2.62809
   R22        2.07716   0.00000  -0.00000   0.00001   0.00001   2.07716
   R23        2.64504   0.00001  -0.00001   0.00001   0.00000   2.64505
   R24        2.07944  -0.00000   0.00000  -0.00000  -0.00000   2.07944
   R25        2.63651   0.00001   0.00002  -0.00004  -0.00002   2.63649
   R26        2.07673  -0.00000  -0.00000   0.00000  -0.00000   2.07673
   R27        2.55141  -0.00002  -0.00001   0.00001   0.00000   2.55141
    A1        1.98819  -0.00001   0.00001  -0.00003  -0.00002   1.98817
    A2        1.96356   0.00001   0.00008  -0.00005   0.00003   1.96359
    A3        1.87351  -0.00001  -0.00006   0.00001  -0.00005   1.87346
    A4        1.88145   0.00000   0.00001   0.00004   0.00005   1.88150
    A5        1.87551   0.00000  -0.00002   0.00000  -0.00001   1.87549
    A6        1.87671   0.00000  -0.00003   0.00002  -0.00000   1.87671
    A7        1.96659  -0.00011  -0.00010   0.00003  -0.00007   1.96653
    A8        2.22057   0.00021   0.00010  -0.00012  -0.00002   2.22055
    A9        2.08506  -0.00008  -0.00004   0.00007   0.00004   2.08510
   A10        2.16151   0.00005   0.00003  -0.00004  -0.00000   2.16150
   A11        2.04379  -0.00003  -0.00001   0.00001  -0.00000   2.04379
   A12        2.07558  -0.00002  -0.00003   0.00003   0.00001   2.07558
   A13        2.04267  -0.00000  -0.00000  -0.00002  -0.00002   2.04265
   A14        2.11871  -0.00000   0.00000   0.00001   0.00001   2.11872
   A15        2.11629   0.00000   0.00000   0.00000   0.00001   2.11630
   A16        2.06338  -0.00004  -0.00001   0.00001  -0.00000   2.06338
   A17        2.15081   0.00002   0.00001  -0.00001  -0.00000   2.15081
   A18        2.06785   0.00002   0.00001  -0.00001  -0.00000   2.06785
   A19        1.97224   0.00007   0.00004  -0.00004   0.00000   1.97224
   A20        2.21479   0.00008   0.00003  -0.00001   0.00002   2.21481
   A21        2.09426  -0.00016  -0.00006   0.00005  -0.00001   2.09426
   A22        1.92850  -0.00000   0.00000  -0.00008  -0.00008   1.92842
   A23        2.23519  -0.00007   0.00012  -0.00007   0.00005   2.23523
   A24        2.11949   0.00007  -0.00012   0.00016   0.00004   2.11953
   A25        2.18133   0.00001  -0.00007   0.00012   0.00005   2.18139
   A26        2.15984   0.00002   0.00007  -0.00007  -0.00000   2.15984
   A27        1.93336  -0.00002  -0.00001  -0.00004  -0.00005   1.93331
   A28        2.20707  -0.00002   0.00002   0.00010   0.00012   2.20719
   A29        2.12367   0.00004   0.00002   0.00000   0.00002   2.12368
   A30        1.94902  -0.00003  -0.00003  -0.00009  -0.00013   1.94889
   A31        1.94548   0.00004   0.00006   0.00007   0.00013   1.94561
   A32        2.13267  -0.00002  -0.00001   0.00003   0.00002   2.13268
   A33        2.02190   0.00001   0.00002  -0.00004  -0.00002   2.02188
   A34        2.12747   0.00001  -0.00001   0.00001   0.00001   2.12748
   A35        2.06174   0.00000  -0.00000  -0.00001  -0.00001   2.06173
   A36        2.11007   0.00000  -0.00000   0.00001   0.00001   2.11008
   A37        2.11018  -0.00000   0.00000  -0.00000   0.00000   2.11018
   A38        2.07943   0.00003   0.00001   0.00001   0.00002   2.07945
   A39        2.14696  -0.00001  -0.00000  -0.00002  -0.00002   2.14694
   A40        2.05543  -0.00001  -0.00001   0.00001  -0.00000   2.05543
   A41        2.20453  -0.00003  -0.00001   0.00003   0.00002   2.20455
   A42        2.09800   0.00008   0.00002   0.00001   0.00003   2.09803
   A43        1.97916  -0.00004  -0.00001  -0.00005  -0.00005   1.97911
    D1        1.58745  -0.00006   0.00024  -0.00002   0.00022   1.58768
    D2       -1.71522   0.00006  -0.00002  -0.00013  -0.00015  -1.71537
    D3       -2.54775  -0.00006   0.00033  -0.00003   0.00030  -2.54745
    D4        0.43276   0.00006   0.00006  -0.00013  -0.00007   0.43269
    D5       -0.48664  -0.00006   0.00030  -0.00001   0.00029  -0.48636
    D6        2.49386   0.00006   0.00004  -0.00012  -0.00009   2.49378
    D7        2.84518   0.00014  -0.00023  -0.00003  -0.00026   2.84493
    D8       -0.22247   0.00011  -0.00020  -0.00002  -0.00022  -0.22269
    D9       -0.14920  -0.00000   0.00000   0.00009   0.00009  -0.14911
   D10        3.06633  -0.00003   0.00003   0.00009   0.00012   3.06646
   D11       -2.61002  -0.00016   0.00025   0.00022   0.00047  -2.60955
   D12        0.52922  -0.00014   0.00015   0.00045   0.00059   0.52982
   D13        0.36077  -0.00003  -0.00003   0.00010   0.00007   0.36083
   D14       -2.78318  -0.00001  -0.00014   0.00033   0.00019  -2.78299
   D15       -0.12396   0.00001   0.00005  -0.00019  -0.00014  -0.12410
   D16        3.12893   0.00001   0.00000  -0.00008  -0.00007   3.12885
   D17        2.94243   0.00004   0.00002  -0.00020  -0.00018   2.94225
   D18       -0.08787   0.00004  -0.00003  -0.00008  -0.00011  -0.08798
   D19        0.14173   0.00001  -0.00007   0.00008   0.00001   0.14174
   D20       -2.94759   0.00004  -0.00007   0.00013   0.00006  -2.94753
   D21       -3.11099   0.00001  -0.00002  -0.00004  -0.00006  -3.11105
   D22        0.08288   0.00004  -0.00003   0.00002  -0.00001   0.08287
   D23       -2.95416   0.00016  -0.00024   0.00019  -0.00005  -2.95421
   D24        0.12070  -0.00003   0.00005   0.00014   0.00019   0.12089
   D25        0.13769   0.00014  -0.00023   0.00014  -0.00009   0.13760
   D26       -3.07064  -0.00006   0.00005   0.00009   0.00014  -3.07049
   D27       -0.36593   0.00002  -0.00000  -0.00021  -0.00021  -0.36614
   D28        2.77783   0.00000   0.00010  -0.00042  -0.00033   2.77751
   D29        2.70473  -0.00017   0.00030  -0.00026   0.00004   2.70476
   D30       -0.43470  -0.00019   0.00040  -0.00048  -0.00008  -0.43477
   D31        0.26923  -0.00100   0.00000   0.00000  -0.00000   0.26923
   D32        2.93341  -0.00077  -0.00011  -0.00010  -0.00021   2.93321
   D33       -0.05402  -0.00078  -0.00005  -0.00018  -0.00023  -0.05426
   D34       -0.21076  -0.00075  -0.00023   0.00016  -0.00007  -0.21083
   D35        3.08499  -0.00076  -0.00017   0.00007  -0.00010   3.08489
   D36       -0.51280  -0.00094   0.00000   0.00000  -0.00000  -0.51280
   D37       -0.21275  -0.00016   0.00011   0.00012   0.00023  -0.21252
   D38        3.02538   0.00001  -0.00001   0.00004   0.00003   3.02541
   D39        2.79187  -0.00015   0.00007   0.00019   0.00025   2.79213
   D40       -0.25318   0.00002  -0.00005   0.00011   0.00005  -0.25313
   D41       -3.02858   0.00001   0.00000  -0.00003  -0.00003  -3.02860
   D42        0.17571  -0.00022   0.00001  -0.00006  -0.00005   0.17566
   D43        0.24798   0.00000   0.00006  -0.00011  -0.00006   0.24792
   D44       -2.83093  -0.00023   0.00007  -0.00015  -0.00008  -2.83100
   D45        0.58719   0.00009   0.00007   0.00029   0.00036   0.58755
   D46       -2.64278  -0.00006   0.00018   0.00037   0.00055  -2.64223
   D47        0.12607  -0.00003   0.00002  -0.00005  -0.00003   0.12604
   D48       -3.06603  -0.00004   0.00003  -0.00001   0.00002  -3.06601
   D49       -2.93200   0.00012  -0.00009  -0.00013  -0.00021  -2.93222
   D50        0.15908   0.00011  -0.00008  -0.00009  -0.00016   0.15891
   D51        0.04770   0.00001   0.00002  -0.00001   0.00001   0.04771
   D52        3.13732   0.00002  -0.00002   0.00004   0.00001   3.13733
   D53       -3.04035   0.00002   0.00001  -0.00005  -0.00004  -3.04039
   D54        0.04927   0.00004  -0.00003  -0.00001  -0.00004   0.04923
   D55       -0.06407   0.00002  -0.00002   0.00000  -0.00002  -0.06408
   D56        3.02020   0.00005  -0.00002   0.00000  -0.00002   3.02018
   D57        3.12950   0.00001   0.00003  -0.00004  -0.00002   3.12948
   D58       -0.06942   0.00004   0.00002  -0.00004  -0.00001  -0.06943
   D59       -0.09914  -0.00003  -0.00003   0.00006   0.00004  -0.09910
   D60        2.98343   0.00019  -0.00004   0.00010   0.00006   2.98349
   D61        3.09678  -0.00006  -0.00002   0.00006   0.00004   3.09682
   D62       -0.10384   0.00016  -0.00004   0.00009   0.00006  -0.10378
         Item               Value     Threshold  Converged?
 Maximum Force            0.000055     0.000450     YES
 RMS     Force            0.000012     0.000300     YES
 Maximum Displacement     0.001063     0.001800     YES
 RMS     Displacement     0.000278     0.001200     YES
 Predicted change in Energy=-5.169188D-08
 Optimization completed.
    -- Stationary point found.
                           ----------------------------
                           !   Optimized Parameters   !
                           ! (Angstroms and Degrees)  !
 --------------------------                            --------------------------
 ! Name  Definition              Value          Derivative Info.                !
 --------------------------------------------------------------------------------
 ! R1    R(1,2)                  1.5219         -DE/DX =   -0.0001              !
 ! R2    R(1,17)                 1.1066         -DE/DX =    0.0                 !
 ! R3    R(1,18)                 1.1031         -DE/DX =    0.0                 !
 ! R4    R(1,19)                 1.1085         -DE/DX =    0.0                 !
 ! R5    R(2,3)                  1.4136         -DE/DX =    0.0                 !
 ! R6    R(2,8)                  1.4585         -DE/DX =    0.0001              !
 ! R7    R(3,4)                  1.3984         -DE/DX =    0.0                 !
 ! R8    R(3,20)                 1.1017         -DE/DX =    0.0                 !
 ! R9    R(4,5)                  1.3967         -DE/DX =    0.0                 !
 ! R10   R(4,21)                 1.0999         -DE/DX =    0.0                 !
 ! R11   R(5,6)                  1.393          -DE/DX =    0.0                 !
 ! R12   R(5,22)                 1.0995         -DE/DX =    0.0                 !
 ! R13   R(6,7)                  1.3839         -DE/DX =    0.0001              !
 ! R14   R(6,8)                  1.4311         -DE/DX =    0.0                 !
 ! R15   R(8,9)                  1.5066         -DE/DX =    0.0                 !
 ! R16   R(9,10)                 1.4608         -DE/DX =    0.0                 !
 ! R17   R(9,15)                 1.4347         -DE/DX =    0.0                 !
 ! R18   R(10,11)                1.3521         -DE/DX =    0.0                 !
 ! R19   R(10,12)                1.4168         -DE/DX =    0.0                 !
 ! R20   R(11,23)                0.9794         -DE/DX =    0.0                 !
 ! R21   R(12,13)                1.3907         -DE/DX =    0.0                 !
 ! R22   R(12,24)                1.0992         -DE/DX =    0.0                 !
 ! R23   R(13,14)                1.3997         -DE/DX =    0.0                 !
 ! R24   R(13,25)                1.1004         -DE/DX =    0.0                 !
 ! R25   R(14,15)                1.3952         -DE/DX =    0.0                 !
 ! R26   R(14,26)                1.099          -DE/DX =    0.0                 !
 ! R27   R(15,16)                1.3501         -DE/DX =    0.0                 !
 ! A1    A(2,1,17)             113.9151         -DE/DX =    0.0                 !
 ! A2    A(2,1,18)             112.5036         -DE/DX =    0.0                 !
 ! A3    A(2,1,19)             107.3441         -DE/DX =    0.0                 !
 ! A4    A(17,1,18)            107.7993         -DE/DX =    0.0                 !
 ! A5    A(17,1,19)            107.4585         -DE/DX =    0.0                 !
 ! A6    A(18,1,19)            107.5273         -DE/DX =    0.0                 !
 ! A7    A(1,2,3)              112.6774         -DE/DX =   -0.0001              !
 ! A8    A(1,2,8)              127.2295         -DE/DX =    0.0002              !
 ! A9    A(3,2,8)              119.4652         -DE/DX =   -0.0001              !
 ! A10   A(2,3,4)              123.8452         -DE/DX =    0.0001              !
 ! A11   A(2,3,20)             117.1008         -DE/DX =    0.0                 !
 ! A12   A(4,3,20)             118.9217         -DE/DX =    0.0                 !
 ! A13   A(3,4,5)              117.0364         -DE/DX =    0.0                 !
 ! A14   A(3,4,21)             121.3932         -DE/DX =    0.0                 !
 ! A15   A(5,4,21)             121.2547         -DE/DX =    0.0                 !
 ! A16   A(4,5,6)              118.2229         -DE/DX =    0.0                 !
 ! A17   A(4,5,22)             123.2323         -DE/DX =    0.0                 !
 ! A18   A(6,5,22)             118.4792         -DE/DX =    0.0                 !
 ! A19   A(5,6,7)              113.001          -DE/DX =    0.0001              !
 ! A20   A(5,6,8)              126.898          -DE/DX =    0.0001              !
 ! A21   A(7,6,8)              119.9925         -DE/DX =   -0.0002              !
 ! A22   A(2,8,6)              110.4951         -DE/DX =    0.0                 !
 ! A23   A(2,8,9)              128.0667         -DE/DX =   -0.0001              !
 ! A24   A(6,8,9)              121.438          -DE/DX =    0.0001              !
 ! A25   A(8,9,10)             124.9812         -DE/DX =    0.0                 !
 ! A26   A(8,9,15)             123.7496         -DE/DX =    0.0                 !
 ! A27   A(10,9,15)            110.7733         -DE/DX =    0.0                 !
 ! A28   A(9,10,11)            126.4559         -DE/DX =    0.0                 !
 ! A29   A(9,10,12)            121.677          -DE/DX =    0.0                 !
 ! A30   A(11,10,12)           111.6705         -DE/DX =    0.0                 !
 ! A31   A(10,11,23)           111.4675         -DE/DX =    0.0                 !
 ! A32   A(10,12,13)           122.1927         -DE/DX =    0.0                 !
 ! A33   A(10,12,24)           115.8466         -DE/DX =    0.0                 !
 ! A34   A(13,12,24)           121.8952         -DE/DX =    0.0                 !
 ! A35   A(12,13,14)           118.1289         -DE/DX =    0.0                 !
 ! A36   A(12,13,25)           120.8983         -DE/DX =    0.0                 !
 ! A37   A(14,13,25)           120.9045         -DE/DX =    0.0                 !
 ! A38   A(13,14,15)           119.1428         -DE/DX =    0.0                 !
 ! A39   A(13,14,26)           123.0117         -DE/DX =    0.0                 !
 ! A40   A(15,14,26)           117.7676         -DE/DX =    0.0                 !
 ! A41   A(9,15,14)            126.3104         -DE/DX =    0.0                 !
 ! A42   A(9,15,16)            120.2066         -DE/DX =    0.0001              !
 ! A43   A(14,15,16)           113.3976         -DE/DX =    0.0                 !
 ! D1    D(17,1,2,3)            90.9544         -DE/DX =   -0.0001              !
 ! D2    D(17,1,2,8)           -98.2751         -DE/DX =    0.0001              !
 ! D3    D(18,1,2,3)          -145.9751         -DE/DX =   -0.0001              !
 ! D4    D(18,1,2,8)            24.7953         -DE/DX =    0.0001              !
 ! D5    D(19,1,2,3)           -27.8826         -DE/DX =   -0.0001              !
 ! D6    D(19,1,2,8)           142.8878         -DE/DX =    0.0001              !
 ! D7    D(1,2,3,4)            163.0169         -DE/DX =    0.0001              !
 ! D8    D(1,2,3,20)           -12.7464         -DE/DX =    0.0001              !
 ! D9    D(8,2,3,4)             -8.5487         -DE/DX =    0.0                 !
 ! D10   D(8,2,3,20)           175.688          -DE/DX =    0.0                 !
 ! D11   D(1,2,8,6)           -149.5432         -DE/DX =   -0.0002              !
 ! D12   D(1,2,8,9)             30.3221         -DE/DX =   -0.0001              !
 ! D13   D(3,2,8,6)             20.6704         -DE/DX =    0.0                 !
 ! D14   D(3,2,8,9)           -159.4643         -DE/DX =    0.0                 !
 ! D15   D(2,3,4,5)             -7.1022         -DE/DX =    0.0                 !
 ! D16   D(2,3,4,21)           179.2743         -DE/DX =    0.0                 !
 ! D17   D(20,3,4,5)           168.5887         -DE/DX =    0.0                 !
 ! D18   D(20,3,4,21)           -5.0348         -DE/DX =    0.0                 !
 ! D19   D(3,4,5,6)              8.1204         -DE/DX =    0.0                 !
 ! D20   D(3,4,5,22)          -168.8845         -DE/DX =    0.0                 !
 ! D21   D(21,4,5,6)          -178.2467         -DE/DX =    0.0                 !
 ! D22   D(21,4,5,22)            4.7484         -DE/DX =    0.0                 !
 ! D23   D(4,5,6,7)           -169.2607         -DE/DX =    0.0002              !
 ! D24   D(4,5,6,8)              6.9155         -DE/DX =    0.0                 !
 ! D25   D(22,5,6,7)             7.8892         -DE/DX =    0.0001              !
 ! D26   D(22,5,6,8)          -175.9345         -DE/DX =   -0.0001              !
 ! D27   D(5,6,8,2)            -20.9663         -DE/DX =    0.0                 !
 ! D28   D(5,6,8,9)            159.158          -DE/DX =    0.0                 !
 ! D29   D(7,6,8,2)            154.9693         -DE/DX =   -0.0002              !
 ! D30   D(7,6,8,9)            -24.9064         -DE/DX =   -0.0002              !
 ! D31   D(1,8,9,16)            15.4255         -DE/DX =   -0.001               !
 ! D32   D(2,8,9,10)           168.0722         -DE/DX =   -0.0008              !
 ! D33   D(2,8,9,15)            -3.0954         -DE/DX =   -0.0008              !
 ! D34   D(6,8,9,10)           -12.0757         -DE/DX =   -0.0007              !
 ! D35   D(6,8,9,15)           176.7567         -DE/DX =   -0.0008              !
 ! D36   D(7,8,9,11)           -29.3813         -DE/DX =   -0.0009              !
 ! D37   D(8,9,10,11)          -12.1894         -DE/DX =   -0.0002              !
 ! D38   D(8,9,10,12)          173.3417         -DE/DX =    0.0                 !
 ! D39   D(15,9,10,11)         159.9626         -DE/DX =   -0.0002              !
 ! D40   D(15,9,10,12)         -14.5063         -DE/DX =    0.0                 !
 ! D41   D(8,9,15,14)         -173.5246         -DE/DX =    0.0                 !
 ! D42   D(8,9,15,16)           10.0672         -DE/DX =   -0.0002              !
 ! D43   D(10,9,15,14)          14.2081         -DE/DX =    0.0                 !
 ! D44   D(10,9,15,16)        -162.2001         -DE/DX =   -0.0002              !
 ! D45   D(9,10,11,23)          33.6435         -DE/DX =    0.0001              !
 ! D46   D(12,10,11,23)       -151.4202         -DE/DX =   -0.0001              !
 ! D47   D(9,10,12,13)           7.2234         -DE/DX =    0.0                 !
 ! D48   D(9,10,12,24)        -175.6708         -DE/DX =    0.0                 !
 ! D49   D(11,10,12,13)       -167.9914         -DE/DX =    0.0001              !
 ! D50   D(11,10,12,24)          9.1144         -DE/DX =    0.0001              !
 ! D51   D(10,12,13,14)          2.733          -DE/DX =    0.0                 !
 ! D52   D(10,12,13,25)        179.7553         -DE/DX =    0.0                 !
 ! D53   D(24,12,13,14)       -174.199          -DE/DX =    0.0                 !
 ! D54   D(24,12,13,25)          2.8232         -DE/DX =    0.0                 !
 ! D55   D(12,13,14,15)         -3.6707         -DE/DX =    0.0                 !
 ! D56   D(12,13,14,26)        173.0446         -DE/DX =    0.0001              !
 ! D57   D(25,13,14,15)        179.3072         -DE/DX =    0.0                 !
 ! D58   D(25,13,14,26)         -3.9774         -DE/DX =    0.0                 !
 ! D59   D(13,14,15,9)          -5.6802         -DE/DX =    0.0                 !
 ! D60   D(13,14,15,16)        170.9379         -DE/DX =    0.0002              !
 ! D61   D(26,14,15,9)         177.4325         -DE/DX =   -0.0001              !
 ! D62   D(26,14,15,16)         -5.9494         -DE/DX =    0.0002              !
 --------------------------------------------------------------------------------
 GradGradGradGradGradGradGradGradGradGradGradGradGradGradGradGradGradGrad

                          Input orientation:                          
 ---------------------------------------------------------------------
 Center     Atomic      Atomic             Coordinates (Angstroms)
 Number     Number       Type             X           Y           Z
 ---------------------------------------------------------------------
      1          6           0       -1.097667    2.520882   -1.233006
      2          6           0       -1.508786    1.209252   -0.579701
      3          6           0       -2.884760    1.168179   -0.258465
      4          6           0       -3.583719   -0.009551    0.024274
      5          6           0       -2.902308   -1.213705   -0.166907
      6          6           0       -1.540242   -1.161450   -0.453908
      7          9           0       -1.024554   -2.382019   -0.853400
      8          6           0       -0.704291    0.000103   -0.445383
      9          6           0        0.792515   -0.109941   -0.314241
     10          6           0        1.513270   -1.323566    0.061940
     11          8           0        0.972712   -2.454551    0.568663
     12          6           0        2.928194   -1.388581    0.030282
     13          6           0        3.716048   -0.269149   -0.215344
     14          6           0        3.076356    0.965053   -0.378711
     15          6           0        1.682102    1.014486   -0.367083
     16          9           0        1.190399    2.271590   -0.338536
     17          1           0       -0.759604    3.292684   -0.515716
     18          1           0       -0.301219    2.386882   -1.984399
     19          1           0       -1.987863    2.921869   -1.757972
     20          1           0       -3.439319    2.119078   -0.303712
     21          1           0       -4.653107    0.006471    0.281244
     22          1           0       -3.397049   -2.195422   -0.149065
     23          1           0        0.079602   -2.620233    0.202497
     24          1           0        3.368124   -2.369145    0.260843
     25          1           0        4.813834   -0.343208   -0.231133
     26          1           0        3.621655    1.915274   -0.464952
 ---------------------------------------------------------------------
                    Distance matrix (angstroms):
                    1          2          3          4          5
     1  C    0.000000
     2  C    1.521906   0.000000
     3  C    2.444020   1.413571   0.000000
     4  C    3.763548   2.481050   1.398404   0.000000
     5  C    4.282574   2.825425   2.383708   1.396731   0.000000
     6  C    3.789780   2.374246   2.696868   2.394019   1.392955
     7  F    4.918118   3.634092   4.051941   3.598366   2.315640
     8  C    2.670098   1.458526   2.480682   2.917494   2.526293
     9  C    3.367217   2.665845   3.893463   4.390455   3.858979
    10  C    4.824278   3.994959   5.064990   5.263777   4.422869
    11  O    5.682202   4.571655   5.356156   5.199562   4.134796
    12  C    5.752161   5.177607   6.356951   6.656333   5.836455
    13  C    5.656126   5.442180   6.755623   7.308310   6.685594
    14  C    4.535735   4.596037   5.965788   6.743059   6.366810
    15  C    3.278135   3.203890   4.570738   5.378725   5.101149
    16  F    2.469306   2.910726   4.222659   5.303531   5.378382
    17  H    1.106557   2.214962   3.015956   4.378581   5.002039
    18  H    1.103122   2.195042   3.337480   4.533482   4.799288
    19  H    1.108525   2.133282   2.475555   3.783699   4.524453
    20  H    2.551150   2.151955   1.101722   2.158585   3.378541
    21  H    4.610463   3.474861   2.183553   1.099946   2.180588
    22  H    5.357761   3.916988   3.404148   2.200664   1.099480
    23  H    5.466049   4.218977   4.832390   4.501926   3.317614
    24  H    6.788759   6.107021   7.202840   7.345187   6.390331
    25  H    6.644743   6.519751   7.845597   8.408058   7.765354
    26  H    4.819613   5.180064   6.552421   7.474069   7.241645
                    6          7          8          9         10
     6  C    0.000000
     7  F    1.383950   0.000000
     8  C    1.431115   2.437940   0.000000
     9  C    2.562603   2.958847   1.506565   0.000000
    10  C    3.101018   2.898055   2.631930   1.460783   0.000000
    11  O    3.005445   2.452875   3.141012   2.511810   1.352072
    12  C    4.500327   4.170375   3.917863   2.512914   1.416770
    13  C    5.336824   5.229211   4.434503   2.929534   2.457827
    14  C    5.083369   5.314667   3.902418   2.525014   2.806277
    15  C    3.889181   4.370210   2.594220   1.434744   2.383076
    16  F    4.388106   5.179496   2.959886   2.414661   3.631773
    17  H    4.522447   5.690913   3.293797   3.745334   5.177781
    18  H    4.058107   4.954270   2.868406   3.196843   4.609479
    19  H    4.309807   5.466026   3.450676   4.359671   5.796010
    20  H    3.793536   5.137424   3.462731   4.782997   6.042652
    21  H    3.405057   4.489844   4.015118   5.479321   6.311996
    22  H    2.147036   2.481862   3.486987   4.682838   4.991582
    23  H    2.276578   1.546229   2.810764   2.660231   1.938170
    24  H    5.105042   4.531813   4.764101   3.473973   2.138523
    25  H    6.410415   6.215363   5.532944   4.028935   3.455533
    26  H    6.009286   6.340731   4.730970   3.482562   3.900383
                   11         12         13         14         15
    11  O    0.000000
    12  C    2.291300   0.000000
    13  C    3.593959   1.390746   0.000000
    14  C    4.125110   2.393495   1.399696   0.000000
    15  C    3.662386   2.735941   2.409913   1.395179   0.000000
    16  F    4.817344   4.068514   3.584610   2.294664   1.350147
    17  H    6.099796   5.984330   5.727856   4.489012   3.342784
    18  H    5.619653   5.361172   5.130544   4.000980   2.903918
    19  H    6.563850   6.778307   6.715422   5.601589   4.363636
    20  H    6.414448   7.277392   7.543919   6.617509   5.239570
    21  H    6.147281   7.712669   8.388403   7.816586   6.447580
    22  H    4.435887   6.379017   7.369605   7.207379   6.012389
    23  H    0.979374   3.108231   4.350394   4.708780   4.012930
    24  H    2.416619   1.099183   2.181236   3.407497   3.832222
    25  H    4.455520   2.171815   1.100394   2.179944   3.416074
    26  H    5.213505   3.411979   2.200663   1.098958   2.140762
                   16         17         18         19         20
    16  F    0.000000
    17  H    2.208289   0.000000
    18  H    2.224204   1.785392   0.000000
    19  H    3.541047   1.785868   1.783886   0.000000
    20  H    4.632361   2.933116   3.569888   2.205917   0.000000
    21  H    6.297734   5.156909   5.453295   4.445388   2.505706
    22  H    6.405839   6.099989   5.826674   5.546265   4.317478
    23  H    5.045445   6.015204   5.477110   6.231592   5.924535
    24  H    5.161217   7.049645   6.412876   7.794680   8.173381
    25  H    4.469673   6.660624   6.057317   7.697730   8.612935
    26  H    2.460477   4.592958   4.233210   5.843956   7.065755
                   21         22         23         24         25
    21  H    0.000000
    22  H    2.571221   0.000000
    23  H    5.413345   3.520109   0.000000
    24  H    8.365651   6.779807   3.298610   0.000000
    25  H    9.487242   8.417602   5.271226   2.537033   0.000000
    26  H    8.524788   8.140013   5.793310   4.352850   2.564508
                   26
    26  H    0.000000
 Stoichiometry    C13H10F2O
 Framework group  C1[X(C13H10F2O)]
 Deg. of freedom    72
 Full point group                 C1      NOp   1
 Largest Abelian subgroup         C1      NOp   1
 Largest concise Abelian subgroup C1      NOp   1
                         Standard orientation:                         
 ---------------------------------------------------------------------
 Center     Atomic      Atomic             Coordinates (Angstroms)
 Number     Number       Type             X           Y           Z
 ---------------------------------------------------------------------
      1          6           0        1.329916    2.599929    0.499974
      2          6           0        1.626982    1.186294    0.020820
      3          6           0        2.981177    1.007446   -0.342980
      4          6           0        3.590892   -0.243009   -0.484906
      5          6           0        2.844916   -1.360171   -0.102376
      6          6           0        1.503690   -1.175900    0.225468
      7          9           0        0.931618   -2.292209    0.810196
      8          6           0        0.742799    0.028194    0.086574
      9          6           0       -0.762448    0.004220    0.028322
     10          6           0       -1.574711   -1.197073   -0.147776
     11          8           0       -1.130428   -2.421049   -0.511909
     12          6           0       -2.987905   -1.159935   -0.054280
     13          6           0       -3.691634    0.033938    0.062380
     14          6           0       -2.968822    1.232068    0.028068
     15          6           0       -1.576278    1.183684   -0.042661
     16          9           0       -1.008519    2.388394   -0.264516
     17          1           0        1.007861    3.287916   -0.304653
     18          1           0        0.562552    2.624739    1.292069
     19          1           0        2.267043    3.006819    0.930163
     20          1           0        3.595826    1.915311   -0.451509
     21          1           0        4.646022   -0.335626   -0.781561
     22          1           0        3.275699   -2.366734   -0.001821
     23          1           0       -0.233368   -2.596055   -0.160015
     24          1           0       -3.498784   -2.130285   -0.129295
     25          1           0       -4.789969    0.038214    0.129530
     26          1           0       -3.448794    2.220313    0.001483
 ---------------------------------------------------------------------
 Rotational constants (GHZ):           0.8392601           0.4704126           0.3125775

 **********************************************************************

            Population analysis using the SCF Density.

 **********************************************************************

 Orbital symmetries:
       Occupied  (A) (A) (A) (A) (A) (A) (A) (A) (A) (A) (A) (A)
                 (A) (A) (A) (A) (A) (A) (A) (A) (A) (A) (A) (A)
                 (A) (A) (A) (A) (A) (A) (A) (A) (A) (A) (A) (A)
                 (A) (A) (A) (A) (A) (A) (A) (A) (A) (A) (A) (A)
                 (A) (A) (A) (A) (A) (A) (A) (A) (A)
       Virtual   (A) (A) (A) (A) (A) (A) (A) (A) (A) (A) (A) (A)
                 (A) (A) (A) (A) (A) (A) (A) (A) (A) (A) (A) (A)
                 (A) (A) (A) (A) (A) (A) (A) (A) (A) (A) (A) (A)
                 (A) (A) (A) (A) (A) (A) (A) (A) (A) (A) (A) (A)
                 (A) (A) (A) (A) (A) (A) (A) (A) (A) (A) (A) (A)
                 (A) (A) (A) (A) (A) (A) (A) (A) (A) (A) (A) (A)
                 (A) (A) (A) (A) (A) (A) (A) (A) (A) (A) (A) (A)
                 (A) (A) (A) (A) (A) (A) (A) (A) (A) (A) (A) (A)
                 (A) (A) (A) (A) (A) (A) (A) (A) (A) (A) (A) (A)
                 (A) (A) (A) (A) (A) (A) (A) (A) (A) (A) (A) (A)
                 (A) (A) (A) (A) (A) (A) (A) (A) (A) (A) (A) (A)
                 (A) (A) (A) (A) (A) (A) (A) (A) (A) (A) (A) (A)
                 (A) (A) (A) (A) (A) (A) (A) (A) (A) (A) (A) (A)
                 (A) (A) (A) (A) (A) (A) (A) (A) (A) (A) (A) (A)
                 (A) (A) (A) (A) (A) (A) (A) (A) (A) (A) (A) (A)
                 (A) (A) (A) (A) (A) (A) (A) (A) (A) (A) (A) (A)
                 (A) (A) (A) (A) (A) (A) (A) (A) (A) (A) (A) (A)
                 (A) (A) (A) (A) (A) (A) (A) (A) (A) (A) (A) (A)
                 (A)
 The electronic state is 1-A.
 Alpha  occ. eigenvalues --  -24.33305 -24.30365 -18.80064 -10.01155 -10.00338
 Alpha  occ. eigenvalues --   -9.98881  -9.96268  -9.95158  -9.94831  -9.93319
 Alpha  occ. eigenvalues --   -9.93247  -9.92722  -9.92494  -9.91725  -9.91700
 Alpha  occ. eigenvalues --   -9.91217  -1.13489  -1.11383  -0.96047  -0.79506
 Alpha  occ. eigenvalues --   -0.77257  -0.71559  -0.70160  -0.66809  -0.66211
 Alpha  occ. eigenvalues --   -0.62540  -0.58946  -0.56167  -0.55028  -0.53565
 Alpha  occ. eigenvalues --   -0.51726  -0.48598  -0.47927  -0.46165  -0.44274
 Alpha  occ. eigenvalues --   -0.43446  -0.42998  -0.42329  -0.41722  -0.40427
 Alpha  occ. eigenvalues --   -0.38755  -0.38127  -0.38007  -0.36642  -0.35949
 Alpha  occ. eigenvalues --   -0.34305  -0.33950  -0.33137  -0.32877  -0.30986
 Alpha  occ. eigenvalues --   -0.30673  -0.30254  -0.28562  -0.26715  -0.22505
 Alpha  occ. eigenvalues --   -0.20913  -0.19771
 Alpha virt. eigenvalues --   -0.09100  -0.04994  -0.03073  -0.02545   0.02511
 Alpha virt. eigenvalues --    0.03882   0.04596   0.06576   0.07611   0.08081
 Alpha virt. eigenvalues --    0.09528   0.10101   0.10972   0.11185   0.11977
 Alpha virt. eigenvalues --    0.12674   0.14012   0.15833   0.16989   0.19087
 Alpha virt. eigenvalues --    0.19850   0.21861   0.23643   0.25100   0.25722
 Alpha virt. eigenvalues --    0.26503   0.27515   0.28547   0.29495   0.30594
 Alpha virt. eigenvalues --    0.32709   0.34911   0.36016   0.36544   0.37310
 Alpha virt. eigenvalues --    0.38769   0.39708   0.40229   0.41625   0.41704
 Alpha virt. eigenvalues --    0.42373   0.42795   0.43956   0.44202   0.45761
 Alpha virt. eigenvalues --    0.46838   0.47313   0.48754   0.49911   0.51327
 Alpha virt. eigenvalues --    0.51914   0.52087   0.53235   0.53947   0.55134
 Alpha virt. eigenvalues --    0.56229   0.56843   0.58421   0.59069   0.59421
 Alpha virt. eigenvalues --    0.60459   0.61050   0.61469   0.61890   0.62629
 Alpha virt. eigenvalues --    0.63552   0.64618   0.64869   0.65540   0.66031
 Alpha virt. eigenvalues --    0.67390   0.68369   0.70120   0.71430   0.71868
 Alpha virt. eigenvalues --    0.72622   0.73879   0.75085   0.76123   0.77718
 Alpha virt. eigenvalues --    0.81159   0.82224   0.82345   0.88311   0.92097
 Alpha virt. eigenvalues --    0.93943   0.95600   0.96715   0.98097   1.01097
 Alpha virt. eigenvalues --    1.04286   1.05365   1.07540   1.09359   1.10486
 Alpha virt. eigenvalues --    1.11833   1.14110   1.16048   1.17358   1.19198
 Alpha virt. eigenvalues --    1.21049   1.22107   1.22822   1.25503   1.27192
 Alpha virt. eigenvalues --    1.28070   1.31064   1.31139   1.34710   1.35770
 Alpha virt. eigenvalues --    1.37035   1.38575   1.42526   1.44240   1.46516
 Alpha virt. eigenvalues --    1.49478   1.52377   1.54982   1.56887   1.57335
 Alpha virt. eigenvalues --    1.58794   1.59378   1.61457   1.61887   1.62594
 Alpha virt. eigenvalues --    1.63515   1.63980   1.64316   1.65341   1.66051
 Alpha virt. eigenvalues --    1.67264   1.67650   1.70649   1.71815   1.72299
 Alpha virt. eigenvalues --    1.72536   1.73548   1.74512   1.76086   1.77849
 Alpha virt. eigenvalues --    1.78102   1.81307   1.82815   1.84693   1.85920
 Alpha virt. eigenvalues --    1.86324   1.87428   1.89955   1.90595   1.92701
 Alpha virt. eigenvalues --    1.94014   1.95524   1.96875   1.97916   1.99076
 Alpha virt. eigenvalues --    1.99996   2.01811   2.04762   2.05934   2.08893
 Alpha virt. eigenvalues --    2.09222   2.09594   2.13671   2.15201   2.17467
 Alpha virt. eigenvalues --    2.17568   2.18476   2.19440   2.20229   2.23395
 Alpha virt. eigenvalues --    2.23609   2.28346   2.31206   2.33276   2.35365
 Alpha virt. eigenvalues --    2.36631   2.37802   2.43523   2.44986   2.46906
 Alpha virt. eigenvalues --    2.48354   2.48821   2.52234   2.54772   2.55143
 Alpha virt. eigenvalues --    2.59250   2.61662   2.62754   2.65380   2.67577
 Alpha virt. eigenvalues --    2.68707   2.75931   2.77540   2.81014   2.81927
 Alpha virt. eigenvalues --    2.83995   2.87164   2.88455   2.90019   2.93000
 Alpha virt. eigenvalues --    2.93750   2.98002   3.00307   3.01787   3.06816
 Alpha virt. eigenvalues --    3.10115   3.12411   3.15219   3.20133   3.29581
 Alpha virt. eigenvalues --    3.32347   3.38577   3.43590   3.48028   3.67752
 Alpha virt. eigenvalues --    3.74515   3.79019
          Condensed to atoms (all electrons):
               1          2          3          4          5          6
     1  C    4.556723   0.439675  -0.074940   0.013653   0.000024   0.008935
     2  C    0.439675   5.187574   0.363997   0.057250  -0.117393   0.038935
     3  C   -0.074940   0.363997   5.094371   0.292247   0.084608  -0.135035
     4  C    0.013653   0.057250   0.292247   5.071973   0.235484   0.090535
     5  C    0.000024  -0.117393   0.084608   0.235484   5.201030   0.316285
     6  C    0.008935   0.038935  -0.135035   0.090535   0.316285   5.212048
     7  F   -0.000015   0.001823  -0.000013   0.005136  -0.059459   0.299582
     8  C   -0.063535   0.302370   0.031516  -0.088788  -0.002916   0.212590
     9  C   -0.019324  -0.045468   0.013909  -0.000367   0.011629  -0.064970
    10  C   -0.000383   0.007719   0.000283  -0.000247   0.001457  -0.026531
    11  O   -0.000003  -0.000027   0.000000   0.000003  -0.001150   0.008461
    12  C    0.000003   0.000107  -0.000002   0.000001  -0.000049   0.001717
    13  C   -0.000023  -0.000069   0.000001  -0.000000   0.000002  -0.000296
    14  C    0.000089   0.000170  -0.000015   0.000001  -0.000002   0.000181
    15  C   -0.000915  -0.021770   0.000102  -0.000050  -0.000074   0.011159
    16  F    0.004720  -0.004960  -0.000025   0.000001  -0.000001   0.000283
    17  H    0.357168   0.000625   0.000215  -0.000245  -0.000044  -0.000231
    18  H    0.371914  -0.001858   0.007625  -0.000874   0.000220  -0.000820
    19  H    0.375666  -0.023650  -0.019092   0.002096  -0.000073  -0.000018
    20  H   -0.019183  -0.064375   0.424755  -0.066119   0.013818  -0.000539
    21  H   -0.000411   0.014350  -0.064656   0.432097  -0.070551   0.013538
    22  H    0.000018  -0.000911   0.012570  -0.064302   0.415319  -0.058195
    23  H   -0.000001   0.000447  -0.000068   0.000263  -0.002246  -0.017536
    24  H    0.000000   0.000001  -0.000000   0.000000   0.000001   0.000004
    25  H    0.000000  -0.000001   0.000000   0.000000  -0.000000   0.000001
    26  H   -0.000011   0.000028  -0.000000   0.000000  -0.000000   0.000001
               7          8          9         10         11         12
     1  C   -0.000015  -0.063535  -0.019324  -0.000383  -0.000003   0.000003
     2  C    0.001823   0.302370  -0.045468   0.007719  -0.000027   0.000107
     3  C   -0.000013   0.031516   0.013909   0.000283   0.000000  -0.000002
     4  C    0.005136  -0.088788  -0.000367  -0.000247   0.000003   0.000001
     5  C   -0.059459  -0.002916   0.011629   0.001457  -0.001150  -0.000049
     6  C    0.299582   0.212590  -0.064970  -0.026531   0.008461   0.001717
     7  F    8.989395  -0.069890   0.002397   0.001132  -0.027169  -0.000552
     8  C   -0.069890   5.456412   0.229226  -0.068558  -0.003959   0.009396
     9  C    0.002397   0.229226   5.753357   0.137550  -0.074997   0.009896
    10  C    0.001132  -0.068558   0.137550   5.184223   0.454982   0.287381
    11  O   -0.027169  -0.003959  -0.074997   0.454982   7.557104  -0.089508
    12  C   -0.000552   0.009396   0.009896   0.287381  -0.089508   5.255326
    13  C    0.000001  -0.000151  -0.103564   0.115734   0.006003   0.210519
    14  C   -0.000000   0.013476   0.001706  -0.140430   0.000085   0.109070
    15  C    0.000146  -0.056131   0.163424   0.093333   0.001520  -0.138069
    16  F   -0.000000   0.000069  -0.074188   0.001886  -0.000001   0.000031
    17  H    0.000000  -0.001420   0.004012   0.000031   0.000000  -0.000002
    18  H   -0.000004  -0.011194   0.005170   0.000184   0.000001  -0.000010
    19  H    0.000001   0.007513  -0.000611   0.000005   0.000000   0.000000
    20  H    0.000004   0.015049  -0.000224   0.000001   0.000000  -0.000000
    21  H   -0.000075  -0.001307   0.000018   0.000000  -0.000000   0.000000
    22  H    0.000815   0.017032  -0.000284   0.000053   0.000008  -0.000000
    23  H    0.051419   0.005657  -0.011610  -0.025474   0.338756   0.004598
    24  H    0.000018  -0.000194   0.019873  -0.056486   0.003635   0.415925
    25  H   -0.000000   0.000012  -0.001947   0.014425  -0.000112  -0.069368
    26  H   -0.000000  -0.000222   0.019260  -0.001376   0.000006   0.013549
              13         14         15         16         17         18
     1  C   -0.000023   0.000089  -0.000915   0.004720   0.357168   0.371914
     2  C   -0.000069   0.000170  -0.021770  -0.004960   0.000625  -0.001858
     3  C    0.000001  -0.000015   0.000102  -0.000025   0.000215   0.007625
     4  C   -0.000000   0.000001  -0.000050   0.000001  -0.000245  -0.000874
     5  C    0.000002  -0.000002  -0.000074  -0.000001  -0.000044   0.000220
     6  C   -0.000296   0.000181   0.011159   0.000283  -0.000231  -0.000820
     7  F    0.000001  -0.000000   0.000146  -0.000000   0.000000  -0.000004
     8  C   -0.000151   0.013476  -0.056131   0.000069  -0.001420  -0.011194
     9  C   -0.103564   0.001706   0.163424  -0.074188   0.004012   0.005170
    10  C    0.115734  -0.140430   0.093333   0.001886   0.000031   0.000184
    11  O    0.006003   0.000085   0.001520  -0.000001   0.000000   0.000001
    12  C    0.210519   0.109070  -0.138069   0.000031  -0.000002  -0.000010
    13  C    5.177677   0.163794   0.115541   0.005219   0.000002   0.000066
    14  C    0.163794   5.284532   0.318323  -0.061762  -0.000187  -0.001148
    15  C    0.115541   0.318323   5.055655   0.359782  -0.002162   0.000670
    16  F    0.005219  -0.061762   0.359782   8.927496   0.003481  -0.000871
    17  H    0.000002  -0.000187  -0.002162   0.003481   0.625065  -0.018160
    18  H    0.000066  -0.001148   0.000670  -0.000871  -0.018160   0.641661
    19  H   -0.000001   0.000033   0.000192   0.001704  -0.023178  -0.028688
    20  H    0.000000  -0.000000   0.000022  -0.000010   0.001913   0.000552
    21  H   -0.000000   0.000000   0.000000   0.000000   0.000013   0.000010
    22  H    0.000000  -0.000000   0.000002  -0.000000  -0.000001  -0.000001
    23  H    0.000022  -0.000160   0.000210   0.000001   0.000001   0.000002
    24  H   -0.073621   0.014434  -0.001580   0.000004  -0.000000  -0.000000
    25  H    0.436435  -0.070880   0.014056  -0.000084   0.000000  -0.000001
    26  H   -0.069725   0.416175  -0.059363   0.001781   0.000024   0.000040
              19         20         21         22         23         24
     1  C    0.375666  -0.019183  -0.000411   0.000018  -0.000001   0.000000
     2  C   -0.023650  -0.064375   0.014350  -0.000911   0.000447   0.000001
     3  C   -0.019092   0.424755  -0.064656   0.012570  -0.000068  -0.000000
     4  C    0.002096  -0.066119   0.432097  -0.064302   0.000263   0.000000
     5  C   -0.000073   0.013818  -0.070551   0.415319  -0.002246   0.000001
     6  C   -0.000018  -0.000539   0.013538  -0.058195  -0.017536   0.000004
     7  F    0.000001   0.000004  -0.000075   0.000815   0.051419   0.000018
     8  C    0.007513   0.015049  -0.001307   0.017032   0.005657  -0.000194
     9  C   -0.000611  -0.000224   0.000018  -0.000284  -0.011610   0.019873
    10  C    0.000005   0.000001   0.000000   0.000053  -0.025474  -0.056486
    11  O    0.000000   0.000000  -0.000000   0.000008   0.338756   0.003635
    12  C    0.000000  -0.000000   0.000000  -0.000000   0.004598   0.415925
    13  C   -0.000001   0.000000  -0.000000   0.000000   0.000022  -0.073621
    14  C    0.000033  -0.000000   0.000000  -0.000000  -0.000160   0.014434
    15  C    0.000192   0.000022   0.000000   0.000002   0.000210  -0.001580
    16  F    0.001704  -0.000010   0.000000  -0.000000   0.000001   0.000004
    17  H   -0.023178   0.001913   0.000013  -0.000001   0.000001  -0.000000
    18  H   -0.028688   0.000552   0.000010  -0.000001   0.000002  -0.000000
    19  H    0.672645   0.005033  -0.000018  -0.000002  -0.000001  -0.000000
    20  H    0.005033   0.700516  -0.012412  -0.000367  -0.000001   0.000000
    21  H   -0.000018  -0.012412   0.688899  -0.011747   0.000003  -0.000000
    22  H   -0.000002  -0.000367  -0.011747   0.673953   0.000149  -0.000000
    23  H   -0.000001  -0.000001   0.000003   0.000149   0.470461   0.000039
    24  H   -0.000000   0.000000  -0.000000  -0.000000   0.000039   0.686312
    25  H    0.000000  -0.000000   0.000000  -0.000000   0.000012  -0.013185
    26  H   -0.000002  -0.000000  -0.000000   0.000000  -0.000002  -0.000306
              25         26
     1  C    0.000000  -0.000011
     2  C   -0.000001   0.000028
     3  C    0.000000  -0.000000
     4  C    0.000000   0.000000
     5  C   -0.000000  -0.000000
     6  C    0.000001   0.000001
     7  F   -0.000000  -0.000000
     8  C    0.000012  -0.000222
     9  C   -0.001947   0.019260
    10  C    0.014425  -0.001376
    11  O   -0.000112   0.000006
    12  C   -0.069368   0.013549
    13  C    0.436435  -0.069725
    14  C   -0.070880   0.416175
    15  C    0.014056  -0.059363
    16  F   -0.000084   0.001781
    17  H    0.000000   0.000024
    18  H   -0.000001   0.000040
    19  H    0.000000  -0.000002
    20  H   -0.000000  -0.000000
    21  H    0.000000  -0.000000
    22  H   -0.000000   0.000000
    23  H    0.000012  -0.000002
    24  H   -0.013185  -0.000306
    25  H    0.691587  -0.012329
    26  H   -0.012329   0.685512
 Mulliken charges:
               1
     1  C    0.050157
     2  C   -0.134590
     3  C   -0.032353
     4  C    0.020253
     5  C   -0.025919
     6  C    0.089916
     7  F   -0.194694
     8  C    0.067947
     9  C    0.026126
    10  C    0.019106
    11  O   -0.173637
    12  C   -0.019956
    13  C    0.016434
    14  C   -0.047482
    15  C    0.145978
    16  F   -0.164555
    17  H    0.053079
    18  H    0.035513
    19  H    0.030446
    20  H    0.001568
    21  H    0.012248
    22  H    0.015890
    23  H    0.185060
    24  H    0.005126
    25  H    0.011378
    26  H    0.006960
 Sum of Mulliken charges =  -0.00000
 Mulliken charges with hydrogens summed into heavy atoms:
               1
     1  C    0.169195
     2  C   -0.134590
     3  C   -0.030785
     4  C    0.032500
     5  C   -0.010029
     6  C    0.089916
     7  F   -0.194694
     8  C    0.067947
     9  C    0.026126
    10  C    0.019106
    11  O    0.011424
    12  C   -0.014830
    13  C    0.027811
    14  C   -0.040522
    15  C    0.145978
    16  F   -0.164555
 Electronic spatial extent (au):  <R**2>=           3385.7281
 Charge=              0.0000 electrons
 Dipole moment (field-independent basis, Debye):
    X=              1.4267    Y=              0.5869    Z=              0.3672  Tot=              1.5858
 Quadrupole moment (field-independent basis, Debye-Ang):
   XX=            -78.9815   YY=            -88.3005   ZZ=            -95.4249
   XY=             -2.2604   XZ=             -1.9036   YZ=              0.0115
 Traceless Quadrupole moment (field-independent basis, Debye-Ang):
   XX=              8.5874   YY=             -0.7315   ZZ=             -7.8559
   XY=             -2.2604   XZ=             -1.9036   YZ=              0.0115
 Octapole moment (field-independent basis, Debye-Ang**2):
  XXX=             -4.3151  YYY=             -5.1393  ZZZ=              4.0967  XYY=             11.9934
  XXY=             -0.9381  XXZ=             -4.7959  XZZ=              0.6039  YZZ=              0.0131
  YYZ=              3.6636  XYZ=              2.0945
 Hexadecapole moment (field-independent basis, Debye-Ang**3):
 XXXX=          -2593.2151 YYYY=          -1361.2586 ZZZZ=           -164.0524 XXXY=            -41.9712
 XXXZ=            -29.2391 YYYX=            -42.7808 YYYZ=            -20.0671 ZZZX=             15.2364
 ZZZY=            -15.2583 XXYY=           -662.6236 XXZZ=           -550.1792 YYZZ=           -264.7579
 XXYZ=             -5.1162 YYXZ=             -3.8813 ZZXY=             -7.6118
 N-N= 1.069381311187D+03 E-N=-3.949830909128D+03  KE= 7.677396615958D+02
 Unable to Open any file for archive entry.
 1\1\GINC-SEMLSCPN099\FOpt\RBP86\def2SVP\C13H10F2O1\KTVF206\02-Dec-2025
 \0\\# opt=modredundant bp86 def2svp empiricaldispersion=GD3BJ\\example
 \\0,1\C,-1.0976674194,2.5208821786,-1.2330055254\C,-1.5087864125,1.209
 2524823,-0.5797006825\C,-2.8847602141,1.1681791318,-0.2584652934\C,-3.
 5837187364,-0.009550875,0.0242738817\C,-2.9023076299,-1.2137052211,-0.
 166906579\C,-1.5402415312,-1.1614497134,-0.4539082652\F,-1.0245540504,
 -2.3820191186,-0.8534002431\C,-0.7042913844,0.000102687,-0.4453830994\
 C,0.7925154568,-0.1099407137,-0.3142407928\C,1.5132702578,-1.323566247
 4,0.0619399305\O,0.97271158,-2.454551228,0.5686633485\C,2.9281937258,-
 1.3885807211,0.0302822986\C,3.7160478108,-0.2691488025,-0.2153435021\C
 ,3.0763559161,0.9650529595,-0.378711155\C,1.6821018314,1.0144859039,-0
 .3670829956\F,1.1903994682,2.2715896174,-0.3385359434\H,-0.7596039615,
 3.2926843683,-0.5157163929\H,-0.301218664,2.3868818098,-1.9843989696\H
 ,-1.9878627697,2.9218688375,-1.7579722688\H,-3.4393190521,2.1190780978
 ,-0.3037119906\H,-4.6531065808,0.006470771,0.2812444246\H,-3.397049417
 ,-2.1954218838,-0.1490654081\H,0.0796020352,-2.6202326415,0.2024970405
 \H,3.3681242957,-2.3691450358,0.2608434707\H,4.8138335738,-0.343208342
 9,-0.2311329979\H,3.6216548715,1.9152736998,-0.4649522905\\Version=ES6
 4L-G16RevC.02\State=1-A\HF=-775.7510717\RMSD=8.008e-09\RMSF=1.286e-04\
 Dipole=-0.5383134,0.2432856,-0.2006778\Quadrupole=6.6705614,-0.8054521
 ,-5.8651093,1.0430605,-1.0986991,-0.5881691\PG=C01 [X(C13H10F2O1)]\\@
 The archive entry for this job was punched.


 A MUSTACHE HAIR ACROSS A CHIP IS LIKE A REDWOOD
 TREE FALLING THROUGH A HOUSING PROJECT.
 - AN IBM MANAGER IN EAST FISHKILL, NEW YORK
   AS QUOTED IN "FROM SANDS TO CIRCUITS", IBM INNOVATION JANUARY 1985.
 Job cpu time:       0 days  0 hours 10 minutes 29.0 seconds.
 Elapsed time:       0 days  0 hours  1 minutes 24.5 seconds.
 File lengths (MBytes):  RWF=     46 Int=      0 D2E=      0 Chk=      7 Scr=      1
 Normal termination of Gaussian 16 at Tue Dec  2 16:05:06 2025.
