%mem=12000MB
%nprocshared=8
# opt=modredundant bp86 def2svp empiricaldispersion=GD3BJ

example

0 1
C -1.098335 2.521332 -1.232866
C -1.508775 1.209641 -0.579237
C -2.884877 1.168190 -0.258423
C -3.583804 -0.009677 0.023734
C -2.902121 -1.213695 -0.167378
C -1.539998 -1.161113 -0.454015
F -1.023626 -2.381608 -0.852571
C -0.704171 0.000486 -0.445013
C 0.792658 -0.109795 -0.314059
C 1.513264 -1.323512 0.062370
O 0.972723 -2.454509 0.569177
C 2.928139 -1.388868 0.030473
C 3.716194 -0.269634 -0.215561
C 3.076745 0.964656 -0.378998
C 1.682458 1.014415 -0.367127
F 1.191050 2.271620 -0.338577
H -0.760076 3.293256 -0.515857
H -0.302432 2.387746 -1.984948
H -1.989090 2.921974 -1.757137
H -3.439605 2.118995 -0.303613
H -4.653278 0.006144 0.280355
H -3.396679 -2.195503 -0.149763
H 0.079825 -2.620620 0.202942
H 3.367947 -2.369453 0.261147
H 4.813963 -0.343928 -0.231451
H 3.622224 1.914742 -0.465494

7 8 9 11 F
1 8 9 16 F

