26
 energy: -46.467555109896 gnorm: 0.000560036103 xtb: 6.6.1 (8d0f1dd)
C           -1.01741585552921       -1.49339191682513        1.39798160650594
C           -1.52311493104324       -0.38725933747565        0.52424226109466
C           -2.87171642683610       -0.06165826211135        0.47890785570807
C           -3.33734898667333        0.95432334776362       -0.33793906475015
C           -2.45846126988440        1.67194797158695       -1.12870447686021
C           -1.11602007986780        1.34715343653687       -1.08188640533581
F           -0.24782486441854        2.05163642998141       -1.83902106530170
C           -0.62513887982996        0.33162002065400       -0.27061936037969
C            0.82540214898203        0.01315523075537       -0.26870804389921
C            1.68708296569829        0.58303224792917        0.67241062670420
O            1.23121047555181        1.43883736570610        1.62094874678330
C            3.04209634226063        0.26892899999755        0.65770074105797
C            3.54430628758872       -0.60235614394720       -0.28851613263982
C            2.70954558084446       -1.17686988788469       -1.23223363378339
C            1.36653384770408       -0.85751012621478       -1.20428769635570
F            0.53903176061239       -1.42456603144418       -2.10888356133356
H           -0.30639459160728       -1.11396473189421        2.13213050080951
H           -0.50017301006939       -2.24077349189364        0.79703676286783
H           -1.83789824355312       -1.97460202749418        1.92374288403051
H           -3.56789938778265       -0.61778674735954        1.08876020263732
H           -4.39070486390833        1.18709975808546       -0.36197436779663
H           -2.79236049025331        2.46618817408319       -1.77651448677603
H            0.28932575747676        1.60825649118137        1.48221750106602
H            3.68080579053013        0.72441379543702        1.39677206126542
H            4.59703111920963       -0.83739168767263       -0.29341656860688
H            3.08009880479788       -1.85846287748100       -1.98014788671187
