      -----------------------------------------------------------      
     |                   =====================                   |     
     |                           x T B                           |     
     |                   =====================                   |     
     |                         S. Grimme                         |     
     |          Mulliken Center for Theoretical Chemistry        |     
     |                    University of Bonn                     |     
      -----------------------------------------------------------      

   * xtb version 6.6.1 (8d0f1dd) compiled by 'stahn@M-Bot' on 2023-08-01

   xtb is free software: you can redistribute it and/or modify it under
   the terms of the GNU Lesser General Public License as published by
   the Free Software Foundation, either version 3 of the License, or
   (at your option) any later version.
   
   xtb is distributed in the hope that it will be useful,
   but WITHOUT ANY WARRANTY; without even the implied warranty of
   MERCHANTABILITY or FITNESS FOR A PARTICULAR PURPOSE.  See the
   GNU Lesser General Public License for more details.
   
   Cite this work as:
   * C. Bannwarth, E. Caldeweyher, S. Ehlert, A. Hansen, P. Pracht,
     J. Seibert, S. Spicher, S. Grimme, WIREs Comput. Mol. Sci., 2020, 11,
     e01493. DOI: 10.1002/wcms.1493
   
   for GFN2-xTB:
   * C. Bannwarth, S. Ehlert and S. Grimme., J. Chem. Theory Comput., 2019,
     15, 1652-1671. DOI: 10.1021/acs.jctc.8b01176
   for GFN1-xTB:
   * S. Grimme, C. Bannwarth, P. Shushkov, J. Chem. Theory Comput., 2017,
     13, 1989-2009. DOI: 10.1021/acs.jctc.7b00118
   for GFN0-xTB:
   * P. Pracht, E. Caldeweyher, S. Ehlert, S. Grimme, ChemRxiv, 2019, preprint.
     DOI: 10.26434/chemrxiv.8326202.v1
   for GFN-FF:
   * S. Spicher and S. Grimme, Angew. Chem. Int. Ed., 2020, 59, 15665-15673.
     DOI: 10.1002/anie.202004239
   
   for ALPB and GBSA implicit solvation:
   * S. Ehlert, M. Stahn, S. Spicher, S. Grimme, J. Chem. Theory Comput.,
     2021, 17, 4250-4261. DOI: 10.1021/acs.jctc.1c00471
   
   for DFT-D4:
   * E. Caldeweyher, C. Bannwarth and S. Grimme, J. Chem. Phys., 2017,
     147, 034112. DOI: 10.1063/1.4993215
   * E. Caldeweyher, S. Ehlert, A. Hansen, H. Neugebauer, S. Spicher,
     C. Bannwarth and S. Grimme, J. Chem. Phys., 2019, 150, 154122.
     DOI: 10.1063/1.5090222
   * E. Caldeweyher, J.-M. Mewes, S. Ehlert and S. Grimme, Phys. Chem. Chem. Phys.
     2020, 22, 8499-8512. DOI: 10.1039/D0CP00502A
   
   for sTDA-xTB:
   * S. Grimme and C. Bannwarth, J. Chem. Phys., 2016, 145, 054103.
     DOI: 10.1063/1.4959605
   
   in the mass-spec context:
   * V. Asgeirsson, C. Bauer and S. Grimme, Chem. Sci., 2017, 8, 4879.
     DOI: 10.1039/c7sc00601b
   * J. Koopman and S. Grimme, ACS Omega 2019, 4, 12, 15120-15133.
     DOI: 10.1021/acsomega.9b02011
   
   for metadynamics refer to:
   * S. Grimme, J. Chem. Theory Comput., 2019, 155, 2847-2862
     DOI: 10.1021/acs.jctc.9b00143
   
   for SPH calculations refer to:
   * S. Spicher and S. Grimme, J. Chem. Theory Comput., 2021, 17, 1701-1714
     DOI: 10.1021/acs.jctc.0c01306
   
   with help from (in alphabetical order)
   P. Atkinson, C. Bannwarth, F. Bohle, G. Brandenburg, E. Caldeweyher
   M. Checinski, S. Dohm, S. Ehlert, S. Ehrlich, I. Gerasimov, C. Hölzer
   A. Katbashev, J. Koopman, C. Lavigne, S. Lehtola, F. März, M. Müller,
   F. Musil, H. Neugebauer, J. Pisarek, C. Plett, P. Pracht, F. Pultar,
   J. Seibert, P. Shushkov, S. Spicher, M. Stahn, M. Steiner, T. Strunk,
   J. Stückrath, T. Rose, and J. Unsleber
   
 * started run on 2025/08/28 at 10:02:21.579     

           -------------------------------------------------
          |                Calculation Setup                |
           -------------------------------------------------

          program call               : /path/to/xtb /path/to/4.xyz --opt --etemp 298.15 --chrg 0 --uhf 0 -P 4
          hostname                   : semlscpn101
          coordinate file            : /path/to/4.xyz
          omp threads                :                     4

   ID    Z sym.   atoms
    1    6 C      1-6, 8-10, 12-15
    2    9 F      7, 16
    3    8 O      11
    4    1 H      17-26

           -------------------------------------------------
          |                 G F N 2 - x T B                 |
           -------------------------------------------------

        Reference                      10.1021/acs.jctc.8b01176
      * Hamiltonian:
        H0-scaling (s, p, d)           1.850000    2.230000    2.230000
        zeta-weighting                 0.500000
      * Dispersion:
        s8                             2.700000
        a1                             0.520000
        a2                             5.000000
        s9                             5.000000
      * Repulsion:
        kExp                           1.500000    1.000000
        rExp                           1.000000
      * Coulomb:
        alpha                          2.000000
        third order                    shell-resolved
        anisotropic                    true
        a3                             3.000000
        a5                             4.000000
        cn-shift                       1.200000
        cn-exp                         4.000000
        max-rad                        5.000000


          ...................................................
          :                      SETUP                      :
          :.................................................:
          :  # basis functions                  74          :
          :  # atomic orbitals                  74          :
          :  # shells                           42          :
          :  # electrons                        82          :
          :  max. iterations                   250          :
          :  Hamiltonian                  GFN2-xTB          :
          :  restarted?                      false          :
          :  GBSA solvation                  false          :
          :  PC potential                    false          :
          :  electronic temp.          298.1500000     K    :
          :  accuracy                    1.0000000          :
          :  -> integral cutoff          0.2500000E+02      :
          :  -> integral neglect         0.1000000E-07      :
          :  -> SCF convergence          0.1000000E-05 Eh   :
          :  -> wf. convergence          0.1000000E-03 e    :
          :  Broyden damping             0.4000000          :
          ...................................................

 iter      E             dE          RMSdq      gap      omega  full diag
   1    -47.0513487 -0.470513E+02  0.451E+00    4.45       0.0  T
   2    -47.0898197 -0.384711E-01  0.273E+00    4.33       1.0  T
   3    -47.0811797  0.864006E-02  0.146E+00    4.27       1.0  T
   4    -47.1027433 -0.215636E-01  0.256E-01    4.28       1.0  T
   5    -47.1031685 -0.425233E-03  0.116E-01    4.26       1.0  T
   6    -47.1034643 -0.295773E-03  0.473E-02    4.25       1.0  T
   7    -47.1034782 -0.138822E-04  0.188E-02    4.26       1.0  T
   8    -47.1034811 -0.296380E-05  0.800E-03    4.26       2.5  T
   9    -47.1034816 -0.404412E-06  0.191E-03    4.26      10.2  T
  10    -47.1034816 -0.167632E-07  0.768E-04    4.26      25.5  T
  11    -47.1034816 -0.187752E-08  0.379E-04    4.26      51.7  T

   *** convergence criteria satisfied after 11 iterations ***

         #    Occupation            Energy/Eh            Energy/eV
      -------------------------------------------------------------
         1        2.0000           -0.8102690             -22.0485
       ...           ...                  ...                  ...
        35        2.0000           -0.4509675             -12.2714
        36        2.0000           -0.4438796             -12.0786
        37        2.0000           -0.4264160             -11.6034
        38        2.0000           -0.4106568             -11.1745
        39        2.0000           -0.4065310             -11.0623
        40        2.0000           -0.4032055             -10.9718
        41        2.0000           -0.3995841             -10.8732 (HOMO)
        42                         -0.2430748              -6.6144 (LUMO)
        43                         -0.2327710              -6.3340
        44                         -0.2304956              -6.2721
        45                         -0.2262326              -6.1561
        46                         -0.1102923              -3.0012
       ...                                ...                  ...
        74                          0.6935576              18.8727
      -------------------------------------------------------------
                  HL-Gap            0.1565093 Eh            4.2588 eV
             Fermi-level           -0.3213295 Eh           -8.7438 eV

 SCC (total)                   0 d,  0 h,  0 min,  0.116 sec
 SCC setup                      ...        0 min,  0.000 sec (  0.238%)
 Dispersion                     ...        0 min,  0.000 sec (  0.265%)
 classical contributions        ...        0 min,  0.000 sec (  0.062%)
 integral evaluation            ...        0 min,  0.003 sec (  2.516%)
 iterations                     ...        0 min,  0.098 sec ( 84.683%)
 molecular gradient             ...        0 min,  0.014 sec ( 11.849%)
 printout                       ...        0 min,  0.000 sec (  0.365%)

         :::::::::::::::::::::::::::::::::::::::::::::::::::::
         ::                     SUMMARY                     ::
         :::::::::::::::::::::::::::::::::::::::::::::::::::::
         :: total energy             -46.447584628239 Eh    ::
         :: gradient norm              0.096541353215 Eh/a0 ::
         :: HOMO-LUMO gap              4.258835112285 eV    ::
         ::.................................................::
         :: SCC energy               -47.103481569384 Eh    ::
         :: -> isotropic ES            0.049275510844 Eh    ::
         :: -> anisotropic ES          0.002393697624 Eh    ::
         :: -> anisotropic XC          0.007930867614 Eh    ::
         :: -> dispersion             -0.027635012464 Eh    ::
         :: repulsion energy           0.655645008968 Eh    ::
         :: add. restraining           0.000000000000 Eh    ::
         :: total charge               0.000000000000 e     ::
         :::::::::::::::::::::::::::::::::::::::::::::::::::::

      ----------------------------------------------------------- 
     |                   =====================                   |
     |                        A N C O P T                        |
     |                   =====================                   |
     |               Approximate Normal Coordinate               |
     |                Rational Function Optimizer                |
      ----------------------------------------------------------- 

          ...................................................
          :                      SETUP                      :
          :.................................................:
          :   optimization level            normal          :
          :   max. optcycles                   200          :
          :   ANC micro-cycles                  20          :
          :   degrees of freedom                72          :
          :.................................................:
          :   RF solver                   davidson          :
          :   write xtbopt.log                true          :
          :   linear?                        false          :
          :   energy convergence         0.5000000E-05 Eh   :
          :   grad. convergence          0.1000000E-02 Eh/α :
          :   maxmium RF displ.          1.0000000          :
          :   Hlow (freq-cutoff)         0.1000000E-01      :
          :   Hmax (freq-cutoff)         5.0000000          :
          :   S6 in model hess.         20.0000000          :
          ...................................................

generating ANC from model Hessian ...
Using Lindh-Hessian (1995)
 Shifting diagonal of input Hessian by   8.664303974464965E-003
 Lowest  eigenvalues of input Hessian
    0.000000    0.000000    0.000000    0.000000    0.000000    0.000000
    0.010000    0.010587    0.010835    0.014047    0.015201    0.017990
    0.021088    0.022062    0.025072    0.030057    0.030903    0.031615
 Highest eigenvalues
    1.925628    1.934429    2.056245    2.101312    2.122549    2.183356
 

........................................................................
.............................. CYCLE    1 ..............................
........................................................................

 iter      E             dE          RMSdq      gap      omega  full diag
   1    -47.1034816 -0.471035E+02  0.119E-04    4.26       0.0  T
   2    -47.1034816 -0.491340E-10  0.710E-05    4.26     276.1  T
   3    -47.1034816 -0.791545E-11  0.465E-05    4.26     421.4  T
     SCC iter.                  ...        0 min,  0.012 sec
     gradient                   ...        0 min,  0.016 sec
 * total energy  :   -46.4475846 Eh     change       -0.1667892E-08 Eh
   gradient norm :     0.0965421 Eh/α   predicted     0.0000000E+00 (-100.00%)
   displ. norm   :     0.2772226 α      lambda       -0.1748681E-01
   maximum displ.:     0.1156595 α      in ANC's #22, #40, #29, ...

........................................................................
.............................. CYCLE    2 ..............................
........................................................................

 iter      E             dE          RMSdq      gap      omega  full diag
   1    -47.1122699 -0.471123E+02  0.283E-01    4.29       0.0  T
   2    -47.1124118 -0.141948E-03  0.175E-01    4.32       1.0  T
   3    -47.1123540  0.578161E-04  0.847E-02    4.30       1.0  T
   4    -47.1124433 -0.892439E-04  0.185E-02    4.30       1.1  T
   5    -47.1124485 -0.520150E-05  0.579E-03    4.31       3.4  T
   6    -47.1124490 -0.575887E-06  0.292E-03    4.31       6.7  T
   7    -47.1124491 -0.996683E-07  0.106E-03    4.31      18.4  T
   8    -47.1124491 -0.302214E-08  0.412E-04    4.31      47.6  T
   9    -47.1124491 -0.150016E-08  0.157E-04    4.31     125.2  T
     SCC iter.                  ...        0 min,  0.033 sec
     gradient                   ...        0 min,  0.015 sec
 * total energy  :   -46.4600675 Eh     change       -0.1248286E-01 Eh
   gradient norm :     0.0429858 Eh/α   predicted    -0.9416004E-02 ( -24.57%)
   displ. norm   :     0.2607372 α      lambda       -0.6354507E-02
   maximum displ.:     0.0964210 α      in ANC's #14, #22, #2, ...

........................................................................
.............................. CYCLE    3 ..............................
........................................................................

 iter      E             dE          RMSdq      gap      omega  full diag
   1    -47.1173022 -0.471173E+02  0.220E-01    4.32       0.0  T
   2    -47.1174217 -0.119486E-03  0.135E-01    4.36       1.0  T
   3    -47.1174095  0.121851E-04  0.730E-02    4.34       1.0  T
   4    -47.1174519 -0.424040E-04  0.151E-02    4.34       1.3  T
   5    -47.1174543 -0.233083E-05  0.450E-03    4.34       4.4  T
   6    -47.1174545 -0.212284E-06  0.257E-03    4.34       7.6  T
   7    -47.1174546 -0.113317E-06  0.884E-04    4.34      22.2  T
   8    -47.1174546 -0.182076E-08  0.319E-04    4.34      61.4  T
     SCC iter.                  ...        0 min,  0.029 sec
     gradient                   ...        0 min,  0.016 sec
 * total energy  :   -46.4638067 Eh     change       -0.3739167E-02 Eh
   gradient norm :     0.0110969 Eh/α   predicted    -0.3393464E-02 (  -9.25%)
   displ. norm   :     0.2155442 α      lambda       -0.1185048E-02
   maximum displ.:     0.0899877 α      in ANC's #2, #14, #7, ...

........................................................................
.............................. CYCLE    4 ..............................
........................................................................

 iter      E             dE          RMSdq      gap      omega  full diag
   1    -47.1161291 -0.471161E+02  0.101E-01    4.33       0.0  T
   2    -47.1161638 -0.346815E-04  0.576E-02    4.35       1.0  T
   3    -47.1161656 -0.181357E-05  0.341E-02    4.35       1.0  T
   4    -47.1161739 -0.827051E-05  0.835E-03    4.35       2.3  T
   5    -47.1161743 -0.424977E-06  0.270E-03    4.35       7.3  T
   6    -47.1161744 -0.468646E-07  0.153E-03    4.35      12.8  T
   7    -47.1161744 -0.256035E-07  0.644E-04    4.35      30.5  T
   8    -47.1161744 -0.176945E-08  0.246E-04    4.35      79.8  T
     SCC iter.                  ...        0 min,  0.030 sec
     gradient                   ...        0 min,  0.014 sec
 * total energy  :   -46.4646035 Eh     change       -0.7968783E-03 Eh
   gradient norm :     0.0212881 Eh/α   predicted    -0.6200546E-03 ( -22.19%)
   displ. norm   :     0.2673512 α      lambda       -0.1041681E-02
   maximum displ.:     0.1905963 α      in ANC's #2, #7, #14, ...

........................................................................
.............................. CYCLE    5 ..............................
........................................................................

 iter      E             dE          RMSdq      gap      omega  full diag
   1    -47.1169443 -0.471169E+02  0.956E-02    4.33       0.0  T
   2    -47.1169588 -0.145103E-04  0.566E-02    4.34       1.0  T
   3    -47.1169552  0.361690E-05  0.314E-02    4.33       1.0  T
   4    -47.1169651 -0.987597E-05  0.400E-03    4.34       4.9  T
   5    -47.1169652 -0.126170E-06  0.170E-03    4.34      11.5  T
   6    -47.1169652 -0.213131E-07  0.887E-04    4.34      22.1  T
   7    -47.1169652 -0.505212E-08  0.359E-04    4.34      54.7  T
     SCC iter.                  ...        0 min,  0.026 sec
     gradient                   ...        0 min,  0.015 sec
 * total energy  :   -46.4653677 Eh     change       -0.7642097E-03 Eh
   gradient norm :     0.0193607 Eh/α   predicted    -0.5581357E-03 ( -26.97%)
   displ. norm   :     0.2801129 α      lambda       -0.9452855E-03
   maximum displ.:     0.2298019 α      in ANC's #2, #3, #5, ...

........................................................................
.............................. CYCLE    6 ..............................
........................................................................

 iter      E             dE          RMSdq      gap      omega  full diag
   1    -47.1195666 -0.471196E+02  0.970E-02    4.32       0.0  T
   2    -47.1195701 -0.351309E-05  0.575E-02    4.33       1.0  T
   3    -47.1195631  0.693532E-05  0.207E-02    4.32       1.0  T
   4    -47.1195722 -0.904020E-05  0.281E-03    4.33       7.0  T
   5    -47.1195722 -0.258786E-07  0.171E-03    4.33      11.4  T
   6    -47.1195722 -0.187197E-07  0.485E-04    4.33      40.5  T
   7    -47.1195722 -0.229642E-08  0.243E-04    4.33      80.8  T
     SCC iter.                  ...        0 min,  0.026 sec
     gradient                   ...        0 min,  0.016 sec
 * total energy  :   -46.4660216 Eh     change       -0.6538222E-03 Eh
   gradient norm :     0.0088951 Eh/α   predicted    -0.5097313E-03 ( -22.04%)
   displ. norm   :     0.3554171 α      lambda       -0.6873498E-03
   maximum displ.:     0.2661183 α      in ANC's #2, #5, #3, ...

........................................................................
.............................. CYCLE    7 ..............................
........................................................................

 iter      E             dE          RMSdq      gap      omega  full diag
   1    -47.1176429 -0.471176E+02  0.124E-01    4.30       0.0  T
   2    -47.1176521 -0.911509E-05  0.733E-02    4.31       1.0  T
   3    -47.1176384  0.136184E-04  0.260E-02    4.30       1.0  T
   4    -47.1176557 -0.172799E-04  0.486E-03    4.31       4.0  T
   5    -47.1176559 -0.210121E-06  0.269E-03    4.31       7.3  T
   6    -47.1176560 -0.104301E-06  0.126E-03    4.31      15.6  T
   7    -47.1176560 -0.352123E-08  0.460E-04    4.31      42.6  T
   8    -47.1176560 -0.288210E-08  0.118E-04    4.31     166.4  T
     SCC iter.                  ...        0 min,  0.029 sec
     gradient                   ...        0 min,  0.014 sec
 * total energy  :   -46.4662076 Eh     change       -0.1860800E-03 Eh
   gradient norm :     0.0201480 Eh/α   predicted    -0.3870921E-03 ( 108.02%)
   displ. norm   :     0.0968845 α      lambda       -0.5981973E-03
   maximum displ.:     0.0656472 α      in ANC's #2, #3, #1, ...

........................................................................
.............................. CYCLE    8 ..............................
........................................................................

 iter      E             dE          RMSdq      gap      omega  full diag
   1    -47.1212179 -0.471212E+02  0.516E-02    4.31       0.0  T
   2    -47.1212213 -0.343264E-05  0.297E-02    4.31       1.0  T
   3    -47.1212194  0.185260E-05  0.136E-02    4.31       1.4  T
   4    -47.1212226 -0.315763E-05  0.353E-03    4.31       5.6  T
   5    -47.1212227 -0.714786E-07  0.182E-03    4.31      10.7  T
   6    -47.1212227 -0.332785E-07  0.981E-04    4.31      20.0  T
   7    -47.1212227 -0.682151E-08  0.335E-04    4.31      58.6  T
     SCC iter.                  ...        0 min,  0.026 sec
     gradient                   ...        0 min,  0.014 sec
 * total energy  :   -46.4665006 Eh     change       -0.2929382E-03 Eh
   gradient norm :     0.0044151 Eh/α   predicted    -0.3019074E-03 (   3.06%)
   displ. norm   :     0.0992654 α      lambda       -0.7281659E-04
   maximum displ.:     0.0741282 α      in ANC's #2, #3, #5, ...

........................................................................
.............................. CYCLE    9 ..............................
........................................................................

 iter      E             dE          RMSdq      gap      omega  full diag
   1    -47.1211286 -0.471211E+02  0.323E-02    4.30       0.0  T
   2    -47.1211291 -0.417215E-06  0.192E-02    4.30       1.0  T
   3    -47.1211284  0.619832E-06  0.536E-03    4.30       3.7  T
   4    -47.1211292 -0.783722E-06  0.101E-03    4.30      19.4  T
   5    -47.1211292 -0.622018E-08  0.491E-04    4.30      39.9  T
   6    -47.1211292 -0.177680E-08  0.257E-04    4.30      76.3  T
     SCC iter.                  ...        0 min,  0.022 sec
     gradient                   ...        0 min,  0.014 sec
 * total energy  :   -46.4665546 Eh     change       -0.5400069E-04 Eh
   gradient norm :     0.0025509 Eh/α   predicted    -0.3676757E-04 ( -31.91%)
   displ. norm   :     0.0951893 α      lambda       -0.4271961E-04
   maximum displ.:     0.0592218 α      in ANC's #2, #3, #1, ...

........................................................................
.............................. CYCLE   10 ..............................
........................................................................

 iter      E             dE          RMSdq      gap      omega  full diag
   1    -47.1211872 -0.471212E+02  0.304E-02    4.30       0.0  T
   2    -47.1211875 -0.358614E-06  0.181E-02    4.30       1.1  T
   3    -47.1211870  0.591246E-06  0.532E-03    4.30       3.7  T
   4    -47.1211877 -0.746941E-06  0.999E-04    4.30      19.6  T
   5    -47.1211877 -0.552288E-08  0.542E-04    4.30      36.2  T
     SCC iter.                  ...        0 min,  0.019 sec
     gradient                   ...        0 min,  0.016 sec
 * total energy  :   -46.4665791 Eh     change       -0.2455894E-04 Eh
   gradient norm :     0.0012559 Eh/α   predicted    -0.2155440E-04 ( -12.23%)
   displ. norm   :     0.1439416 α      lambda        0.2424259E-04
   maximum displ.:     0.0895172 α      in ANC's #2, #3, #1, ...

........................................................................
.............................. CYCLE   11 ..............................
........................................................................

 iter      E             dE          RMSdq      gap      omega  full diag
   1    -47.1209017 -0.471209E+02  0.459E-02    4.29       0.0  T
   2    -47.1209026 -0.841297E-06  0.273E-02    4.29       1.0  T
   3    -47.1209012  0.133142E-05  0.796E-03    4.29       2.5  T
   4    -47.1209029 -0.169488E-05  0.150E-03    4.29      13.0  T
   5    -47.1209029 -0.113886E-07  0.812E-04    4.29      24.2  T
   6    -47.1209029 -0.727086E-08  0.377E-04    4.29      52.0  T
     SCC iter.                  ...        0 min,  0.022 sec
     gradient                   ...        0 min,  0.016 sec
 * total energy  :   -46.4665456 Eh     change        0.3350279E-04 Eh
   gradient norm :     0.0046194 Eh/α   predicted     0.1223021E-04 ( -63.49%)
   displ. norm   :     0.0769445 α      lambda       -0.5300813E-04
   maximum displ.:     0.0576341 α      in ANC's #2, #3, #5, ...

........................................................................
.............................. CYCLE   12 ..............................
........................................................................

 iter      E             dE          RMSdq      gap      omega  full diag
   1    -47.1213123 -0.471213E+02  0.248E-02    4.30       0.0  T
   2    -47.1213127 -0.334866E-06  0.148E-02    4.30       1.3  T
   3    -47.1213122  0.490481E-06  0.481E-03    4.30       4.1  T
   4    -47.1213128 -0.629450E-06  0.874E-04    4.30      22.4  T
   5    -47.1213128 -0.433205E-08  0.433E-04    4.30      45.3  T
     SCC iter.                  ...        0 min,  0.019 sec
     gradient                   ...        0 min,  0.014 sec
 * total energy  :   -46.4665817 Eh     change       -0.3610048E-04 Eh
   gradient norm :     0.0017709 Eh/α   predicted    -0.2666158E-04 ( -26.15%)
   displ. norm   :     0.0717889 α      lambda       -0.1695982E-04
   maximum displ.:     0.0615864 α      in ANC's #2, #5, #3, ...

........................................................................
.............................. CYCLE   13 ..............................
........................................................................

 iter      E             dE          RMSdq      gap      omega  full diag
   1    -47.1212692 -0.471213E+02  0.235E-02    4.30       0.0  T
   2    -47.1212695 -0.313010E-06  0.141E-02    4.30       1.4  T
   3    -47.1212690  0.521245E-06  0.487E-03    4.30       4.0  T
   4    -47.1212696 -0.654296E-06  0.806E-04    4.30      24.3  T
   5    -47.1212696 -0.446873E-08  0.414E-04    4.30      47.4  T
     SCC iter.                  ...        0 min,  0.019 sec
     gradient                   ...        0 min,  0.014 sec
 * total energy  :   -46.4665933 Eh     change       -0.1157108E-04 Eh
   gradient norm :     0.0007590 Eh/α   predicted    -0.8500255E-05 ( -26.54%)
   displ. norm   :     0.0369059 α      lambda       -0.5369458E-05
   maximum displ.:     0.0247601 α      in ANC's #1, #3, #6, ...

........................................................................
.............................. CYCLE   14 ..............................
........................................................................

 iter      E             dE          RMSdq      gap      omega  full diag
   1    -47.1214342 -0.471214E+02  0.102E-02    4.30       0.0  T
   2    -47.1214342 -0.112017E-07  0.605E-03    4.30       3.2  T
   3    -47.1214342  0.377045E-07  0.123E-03    4.30      15.9  T
   4    -47.1214342 -0.449049E-07  0.212E-04    4.30      92.3  T
   5    -47.1214342 -0.230102E-09  0.118E-04    4.30     165.8  T
     SCC iter.                  ...        0 min,  0.019 sec
     gradient                   ...        0 min,  0.013 sec
 * total energy  :   -46.4666008 Eh     change       -0.7455409E-05 Eh
   gradient norm :     0.0009911 Eh/α   predicted    -0.2687349E-05 ( -63.95%)
   displ. norm   :     0.1735925 α      lambda       -0.2341720E-04
   maximum displ.:     0.1115487 α      in ANC's #1, #3, #6, ...

........................................................................
.............................. CYCLE   15 ..............................
........................................................................

 iter      E             dE          RMSdq      gap      omega  full diag
   1    -47.1213254 -0.471213E+02  0.481E-02    4.28       0.0  T
   2    -47.1213255 -0.155005E-06  0.284E-02    4.28       1.0  T
   3    -47.1213255  0.461751E-07  0.249E-03    4.28       7.9  T
   4    -47.1213256 -0.123590E-06  0.913E-04    4.28      21.5  T
   5    -47.1213256 -0.205123E-08  0.430E-04    4.28      45.6  T
     SCC iter.                  ...        0 min,  0.019 sec
     gradient                   ...        0 min,  0.014 sec
 * total energy  :   -46.4666320 Eh     change       -0.3123236E-04 Eh
   gradient norm :     0.0011916 Eh/α   predicted    -0.1186982E-04 ( -62.00%)
   displ. norm   :     0.6160602 α      lambda       -0.7167444E-04
   maximum displ.:     0.4100014 α      in ANC's #1, #3, #6, ...

........................................................................
.............................. CYCLE   16 ..............................
........................................................................

 iter      E             dE          RMSdq      gap      omega  full diag
   1    -47.1179383 -0.471179E+02  0.172E-01    4.22       0.0  T
   2    -47.1179409 -0.259976E-05  0.101E-01    4.22       1.0  T
   3    -47.1179395  0.137444E-05  0.968E-03    4.22       2.0  T
   4    -47.1179419 -0.238751E-05  0.328E-03    4.22       6.0  T
   5    -47.1179419 -0.766559E-07  0.178E-03    4.22      11.0  T
   6    -47.1179420 -0.490105E-08  0.744E-04    4.22      26.4  T
   7    -47.1179420 -0.111851E-07  0.161E-04    4.22     121.8  T
     SCC iter.                  ...        0 min,  0.026 sec
     gradient                   ...        0 min,  0.013 sec
 * total energy  :   -46.4666813 Eh     change       -0.4926399E-04 Eh
   gradient norm :     0.0056492 Eh/α   predicted    -0.4188673E-04 ( -14.97%)
   displ. norm   :     0.0378138 α      lambda       -0.5629448E-04
   maximum displ.:     0.0231410 α      in ANC's #1, #2, #3, ...

........................................................................
.............................. CYCLE   17 ..............................
........................................................................

 iter      E             dE          RMSdq      gap      omega  full diag
   1    -47.1197096 -0.471197E+02  0.173E-02    4.22       0.0  T
   2    -47.1197099 -0.369126E-06  0.983E-03    4.22       2.0  T
   3    -47.1197098  0.851844E-07  0.364E-03    4.22       5.4  T
   4    -47.1197100 -0.134681E-06  0.889E-04    4.22      22.1  T
   5    -47.1197100 -0.934742E-08  0.336E-04    4.22      58.3  T
     SCC iter.                  ...        0 min,  0.019 sec
     gradient                   ...        0 min,  0.014 sec
 * total energy  :   -46.4667225 Eh     change       -0.4121381E-04 Eh
   gradient norm :     0.0029342 Eh/α   predicted    -0.2818856E-04 ( -31.60%)
   displ. norm   :     0.2533008 α      lambda       -0.6800571E-04
   maximum displ.:     0.1851180 α      in ANC's #1, #3, #6, ...

........................................................................
.............................. CYCLE   18 ..............................
........................................................................

 iter      E             dE          RMSdq      gap      omega  full diag
   1    -47.1211150 -0.471211E+02  0.762E-02    4.19       0.0  T
   2    -47.1211156 -0.598757E-06  0.448E-02    4.20       1.0  T
   3    -47.1211147  0.957277E-06  0.723E-03    4.20       2.7  T
   4    -47.1211159 -0.124405E-05  0.120E-03    4.20      16.4  T
   5    -47.1211159 -0.344616E-08  0.629E-04    4.20      31.2  T
   6    -47.1211159 -0.170004E-09  0.221E-04    4.20      88.9  T
     SCC iter.                  ...        0 min,  0.022 sec
     gradient                   ...        0 min,  0.016 sec
 * total energy  :   -46.4667774 Eh     change       -0.5495726E-04 Eh
   gradient norm :     0.0019211 Eh/α   predicted    -0.3618898E-04 ( -34.15%)
   displ. norm   :     0.8246448 α      lambda       -0.1090978E-03
   maximum displ.:     0.6163977 α      in ANC's #1, #3, #6, ...

........................................................................
.............................. CYCLE   19 ..............................
........................................................................

 iter      E             dE          RMSdq      gap      omega  full diag
   1    -47.1175568 -0.471176E+02  0.245E-01    4.09       0.0  T
   2    -47.1175617 -0.492768E-05  0.144E-01    4.09       1.0  T
   3    -47.1175547  0.708077E-05  0.177E-02    4.09       1.1  T
   4    -47.1175642 -0.952995E-05  0.373E-03    4.09       5.3  T
   5    -47.1175642 -0.318457E-07  0.207E-03    4.09       9.5  T
   6    -47.1175642 -0.108203E-07  0.839E-04    4.09      23.4  T
   7    -47.1175643 -0.130514E-07  0.216E-04    4.09      90.9  T
     SCC iter.                  ...        0 min,  0.025 sec
     gradient                   ...        0 min,  0.016 sec
 * total energy  :   -46.4668715 Eh     change       -0.9403932E-04 Eh
   gradient norm :     0.0047321 Eh/α   predicted    -0.7103420E-04 ( -24.46%)
   displ. norm   :     0.1172806 α      lambda       -0.1077077E-03
   maximum displ.:     0.0853659 α      in ANC's #1, #4, #2, ...

........................................................................
.............................. CYCLE   20 ..............................
........................................................................

 iter      E             dE          RMSdq      gap      omega  full diag
   1    -47.1213262 -0.471213E+02  0.464E-02    4.09       0.0  T
   2    -47.1213277 -0.149020E-05  0.277E-02    4.09       1.0  T
   3    -47.1213251  0.262127E-05  0.127E-02    4.09       1.5  T
   4    -47.1213286 -0.353092E-05  0.982E-04    4.09      20.0  T
   5    -47.1213287 -0.801070E-08  0.524E-04    4.09      37.4  T
   6    -47.1213287 -0.187890E-08  0.313E-04    4.09      62.7  T
     SCC iter.                  ...        0 min,  0.022 sec
     gradient                   ...        0 min,  0.014 sec
 * total energy  :   -46.4669380 Eh     change       -0.6650197E-04 Eh
   gradient norm :     0.0032094 Eh/α   predicted    -0.5459822E-04 ( -17.90%)
   displ. norm   :     0.2965393 α      lambda       -0.6495511E-04
   maximum displ.:     0.2564572 α      in ANC's #1, #3, #6, ...
 * RMSD in coord.:     0.5851534 α      energy gain  -0.1935335E-01 Eh

generating ANC from model Hessian ...
Using Lindh-Hessian (1995)
 Shifting diagonal of input Hessian by   8.699162577501609E-003
 Lowest  eigenvalues of input Hessian
    0.000000    0.000000    0.000000    0.000000    0.000000    0.000000
    0.010000    0.010556    0.010887    0.013979    0.015744    0.017812
    0.021272    0.022274    0.025060    0.030039    0.031345    0.033439
 Highest eigenvalues
    1.892057    1.913026    2.030531    2.073495    2.116327    2.136075
 

........................................................................
.............................. CYCLE   21 ..............................
........................................................................

 iter      E             dE          RMSdq      gap      omega  full diag
   1    -47.1211138 -0.471211E+02  0.911E-02    4.06       0.0  T
   2    -47.1211153 -0.149034E-05  0.536E-02    4.06       1.0  T
   3    -47.1211111  0.413961E-05  0.131E-02    4.06       1.5  T
   4    -47.1211161 -0.494354E-05  0.135E-03    4.06      14.5  T
   5    -47.1211161 -0.976596E-08  0.760E-04    4.06      25.8  T
   6    -47.1211161 -0.362949E-08  0.380E-04    4.06      51.6  T
     SCC iter.                  ...        0 min,  0.022 sec
     gradient                   ...        0 min,  0.015 sec
 * total energy  :   -46.4669896 Eh     change       -0.5161575E-04 Eh
   gradient norm :     0.0027554 Eh/α   predicted     0.0000000E+00 (-100.00%)
   displ. norm   :     0.0431719 α      lambda       -0.3418085E-04
   maximum displ.:     0.0273614 α      in ANC's #1, #3, #2, ...

........................................................................
.............................. CYCLE   22 ..............................
........................................................................

 iter      E             dE          RMSdq      gap      omega  full diag
   1    -47.1212594 -0.471213E+02  0.155E-02    4.06       0.0  T
   2    -47.1212595 -0.747262E-07  0.928E-03    4.06       2.1  T
   3    -47.1212592  0.234055E-06  0.333E-03    4.06       5.9  T
   4    -47.1212595 -0.283613E-06  0.460E-04    4.06      42.6  T
   5    -47.1212595 -0.198550E-08  0.252E-04    4.06      77.7  T
     SCC iter.                  ...        0 min,  0.019 sec
     gradient                   ...        0 min,  0.016 sec
 * total energy  :   -46.4670193 Eh     change       -0.2966664E-04 Eh
   gradient norm :     0.0012913 Eh/α   predicted    -0.1769411E-04 ( -40.36%)
   displ. norm   :     0.1620538 α      lambda       -0.5691297E-04
   maximum displ.:     0.0996821 α      in ANC's #1, #3, #2, ...

........................................................................
.............................. CYCLE   23 ..............................
........................................................................

 iter      E             dE          RMSdq      gap      omega  full diag
   1    -47.1211537 -0.471212E+02  0.535E-02    4.06       0.0  T
   2    -47.1211542 -0.490673E-06  0.317E-02    4.06       1.0  T
   3    -47.1211530  0.116696E-05  0.735E-03    4.06       2.7  T
   4    -47.1211545 -0.144105E-05  0.136E-03    4.06      14.4  T
   5    -47.1211545 -0.103567E-07  0.778E-04    4.06      25.2  T
   6    -47.1211545 -0.463501E-08  0.272E-04    4.06      72.0  T
     SCC iter.                  ...        0 min,  0.022 sec
     gradient                   ...        0 min,  0.014 sec
 * total energy  :   -46.4670641 Eh     change       -0.4487657E-04 Eh
   gradient norm :     0.0028254 Eh/α   predicted    -0.2878926E-04 ( -35.85%)
   displ. norm   :     0.0383506 α      lambda       -0.1459651E-04
   maximum displ.:     0.0258571 α      in ANC's #1, #2, #3, ...

........................................................................
.............................. CYCLE   24 ..............................
........................................................................

 iter      E             dE          RMSdq      gap      omega  full diag
   1    -47.1212400 -0.471212E+02  0.116E-02    4.06       0.0  T
   2    -47.1212400 -0.264702E-07  0.688E-03    4.06       2.9  T
   3    -47.1212400  0.874543E-07  0.184E-03    4.06      10.7  T
   4    -47.1212401 -0.104823E-06  0.231E-04    4.06      84.9  T
   5    -47.1212401 -0.108081E-09  0.131E-04    4.06     149.4  T
     SCC iter.                  ...        0 min,  0.018 sec
     gradient                   ...        0 min,  0.014 sec
 * total energy  :   -46.4670772 Eh     change       -0.1304075E-04 Eh
   gradient norm :     0.0019718 Eh/α   predicted    -0.7312998E-05 ( -43.92%)
   displ. norm   :     0.1365408 α      lambda       -0.3036956E-04
   maximum displ.:     0.0903690 α      in ANC's #1, #2, #3, ...

........................................................................
.............................. CYCLE   25 ..............................
........................................................................

 iter      E             dE          RMSdq      gap      omega  full diag
   1    -47.1214002 -0.471214E+02  0.404E-02    4.05       0.0  T
   2    -47.1214007 -0.457227E-06  0.241E-02    4.05       1.0  T
   3    -47.1213992  0.148175E-05  0.762E-03    4.05       2.6  T
   4    -47.1214010 -0.178046E-05  0.883E-04    4.05      22.2  T
   5    -47.1214010 -0.297479E-08  0.516E-04    4.05      38.0  T
   6    -47.1214010 -0.149319E-08  0.241E-04    4.05      81.4  T
     SCC iter.                  ...        0 min,  0.022 sec
     gradient                   ...        0 min,  0.014 sec
 * total energy  :   -46.4671029 Eh     change       -0.2576210E-04 Eh
   gradient norm :     0.0015669 Eh/α   predicted    -0.1531181E-04 ( -40.56%)
   displ. norm   :     0.0581264 α      lambda       -0.6006775E-05
   maximum displ.:     0.0420636 α      in ANC's #1, #2, #3, ...

........................................................................
.............................. CYCLE   26 ..............................
........................................................................

 iter      E             dE          RMSdq      gap      omega  full diag
   1    -47.1213371 -0.471213E+02  0.168E-02    4.05       0.0  T
   2    -47.1213372 -0.393043E-07  0.995E-03    4.05       2.0  T
   3    -47.1213370  0.127059E-06  0.214E-03    4.05       9.1  T
   4    -47.1213372 -0.151771E-06  0.292E-04    4.05      67.1  T
   5    -47.1213372 -0.163588E-09  0.158E-04    4.05     124.4  T
     SCC iter.                  ...        0 min,  0.018 sec
     gradient                   ...        0 min,  0.014 sec
 * total energy  :   -46.4671102 Eh     change       -0.7215557E-05 Eh
   gradient norm :     0.0009634 Eh/α   predicted    -0.3008587E-05 ( -58.30%)
   displ. norm   :     0.0451254 α      lambda       -0.4691159E-05
   maximum displ.:     0.0355166 α      in ANC's #1, #2, #4, ...

........................................................................
.............................. CYCLE   27 ..............................
........................................................................

 iter      E             dE          RMSdq      gap      omega  full diag
   1    -47.1214031 -0.471214E+02  0.146E-02    4.04       0.0  T
   2    -47.1214031 -0.497540E-07  0.864E-03    4.05       2.3  T
   3    -47.1214030  0.126833E-06  0.252E-03    4.05       7.8  T
   4    -47.1214032 -0.152037E-06  0.303E-04    4.05      64.7  T
   5    -47.1214032 -0.709541E-09  0.159E-04    4.05     123.6  T
     SCC iter.                  ...        0 min,  0.018 sec
     gradient                   ...        0 min,  0.014 sec
 * total energy  :   -46.4671155 Eh     change       -0.5340982E-05 Eh
   gradient norm :     0.0002234 Eh/α   predicted    -0.2348107E-05 ( -56.04%)
   displ. norm   :     0.0381657 α      lambda       -0.2872257E-05
   maximum displ.:     0.0307805 α      in ANC's #1, #2, #4, ...

........................................................................
.............................. CYCLE   28 ..............................
........................................................................

 iter      E             dE          RMSdq      gap      omega  full diag
   1    -47.1213447 -0.471213E+02  0.128E-02    4.04       0.0  T
   2    -47.1213447 -0.355867E-07  0.752E-03    4.04       2.6  T
   3    -47.1213446  0.809662E-07  0.200E-03    4.04       9.8  T
   4    -47.1213447 -0.981021E-07  0.243E-04    4.04      80.7  T
   5    -47.1213447 -0.344414E-09  0.130E-04    4.04     150.8  T
     SCC iter.                  ...        0 min,  0.018 sec
     gradient                   ...        0 min,  0.014 sec
 * total energy  :   -46.4671190 Eh     change       -0.3546939E-05 Eh
   gradient norm :     0.0004322 Eh/α   predicted    -0.1441325E-05 ( -59.36%)
   displ. norm   :     0.0353438 α      lambda       -0.2423523E-05
   maximum displ.:     0.0274682 α      in ANC's #1, #3, #2, ...

   *** GEOMETRY OPTIMIZATION CONVERGED AFTER 28 ITERATIONS ***

------------------------------------------------------------------------
 total energy gain   :        -0.0195344 Eh      -12.2580 kcal/mol
 total RMSD          :         0.6337012 a0        0.3353 Å
 total power (kW/mol):        -1.8316997 (step)  -41.1693 (real)
------------------------------------------------------------------------

 ANCopt (total)                0 d,  0 h,  0 min,  1.246 sec
 optimizer setup                ...        0 min,  0.000 sec (  0.016%)
 model hessian                  ...        0 min,  0.028 sec (  2.268%)
 ANC generation                 ...        0 min,  0.004 sec (  0.361%)
 coordinate transformation      ...        0 min,  0.000 sec (  0.028%)
 single point calculation       ...        0 min,  1.195 sec ( 95.948%)
 optimization log               ...        0 min,  0.005 sec (  0.376%)
 hessian update                 ...        0 min,  0.008 sec (  0.668%)
 rational function              ...        0 min,  0.003 sec (  0.214%)

================
 final structure:
================
26
 xtb: 6.6.1 (8d0f1dd)
C           -1.19352702808380        1.92171162477166        0.80094410184313
C           -1.62313141922524        0.59759572539043        0.24887231378585
C           -2.96758698404646        0.31416606047368        0.04775139950435
C           -3.37732279506095       -0.90312343111272       -0.46572039399192
C           -2.44297406795159       -1.86861309911567       -0.79445364599157
C           -1.10665360803051       -1.58441008279591       -0.59495315867107
F           -0.19039837551117       -2.52925706186262       -0.90346414329414
C           -0.67197246188005       -0.37211736763373       -0.07383905721011
C            0.77821650191969       -0.14562420011990        0.11148274093369
C            1.61957820769077       -0.02498008899021       -1.00106319466222
O            1.04639581327557       -0.05496967095442       -2.22916640321953
C            2.98768904381256        0.14369436538075       -0.82541680201172
C            3.53151748303424        0.19152370232391        0.44527549783830
C            2.71963298143606        0.07675697539104        1.55845369374083
C            1.36057909413900       -0.09078810092067        1.36893311518425
F            0.56840561587093       -0.21391984919813        2.45592940172396
H           -2.00401669769471        2.64338868224437        0.74156186189753
H           -0.33404349086215        2.30656605779493        0.25463372488131
H           -0.90621363572146        1.81564471501062        1.84661262727739
H           -3.70500700189807        1.06310434944609        0.29683631941234
H           -4.42804998352615       -1.10170977496908       -0.61279314301534
H           -2.73028142423673       -2.82661280515463       -1.19728913938453
H            1.72699481776710       -0.01587873931329       -2.91188789252229
H            3.62682124285912        0.23351046258972       -1.69318557884628
H            4.59581737883400        0.31792685762525        0.56725360285743
H            3.11953179308991        0.10641469369857        2.55869115194028
 
 Bond Distances (Angstroems)
 ---------------------------
C1-C2=1.4975         C1-H17=1.0868        C1-H18=1.0887        C1-H19=1.0896        C2-C1=1.4975         C2-C3=1.3886         
C2-C8=1.3961         C3-C2=1.3886         C3-C4=1.3832         C3-H20=1.0802        C4-C3=1.3832         C4-C5=1.3832         
C4-H21=1.0794        C5-C4=1.3832         C5-C6=1.3807         C5-H22=1.0782        C6-C5=1.3807         C6-F7=1.3518         
C6-C8=1.3893         F7-C6=1.3518         C8-C2=1.3961         C8-C6=1.3893         C8-C9=1.4794         C9-C8=1.4794         
C9-C10=1.4001        C9-C15=1.3868        C10-C9=1.4001        C10-O11=1.3556       C10-C12=1.3896       O11-C10=1.3556       
O11-H23=0.9648       C12-C10=1.3896       C12-C13=1.3830       C12-H24=1.0815       C13-C12=1.3830       C13-C14=1.3826       
C13-H25=1.0787       C14-C13=1.3826       C14-C15=1.3824       C14-H26=1.0776       C15-C9=1.3868        C15-C14=1.3824       
C15-F16=1.3507       F16-C15=1.3507       H17-C1=1.0868        H18-C1=1.0887        H19-C1=1.0896        H20-C3=1.0802        
H21-C4=1.0794        H22-C5=1.0782        H23-O11=0.9648       H24-C12=1.0815       H25-C13=1.0787       H26-C14=1.0776       
 C  H  Rav=1.0823 sigma=0.0045  Rmin=1.0776  Rmax=1.0896     9
 C  C  Rav=1.4016 sigma=0.0360  Rmin=1.3807  Rmax=1.4975    14
 O  H  Rav=0.9648 sigma=0.0000  Rmin=0.9648  Rmax=0.9648     1
 O  C  Rav=1.3556 sigma=0.0000  Rmin=1.3556  Rmax=1.3556     1
 F  C  Rav=1.3512 sigma=0.0006  Rmin=1.3507  Rmax=1.3518     2
 
 selected bond angles (degree)
 --------------------
H17-C1-C2=110.67               H18-C1-C2=110.73               H18-C1-H17=109.06              H19-C1-C2=110.08               
H19-C1-H17=108.28              H19-C1-H18=107.93              C3-C2-C1=120.77                C8-C2-C1=120.26                
C8-C2-C3=118.97                C4-C3-C2=121.34                H20-C3-C2=119.08               H20-C3-C4=119.57               
C5-C4-C3=120.16                H21-C4-C3=120.06               H21-C4-C5=119.79               C6-C5-C4=118.41                
H22-C5-C4=121.94               H22-C5-C6=119.65               F7-C6-C5=118.63                C8-C6-C5=122.45                
C8-C6-F7=118.91                C6-C8-C2=118.66                C9-C8-C2=122.18                C9-C8-C6=119.16                
C10-C9-C8=120.18               C15-C9-C8=122.09               C15-C9-C10=117.69              O11-C10-C9=117.64              
C12-C10-C9=120.11              C12-C10-O11=122.24             
 
 selected dihedral angles (degree)
 ---------------------------------
C3-C2-C1-H17=344.59           C3-C2-C1-H18=223.52           C3-C2-C1-H19=104.26           C8-C2-C1-H17=164.49           
C8-C2-C1-H18= 43.42           C8-C2-C1-H19=284.16           C4-C3-C2-C1=179.78            C4-C3-C2-C8=359.87            
H20-C3-C2-C1=359.90           H20-C3-C2-C8=180.00           C5-C4-C3-C2=359.84            C5-C4-C3-H20=179.71           
H21-C4-C3-C2=179.95           H21-C4-C3-H20=359.82          C6-C5-C4-C3=  0.10            C6-C5-C4-H21=179.99           
H22-C5-C4-C3=180.05           H22-C5-C4-H21=359.94          F7-C6-C5-C4=179.42            F7-C6-C5-H22=359.46           
C8-C6-C5-C4=  0.26            C8-C6-C5-H22=180.31           C6-C8-C2-C1=180.57            C6-C8-C2-C3=  0.47            
C9-C8-C2-C1=  0.09            C9-C8-C2-C3=179.99            C2-C8-C6-C5=359.45            C2-C8-C6-F7=180.30            
C9-C8-C6-C5=179.91            C9-C8-C6-F7=  0.76            C10-C9-C8-C2=248.72           C10-C9-C8-C6= 68.24           
C15-C9-C8-C2= 70.97           C15-C9-C8-C6=250.49           O11-C10-C9-C8=  3.29          O11-C10-C9-C15=181.14         
C12-C10-C9-C8=182.12          C12-C10-C9-C15=359.97         
           -------------------------------------------------
          |                Final Singlepoint                |
           -------------------------------------------------

          ...................................................
          :                      SETUP                      :
          :.................................................:
          :  # basis functions                  74          :
          :  # atomic orbitals                  74          :
          :  # shells                           42          :
          :  # electrons                        82          :
          :  max. iterations                   250          :
          :  Hamiltonian                  GFN2-xTB          :
          :  restarted?                      false          :
          :  GBSA solvation                  false          :
          :  PC potential                    false          :
          :  electronic temp.          298.1500000     K    :
          :  accuracy                    1.0000000          :
          :  -> integral cutoff          0.2500000E+02      :
          :  -> integral neglect         0.1000000E-07      :
          :  -> SCF convergence          0.1000000E-05 Eh   :
          :  -> wf. convergence          0.1000000E-03 e    :
          :  Broyden damping             0.4000000          :
          ...................................................

 iter      E             dE          RMSdq      gap      omega  full diag
   1    -47.1213447 -0.471213E+02  0.709E-05    4.04       0.0  T
   2    -47.1213447 -0.184386E-10  0.473E-05    4.04     415.0  T
   3    -47.1213447 -0.219416E-10  0.302E-05    4.04     649.1  T

   *** convergence criteria satisfied after 3 iterations ***

         #    Occupation            Energy/Eh            Energy/eV
      -------------------------------------------------------------
         1        2.0000           -0.8146121             -22.1667
       ...           ...                  ...                  ...
        35        2.0000           -0.4505384             -12.2598
        36        2.0000           -0.4431832             -12.0596
        37        2.0000           -0.4254058             -11.5759
        38        2.0000           -0.4124552             -11.2235
        39        2.0000           -0.4018438             -10.9347
        40        2.0000           -0.3983078             -10.8385
        41        2.0000           -0.3934956             -10.7076 (HOMO)
        42                         -0.2450062              -6.6670 (LUMO)
        43                         -0.2292754              -6.2389
        44                         -0.2247820              -6.1166
        45                         -0.2216866              -6.0324
        46                         -0.1088420              -2.9617
       ...                                ...                  ...
        74                          0.6741313              18.3440
      -------------------------------------------------------------
                  HL-Gap            0.1484894 Eh            4.0406 eV
             Fermi-level           -0.3192509 Eh           -8.6873 eV

 SCC (total)                   0 d,  0 h,  0 min,  0.032 sec
 SCC setup                      ...        0 min,  0.000 sec (  0.523%)
 Dispersion                     ...        0 min,  0.000 sec (  0.659%)
 classical contributions        ...        0 min,  0.000 sec (  0.185%)
 integral evaluation            ...        0 min,  0.005 sec ( 15.559%)
 iterations                     ...        0 min,  0.012 sec ( 37.035%)
 molecular gradient             ...        0 min,  0.014 sec ( 44.990%)
 printout                       ...        0 min,  0.000 sec (  0.977%)

         :::::::::::::::::::::::::::::::::::::::::::::::::::::
         ::                     SUMMARY                     ::
         :::::::::::::::::::::::::::::::::::::::::::::::::::::
         :: total energy             -46.467119040119 Eh    ::
         :: gradient norm              0.000431899758 Eh/a0 ::
         :: HOMO-LUMO gap              4.040602975180 eV    ::
         ::.................................................::
         :: SCC energy               -47.121344712574 Eh    ::
         :: -> isotropic ES            0.045303653900 Eh    ::
         :: -> anisotropic ES          0.002430196211 Eh    ::
         :: -> anisotropic XC          0.007536824549 Eh    ::
         :: -> dispersion             -0.027406799836 Eh    ::
         :: repulsion energy           0.653989769315 Eh    ::
         :: add. restraining           0.000000000000 Eh    ::
         :: total charge              -0.000000000000 e     ::
         :::::::::::::::::::::::::::::::::::::::::::::::::::::

           -------------------------------------------------
          |                Property Printout                |
           -------------------------------------------------

    * Orbital Energies and Occupations

         #    Occupation            Energy/Eh            Energy/eV
      -------------------------------------------------------------
         1        2.0000           -0.8146121             -22.1667
       ...           ...                  ...                  ...
        29        2.0000           -0.4792168             -13.0402
        30        2.0000           -0.4741552             -12.9024
        31        2.0000           -0.4663578             -12.6902
        32        2.0000           -0.4639230             -12.6240
        33        2.0000           -0.4584039             -12.4738
        34        2.0000           -0.4566637             -12.4265
        35        2.0000           -0.4505384             -12.2598
        36        2.0000           -0.4431832             -12.0596
        37        2.0000           -0.4254058             -11.5759
        38        2.0000           -0.4124552             -11.2235
        39        2.0000           -0.4018438             -10.9347
        40        2.0000           -0.3983078             -10.8385
        41        2.0000           -0.3934956             -10.7076 (HOMO)
        42                         -0.2450062              -6.6670 (LUMO)
        43                         -0.2292754              -6.2389
        44                         -0.2247820              -6.1166
        45                         -0.2216866              -6.0324
        46                         -0.1088420              -2.9617
        47                         -0.0946752              -2.5762
        48                          0.0343309               0.9342
        49                          0.0543090               1.4778
        50                          0.0766940               2.0869
        51                          0.0989287               2.6920
        52                          0.1225656               3.3352
       ...                                ...                  ...
        74                          0.6741313              18.3440
      -------------------------------------------------------------
                  HL-Gap            0.1484894 Eh            4.0406 eV
             Fermi-level           -0.3192509 Eh           -8.6873 eV

     #   Z          covCN         q      C6AA      α(0)
     1   6 C        3.758    -0.109    22.635     6.783
     2   6 C        2.971     0.022    27.510     8.603
     3   6 C        2.924    -0.045    29.122     8.850
     4   6 C        2.923    -0.032    28.786     8.799
     5   6 C        2.917    -0.054    29.337     8.882
     6   6 C        2.791     0.169    24.354     8.084
     7   9 F        0.787    -0.229    11.537     4.012
     8   6 C        2.979     0.004    27.937     8.670
     9   6 C        2.974    -0.013    28.339     8.732
    10   6 C        2.853     0.149    24.767     8.157
    11   8 O        1.660    -0.377    20.410     6.099
    12   6 C        2.916    -0.077    29.923     8.970
    13   6 C        2.924    -0.031    28.773     8.797
    14   6 C        2.916    -0.062    29.547     8.914
    15   6 C        2.791     0.165    24.429     8.096
    16   9 F        0.787    -0.224    11.489     4.004
    17   1 H        0.925     0.045     2.378     2.412
    18   1 H        0.925     0.046     2.370     2.407
    19   1 H        0.925     0.063     2.168     2.302
    20   1 H        0.926     0.042     2.425     2.435
    21   1 H        0.926     0.043     2.412     2.429
    22   1 H        0.926     0.055     2.256     2.349
    23   1 H        0.805     0.305     0.705     1.319
    24   1 H        0.925     0.038     2.474     2.460
    25   1 H        0.926     0.048     2.345     2.395
    26   1 H        0.926     0.059     2.205     2.322

 Mol. C6AA /au·bohr⁶  :       8741.125576
 Mol. C8AA /au·bohr⁸  :     214347.199269
 Mol. α(0) /au        :        147.279950


Wiberg/Mayer (AO) data.
largest (>0.10) Wiberg bond orders for each atom

 ---------------------------------------------------------------------------
     #   Z sym  total        # sym  WBO       # sym  WBO       # sym  WBO
 ---------------------------------------------------------------------------
     1   6 C    3.996 --     2 C    1.029    17 H    0.984    18 H    0.976
                            19 H    0.964
     2   6 C    3.987 --     3 C    1.413     8 C    1.372     1 C    1.029
                             5 C    0.105
     3   6 C    3.990 --     4 C    1.443     2 C    1.413    20 H    0.968
     4   6 C    3.990 --     3 C    1.443     5 C    1.434    21 H    0.970
                             8 C    0.106
     5   6 C    3.988 --     4 C    1.434     6 C    1.401    22 H    0.967
                             2 C    0.105
     6   6 C    3.885 --     5 C    1.401     8 C    1.365     7 F    0.956
     7   9 F    1.085 --     6 C    0.956
     8   6 C    3.988 --     2 C    1.372     6 C    1.365     9 C    1.015
                             4 C    0.106
     9   6 C    3.986 --    15 C    1.377    10 C    1.323     8 C    1.015
                            13 C    0.103
    10   6 C    3.942 --    12 C    1.374     9 C    1.323    11 O    1.087
    11   8 O    2.140 --    10 C    1.087    23 H    0.885
    12   6 C    3.985 --    13 C    1.443    10 C    1.374    24 H    0.965
    13   6 C    3.989 --    12 C    1.443    14 C    1.435    25 H    0.970
                             9 C    0.103
    14   6 C    3.987 --    13 C    1.435    15 C    1.392    26 H    0.967
    15   6 C    3.886 --    14 C    1.392     9 C    1.377    16 F    0.959
    16   9 F    1.090 --    15 C    0.959
    17   1 H    0.998 --     1 C    0.984
    18   1 H    0.998 --     1 C    0.976
    19   1 H    0.996 --     1 C    0.964
    20   1 H    0.997 --     3 C    0.968
    21   1 H    0.998 --     4 C    0.970
    22   1 H    0.996 --     5 C    0.967
    23   1 H    0.906 --    11 O    0.885
    24   1 H    0.998 --    12 C    0.965
    25   1 H    0.997 --    13 C    0.970
    26   1 H    0.996 --    14 C    0.967
 ---------------------------------------------------------------------------

Topologies differ in total number of bonds
Writing topology from bond orders to xtbtopo.mol

molecular dipole:
                 x           y           z       tot (Debye)
 q only:        0.299       0.880      -0.558
   full:        0.530       0.890      -0.692       3.166
molecular quadrupole (traceless):
                xx          xy          yy          xz          yz          zz
 q only:       10.070       1.485      -6.582      -3.033       0.061      -3.488
  q+dip:       13.881       2.780      -9.067      -3.681       1.089      -4.814
   full:       11.488       2.205      -7.715      -4.211       0.012      -3.773

           -------------------------------------------------
          |                Geometry Summary                 |
           -------------------------------------------------

      molecular mass/u    :      220.2151854
   center of mass at/Å    :        0.0828324      -0.3149931       0.0163583
  moments of inertia/u·Å² :        0.5677363E+03   0.1118498E+04   0.1312135E+04
rotational constants/cm⁻¹ :        0.2969272E-01   0.1507167E-01   0.1284749E-01

 * 23 selected distances

     #   Z          #   Z                                           value/Å
     2   6 C        3   6 C                                       1.3886479
     3   6 C        4   6 C                                       1.3832320
     4   6 C        5   6 C                                       1.3832005
     5   6 C        6   6 C                                       1.3806971
     2   6 C        8   6 C                                       1.3961339
     6   6 C        8   6 C                                       1.3893026
     9   6 C       10   6 C                                       1.4000726 (max)
    10   6 C       11   8 O                                       1.3556088
    10   6 C       12   6 C                                       1.3896152
    12   6 C       13   6 C                                       1.3830026
    13   6 C       14   6 C                                       1.3825679
     9   6 C       15   6 C                                       1.3868435
    14   6 C       15   6 C                                       1.3823955
     1   6 C       17   1 H                                       1.0868476
     1   6 C       18   1 H                                       1.0887057
     1   6 C       19   1 H                                       1.0895972
     3   6 C       20   1 H                                       1.0801576
     4   6 C       21   1 H                                       1.0793956
     5   6 C       22   1 H                                       1.0782326
    11   8 O       23   1 H                                       0.9648067 (min)
    12   6 C       24   1 H                                       1.0814711
    13   6 C       25   1 H                                       1.0786987
    14   6 C       26   1 H                                       1.0776242

 * 4 distinct bonds (by element types)

   Z      Z             #   av. dist./Å        max./Å        min./Å
   1 H    6 C           9     1.0823034     1.0895972     1.0776242
   6 C    6 C          12     1.3871426     1.4000726     1.3806971
   1 H    8 O           1     0.9648067     0.9648067     0.9648067
   6 C    8 O           1     1.3556088     1.3556088     1.3556088


optimized geometry written to: xtbopt.xyz


           -------------------------------------------------
          | TOTAL ENERGY              -46.467119040119 Eh   |
          | GRADIENT NORM               0.000431899758 Eh/α |
          | HOMO-LUMO GAP               4.040602975180 eV   |
           -------------------------------------------------

------------------------------------------------------------------------
 * finished run on 2025/08/28 at 10:02:23.013     
------------------------------------------------------------------------
 total:
 * wall-time:     0 d,  0 h,  0 min,  1.434 sec
 *  cpu-time:     0 d,  0 h,  0 min,  2.793 sec
 * ratio c/w:     1.948 speedup
 SCF:
 * wall-time:     0 d,  0 h,  0 min,  0.116 sec
 *  cpu-time:     0 d,  0 h,  0 min,  0.203 sec
 * ratio c/w:     1.747 speedup
 ANC optimizer:
 * wall-time:     0 d,  0 h,  0 min,  1.282 sec
 *  cpu-time:     0 d,  0 h,  0 min,  2.554 sec
 * ratio c/w:     1.992 speedup

