26
 energy: -46.467119040119 gnorm: 0.000431899758 xtb: 6.6.1 (8d0f1dd)
C           -1.19352702808380        1.92171162477166        0.80094410184313
C           -1.62313141922524        0.59759572539043        0.24887231378585
C           -2.96758698404646        0.31416606047368        0.04775139950435
C           -3.37732279506095       -0.90312343111272       -0.46572039399192
C           -2.44297406795159       -1.86861309911567       -0.79445364599157
C           -1.10665360803051       -1.58441008279591       -0.59495315867107
F           -0.19039837551117       -2.52925706186262       -0.90346414329414
C           -0.67197246188005       -0.37211736763373       -0.07383905721011
C            0.77821650191969       -0.14562420011990        0.11148274093369
C            1.61957820769077       -0.02498008899021       -1.00106319466222
O            1.04639581327557       -0.05496967095442       -2.22916640321953
C            2.98768904381256        0.14369436538075       -0.82541680201172
C            3.53151748303424        0.19152370232391        0.44527549783830
C            2.71963298143606        0.07675697539104        1.55845369374083
C            1.36057909413900       -0.09078810092067        1.36893311518425
F            0.56840561587093       -0.21391984919813        2.45592940172396
H           -2.00401669769471        2.64338868224437        0.74156186189753
H           -0.33404349086215        2.30656605779493        0.25463372488131
H           -0.90621363572146        1.81564471501062        1.84661262727739
H           -3.70500700189807        1.06310434944609        0.29683631941234
H           -4.42804998352615       -1.10170977496908       -0.61279314301534
H           -2.73028142423673       -2.82661280515463       -1.19728913938453
H            1.72699481776710       -0.01587873931329       -2.91188789252229
H            3.62682124285912        0.23351046258972       -1.69318557884628
H            4.59581737883400        0.31792685762525        0.56725360285743
H            3.11953179308991        0.10641469369857        2.55869115194028
